     Program PWSCF v.6.7GPU starts on 15Sep2021 at 19:54:15

     R & G space division:  proc/nbgrp/npool/nimage =      10
     Reading input from /storage/home/hcoda1/3/ntian30/research/carbon/CxH_vib/H2O_calc/ads_slab/CH3NNHHHH2O_a/out_0012/pw.inp
Warning: card &CELL ignored
Warning: card   CELL_DYNAMICS='IPI', ignored
Warning: card / ignored

     Current dimensions of program PWSCF are:
     Max number of different atomic species (ntypx) = 10
     Max number of k-points (npk) =  40000
     Max angular momentum in pseudopotentials (lmaxx) =  3
     Presently no symmetry can be used with electric field

     Message from routine cell_base_init:
     DEPRECATED: use true lattice parameter, not A to a.u. conversion factor

     IMPORTANT: XC functional enforced from input :
     Exchange-correlation= BEEF-VDW
                           (   1   4  43  14   2   0   0)
     Any further DFT definition will be discarded
     Please, verify this is what you really want

  @ DRIVER MODE: Connecting to
 qe_1139763_2852622.sched-torque.pace.gatech.edu6ldyrbtl_scratch
  using UNIX socket
  @ DRIVER MODE: Message from server: STATUS
  @ DRIVER MODE: Message from server: INIT
  @ DRIVER MODE: Receiving replica           0          -1
  @ DRIVER MODE: Receiving encoded integer          25
  @ DRIVER MODE:  SCF:  T  FORCE:  T  STRESS:  F  VC:  F  ENSEMBLE:  F
  @ DRIVER MODE:  SCF:  T  FORCE:  T  STRESS:  F  VC:  F  ENSEMBLE:  F

     Using Slab Decomposition

     bravais-lattice index     =            0
     lattice parameter (alat)  =       1.8897  a.u.
     unit-cell volume          =    6658.9804 (a.u.)^3
     number of atoms/cell      =           59
     number of atomic types    =            5
     number of electrons       =       406.00
     number of Kohn-Sham states=          213
     kinetic-energy cutoff     =      29.3995  Ry
     charge density cutoff     =     293.9946  Ry
     scf convergence threshold =      7.3E-08
     mixing beta               =       0.0500
     number of iterations used =            8  plain     mixing
     Exchange-correlation= BEEF-VDW
                           (   1   4  43  14   2   0   0)

     celldm(1)=   1.889726  celldm(2)=   0.000000  celldm(3)=   0.000000
     celldm(4)=   0.000000  celldm(5)=   0.000000  celldm(6)=   0.000000

     crystal axes: (cart. coord. in units of alat)
               a(1) = (   6.579727   0.000000   0.000000 )
               a(2) = (  -0.000775   5.961596   0.000000 )
               a(3) = (   0.000000   0.000000  25.155947 )

     reciprocal axes: (cart. coord. in units 2 pi/alat)
               b(1) = (  0.151982  0.000020  0.000000 )
               b(2) = (  0.000000  0.167740  0.000000 )
               b(3) = (  0.000000  0.000000  0.039752 )

     PseudoPot. # 1 for Ti read from file:
     /storage/coda1/p-amedford6/0/shared/rich_project_chbe-medford/medford-share/data/pseudos_module/espresso/nninc/pbe/van/Ti.UPF
     MD5 check sum: 8e4df49b7f0d34bbd5052bf3f5ea0213
     Pseudo is Ultrasoft, Zval = 12.0
     Generated by new atomic code, or converted to UPF format
     Using radial grid of  851 points,  6 beta functions with:
                l(1) =   0
                l(2) =   0
                l(3) =   1
                l(4) =   1
                l(5) =   2
                l(6) =   2
     Q(r) pseudized with  8 coefficients,  rinner =    1.000   1.000   1.000
                                                       1.000   1.000

     PseudoPot. # 2 for O  read from file:
     /storage/coda1/p-amedford6/0/shared/rich_project_chbe-medford/medford-share/data/pseudos_module/espresso/nninc/pbe/van/O.UPF
     MD5 check sum: 78c19812648e8988a0fe644b0f25305e
     Pseudo is Ultrasoft, Zval =  6.0
     Generated by new atomic code, or converted to UPF format
     Using radial grid of  737 points,  4 beta functions with:
                l(1) =   0
                l(2) =   0
                l(3) =   1
                l(4) =   1
     Q(r) pseudized with  8 coefficients,  rinner =    0.800   0.800   0.800

     PseudoPot. # 3 for N  read from file:
     /storage/coda1/p-amedford6/0/shared/rich_project_chbe-medford/medford-share/data/pseudos_module/espresso/nninc/pbe/van/N.UPF
     MD5 check sum: 90d10febe142ad51ac9d5be1deb811c4
     Pseudo is Ultrasoft, Zval =  5.0
     Generated by new atomic code, or converted to UPF format
     Using radial grid of  729 points,  4 beta functions with:
                l(1) =   0
                l(2) =   0
                l(3) =   1
                l(4) =   1
     Q(r) pseudized with  8 coefficients,  rinner =    0.800   0.800   0.800

     PseudoPot. # 4 for C  read from file:
     /storage/coda1/p-amedford6/0/shared/rich_project_chbe-medford/medford-share/data/pseudos_module/espresso/nninc/pbe/van/C.UPF
     MD5 check sum: 1a69bf6b8db32088f5b2163dbdb77a27
     Pseudo is Ultrasoft, Zval =  4.0
     Generated by new atomic code, or converted to UPF format
     Using radial grid of  721 points,  4 beta functions with:
                l(1) =   0
                l(2) =   0
                l(3) =   1
                l(4) =   1
     Q(r) pseudized with  8 coefficients,  rinner =    0.800   0.800   0.800

     PseudoPot. # 5 for H  read from file:
     /storage/coda1/p-amedford6/0/shared/rich_project_chbe-medford/medford-share/data/pseudos_module/espresso/nninc/pbe/van/H.UPF
     MD5 check sum: b5ee9d7bfd3a09ee7748110bda690ff7
     Pseudo is Ultrasoft, Zval =  1.0
     Generated by new atomic code, or converted to UPF format
     Using radial grid of  615 points,  1 beta functions with:
                l(1) =   0
     Q(r) pseudized with  8 coefficients,  rinner =    0.800

     atomic species   valence    mass     pseudopotential
        Ti1           12.00    47.86700     Ti( 1.00)
        O1             6.00    15.99900     O ( 1.00)
        N1             5.00    14.00700     N ( 1.00)
        C1             4.00    12.01100     C ( 1.00)
        H1             1.00     1.00800     H ( 1.00)

     No symmetry found

   Cartesian axes

     site n.     atom                  positions (alat units)
         1           Ti1 tau(   1) = (   0.0004258   2.9801865   6.0000000  )
         2           Ti1 tau(   2) = (   3.2906075   1.4906267   6.0002472  )
         3           O1  tau(   3) = (   0.0006271   0.0005054   7.9858123  )
         4           O1  tau(   4) = (   3.2906025   0.0005020   7.3038282  )
         5           O1  tau(   5) = (   4.5942328   1.4918067   9.2879030  )
         6           O1  tau(   6) = (   1.9868534   1.4903216   9.2879459  )
         7           Ti1 tau(   7) = (   3.2907910   2.8959150   9.1758416  )
         8           Ti1 tau(   8) = (   0.0015273   1.4827037   9.2680791  )
         9           O1  tau(   9) = (   3.2800960   5.9426830  11.3808346  )
        10           O1  tau(  10) = (   0.0116148   5.9584955  10.6183126  )
        11           O1  tau(  11) = (   1.2797812   1.4911726  12.6624455  )
        12           O1  tau(  12) = (   5.2824698   1.4871998  12.6412817  )
        13           Ti1 tau(  13) = (   0.0041451   2.9720195  12.5119452  )
        14           Ti1 tau(  14) = (   3.3095611   1.4699318  12.5307708  )
        15           O1  tau(  15) = (   6.5436702   0.0697967  14.6864816  )
        16           O1  tau(  16) = (   3.2812162   5.9597207  14.0300411  )
        17           O1  tau(  17) = (   4.5129646   1.5046642  16.2361130  )
        18           O1  tau(  18) = (   1.9708392   1.5012857  16.1671103  )
        19           Ti1 tau(  19) = (   3.2655272   2.9480959  15.7331506  )
        20           Ti1 tau(  20) = (   6.5674642   1.4497656  15.9937491  )
        21           O1  tau(  21) = (   3.2904802   0.0005063   4.7018136  )
        22           O1  tau(  22) = (   6.5217933   5.8323795  17.2454964  )
        23           O1  tau(  23) = (   1.3043587   1.4918075   6.0039043  )
        24           O1  tau(  24) = (   5.2767064   1.4903225   6.0039473  )
        25           Ti1 tau(  25) = (   0.0000382   5.9609847   6.0000000  )
        26           Ti1 tau(  26) = (   3.2902200   4.4714249   6.0002472  )
        27           O1  tau(  27) = (   0.0002396   2.9813036   7.9858123  )
        28           O1  tau(  28) = (   3.2902150   2.9813002   7.3038282  )
        29           O1  tau(  29) = (   4.5938453   4.4726049   9.2879030  )
        30           O1  tau(  30) = (   1.9864658   4.4711199   9.2879459  )
        31           Ti1 tau(  31) = (   3.2891106   5.8743827   9.1763621  )
        32           Ti1 tau(  32) = (   0.0006254   4.4649316   9.2693709  )
        33           O1  tau(  33) = (   3.2830490   2.9749636  11.3746576  )
        34           O1  tau(  34) = (   0.0092240   2.9805883  10.6323155  )
        35           O1  tau(  35) = (   1.2760807   4.4612897  12.6946019  )
        36           O1  tau(  36) = (   5.2846406   4.4647657  12.6742532  )
        37           Ti1 tau(  37) = (   0.0173662   5.9591775  12.4970172  )
        38           Ti1 tau(  38) = (   3.3070294   4.4569304  12.5379467  )
        39           O1  tau(  39) = (   6.5190077   2.9374781  14.9220565  )
        40           O1  tau(  40) = (   3.2909943   2.9519766  13.9498127  )
        41           O1  tau(  41) = (   4.5146313   4.4149292  16.1460290  )
        42           O1  tau(  42) = (   1.9668235   4.4047650  16.1116202  )
        43           Ti1 tau(  43) = (   3.2426406   5.9218513  15.8539982  )
        44           Ti1 tau(  44) = (   6.5337747   4.6515477  15.8702276  )
        45           O1  tau(  45) = (   3.2900926   2.9813045   4.7018136  )
        46           O1  tau(  46) = (   1.3039711   4.4726057   6.0039043  )
        47           O1  tau(  47) = (   5.2763189   4.4711207   6.0039473  )
        48           N1  tau(  48) = (   1.0802268   3.0592680  18.8437747  )
        49           N1  tau(  49) = (   6.4825355   2.6367244  18.1256036  )
        50           C1  tau(  50) = (   0.7269815   3.7261681  20.0984356  )
        51           H1  tau(  51) = (   0.0344531   4.5672025  19.9493712  )
        52           H1  tau(  52) = (   0.2718923   3.0081313  20.7822053  )
        53           H1  tau(  53) = (   1.6424345   4.1087450  20.5485440  )
        54           H1  tau(  54) = (   5.7152520   3.3097272  18.2274121  )
        55           H1  tau(  55) = (   6.1788988   1.7551022  18.5268573  )
        56           H1  tau(  56) = (   1.5478348   3.7306874  18.2371031  )
        57           O1  tau(  57) = (   3.1661568   0.0027346  18.3937517  )
        58           H1  tau(  58) = (   4.0701885   0.3469208  18.4697374  )
        59           H1  tau(  59) = (   2.5798038   0.7742236  18.5044111  )

     number of k points=    10  Fermi-Dirac smearing, width (Ry)=  0.0073
                       cart. coord. in units 2pi/alat
        k(    1) = (   0.0000000   0.0000000   0.0000000), wk =   0.1250000
        k(    2) = (   0.0000000   0.0419351   0.0000000), wk =   0.2500000
        k(    3) = (   0.0000000  -0.0838702   0.0000000), wk =   0.1250000
        k(    4) = (   0.0379955   0.0000049   0.0000000), wk =   0.2500000
        k(    5) = (   0.0379955   0.0419400   0.0000000), wk =   0.2500000
        k(    6) = (   0.0379955  -0.0838652   0.0000000), wk =   0.2500000
        k(    7) = (   0.0379955  -0.0419301   0.0000000), wk =   0.2500000
        k(    8) = (  -0.0759910  -0.0000099   0.0000000), wk =   0.1250000
        k(    9) = (  -0.0759910   0.0419252   0.0000000), wk =   0.2500000
        k(   10) = (  -0.0759910  -0.0838800   0.0000000), wk =   0.1250000

     Initial potential from superposition of free atoms

     starting charge  389.99912, renormalised to  406.00000

     negative rho (up, down):  1.307E-02 0.000E+00

     %%%%%%%%%%%%%%%%%%%%%%%%%%%%%%%%%%%%%%%%%%%%%%%%%%%%%%%%%%%%%%%%%%%%%%%%
     %                                                                      %
     % You are using vdW-DF, which was implemented by the Thonhauser group. %
     % Please cite the following two papers that made this development      %
     % possible and the two reviews that describe the various versions:     %
     %                                                                      %
     %   T. Thonhauser et al., PRL 115, 136402 (2015).                      %
     %   T. Thonhauser et al., PRB 76, 125112 (2007).                       %
     %   K. Berland et al., Rep. Prog. Phys. 78, 066501 (2015).             %
     %   D.C. Langreth et al., J. Phys.: Condens. Matter 21, 084203 (2009). %
     %                                                                      %
     %                                                                      %
     % If you are calculating the stress with vdW-DF, please also cite:     %
     %                                                                      %
     %   R. Sabatini et al., J. Phys.: Condens. Matter 24, 424209 (2012).   %
     %                                                                      %
     %%%%%%%%%%%%%%%%%%%%%%%%%%%%%%%%%%%%%%%%%%%%%%%%%%%%%%%%%%%%%%%%%%%%%%%%

     Adding external electric field

     Computed dipole along edir(3) :
        Dipole              -16.1197 Ry au,        -40.9722 Debye
        Dipole field         -0.0304 Ry au,

        Potential amp.        2.8199 Ry
        Total length         46.3494 bohr

     Starting wfcs are  308 atomic wfcs
  @ DRIVER MODE: Message from server: STATUS
  @ DRIVER MODE: Message from server: POSDATA
  @ DRIVER MODE: Reading and sharing cell
  @ DRIVER MODE: Reading and sharing positions
  @ DRIVER MODE: Received positions

     Self-consistent Calculation

     iteration #  1     ecut=    29.40 Ry     beta= 0.05
     Davidson diagonalization with overlap
     c_bands:  2 eigenvalues not converged
     c_bands:  3 eigenvalues not converged
     c_bands:  2 eigenvalues not converged
     c_bands:  3 eigenvalues not converged
     c_bands:  4 eigenvalues not converged
     c_bands:  2 eigenvalues not converged
     c_bands:  1 eigenvalues not converged
     c_bands:  5 eigenvalues not converged
     c_bands:  1 eigenvalues not converged
     ethr =  1.00E-05,  avg # of iterations = 23.1

[...]

     total energy              =   -2140.60823595 Ry
     estimated scf accuracy    <    9599.29471281 Ry

     iteration #  2     ecut=    29.40 Ry     beta= 0.05
     Davidson diagonalization with overlap
     ethr =  1.00E-02,  avg # of iterations = 32.6

[...]

     iteration # 73     ecut=    29.40 Ry     beta= 0.05
     Davidson diagonalization with overlap
     ethr =  1.14E-10,  avg # of iterations =  8.7

[...]

     total energy              =   -2977.70005016 Ry
     estimated scf accuracy    <       0.00000014 Ry

     iteration # 76     ecut=    29.40 Ry     beta= 0.05
     Davidson diagonalization with overlap
     c_bands:  2 eigenvalues not converged
     ethr =  2.52E-11,  avg # of iterations =  9.4

     negative rho (up, down):  1.407E-02 0.000E+00

     Adding external electric field

     Computed dipole along edir(3) :
        Dipole                1.3317 Ry au,          3.3849 Debye
        Dipole field          0.0025 Ry au,

        Potential amp.       -0.2330 Ry
        Total length         46.3494 bohr

     End of self-consistent calculation

          k = 0.0000 0.0000 0.0000 ( 18029 PWs)   bands (ev):

   -55.1234 -55.0868 -55.0792 -55.0451 -55.0404 -55.0344 -55.0027 -54.9668
   -54.9482 -54.9135 -54.9096 -54.8928 -54.8759 -54.8421 -54.1090 -54.0749
   -31.6853 -31.5999 -31.5715 -31.4918 -31.4374 -31.4347 -31.4210 -31.4151
   -31.3681 -31.3453 -31.3351 -31.3239 -31.3178 -31.3146 -31.2962 -31.2884
   -31.2678 -31.2653 -31.2628 -31.2445 -31.2317 -31.2226 -31.2056 -31.2009
   -31.1929 -31.1815 -31.1783 -31.1492 -31.1364 -31.1335 -31.1286 -31.1081
   -31.1055 -31.0977 -31.0945 -31.0707 -31.0616 -31.0451 -31.0375 -31.0357
   -31.0206 -31.0198 -30.5183 -30.4241 -30.4020 -30.3347 -30.2479 -30.1370
   -18.8047 -17.8502 -15.9547 -15.6992 -15.5628 -15.4618 -15.3266 -15.2210
   -15.1392 -15.0252 -14.9753 -14.8604 -14.8276 -14.8232 -14.7835 -14.7523
   -14.7035 -14.6646 -14.6624 -14.6403 -14.6206 -14.6130 -14.5702 -14.5633
   -14.5236 -14.5217 -14.5018 -14.3659 -14.2842 -14.2141 -14.0322 -13.1919
   -12.6113 -12.4938  -9.7780  -6.5377  -6.4265  -5.4850  -4.9121  -3.5237
    -3.2879  -3.1433  -3.0892  -3.0548  -3.0194  -2.9613  -2.8854  -2.8017
    -2.6545  -2.5852  -2.5605  -2.4083  -2.3342  -2.3245  -2.2680  -2.1686
    -2.1431  -2.0967  -2.0540  -1.9899  -1.9519  -1.9288  -1.9070  -1.8719
    -1.8682  -1.8145  -1.7611  -1.6910  -1.6009  -1.5700  -1.5244  -1.4806
    -1.4580  -1.4550  -1.4154  -1.4088  -1.3959  -1.3541  -1.3474  -1.3178
    -1.2706  -1.1623  -1.0097  -0.9501  -0.8530  -0.7646  -0.7204  -0.7126
    -0.6936  -0.6329  -0.6102  -0.5727  -0.5051  -0.4568  -0.3778  -0.3308
    -0.3088  -0.2292  -0.1243  -0.1071  -0.0997  -0.0115   0.0801   0.0935
     0.1077   0.1178   0.2151   0.2806   0.3146   0.3562   0.4204   0.4294
     0.4887   0.5162   0.5679   0.6342   0.6671   0.7468   0.7862   0.8070
     0.8121   0.8346   0.8560   0.8676   0.9475   0.9562   0.9817   1.0703
     1.1747   1.3293   1.4752   1.4862   1.8195   1.8205   1.9141   2.0977
     2.4902   2.5385   3.9710   4.0466   4.1051   4.1163   4.1219   4.2068
     4.4559   4.4737   4.4851   4.4866   4.5217

[...]

          k = 0.0380-0.0419 0.0000 ( 17876 PWs)   bands (ev):

[...]

          k =-0.0760-0.0000 0.0000 ( 17886 PWs)   bands (ev):

[...]

          k =-0.0760-0.0839 0.0000 ( 17948 PWs)   bands (ev):

   -55.1090 -55.1010 -55.0621 -55.0620 -55.0378 -55.0331 -54.9899 -54.9795
   -54.9337 -54.9276 -54.8947 -54.8933 -54.8923 -54.8438 -54.0919 -54.0918
   -31.5154 -31.4950 -31.4852 -31.3866 -31.3866 -31.3811 -31.3747 -31.3534
   -31.3534 -31.3331 -31.3278 -31.3223 -31.3125 -31.2943 -31.2802 -31.2656
   -31.2614 -31.2601 -31.2567 -31.2502 -31.2482 -31.2451 -31.2327 -31.2315
   -31.2020 -31.2013 -31.1842 -31.1818 -31.1817 -31.1733 -31.1729 -31.1668
   -31.1586 -31.1461 -31.1407 -31.1250 -31.1236 -31.1075 -31.0734 -31.0730
   -31.0717 -31.0482 -30.4147 -30.4146 -30.3308 -30.3308 -30.2915 -30.2912
   -18.8032 -17.8470 -15.5357 -15.3960 -15.2568 -15.1532 -15.1383 -15.0846
   -15.0355 -14.9940 -14.9521 -14.9078 -14.8978 -14.8798 -14.8513 -14.8242
   -14.7999 -14.7409 -14.7245 -14.7089 -14.6867 -14.6397 -14.6319 -14.6291
   -14.6220 -14.5757 -14.5731 -14.5492 -14.4794 -14.4774 -14.2908 -13.1938
   -12.5953 -12.5952  -9.7748  -6.5941  -6.3447  -5.4821  -4.9228  -3.4970
    -2.9546  -2.8160  -2.6580  -2.6224  -2.4762  -2.3762  -2.3309  -2.3025
    -2.2489  -2.2034  -2.1432  -2.1280  -2.1098  -2.0510  -2.0255  -2.0070
    -1.9754  -1.9564  -1.9428  -1.9236  -1.9068  -1.8788  -1.8525  -1.8439
    -1.8392  -1.8058  -1.7943  -1.7548  -1.7484  -1.7403  -1.6970  -1.6849
    -1.6590  -1.6012  -1.4950  -1.4847  -1.3323  -1.3299  -1.2880  -1.2503
    -1.2295  -1.2193  -1.1595  -1.1513  -1.1392  -0.8976  -0.8764  -0.8664
    -0.8393  -0.7805  -0.7639  -0.7009  -0.6904  -0.6074  -0.5927  -0.4903
    -0.4717  -0.4014  -0.3354  -0.3270  -0.3145  -0.2019  -0.1533  -0.1157
    -0.0901  -0.0799  -0.0625  -0.0247  -0.0246   0.0653   0.1087   0.1391
     0.1544   0.1840   0.3498   0.3973   0.4063   0.5452   0.5592   0.7087
     0.7704   0.7848   0.8757   0.8930   0.9808   0.9905   1.0301   1.1697
     1.1813   1.2047   1.2515   1.2798   1.3318   1.3370   2.2704   2.2717
     2.3584   2.3586   4.1035   4.2286   4.2351   4.2956   4.4051   4.4384
     4.4844   4.5181   4.5554   4.5581   4.6294

     the Fermi energy is     4.0331 ev

!    total energy              =   -2977.70006329 Ry
     estimated scf accuracy    <       0.00000004 Ry
     smearing contrib. (-TS)   =      -0.03675032 Ry
     internal energy E=F+TS    =   -2977.66331297 Ry

     The total energy is F=E-TS. E is the sum of the following terms:
     one-electron contribution =  -23080.49777995 Ry
     hartree contribution      =   11639.35751188 Ry
     xc contribution           =    -496.62858979 Ry
     ewald contribution        =    8960.10219813 Ry
     electric field correction =       0.00334676 Ry

     convergence has been achieved in  76 iterations

     Forces acting on atoms (cartesian axes, Ry/au):

     atom    1 type  1   force =     0.00018357   -0.00018793    0.09310994
     atom    2 type  1   force =    -0.00009979   -0.00033416   -0.17822423
     atom    3 type  2   force =     0.00001998   -0.00017699   -0.02036875
     atom    4 type  2   force =    -0.00002731   -0.00199971    0.05899770
     atom    5 type  2   force =    -0.01060205   -0.00142146    0.00859868
     atom    6 type  2   force =     0.01186404   -0.00070515    0.00712952
     atom    7 type  1   force =    -0.00088636    0.00312664   -0.01230199
     atom    8 type  1   force =     0.00055786    0.00113119   -0.00451099
     atom    9 type  2   force =    -0.00007452   -0.00037506    0.00015413
     atom   10 type  2   force =    -0.00129440   -0.00050848   -0.00193520
     atom   11 type  2   force =    -0.00022279   -0.00021841   -0.00005789
     atom   12 type  2   force =     0.00061271   -0.00007574   -0.00024132
     atom   13 type  1   force =    -0.00103201   -0.00062515    0.00018674
     atom   14 type  1   force =     0.00011944   -0.00005086    0.00015314
     atom   15 type  2   force =    -0.00026603   -0.00034227    0.00002210
     atom   16 type  2   force =    -0.00000787   -0.00007921    0.00066960
     atom   17 type  2   force =    -0.00019941    0.00028452    0.00057832
     atom   18 type  2   force =     0.00011132    0.00008320    0.00031515
     atom   19 type  1   force =     0.00023853    0.00004380    0.00064027
     atom   20 type  1   force =    -0.00023945   -0.00037230    0.00078879
     atom   21 type  2   force =     0.00007015   -0.00001286    0.10398494
     atom   22 type  2   force =     0.00005224   -0.00015051   -0.00122973
     atom   23 type  2   force =    -0.07039097   -0.00010184   -0.02688897
     atom   24 type  2   force =     0.07027003    0.00034354   -0.02692950
     atom   25 type  1   force =    -0.00000124   -0.00022426    0.09277881
     atom   26 type  1   force =    -0.00019243   -0.00035979   -0.17832947
     atom   27 type  2   force =     0.00010313   -0.00028795   -0.01934240
     atom   28 type  2   force =     0.00003719   -0.00163242    0.05807109
     atom   29 type  2   force =    -0.01068509   -0.00080272    0.00799835
     atom   30 type  2   force =     0.01180212   -0.00047478    0.00652336
     atom   31 type  1   force =    -0.00071889    0.00503524   -0.01494092
     atom   32 type  1   force =     0.00039420   -0.00139062   -0.00478183
     atom   33 type  2   force =    -0.00011294    0.00021774    0.00030097
     atom   34 type  2   force =    -0.00129003    0.00140478   -0.00090134
     atom   35 type  2   force =     0.00019224    0.00014381    0.00002416
     atom   36 type  2   force =     0.00012119   -0.00000877   -0.00011069
     atom   37 type  1   force =    -0.00103172    0.00056146   -0.00000880
     atom   38 type  1   force =     0.00013779   -0.00014353   -0.00006103
     atom   39 type  2   force =    -0.00002752   -0.00014754    0.00026307
     atom   40 type  2   force =    -0.00020730    0.00021030    0.00025304
     atom   41 type  2   force =     0.00004910   -0.00018887    0.00040201
     atom   42 type  2   force =    -0.00017485   -0.00005340    0.00004853
     atom   43 type  1   force =     0.00010359    0.00031200    0.00053359
     atom   44 type  1   force =    -0.00009380    0.00031341   -0.00023117
     atom   45 type  2   force =     0.00004409   -0.00005245    0.10397525
     atom   46 type  2   force =    -0.07038403   -0.00006315   -0.02691104
     atom   47 type  2   force =     0.07028972    0.00036749   -0.02694276
     atom   48 type  3   force =     0.00024896    0.00092490    0.00325853
     atom   49 type  3   force =    -0.00030736    0.00220130   -0.00976140
     atom   50 type  4   force =     0.00232052    0.00085695    0.00053025
     atom   51 type  5   force =     0.00012933   -0.00037528   -0.00004078
     atom   52 type  5   force =     0.00036918   -0.00061068    0.00038633
     atom   53 type  5   force =     0.00052205    0.00026228    0.00007188
     atom   54 type  5   force =     0.00009122    0.00052859    0.00109702
     atom   55 type  5   force =    -0.00081059   -0.00379157    0.00354052
     atom   56 type  5   force =    -0.00033036    0.00011436   -0.00016937
     atom   57 type  2   force =    -0.00035663    0.00065603   -0.00073002
     atom   58 type  5   force =     0.00075232   -0.00043513    0.00018142
     atom   59 type  5   force =     0.00025991   -0.00034253    0.00038439

     Total force =     0.366293     Total SCF correction =     0.000511
  @ DRIVER MODE: Message from server: STATUS
  @ DRIVER MODE: Message from server: GETFORCE
  @ DRIVER MODE: Returning v,forces,stress,ensemble

     Writing output data file ./calc.save/
  @ DRIVER MODE: Message from server: EXIT
  @ DRIVE MODE: Exiting

     General routines

     Parallel routines

   This run was terminated on:  20:16: 6  15Sep2021

   JOB DONE.