     Program PWSCF v.6.7GPU starts on 18Oct2021 at 12:56:36

     R & G space division:  proc/nbgrp/npool/nimage =       8
     Reading input from /storage/home/hcoda1/3/ntian30/research/carbon/CxH_vib/Thiel_calc/ads_slab/H2O_perslab/out_0003/pw.inp
Warning: card &CELL ignored
Warning: card   CELL_DYNAMICS='IPI', ignored
Warning: card / ignored

     Current dimensions of program PWSCF are:
     Max number of different atomic species (ntypx) = 10
     Max number of k-points (npk) =  40000
     Max angular momentum in pseudopotentials (lmaxx) =  3
     Presently no symmetry can be used with electric field

     Message from routine cell_base_init:
     DEPRECATED: use true lattice parameter, not A to a.u. conversion factor

     IMPORTANT: XC functional enforced from input :
     Exchange-correlation= BEEF-VDW
                           (   1   4  43  14   2   0   0)
     Any further DFT definition will be discarded
     Please, verify this is what you really want

  @ DRIVER MODE: Connecting to
 qe_1139763_3255129.sched-torque.pace.gatech.edu6x7bxiq9_scratch
  using UNIX socket
  @ DRIVER MODE: Message from server: STATUS
  @ DRIVER MODE: Message from server: INIT
  @ DRIVER MODE: Receiving replica           0          -1
  @ DRIVER MODE: Receiving encoded integer          25
  @ DRIVER MODE:  SCF:  T  FORCE:  T  STRESS:  F  VC:  F  ENSEMBLE:  F
  @ DRIVER MODE:  SCF:  T  FORCE:  T  STRESS:  F  VC:  F  ENSEMBLE:  F

     Using Slab Decomposition

     bravais-lattice index     =            0
     lattice parameter (alat)  =       1.8897  a.u.
     unit-cell volume          =    9988.4706 (a.u.)^3
     number of atoms/cell      =           56
     number of atomic types    =            3
     number of electrons       =       434.00
     number of Kohn-Sham states=          227
     kinetic-energy cutoff     =      29.3995  Ry
     charge density cutoff     =     293.9946  Ry
     scf convergence threshold =      7.3E-08
     mixing beta               =       0.0500
     number of iterations used =            8  plain     mixing
     Exchange-correlation= BEEF-VDW
                           (   1   4  43  14   2   0   0)

     celldm(1)=   1.889726  celldm(2)=   0.000000  celldm(3)=   0.000000
     celldm(4)=   0.000000  celldm(5)=   0.000000  celldm(6)=   0.000000

     crystal axes: (cart. coord. in units of alat)
               a(1) = (   6.579727   0.000000   0.000000 )
               a(2) = (  -0.001163   8.942395   0.000000 )
               a(3) = (   0.000000   0.000000  25.155947 )

     reciprocal axes: (cart. coord. in units 2 pi/alat)
               b(1) = (  0.151982  0.000020  0.000000 )
               b(2) = (  0.000000  0.111827  0.000000 )
               b(3) = (  0.000000  0.000000  0.039752 )

     PseudoPot. # 1 for O  read from file:
     /storage/coda1/p-amedford6/0/shared/rich_project_chbe-medford/medford-share/data/pseudos_module/espresso/nninc/pbe/van/O.UPF
     MD5 check sum: 78c19812648e8988a0fe644b0f25305e
     Pseudo is Ultrasoft, Zval =  6.0
     Generated by new atomic code, or converted to UPF format
     Using radial grid of  737 points,  4 beta functions with:
                l(1) =   0
                l(2) =   0
                l(3) =   1
                l(4) =   1
     Q(r) pseudized with  8 coefficients,  rinner =    0.800   0.800   0.800

     PseudoPot. # 2 for Ti read from file:
     /storage/coda1/p-amedford6/0/shared/rich_project_chbe-medford/medford-share/data/pseudos_module/espresso/nninc/pbe/van/Ti.UPF
     MD5 check sum: 8e4df49b7f0d34bbd5052bf3f5ea0213
     Pseudo is Ultrasoft, Zval = 12.0
     Generated by new atomic code, or converted to UPF format
     Using radial grid of  851 points,  6 beta functions with:
                l(1) =   0
                l(2) =   0
                l(3) =   1
                l(4) =   1
                l(5) =   2
                l(6) =   2
     Q(r) pseudized with  8 coefficients,  rinner =    1.000   1.000   1.000
                                                       1.000   1.000

     PseudoPot. # 3 for H  read from file:
     /storage/coda1/p-amedford6/0/shared/rich_project_chbe-medford/medford-share/data/pseudos_module/espresso/nninc/pbe/van/H.UPF
     MD5 check sum: b5ee9d7bfd3a09ee7748110bda690ff7
     Pseudo is Ultrasoft, Zval =  1.0
     Generated by new atomic code, or converted to UPF format
     Using radial grid of  615 points,  1 beta functions with:
                l(1) =   0
     Q(r) pseudized with  8 coefficients,  rinner =    0.800

     atomic species   valence    mass     pseudopotential
        O1             6.00    15.99900     O ( 1.00)
        Ti1           12.00    47.86700     Ti( 1.00)
        H1             1.00     1.00800     H ( 1.00)

     No symmetry found

   Cartesian axes

     site n.     atom                  positions (alat units)
         1           O1  tau(   1) = (   0.0007354   0.0005023  10.5931620  )
         2           O1  tau(   2) = (   3.2893612   8.9201916  13.9062151  )
         3           O1  tau(   3) = (   0.0002691   0.0790924  17.2227650  )
         4           O1  tau(   4) = (   0.0006271   0.0005054   7.9858123  )
         5           O1  tau(   5) = (   3.2896170   8.9270158  11.1935980  )
         6           O1  tau(   6) = (   0.0007608   0.0261718  14.5986889  )
         7           O1  tau(   7) = (   1.9868534   1.4903216   9.2879459  )
         8           O1  tau(   8) = (   5.2355617   1.6099344  12.5867606  )
         9           O1  tau(   9) = (   2.0124575   1.5675184  16.0571645  )
        10           Ti1 tau(  10) = (   0.0007404   1.4906270   9.2895810  )
        11           Ti1 tau(  11) = (   3.2907640   1.3491771  12.5100009  )
        12           Ti1 tau(  12) = (   0.0006031   1.2961793  15.7979744  )
        13           O1  tau(  13) = (   4.5942328   1.4918067   9.2879030  )
        14           O1  tau(  14) = (   1.3450460   1.6097215  12.5866593  )
        15           O1  tau(  15) = (   4.5676758   1.5673980  16.0573758  )
        16           Ti1 tau(  16) = (   3.2902859   2.9801868   9.2893338  )
        17           Ti1 tau(  17) = (   0.0004777   2.8281306  12.4679355  )
        18           Ti1 tau(  18) = (   3.2902893   2.9338596  15.7282337  )
        19           O1  tau(  19) = (   0.0003479   2.9813005  10.5931620  )
        20           O1  tau(  20) = (   3.2902216   2.9696935  13.9120052  )
        21           O1  tau(  21) = (   0.0002396   2.9813036   7.9858123  )
        22           O1  tau(  22) = (   3.2903426   2.9637443  11.1940942  )
        23           O1  tau(  23) = (   0.0000089   3.0257264  14.7503890  )
        24           O1  tau(  24) = (   1.9864658   4.4711199   9.2879459  )
        25           O1  tau(  25) = (   5.2380434   4.5829059  12.5871764  )
        26           O1  tau(  26) = (   2.0235919   4.4928291  16.0795284  )
        27           Ti1 tau(  27) = (   0.0003529   4.4714252   9.2895810  )
        28           Ti1 tau(  28) = (   3.2907575   4.3192581  12.5172651  )
        29           Ti1 tau(  29) = (   0.0001526   4.6228845  15.7176810  )
        30           O1  tau(  30) = (   4.5938453   4.4726049   9.2879030  )
        31           O1  tau(  31) = (   1.3423985   4.5827316  12.5869633  )
        32           O1  tau(  32) = (   4.5556179   4.4928061  16.0795667  )
        33           Ti1 tau(  33) = (   3.2898983   5.9609850   9.2893338  )
        34           Ti1 tau(  34) = (   0.0006865   5.8113799  12.4503846  )
        35           Ti1 tau(  35) = (   3.2896120   5.9162390  15.7228808  )
        36           O1  tau(  36) = (  -0.0000397   5.9620987  10.5931620  )
        37           O1  tau(  37) = (   3.2898440   5.9521707  13.9141460  )
        38           O1  tau(  38) = (  -0.0005676   5.9070897  17.2365434  )
        39           O1  tau(  39) = (  -0.0001480   5.9621018   7.9858123  )
        40           O1  tau(  40) = (   3.2901216   5.9393065  11.1928121  )
        41           O1  tau(  41) = (  -0.0000075   6.0145546  14.6353165  )
        42           O1  tau(  42) = (   1.9860782   7.4519181   9.2879459  )
        43           O1  tau(  43) = (   5.2378119   7.5541029  12.5659338  )
        44           O1  tau(  44) = (   2.0283766   7.4974489  16.0624789  )
        45           Ti1 tau(  45) = (  -0.0000347   7.4522234   9.2895810  )
        46           Ti1 tau(  46) = (   3.2905324   7.3023941  12.5037744  )
        47           Ti1 tau(  47) = (  -0.0004371   7.4148098  16.3042026  )
        48           O1  tau(  48) = (   4.5934577   7.4534031   9.2879030  )
        49           O1  tau(  49) = (   1.3417460   7.5537513  12.5656965  )
        50           O1  tau(  50) = (   4.5502908   7.4974792  16.0621795  )
        51           Ti1 tau(  51) = (   3.2895107   8.9417832   9.2893338  )
        52           Ti1 tau(  52) = (   0.0002358   8.7760030  12.4676047  )
        53           Ti1 tau(  53) = (   3.2893608   8.8775079  15.7094031  )
        54           O1  tau(  54) = (   0.0008562   2.9708021  17.9281668  )
        55           H1  tau(  55) = (   6.5781910   2.2037314  18.5062466  )
        56           H1  tau(  56) = (   6.5786456   3.7766572  18.4802172  )

     number of k points=    10  Fermi-Dirac smearing, width (Ry)=  0.0073
                       cart. coord. in units 2pi/alat
        k(    1) = (   0.0000000   0.0000000   0.0000000), wk =   0.1250000
        k(    2) = (   0.0000000   0.0279567   0.0000000), wk =   0.2500000
        k(    3) = (   0.0000000  -0.0559134   0.0000000), wk =   0.1250000
        k(    4) = (   0.0379955   0.0000049   0.0000000), wk =   0.2500000
        k(    5) = (   0.0379955   0.0279617   0.0000000), wk =   0.2500000
        k(    6) = (   0.0379955  -0.0559085   0.0000000), wk =   0.2500000
        k(    7) = (   0.0379955  -0.0279518   0.0000000), wk =   0.2500000
        k(    8) = (  -0.0759910  -0.0000099   0.0000000), wk =   0.1250000
        k(    9) = (  -0.0759910   0.0279468   0.0000000), wk =   0.2500000
        k(   10) = (  -0.0759910  -0.0559233   0.0000000), wk =   0.1250000

     Initial potential from superposition of free atoms

     starting charge  415.99913, renormalised to  434.00000

     negative rho (up, down):  3.976E-02 0.000E+00

     %%%%%%%%%%%%%%%%%%%%%%%%%%%%%%%%%%%%%%%%%%%%%%%%%%%%%%%%%%%%%%%%%%%%%%%%
     %                                                                      %
     % You are using vdW-DF, which was implemented by the Thonhauser group. %
     % Please cite the following two papers that made this development      %
     % possible and the two reviews that describe the various versions:     %
     %                                                                      %
     %   T. Thonhauser et al., PRL 115, 136402 (2015).                      %
     %   T. Thonhauser et al., PRB 76, 125112 (2007).                       %
     %   K. Berland et al., Rep. Prog. Phys. 78, 066501 (2015).             %
     %   D.C. Langreth et al., J. Phys.: Condens. Matter 21, 084203 (2009). %
     %                                                                      %
     %                                                                      %
     % If you are calculating the stress with vdW-DF, please also cite:     %
     %                                                                      %
     %   R. Sabatini et al., J. Phys.: Condens. Matter 24, 424209 (2012).   %
     %                                                                      %
     %%%%%%%%%%%%%%%%%%%%%%%%%%%%%%%%%%%%%%%%%%%%%%%%%%%%%%%%%%%%%%%%%%%%%%%%

     Adding external electric field

     Computed dipole along edir(3) :
        Dipole               -2.8181 Ry au,         -7.1630 Debye
        Dipole field         -0.0035 Ry au,

        Potential amp.        0.3287 Ry
        Total length         46.3494 bohr

     Starting wfcs are  326 atomic wfcs
  @ DRIVER MODE: Message from server: STATUS
  @ DRIVER MODE: Message from server: POSDATA
  @ DRIVER MODE: Reading and sharing cell
  @ DRIVER MODE: Reading and sharing positions
  @ DRIVER MODE: Received positions

     Self-consistent Calculation

     iteration #  1     ecut=    29.40 Ry     beta= 0.05
     Davidson diagonalization with overlap
     c_bands:  2 eigenvalues not converged
     c_bands:  2 eigenvalues not converged
     c_bands:  1 eigenvalues not converged
     c_bands:  2 eigenvalues not converged
     c_bands:  2 eigenvalues not converged
     c_bands:  5 eigenvalues not converged
     c_bands:  2 eigenvalues not converged
     c_bands:  1 eigenvalues not converged
     c_bands:  1 eigenvalues not converged
     c_bands:  2 eigenvalues not converged
     ethr =  1.00E-05,  avg # of iterations = 20.0

[...]

     total energy              =   -3284.59294680 Ry
     estimated scf accuracy    <      14.39738084 Ry

     iteration #  2     ecut=    29.40 Ry     beta= 0.05
     Davidson diagonalization with overlap
     ethr =  3.32E-03,  avg # of iterations =  1.0

[...]

     iteration # 57     ecut=    29.40 Ry     beta= 0.05
     Davidson diagonalization with overlap
     c_bands:  1 eigenvalues not converged
     ethr =  2.30E-11,  avg # of iterations = 16.3

[...]

     total energy              =   -3283.10385632 Ry
     estimated scf accuracy    <       0.00000009 Ry

     iteration # 66     ecut=    29.40 Ry     beta= 0.05
     Davidson diagonalization with overlap
     ethr =  1.96E-11,  avg # of iterations =  6.5

     negative rho (up, down):  3.722E-02 0.000E+00

     Adding external electric field

     Computed dipole along edir(3) :
        Dipole                1.2781 Ry au,          3.2487 Debye
        Dipole field          0.0016 Ry au,

        Potential amp.       -0.1491 Ry
        Total length         46.3494 bohr

     End of self-consistent calculation

          k = 0.0000 0.0000 0.0000 ( 26871 PWs)   bands (ev):

   -58.0031 -57.9910 -57.9777 -57.9771 -57.9681 -57.8970 -57.8252 -57.8019
   -57.7971 -57.7891 -57.7666 -57.7424 -57.6158 -57.5737 -57.5058 -57.0238
   -57.0004 -56.9936 -34.3891 -34.3840 -34.3837 -34.3622 -34.3559 -34.3347
   -34.3166 -34.3144 -34.3134 -34.2811 -34.2540 -34.2393 -34.2128 -34.1987
   -34.1954 -34.1864 -34.1705 -34.1522 -34.1274 -34.1208 -34.1136 -34.0999
   -34.0991 -34.0957 -34.0943 -34.0690 -34.0527 -34.0355 -34.0294 -34.0177
   -34.0107 -33.9983 -33.9979 -33.9851 -33.9789 -33.9782 -33.9668 -33.9417
   -33.9380 -33.8727 -33.8168 -33.7850 -33.7745 -33.7684 -33.6464 -33.3395
   -33.3385 -33.3320 -33.3232 -33.3169 -33.2497 -33.1884 -33.1808 -33.0489
   -21.2512 -18.8501 -18.4156 -18.2703 -18.2456 -18.2175 -18.2050 -18.0918
   -18.0886 -17.8260 -17.8065 -17.7922 -17.7839 -17.7127 -17.6854 -17.6832
   -17.6716 -17.6444 -17.6374 -17.6098 -17.6008 -17.5190 -17.5113 -17.4685
   -17.4660 -17.4329 -17.4307 -17.3839 -17.2946 -17.2936 -17.1259 -16.9741
   -16.9095 -15.4894 -15.4329 -15.4286  -9.2609  -6.1818  -6.0160  -5.9185
    -5.8299  -5.7161  -5.4530  -5.4399  -5.3642  -5.3542  -5.3304  -5.2695
    -5.2544  -5.2494  -5.2150  -5.2019  -5.1203  -5.1152  -5.0367  -4.9436
    -4.9389  -4.9354  -4.9091  -4.8660  -4.8302  -4.8117  -4.7887  -4.7656
    -4.7364  -4.6976  -4.6635  -4.6300  -4.6218  -4.4929  -4.3468  -4.3202
    -4.2990  -4.2975  -4.2751  -4.2335  -4.2050  -4.1348  -4.0802  -4.0666
    -4.0452  -3.9965  -3.9416  -3.9193  -3.7813  -3.7502  -3.7209  -3.6969
    -3.5921  -3.5609  -3.5137  -3.3986  -3.3365  -3.3280  -3.2947  -3.2764
    -3.2039  -3.1853  -3.1363  -3.0871  -3.0772  -2.9764  -2.9745  -2.9253
    -2.8755  -2.8010  -2.7684  -2.7624  -2.7511  -2.6945  -2.6862  -2.6589
    -2.6304  -2.6007  -2.5423  -2.5335  -2.4615  -2.4244  -2.4171  -2.3716
    -2.3707  -2.3149  -2.2418  -2.2049  -2.1840  -2.1825  -2.0806  -2.0256
    -1.8594  -1.8545  -1.8422  -1.8298  -1.7495  -1.7035  -1.6365  -1.4632
    -1.2398  -1.0625  -0.7725  -0.7276  -0.7260  -0.4640  -0.4586  -0.3301
     0.9761   1.2250   1.2716   1.4417   1.4434   1.5401   1.5758   1.5911
     1.6741   1.7032   1.7411

[...]

          k = 0.0380-0.0280 0.0000 ( 26873 PWs)   bands (ev):

[...]

          k =-0.0760-0.0000 0.0000 ( 26902 PWs)   bands (ev):

[...]

          k =-0.0760-0.0559 0.0000 ( 26868 PWs)   bands (ev):

   -57.9948 -57.9942 -57.9897 -57.9697 -57.9689 -57.8967 -57.8182 -57.8145
   -57.7909 -57.7869 -57.7710 -57.7407 -57.6154 -57.5744 -57.5055 -57.0179
   -57.0118 -56.9881 -34.4775 -34.4413 -34.3777 -34.3668 -34.3434 -34.3320
   -34.3274 -34.3259 -34.2842 -34.2472 -34.1972 -34.1930 -34.1924 -34.1707
   -34.1648 -34.1505 -34.1441 -34.1436 -34.1369 -34.1312 -34.1308 -34.0843
   -34.0827 -34.0804 -34.0760 -34.0676 -34.0637 -34.0504 -34.0434 -34.0352
   -34.0272 -34.0173 -34.0125 -34.0120 -34.0016 -33.9941 -33.9668 -33.9642
   -33.9398 -33.8231 -33.8221 -33.7909 -33.7742 -33.7670 -33.6824 -33.4275
   -33.3394 -33.3339 -33.3112 -33.2317 -33.2244 -33.1630 -33.1493 -33.1423
   -21.2510 -18.5295 -18.5069 -18.2001 -18.1423 -18.0980 -18.0875 -18.0759
   -18.0247 -17.9222 -17.8664 -17.8642 -17.8135 -17.7847 -17.7797 -17.7273
   -17.7256 -17.7144 -17.7022 -17.6716 -17.6442 -17.6426 -17.5674 -17.4677
   -17.4293 -17.4018 -17.3843 -17.3714 -17.3314 -17.2383 -17.1596 -17.1110
   -16.7924 -15.4889 -15.4840 -15.3686  -9.2642  -5.8338  -5.7860  -5.7682
    -5.7674  -5.6945  -5.3933  -5.2849  -5.2847  -5.2728  -5.1757  -5.1649
    -5.1616  -5.1460  -5.1422  -5.1192  -5.1086  -5.0777  -5.0618  -5.0253
    -5.0104  -4.9451  -4.9253  -4.9170  -4.9036  -4.8795  -4.7459  -4.7429
    -4.6405  -4.6153  -4.5273  -4.5179  -4.5005  -4.4816  -4.4323  -4.3847
    -4.3558  -4.3407  -4.1660  -4.1523  -4.1409  -4.0766  -4.0342  -3.9778
    -3.9736  -3.8789  -3.6770  -3.6534  -3.6514  -3.6448  -3.6296  -3.6280
    -3.5917  -3.5490  -3.5027  -3.4821  -3.4457  -3.4405  -3.4376  -3.3898
    -3.3441  -3.2463  -3.1903  -3.1882  -3.1669  -3.1140  -3.1092  -3.0935
    -3.0738  -3.0537  -3.0256  -2.9428  -2.9122  -2.8892  -2.8472  -2.8360
    -2.7827  -2.7709  -2.7053  -2.5671  -2.5418  -2.5326  -2.5293  -2.4933
    -2.4015  -2.2555  -2.2389  -2.2377  -2.0894  -2.0847  -2.0143  -2.0066
    -1.9765  -1.9591  -1.7873  -1.7771  -1.6927  -1.6457  -1.5950  -1.5769
    -1.5674  -1.3487  -0.9388  -0.6602  -0.6421  -0.6183  -0.4631  -0.4603
     1.1450   1.2151   1.2243   1.3201   1.3257   1.3309   1.3851   1.4540
     1.4993   1.5432   1.7499

     the Fermi energy is     1.0798 ev

!    total energy              =   -3283.10387948 Ry
     estimated scf accuracy    <       0.00000002 Ry
     smearing contrib. (-TS)   =      -0.03225806 Ry
     internal energy E=F+TS    =   -3283.07162142 Ry

     The total energy is F=E-TS. E is the sum of the following terms:
     one-electron contribution =  -34306.62105955 Ry
     hartree contribution      =   17213.52570078 Ry
     xc contribution           =    -537.35207875 Ry
     ewald contribution        =   14347.37376084 Ry
     electric field correction =       0.00205527 Ry

     convergence has been achieved in  66 iterations

     Forces acting on atoms (cartesian axes, Ry/au):

     atom    1 type  1   force =     0.00002671    0.00631561    0.05655522
     atom    2 type  1   force =    -0.00000169    0.00182448   -0.00348885
     atom    3 type  1   force =     0.00000400   -0.00424313   -0.00179292
     atom    4 type  1   force =     0.00005539   -0.00037914    0.10675686
     atom    5 type  1   force =    -0.00001298   -0.00066030    0.00908108
     atom    6 type  1   force =    -0.00001973   -0.00095497    0.00300214
     atom    7 type  1   force =     0.06773690   -0.00026240   -0.02937574
     atom    8 type  1   force =     0.00478436   -0.02829904    0.00276239
     atom    9 type  1   force =     0.01049075   -0.02002887    0.00012881
     atom   10 type  2   force =    -0.00006640   -0.00357904   -0.18211646
     atom   11 type  2   force =    -0.00008321    0.02093137   -0.00709843
     atom   12 type  2   force =    -0.00000108    0.02007312   -0.00325378
     atom   13 type  1   force =    -0.06782893   -0.00070859   -0.02936259
     atom   14 type  1   force =    -0.00477772   -0.02828119    0.00276530
     atom   15 type  1   force =    -0.01044692   -0.02003469    0.00014665
     atom   16 type  2   force =     0.00012902   -0.00159910    0.06620034
     atom   17 type  2   force =     0.00007164    0.03606110    0.00425091
     atom   18 type  2   force =    -0.00004797    0.01057381   -0.00274580
     atom   19 type  1   force =     0.00000378    0.00420117    0.06379178
     atom   20 type  1   force =     0.00000183    0.00141908   -0.00553609
     atom   21 type  1   force =     0.00005441    0.00123731    0.10737327
     atom   22 type  1   force =    -0.00000372   -0.00034402    0.00887971
     atom   23 type  1   force =    -0.00000839   -0.00533828    0.00286771
     atom   24 type  1   force =     0.06711885   -0.00043255   -0.02925554
     atom   25 type  1   force =     0.00491850   -0.02900032    0.00285325
     atom   26 type  1   force =     0.00913884    0.00313500   -0.00382011
     atom   27 type  2   force =    -0.00007807   -0.00328503   -0.18661891
     atom   28 type  2   force =    -0.00006148    0.02033066   -0.00732066
     atom   29 type  2   force =    -0.00001086   -0.00137216    0.01263465
     atom   30 type  1   force =    -0.06720772   -0.00089333   -0.02924476
     atom   31 type  1   force =    -0.00492709   -0.02897875    0.00285764
     atom   32 type  1   force =    -0.00908860    0.00313248   -0.00379003
     atom   33 type  2   force =     0.00012625   -0.00176834    0.06632782
     atom   34 type  2   force =     0.00008016    0.03629559    0.00436732
     atom   35 type  2   force =    -0.00003230   -0.00224333    0.00327598
     atom   36 type  1   force =     0.00002164    0.00318413    0.05471377
     atom   37 type  1   force =    -0.00000128    0.00042331   -0.00155098
     atom   38 type  1   force =     0.00000035   -0.00215552   -0.00062321
     atom   39 type  1   force =     0.00005365   -0.00027763    0.10746908
     atom   40 type  1   force =    -0.00000977   -0.00008155    0.00863102
     atom   41 type  1   force =    -0.00001773    0.00319505    0.00096136
     atom   42 type  1   force =     0.06734750   -0.00085049   -0.02898722
     atom   43 type  1   force =     0.00317020   -0.02861572    0.00232656
     atom   44 type  1   force =     0.01104355   -0.01056812    0.00423513
     atom   45 type  2   force =    -0.00009143    0.00337094   -0.18454502
     atom   46 type  2   force =    -0.00008291    0.02072395   -0.00746564
     atom   47 type  2   force =     0.00000539    0.00995253   -0.01312847
     atom   48 type  1   force =    -0.06743780   -0.00129640   -0.02897992
     atom   49 type  1   force =    -0.00317085   -0.02858745    0.00233194
     atom   50 type  1   force =    -0.01101215   -0.01058942    0.00425826
     atom   51 type  2   force =     0.00012311   -0.00089943    0.06686080
     atom   52 type  2   force =     0.00007571    0.03408677    0.00449184
     atom   53 type  2   force =    -0.00003054    0.02452079    0.00628978
     atom   54 type  1   force =     0.00003816    0.02687676   -0.00097331
     atom   55 type  3   force =    -0.00006854   -0.01358303    0.01034901
     atom   56 type  3   force =     0.00000720   -0.01167363   -0.00872292

     Total force =     0.455936     Total SCF correction =     0.000233
  @ DRIVER MODE: Message from server: STATUS
  @ DRIVER MODE: Message from server: GETFORCE
  @ DRIVER MODE: Returning v,forces,stress,ensemble

     Writing output data file ./calc.save/
  @ DRIVER MODE: Message from server: EXIT
  @ DRIVE MODE: Exiting

     General routines

     Parallel routines

   This run was terminated on:  13:29:15  18Oct2021

   JOB DONE.