     Program PWSCF v.6.7GPU starts on 16Jul2021 at  6:22:59

     R & G space division:  proc/nbgrp/npool/nimage =      16
     Reading input from /storage/home/hcoda1/3/ntian30/research/carbon/15Jul_vib/ads_slab/CH3N2_b/out_0023/pw.inp
Warning: card &CELL ignored
Warning: card   CELL_DYNAMICS='IPI', ignored
Warning: card / ignored

     Current dimensions of program PWSCF are:
     Max number of different atomic species (ntypx) = 10
     Max number of k-points (npk) =  40000
     Max angular momentum in pseudopotentials (lmaxx) =  3
     Presently no symmetry can be used with electric field

     Message from routine cell_base_init:
     DEPRECATED: use true lattice parameter, not A to a.u. conversion factor

     IMPORTANT: XC functional enforced from input :
     Exchange-correlation= BEEF-VDW
                           (   1   4  43  14   2   0   0)
     Any further DFT definition will be discarded
     Please, verify this is what you really want

  @ DRIVER MODE: Connecting to
 qe_1139763_2351645.sched-torque.pace.gatech.edu0ed1guld_scratch
  using UNIX socket
  @ DRIVER MODE: Message from server: STATUS
  @ DRIVER MODE: Message from server: INIT
  @ DRIVER MODE: Receiving replica           0          -1
  @ DRIVER MODE: Receiving encoded integer          25
  @ DRIVER MODE:  SCF:  T  FORCE:  T  STRESS:  F  VC:  F  ENSEMBLE:  F
  @ DRIVER MODE:  SCF:  T  FORCE:  T  STRESS:  F  VC:  F  ENSEMBLE:  F

     Using Slab Decomposition

     bravais-lattice index     =            0
     lattice parameter (alat)  =       1.8897  a.u.
     unit-cell volume          =    6658.9804 (a.u.)^3
     number of atoms/cell      =           53
     number of atomic types    =            5
     number of electrons       =       395.00
     number of Kohn-Sham states=          207
     kinetic-energy cutoff     =      29.3995  Ry
     charge density cutoff     =     293.9946  Ry
     scf convergence threshold =      7.3E-08
     mixing beta               =       0.0500
     number of iterations used =            8  plain     mixing
     Exchange-correlation= BEEF-VDW
                           (   1   4  43  14   2   0   0)

     celldm(1)=   1.889726  celldm(2)=   0.000000  celldm(3)=   0.000000
     celldm(4)=   0.000000  celldm(5)=   0.000000  celldm(6)=   0.000000

     crystal axes: (cart. coord. in units of alat)
               a(1) = (   6.579727   0.000000   0.000000 )
               a(2) = (  -0.000775   5.961596   0.000000 )
               a(3) = (   0.000000   0.000000  25.155947 )

     reciprocal axes: (cart. coord. in units 2 pi/alat)
               b(1) = (  0.151982  0.000020  0.000000 )
               b(2) = (  0.000000  0.167740  0.000000 )
               b(3) = (  0.000000  0.000000  0.039752 )

     PseudoPot. # 1 for Ti read from file:
     /storage/coda1/p-amedford6/0/shared/rich_project_chbe-medford/medford-share/data/pseudos_module/espresso/nninc/pbe/van/Ti.UPF
     MD5 check sum: 8e4df49b7f0d34bbd5052bf3f5ea0213
     Pseudo is Ultrasoft, Zval = 12.0
     Generated by new atomic code, or converted to UPF format
     Using radial grid of  851 points,  6 beta functions with:
                l(1) =   0
                l(2) =   0
                l(3) =   1
                l(4) =   1
                l(5) =   2
                l(6) =   2
     Q(r) pseudized with  8 coefficients,  rinner =    1.000   1.000   1.000
                                                       1.000   1.000

     PseudoPot. # 2 for O  read from file:
     /storage/coda1/p-amedford6/0/shared/rich_project_chbe-medford/medford-share/data/pseudos_module/espresso/nninc/pbe/van/O.UPF
     MD5 check sum: 78c19812648e8988a0fe644b0f25305e
     Pseudo is Ultrasoft, Zval =  6.0
     Generated by new atomic code, or converted to UPF format
     Using radial grid of  737 points,  4 beta functions with:
                l(1) =   0
                l(2) =   0
                l(3) =   1
                l(4) =   1
     Q(r) pseudized with  8 coefficients,  rinner =    0.800   0.800   0.800

     PseudoPot. # 3 for N  read from file:
     /storage/coda1/p-amedford6/0/shared/rich_project_chbe-medford/medford-share/data/pseudos_module/espresso/nninc/pbe/van/N.UPF
     MD5 check sum: 90d10febe142ad51ac9d5be1deb811c4
     Pseudo is Ultrasoft, Zval =  5.0
     Generated by new atomic code, or converted to UPF format
     Using radial grid of  729 points,  4 beta functions with:
                l(1) =   0
                l(2) =   0
                l(3) =   1
                l(4) =   1
     Q(r) pseudized with  8 coefficients,  rinner =    0.800   0.800   0.800

     PseudoPot. # 4 for C  read from file:
     /storage/coda1/p-amedford6/0/shared/rich_project_chbe-medford/medford-share/data/pseudos_module/espresso/nninc/pbe/van/C.UPF
     MD5 check sum: 1a69bf6b8db32088f5b2163dbdb77a27
     Pseudo is Ultrasoft, Zval =  4.0
     Generated by new atomic code, or converted to UPF format
     Using radial grid of  721 points,  4 beta functions with:
                l(1) =   0
                l(2) =   0
                l(3) =   1
                l(4) =   1
     Q(r) pseudized with  8 coefficients,  rinner =    0.800   0.800   0.800

     PseudoPot. # 5 for H  read from file:
     /storage/coda1/p-amedford6/0/shared/rich_project_chbe-medford/medford-share/data/pseudos_module/espresso/nninc/pbe/van/H.UPF
     MD5 check sum: b5ee9d7bfd3a09ee7748110bda690ff7
     Pseudo is Ultrasoft, Zval =  1.0
     Generated by new atomic code, or converted to UPF format
     Using radial grid of  615 points,  1 beta functions with:
                l(1) =   0
     Q(r) pseudized with  8 coefficients,  rinner =    0.800

     atomic species   valence    mass     pseudopotential
        Ti1           12.00    47.86700     Ti( 1.00)
        O1             6.00    15.99900     O ( 1.00)
        N1             5.00    14.00700     N ( 1.00)
        C1             4.00    12.01100     C ( 1.00)
        H1             1.00     1.00800     H ( 1.00)

     Starting magnetic structure
     atomic species   magnetization
        Ti1          0.000
        O1           0.000
        N1           0.000
        C1           0.025
        H1           0.000

     No symmetry found

   Cartesian axes

     site n.     atom                  positions (alat units)
         1           Ti1 tau(   1) = (   0.0004258   2.9801865   6.0000000  )
         2           Ti1 tau(   2) = (   3.2906075   1.4906267   6.0002472  )
         3           O1  tau(   3) = (   0.0006271   0.0005054   7.9858123  )
         4           O1  tau(   4) = (   3.2906025   0.0005020   7.3038282  )
         5           O1  tau(   5) = (   4.5942328   1.4918067   9.2879030  )
         6           O1  tau(   6) = (   1.9868534   1.4903216   9.2879459  )
         7           Ti1 tau(   7) = (   3.2907910   2.8959150   9.1758416  )
         8           Ti1 tau(   8) = (   0.0015273   1.4827037   9.2680791  )
         9           O1  tau(   9) = (   3.3037365   0.0094216  11.3222111  )
        10           O1  tau(  10) = (   0.0116148   5.9584955  10.6183126  )
        11           O1  tau(  11) = (   1.3152514   1.5075076  12.6320051  )
        12           O1  tau(  12) = (   5.3186361   1.4995162  12.6508707  )
        13           Ti1 tau(  13) = (   6.5540705   2.9956815  12.5884341  )
        14           Ti1 tau(  14) = (   3.2234832   1.4927074  12.4921739  )
        15           O1  tau(  15) = (   0.0610261   5.9052480  14.6017706  )
        16           O1  tau(  16) = (   3.2936532   0.0132264  13.8830087  )
        17           O1  tau(  17) = (   4.5722397   1.5061520  16.0138922  )
        18           O1  tau(  18) = (   2.0767725   1.5295127  16.0808449  )
        19           Ti1 tau(  19) = (   3.3650854   3.0251465  15.6907462  )
        20           Ti1 tau(  20) = (   0.0387768   1.3037779  15.7216176  )
        21           O1  tau(  21) = (   3.2904802   0.0005063   4.7018136  )
        22           O1  tau(  22) = (   0.0189486   0.1070799  17.1824039  )
        23           O1  tau(  23) = (   1.3043587   1.4918075   6.0039043  )
        24           O1  tau(  24) = (   5.2767064   1.4903225   6.0039473  )
        25           Ti1 tau(  25) = (   0.0000382   5.9609847   6.0000000  )
        26           Ti1 tau(  26) = (   3.2902200   4.4714249   6.0002472  )
        27           O1  tau(  27) = (   0.0002396   2.9813036   7.9858123  )
        28           O1  tau(  28) = (   3.2902150   2.9813002   7.3038282  )
        29           O1  tau(  29) = (   4.5938453   4.4726049   9.2879030  )
        30           O1  tau(  30) = (   1.9864658   4.4711199   9.2879459  )
        31           Ti1 tau(  31) = (   3.2891106   5.8743827   9.1763621  )
        32           Ti1 tau(  32) = (   0.0006254   4.4649316   9.2693709  )
        33           O1  tau(  33) = (   3.3043114   2.9829305  11.3227053  )
        34           O1  tau(  34) = (   0.0092240   2.9805883  10.6323155  )
        35           O1  tau(  35) = (   1.3131995   4.4620516  12.6081187  )
        36           O1  tau(  36) = (   5.3117129   4.4692194  12.6284301  )
        37           Ti1 tau(  37) = (   6.5303063   5.9583428  12.5400172  )
        38           Ti1 tau(  38) = (   3.2255477   4.4746212  12.4748647  )
        39           O1  tau(  39) = (   0.0377805   3.0059521  14.8845374  )
        40           O1  tau(  40) = (   3.3120027   2.9986483  13.8863452  )
        41           O1  tau(  41) = (   4.5434534   4.5277214  16.0148975  )
        42           O1  tau(  42) = (   2.1165747   4.4940517  16.0783766  )
        43           Ti1 tau(  43) = (   3.3042555   0.0241951  15.7004812  )
        44           Ti1 tau(  44) = (   0.0495666   4.4505358  16.3362958  )
        45           O1  tau(  45) = (   3.2900926   2.9813045   4.7018136  )
        46           O1  tau(  46) = (   1.3039711   4.4726057   6.0039043  )
        47           O1  tau(  47) = (   5.2763189   4.4711207   6.0039473  )
        48           N1  tau(  48) = (   0.5348212   3.4288502  18.0689430  )
        49           C1  tau(  49) = (   1.3556880   3.0079929  19.2215664  )
        50           H1  tau(  50) = (   1.4862090   3.8900195  19.8496782  )
        51           H1  tau(  51) = (   0.8469181   2.2141957  19.7547163  )
        52           H1  tau(  52) = (   2.3296892   2.6851793  18.8624704  )
        53           N1  tau(  53) = (   5.9145885   3.2636146  17.9655992  )

     number of k points=    10  Fermi-Dirac smearing, width (Ry)=  0.0073
                       cart. coord. in units 2pi/alat
        k(    1) = (   0.0000000   0.0000000   0.0000000), wk =   0.0625000
        k(    2) = (   0.0000000   0.0419351   0.0000000), wk =   0.1250000
        k(    3) = (   0.0000000  -0.0838702   0.0000000), wk =   0.0625000
        k(    4) = (   0.0379955   0.0000049   0.0000000), wk =   0.1250000
        k(    5) = (   0.0379955   0.0419400   0.0000000), wk =   0.1250000
        k(    6) = (   0.0379955  -0.0838652   0.0000000), wk =   0.1250000
        k(    7) = (   0.0379955  -0.0419301   0.0000000), wk =   0.1250000
        k(    8) = (  -0.0759910  -0.0000099   0.0000000), wk =   0.0625000
[...]
     Initial potential from superposition of free atoms

     starting charge  378.99916, renormalised to  395.00000

     negative rho (up, down):  8.052E-03 8.059E-03

     %%%%%%%%%%%%%%%%%%%%%%%%%%%%%%%%%%%%%%%%%%%%%%%%%%%%%%%%%%%%%%%%%%%%%%%%
     %                                                                      %
     % You are using vdW-DF, which was implemented by the Thonhauser group. %
     % Please cite the following two papers that made this development      %
     % possible and the two reviews that describe the various versions:     %
     %                                                                      %
     %   T. Thonhauser et al., PRL 115, 136402 (2015).                      %
     %   T. Thonhauser et al., PRB 76, 125112 (2007).                       %
     %   K. Berland et al., Rep. Prog. Phys. 78, 066501 (2015).             %
     %   D.C. Langreth et al., J. Phys.: Condens. Matter 21, 084203 (2009). %
     %                                                                      %
     %                                                                      %
     % If you are calculating the stress with vdW-DF, please also cite:     %
     %                                                                      %
     %   R. Sabatini et al., J. Phys.: Condens. Matter 24, 424209 (2012).   %
     %                                                                      %
     %%%%%%%%%%%%%%%%%%%%%%%%%%%%%%%%%%%%%%%%%%%%%%%%%%%%%%%%%%%%%%%%%%%%%%%%

     Adding external electric field

     Computed dipole along edir(3) :
        Dipole               -8.5778 Ry au,        -21.8027 Debye
        Dipole field         -0.0162 Ry au,

        Potential amp.        1.5006 Ry
        Total length         46.3494 bohr

[...]

     Starting wfcs are  299 atomic wfcs
  @ DRIVER MODE: Message from server: STATUS
  @ DRIVER MODE: Message from server: POSDATA
  @ DRIVER MODE: Reading and sharing cell
  @ DRIVER MODE: Reading and sharing positions
  @ DRIVER MODE: Received positions

     Self-consistent Calculation

     iteration #  1     ecut=    29.40 Ry     beta= 0.05
     Davidson diagonalization with overlap
     c_bands:  1 eigenvalues not converged
     c_bands:  1 eigenvalues not converged
     c_bands:  1 eigenvalues not converged
     c_bands:  3 eigenvalues not converged
     c_bands:  1 eigenvalues not converged
     c_bands:  3 eigenvalues not converged
     c_bands:  1 eigenvalues not converged
     c_bands:  2 eigenvalues not converged
     c_bands:  1 eigenvalues not converged
     c_bands:  1 eigenvalues not converged
     c_bands:  1 eigenvalues not converged
     c_bands:  3 eigenvalues not converged
     c_bands:  1 eigenvalues not converged
     c_bands:  3 eigenvalues not converged
     c_bands:  1 eigenvalues not converged
     c_bands:  2 eigenvalues not converged
     ethr =  1.00E-05,  avg # of iterations = 19.2

[...]

     total energy              =   -2599.55561537 Ry
     estimated scf accuracy    <    3761.50752308 Ry

     total magnetization       =     0.00 Bohr mag/cell
     absolute magnetization    =     0.02 Bohr mag/cell

     iteration #  2     ecut=    29.40 Ry     beta= 0.05
     Davidson diagonalization with overlap
     ethr =  1.00E-02,  avg # of iterations = 22.4

[...]

     iteration # 75     ecut=    29.40 Ry     beta= 0.05
     Davidson diagonalization with overlap
     c_bands:  1 eigenvalues not converged
     c_bands:  1 eigenvalues not converged
     c_bands:  1 eigenvalues not converged
     c_bands:  1 eigenvalues not converged
     ethr =  1.60E-10,  avg # of iterations = 16.4

[...]

     total energy              =   -2939.12590279 Ry
     estimated scf accuracy    <       0.00000009 Ry

[...]

     iteration # 82     ecut=    29.40 Ry     beta= 0.05
     Davidson diagonalization with overlap
     ethr =  2.37E-11,  avg # of iterations =  6.3

     negative rho (up, down):  8.122E-03 8.123E-03

[...]

     Adding external electric field

     Computed dipole along edir(3) :
        Dipole                0.9127 Ry au,          2.3200 Debye
        Dipole field          0.0017 Ry au,

        Potential amp.       -0.1597 Ry
        Total length         46.3494 bohr

     Magnetic moment per site  (integrated on atomic sphere of radius R)
     atom   1 (R=0.727)  charge=  7.9485  magn=  0.0031
     atom   2 (R=0.727)  charge=  7.9316  magn=  0.0005
     atom   3 (R=0.727)  charge=  4.9370  magn= -0.0003
     atom   4 (R=0.727)  charge=  4.9739  magn= -0.0001
     atom   5 (R=0.727)  charge=  4.9424  magn= -0.0001
     atom   6 (R=0.727)  charge=  4.9431  magn= -0.0001
     atom   7 (R=0.727)  charge=  7.9299  magn=  0.0002
     atom   8 (R=0.727)  charge=  7.9249  magn=  0.0013
     atom   9 (R=0.727)  charge=  4.9562  magn= -0.0000
     atom  10 (R=0.727)  charge=  4.9398  magn= -0.0001
     atom  11 (R=0.727)  charge=  4.9438  magn= -0.0000
     atom  12 (R=0.727)  charge=  4.9403  magn= -0.0000
     atom  13 (R=0.727)  charge=  7.9199  magn=  0.0002
     atom  14 (R=0.727)  charge=  7.9286  magn=  0.0000
     atom  15 (R=0.727)  charge=  4.9368  magn=  0.0000
     atom  16 (R=0.727)  charge=  4.9585  magn=  0.0000
     atom  17 (R=0.727)  charge=  4.9269  magn=  0.0000
     atom  18 (R=0.727)  charge=  4.9196  magn=  0.0000
     atom  19 (R=0.727)  charge=  7.9516  magn= -0.0000
     atom  20 (R=0.727)  charge=  7.9765  magn=  0.0000
     atom  21 (R=0.727)  charge=  4.8266  magn= -0.0008
     atom  22 (R=0.727)  charge=  4.9097  magn=  0.0000
     atom  23 (R=0.727)  charge=  4.9340  magn= -0.0004
     atom  24 (R=0.727)  charge=  4.9341  magn= -0.0004
     atom  25 (R=0.727)  charge=  7.9485  magn=  0.0031
     atom  26 (R=0.727)  charge=  7.9316  magn=  0.0005
     atom  27 (R=0.727)  charge=  4.9364  magn= -0.0003
     atom  28 (R=0.727)  charge=  4.9741  magn= -0.0001
     atom  29 (R=0.727)  charge=  4.9433  magn= -0.0001
     atom  30 (R=0.727)  charge=  4.9439  magn= -0.0001
     atom  31 (R=0.727)  charge=  7.9304  magn=  0.0002
     atom  32 (R=0.727)  charge=  7.9251  magn=  0.0012
     atom  33 (R=0.727)  charge=  4.9554  magn= -0.0000
     atom  34 (R=0.727)  charge=  4.9242  magn= -0.0001
     atom  35 (R=0.727)  charge=  4.9448  magn= -0.0000
     atom  36 (R=0.727)  charge=  4.9438  magn= -0.0000
     atom  37 (R=0.727)  charge=  7.9230  magn=  0.0002
     atom  38 (R=0.727)  charge=  7.9295  magn=  0.0000
     atom  39 (R=0.727)  charge=  4.9078  magn= -0.0000
     atom  40 (R=0.727)  charge=  4.9611  magn=  0.0000
     atom  41 (R=0.727)  charge=  4.9355  magn=  0.0000
     atom  42 (R=0.727)  charge=  4.9348  magn=  0.0000
     atom  43 (R=0.727)  charge=  7.9537  magn= -0.0000
     atom  44 (R=0.727)  charge=  7.9726  magn=  0.0000
     atom  45 (R=0.727)  charge=  4.8266  magn= -0.0008
     atom  46 (R=0.727)  charge=  4.9340  magn= -0.0004
     atom  47 (R=0.727)  charge=  4.9341  magn= -0.0004
     atom  48 (R=0.501)  charge=  1.9977  magn=  0.0000
     atom  49 (R=0.447)  charge=  0.8402  magn=  0.0000
     atom  50 (R=0.447)  charge=  0.4955  magn=  0.0000
     atom  51 (R=0.447)  charge=  0.5025  magn= -0.0000
     atom  52 (R=0.447)  charge=  0.5004  magn= -0.0000
     atom  53 (R=0.501)  charge=  1.9556  magn= -0.0000

     End of self-consistent calculation

 ------ SPIN UP ------------

          k = 0.0000 0.0000 0.0000 ( 18029 PWs)   bands (ev):

   -55.7778 -55.7689 -55.7437 -55.7329 -55.6827 -55.6343 -55.5966 -55.5626
   -55.5546 -55.5210 -55.5187 -55.4457 -54.9554 -54.8057 -54.7559 -54.7219
   -32.3176 -32.2600 -32.1737 -32.0964 -32.0701 -32.0552 -32.0464 -32.0229
   -32.0048 -31.9692 -31.9391 -31.9303 -31.9207 -31.9038 -31.8821 -31.8819
   -31.8781 -31.8773 -31.8643 -31.8352 -31.8343 -31.8208 -31.7994 -31.7917
   -31.7885 -31.7814 -31.7804 -31.7545 -31.7401 -31.7356 -31.7257 -31.7097
   -31.7069 -31.6683 -31.6353 -31.5630 -31.4915 -31.3370 -31.1665 -31.1625
   -31.1036 -31.0747 -31.0649 -31.0522 -30.9796 -30.9115 -30.8931 -30.7817
   -19.4384 -16.5163 -16.2514 -15.9660 -15.9144 -15.8402 -15.7468 -15.6237
   -15.5280 -15.4095 -15.3707 -15.3141 -15.3071 -15.2628 -15.2358 -15.2318
   -15.2055 -15.1970 -15.1332 -15.1256 -15.0753 -15.0636 -15.0155 -14.9807
   -14.9690 -14.9135 -14.8450 -14.8039 -14.6849 -14.1593 -13.2552 -13.1386
   -12.3160  -7.2620  -4.9438  -4.7910  -3.8987  -3.7562  -3.7045  -3.6843
    -3.6398  -3.4394  -3.3522  -3.2831  -3.0434  -2.9519  -2.9274  -2.9167
    -2.8676  -2.7103  -2.6668  -2.6038  -2.5878  -2.5615  -2.5396  -2.5313
    -2.4966  -2.4857  -2.4647  -2.4268  -2.3256  -2.2121  -2.1830  -2.1055
    -2.0898  -2.0741  -2.0439  -2.0339  -2.0242  -2.0146  -1.9963  -1.9584
    -1.8952  -1.8511  -1.7862  -1.7016  -1.5601  -1.5385  -1.4600  -1.3843
    -1.3045  -1.2619  -1.2401  -1.2117  -1.1719  -1.0922  -1.0662  -0.9201
    -0.8231  -0.7900  -0.7730  -0.7305  -0.6944  -0.5922  -0.5705  -0.5413
    -0.5320  -0.5045  -0.4309  -0.3745  -0.2424  -0.2118  -0.2078  -0.1702
    -0.0994  -0.0457   0.0078   0.0570   0.0648   0.1007   0.1608   0.1860
     0.1909   0.2336   0.2758   0.3506   0.3768   0.4509   0.4549   0.5190
     0.5628   0.6445   0.7522   0.8747   1.0177   1.1547   1.2000   1.2692
     1.3637   1.4607   1.8397   1.8851   2.1457   3.3368   3.4427   3.4689
     3.4805   3.5876   3.7951   3.8193   3.8683   3.8884   3.8968

[...]

          k =-0.0760-0.0000 0.0000 ( 17886 PWs)   bands (ev):

[...]

 ------ SPIN DOWN ----------

[...]

          k = 0.0380-0.0419 0.0000 ( 17876 PWs)   bands (ev):

[...]

          k =-0.0760-0.0839 0.0000 ( 17948 PWs)   bands (ev):

   -55.7550 -55.7548 -55.7515 -55.7499 -55.6750 -55.6411 -55.5773 -55.5769
   -55.5377 -55.5373 -55.5143 -55.4501 -54.9541 -54.8068 -54.7373 -54.7371
   -32.1212 -32.1176 -32.0727 -32.0725 -32.0492 -32.0490 -32.0186 -32.0037
   -31.9975 -31.9887 -31.9199 -31.9147 -31.9029 -31.8965 -31.8807 -31.8786
   -31.8777 -31.8735 -31.8734 -31.8712 -31.8527 -31.8499 -31.8485 -31.8127
   -31.7833 -31.7808 -31.7791 -31.7670 -31.7667 -31.7566 -31.7557 -31.7547
   -31.7534 -31.7355 -31.7109 -31.6600 -31.4387 -31.3191 -31.1684 -31.1579
   -31.0817 -31.0634 -31.0633 -30.9739 -30.9737 -30.9349 -30.9348 -30.9143
   -19.4363 -15.9168 -15.9107 -15.7494 -15.7149 -15.6491 -15.6403 -15.5726
   -15.5055 -15.4608 -15.4558 -15.3406 -15.3384 -15.3240 -15.3022 -15.2481
   -15.2318 -15.2304 -15.2271 -15.2193 -15.2075 -15.1799 -15.1493 -15.0988
   -15.0938 -15.0729 -15.0626 -14.9411 -14.5313 -14.4694 -13.2431 -13.2430
   -12.3186  -7.2489  -4.9453  -4.7892  -3.6298  -3.2060  -3.1896  -3.0017
    -2.9185  -2.9072  -2.8918  -2.7394  -2.7275  -2.7104  -2.6528  -2.6451
    -2.6361  -2.5995  -2.5833  -2.5594  -2.5198  -2.5139  -2.4671  -2.4642
    -2.4483  -2.4400  -2.4077  -2.4027  -2.3886  -2.3744  -2.3363  -2.2804
    -2.2418  -2.2147  -2.1865  -2.0902  -2.0292  -1.9934  -1.9262  -1.9176
    -1.8667  -1.8419  -1.8275  -1.7612  -1.6907  -1.6612  -1.5769  -1.4854
    -1.4670  -1.4516  -1.3329  -1.3190  -1.2442  -1.2205  -1.1367  -1.1196
    -1.0800  -0.9693  -0.9460  -0.9147  -0.8800  -0.8362  -0.7725  -0.7356
    -0.7337  -0.6850  -0.6407  -0.5846  -0.5233  -0.5114  -0.4962  -0.4874
    -0.4238  -0.3901  -0.3681  -0.2858  -0.2707  -0.1890  -0.0452  -0.0123
     0.1450   0.1942   0.3032   0.3305   0.4216   0.4432   0.5370   0.5402
     0.5734   0.7024   0.7212   0.7388   0.7548   0.7747   0.7987   0.9377
     1.6317   1.6319   1.7031   1.7032   2.0831   3.6719   3.7090   3.7594
     3.7814   3.8866   3.8913   3.8939   3.9016   4.0235   4.0273

     the Fermi energy is     3.3522 ev

!    total energy              =   -2939.12590872 Ry
     estimated scf accuracy    <       0.00000007 Ry
     smearing contrib. (-TS)   =      -0.02052490 Ry
     internal energy E=F+TS    =   -2939.10538382 Ry

     The total energy is F=E-TS. E is the sum of the following terms:
     one-electron contribution =  -24213.84483723 Ry
     hartree contribution      =   12195.67748660 Ry
     xc contribution           =    -485.20405364 Ry
     ewald contribution        =    9564.26444829 Ry
     electric field correction =       0.00157216 Ry

     total magnetization       =     0.01 Bohr mag/cell
     absolute magnetization    =     0.02 Bohr mag/cell

     convergence has been achieved in  82 iterations

     Forces acting on atoms (cartesian axes, Ry/au):

     atom    1 type  1   force =     0.00008723   -0.00020889    0.09579796
     atom    2 type  1   force =     0.00007444   -0.00063141   -0.17550571
     atom    3 type  2   force =     0.00017875   -0.00019542   -0.02305449
     atom    4 type  2   force =     0.00004100   -0.00128593    0.05262818
     atom    5 type  2   force =    -0.00977749   -0.00031694    0.00254071
     atom    6 type  2   force =     0.01165714    0.00022416    0.00292424
     atom    7 type  1   force =     0.00088280   -0.00000570   -0.00988710
     atom    8 type  1   force =     0.00000736    0.00530844    0.01816779
     atom    9 type  2   force =    -0.00001569   -0.00028900   -0.00010739
     atom   10 type  2   force =    -0.00253832    0.00216059   -0.01348414
     atom   11 type  2   force =    -0.00097141    0.00010806    0.00017815
     atom   12 type  2   force =     0.00039140   -0.00025707    0.00049362
     atom   13 type  1   force =     0.00009867   -0.00007894    0.00054160
     atom   14 type  1   force =    -0.00003980   -0.00013747   -0.00017141
     atom   15 type  2   force =    -0.00058908    0.00025121    0.00043721
     atom   16 type  2   force =    -0.00043621    0.00008072    0.00019983
     atom   17 type  2   force =    -0.00015675   -0.00008902   -0.00030966
     atom   18 type  2   force =     0.00029032    0.00022073    0.00009537
     atom   19 type  1   force =    -0.00058286   -0.00055297    0.00070972
     atom   20 type  1   force =    -0.00025994    0.00039759   -0.00077585
     atom   21 type  2   force =     0.00006741   -0.00005803    0.10321293
     atom   22 type  2   force =     0.00009786   -0.00000504   -0.00036052
     atom   23 type  2   force =    -0.07154988   -0.00019293   -0.02754075
     atom   24 type  2   force =     0.07152939    0.00031103   -0.02759940
     atom   25 type  1   force =     0.00011933   -0.00027911    0.09518509
     atom   26 type  1   force =     0.00008747   -0.00048884   -0.17565811
     atom   27 type  2   force =     0.00016025   -0.00011838   -0.02180521
     atom   28 type  2   force =     0.00008167   -0.00105986    0.05250430
     atom   29 type  2   force =    -0.01015685    0.00023320    0.00291668
     atom   30 type  2   force =     0.01197325    0.00051930    0.00329649
     atom   31 type  1   force =     0.00088627    0.00413939   -0.01176303
     atom   32 type  1   force =     0.00013819   -0.00634141    0.01830749
     atom   33 type  2   force =     0.00016101    0.00041731   -0.00010278
     atom   34 type  2   force =    -0.00308476   -0.00010413   -0.00866493
     atom   35 type  2   force =    -0.00021082    0.00007016    0.00001530
     atom   36 type  2   force =    -0.00003136    0.00028090   -0.00006019
     atom   37 type  1   force =     0.00043483   -0.00094869    0.00019555
     atom   38 type  1   force =    -0.00032039    0.00009668    0.00034381
     atom   39 type  2   force =     0.00011368   -0.00027930    0.00053806
     atom   40 type  2   force =    -0.00008255    0.00026841    0.00016218
     atom   41 type  2   force =     0.00001007   -0.00014447   -0.00017901
     atom   42 type  2   force =    -0.00043358    0.00013312   -0.00039192
     atom   43 type  1   force =     0.00026459    0.00050379    0.00011597
     atom   44 type  1   force =    -0.00020197   -0.00092832   -0.00088721
     atom   45 type  2   force =     0.00007472   -0.00005967    0.10316608
     atom   46 type  2   force =    -0.07156392   -0.00009299   -0.02753386
     atom   47 type  2   force =     0.07154829    0.00025768   -0.02759524
     atom   48 type  3   force =     0.00075267    0.00030647   -0.00036208
     atom   49 type  4   force =     0.00266443    0.00363481   -0.00454867
     atom   50 type  5   force =    -0.00000465   -0.00029689    0.00033182
     atom   51 type  5   force =    -0.00325780   -0.00426724    0.00431950
     atom   52 type  5   force =     0.00036457   -0.00054981   -0.00078777
     atom   53 type  3   force =     0.00102703    0.00034015   -0.00018917

     Total force =     0.364864     Total SCF correction =     0.000503
  @ DRIVER MODE: Message from server: STATUS
  @ DRIVER MODE: Message from server: GETFORCE
  @ DRIVER MODE: Returning v,forces,stress,ensemble

     Writing output data file ./calc.save/
  @ DRIVER MODE: Message from server: EXIT
  @ DRIVE MODE: Exiting

     General routines

     Parallel routines

   This run was terminated on:   6:59: 6  16Jul2021

   JOB DONE.