     Program PWSCF v.6.7GPU starts on 16Sep2021 at  3:11:27

     R & G space division:  proc/nbgrp/npool/nimage =      10
     Reading input from /storage/home/hcoda1/3/ntian30/research/carbon/CxH_vib/H2O_calc/ads_slab/CHNH2O_a/out_0036/pw.inp
Warning: card &CELL ignored
Warning: card   CELL_DYNAMICS='IPI', ignored
Warning: card / ignored

     Current dimensions of program PWSCF are:
     Max number of different atomic species (ntypx) = 10
     Max number of k-points (npk) =  40000
     Max angular momentum in pseudopotentials (lmaxx) =  3
     Presently no symmetry can be used with electric field

     Message from routine cell_base_init:
     DEPRECATED: use true lattice parameter, not A to a.u. conversion factor

     IMPORTANT: XC functional enforced from input :
     Exchange-correlation= BEEF-VDW
                           (   1   4  43  14   2   0   0)
     Any further DFT definition will be discarded
     Please, verify this is what you really want

  @ DRIVER MODE: Connecting to
 qe_1139763_2852627.sched-torque.pace.gatech.edu9926fzda_scratch
  using UNIX socket
  @ DRIVER MODE: Message from server: STATUS
  @ DRIVER MODE: Message from server: INIT
  @ DRIVER MODE: Receiving replica           0          -1
  @ DRIVER MODE: Receiving encoded integer          25
  @ DRIVER MODE:  SCF:  T  FORCE:  T  STRESS:  F  VC:  F  ENSEMBLE:  F
  @ DRIVER MODE:  SCF:  T  FORCE:  T  STRESS:  F  VC:  F  ENSEMBLE:  F

     Using Slab Decomposition

     bravais-lattice index     =            0
     lattice parameter (alat)  =       1.8897  a.u.
     unit-cell volume          =    6658.9804 (a.u.)^3
     number of atoms/cell      =           53
     number of atomic types    =            5
     number of electrons       =       396.00
     number of Kohn-Sham states=          208
     kinetic-energy cutoff     =      29.3995  Ry
     charge density cutoff     =     293.9946  Ry
     scf convergence threshold =      7.3E-08
     mixing beta               =       0.0500
     number of iterations used =            8  plain     mixing
     Exchange-correlation= BEEF-VDW
                           (   1   4  43  14   2   0   0)

     celldm(1)=   1.889726  celldm(2)=   0.000000  celldm(3)=   0.000000
     celldm(4)=   0.000000  celldm(5)=   0.000000  celldm(6)=   0.000000

     crystal axes: (cart. coord. in units of alat)
               a(1) = (   6.579727   0.000000   0.000000 )
               a(2) = (  -0.000775   5.961596   0.000000 )
               a(3) = (   0.000000   0.000000  25.155947 )

     reciprocal axes: (cart. coord. in units 2 pi/alat)
               b(1) = (  0.151982  0.000020  0.000000 )
               b(2) = (  0.000000  0.167740  0.000000 )
               b(3) = (  0.000000  0.000000  0.039752 )

     PseudoPot. # 1 for Ti read from file:
     /storage/coda1/p-amedford6/0/shared/rich_project_chbe-medford/medford-share/data/pseudos_module/espresso/nninc/pbe/van/Ti.UPF
     MD5 check sum: 8e4df49b7f0d34bbd5052bf3f5ea0213
     Pseudo is Ultrasoft, Zval = 12.0
     Generated by new atomic code, or converted to UPF format
     Using radial grid of  851 points,  6 beta functions with:
                l(1) =   0
                l(2) =   0
                l(3) =   1
                l(4) =   1
                l(5) =   2
                l(6) =   2
     Q(r) pseudized with  8 coefficients,  rinner =    1.000   1.000   1.000
                                                       1.000   1.000

     PseudoPot. # 2 for O  read from file:
     /storage/coda1/p-amedford6/0/shared/rich_project_chbe-medford/medford-share/data/pseudos_module/espresso/nninc/pbe/van/O.UPF
     MD5 check sum: 78c19812648e8988a0fe644b0f25305e
     Pseudo is Ultrasoft, Zval =  6.0
     Generated by new atomic code, or converted to UPF format
     Using radial grid of  737 points,  4 beta functions with:
                l(1) =   0
                l(2) =   0
                l(3) =   1
                l(4) =   1
     Q(r) pseudized with  8 coefficients,  rinner =    0.800   0.800   0.800

     PseudoPot. # 3 for N  read from file:
     /storage/coda1/p-amedford6/0/shared/rich_project_chbe-medford/medford-share/data/pseudos_module/espresso/nninc/pbe/van/N.UPF
     MD5 check sum: 90d10febe142ad51ac9d5be1deb811c4
     Pseudo is Ultrasoft, Zval =  5.0
     Generated by new atomic code, or converted to UPF format
     Using radial grid of  729 points,  4 beta functions with:
                l(1) =   0
                l(2) =   0
                l(3) =   1
                l(4) =   1
     Q(r) pseudized with  8 coefficients,  rinner =    0.800   0.800   0.800

     PseudoPot. # 4 for C  read from file:
     /storage/coda1/p-amedford6/0/shared/rich_project_chbe-medford/medford-share/data/pseudos_module/espresso/nninc/pbe/van/C.UPF
     MD5 check sum: 1a69bf6b8db32088f5b2163dbdb77a27
     Pseudo is Ultrasoft, Zval =  4.0
     Generated by new atomic code, or converted to UPF format
     Using radial grid of  721 points,  4 beta functions with:
                l(1) =   0
                l(2) =   0
                l(3) =   1
                l(4) =   1
     Q(r) pseudized with  8 coefficients,  rinner =    0.800   0.800   0.800

     PseudoPot. # 5 for H  read from file:
     /storage/coda1/p-amedford6/0/shared/rich_project_chbe-medford/medford-share/data/pseudos_module/espresso/nninc/pbe/van/H.UPF
     MD5 check sum: b5ee9d7bfd3a09ee7748110bda690ff7
     Pseudo is Ultrasoft, Zval =  1.0
     Generated by new atomic code, or converted to UPF format
     Using radial grid of  615 points,  1 beta functions with:
                l(1) =   0
     Q(r) pseudized with  8 coefficients,  rinner =    0.800

     atomic species   valence    mass     pseudopotential
        Ti1           12.00    47.86700     Ti( 1.00)
        O1             6.00    15.99900     O ( 1.00)
        N1             5.00    14.00700     N ( 1.00)
        C1             4.00    12.01100     C ( 1.00)
        H1             1.00     1.00800     H ( 1.00)

     No symmetry found

   Cartesian axes

     site n.     atom                  positions (alat units)
         1           Ti1 tau(   1) = (   0.0004258   2.9801865   6.0000000  )
         2           Ti1 tau(   2) = (   3.2906075   1.4906267   6.0002472  )
         3           O1  tau(   3) = (   0.0006271   0.0005054   7.9858123  )
         4           O1  tau(   4) = (   3.2906025   0.0005020   7.3038282  )
         5           O1  tau(   5) = (   4.5942328   1.4918067   9.2879030  )
         6           O1  tau(   6) = (   1.9868534   1.4903216   9.2879459  )
         7           Ti1 tau(   7) = (   3.2907910   2.8959150   9.1758416  )
         8           Ti1 tau(   8) = (   0.0015273   1.4827037   9.2680791  )
         9           O1  tau(   9) = (   3.3001320   0.0223556  11.3750156  )
        10           O1  tau(  10) = (   0.0116148   5.9584955  10.6183126  )
        11           O1  tau(  11) = (   1.2984793   1.5070296  12.6822906  )
        12           O1  tau(  12) = (   5.3053048   1.5066133  12.6782214  )
        13           Ti1 tau(  13) = (   0.0240538   2.9928608  12.5236668  )
        14           Ti1 tau(  14) = (   3.3205759   1.5163330  12.5292614  )
        15           O1  tau(  15) = (   0.0116174   5.9170763  14.6754219  )
        16           O1  tau(  16) = (   3.3074613   5.9602333  14.0123823  )
        17           O1  tau(  17) = (   4.5729729   1.5428591  16.1031931  )
        18           O1  tau(  18) = (   2.0357456   1.5455963  16.0959954  )
        19           Ti1 tau(  19) = (   3.3038618   3.0179751  15.7376193  )
        20           Ti1 tau(  20) = (   0.0182819   1.3639466  15.8252938  )
        21           O1  tau(  21) = (   3.2904802   0.0005063   4.7018136  )
        22           O1  tau(  22) = (   0.0233993   0.1148627  17.2261141  )
        23           O1  tau(  23) = (   1.3043587   1.4918075   6.0039043  )
        24           O1  tau(  24) = (   5.2767064   1.4903225   6.0039473  )
        25           Ti1 tau(  25) = (   0.0000382   5.9609847   6.0000000  )
        26           Ti1 tau(  26) = (   3.2902200   4.4714249   6.0002472  )
        27           O1  tau(  27) = (   0.0002396   2.9813036   7.9858123  )
        28           O1  tau(  28) = (   3.2902150   2.9813002   7.3038282  )
        29           O1  tau(  29) = (   4.5938453   4.4726049   9.2879030  )
        30           O1  tau(  30) = (   1.9864658   4.4711199   9.2879459  )
        31           Ti1 tau(  31) = (   3.2891106   5.8743827   9.1763621  )
        32           Ti1 tau(  32) = (   0.0006254   4.4649316   9.2693709  )
        33           O1  tau(  33) = (   3.3008157   2.9919736  11.3713264  )
        34           O1  tau(  34) = (   0.0092240   2.9805883  10.6323155  )
        35           O1  tau(  35) = (   1.3007438   4.4795902  12.6508594  )
        36           O1  tau(  36) = (   5.3032704   4.4808111  12.6474791  )
        37           Ti1 tau(  37) = (   0.0257871   0.0021926  12.5000826  )
        38           Ti1 tau(  38) = (   3.3207303   4.5031034  12.5344522  )
        39           O1  tau(  39) = (   0.0087802   3.0322157  14.9253570  )
        40           O1  tau(  40) = (   3.3068524   3.0154938  13.9499554  )
        41           O1  tau(  41) = (   4.5633958   4.4699756  16.2119971  )
        42           O1  tau(  42) = (   2.0378630   4.4655417  16.1963084  )
        43           Ti1 tau(  43) = (   3.3121544   0.0541299  15.8353365  )
        44           Ti1 tau(  44) = (   0.0163097   4.5868159  16.0488687  )
        45           O1  tau(  45) = (   3.2900926   2.9813045   4.7018136  )
        46           O1  tau(  46) = (   1.3039711   4.4726057   6.0039043  )
        47           O1  tau(  47) = (   5.2763189   4.4711207   6.0039473  )
        48           N1  tau(  48) = (   0.0062226   3.2377968  17.9635855  )
        49           C1  tau(  49) = (   6.5597590   2.5083335  18.8557918  )
        50           H1  tau(  50) = (   6.5336154   1.7992569  19.6484373  )
        51           O1  tau(  51) = (   3.2480284   5.9531242  18.4006015  )
        52           H1  tau(  52) = (   3.9795166   5.3132839  18.3896481  )
        53           H1  tau(  53) = (   2.4340588   5.4237150  18.3512978  )

     number of k points=    10  Fermi-Dirac smearing, width (Ry)=  0.0073
                       cart. coord. in units 2pi/alat
        k(    1) = (   0.0000000   0.0000000   0.0000000), wk =   0.1250000
        k(    2) = (   0.0000000   0.0419351   0.0000000), wk =   0.2500000
        k(    3) = (   0.0000000  -0.0838702   0.0000000), wk =   0.1250000
        k(    4) = (   0.0379955   0.0000049   0.0000000), wk =   0.2500000
        k(    5) = (   0.0379955   0.0419400   0.0000000), wk =   0.2500000
        k(    6) = (   0.0379955  -0.0838652   0.0000000), wk =   0.2500000
        k(    7) = (   0.0379955  -0.0419301   0.0000000), wk =   0.2500000
        k(    8) = (  -0.0759910  -0.0000099   0.0000000), wk =   0.1250000
        k(    9) = (  -0.0759910   0.0419252   0.0000000), wk =   0.2500000
        k(   10) = (  -0.0759910  -0.0838800   0.0000000), wk =   0.1250000

     Initial potential from superposition of free atoms

     starting charge  379.99917, renormalised to  396.00000

     negative rho (up, down):  1.669E-02 0.000E+00

     %%%%%%%%%%%%%%%%%%%%%%%%%%%%%%%%%%%%%%%%%%%%%%%%%%%%%%%%%%%%%%%%%%%%%%%%
     %                                                                      %
     % You are using vdW-DF, which was implemented by the Thonhauser group. %
     % Please cite the following two papers that made this development      %
     % possible and the two reviews that describe the various versions:     %
     %                                                                      %
     %   T. Thonhauser et al., PRL 115, 136402 (2015).                      %
     %   T. Thonhauser et al., PRB 76, 125112 (2007).                       %
     %   K. Berland et al., Rep. Prog. Phys. 78, 066501 (2015).             %
     %   D.C. Langreth et al., J. Phys.: Condens. Matter 21, 084203 (2009). %
     %                                                                      %
     %                                                                      %
     % If you are calculating the stress with vdW-DF, please also cite:     %
     %                                                                      %
     %   R. Sabatini et al., J. Phys.: Condens. Matter 24, 424209 (2012).   %
     %                                                                      %
     %%%%%%%%%%%%%%%%%%%%%%%%%%%%%%%%%%%%%%%%%%%%%%%%%%%%%%%%%%%%%%%%%%%%%%%%

     Adding external electric field

     Computed dipole along edir(3) :
        Dipole               -9.4946 Ry au,        -24.1328 Debye
        Dipole field         -0.0179 Ry au,

        Potential amp.        1.6609 Ry
        Total length         46.3494 bohr

     Starting wfcs are  299 atomic wfcs
  @ DRIVER MODE: Message from server: STATUS
  @ DRIVER MODE: Message from server: POSDATA
  @ DRIVER MODE: Reading and sharing cell
  @ DRIVER MODE: Reading and sharing positions
  @ DRIVER MODE: Received positions

     Self-consistent Calculation

     iteration #  1     ecut=    29.40 Ry     beta= 0.05
     Davidson diagonalization with overlap
     c_bands:  1 eigenvalues not converged
     c_bands:  1 eigenvalues not converged
     c_bands:  2 eigenvalues not converged
     c_bands:  3 eigenvalues not converged
     c_bands:  3 eigenvalues not converged
     c_bands:  2 eigenvalues not converged
     c_bands:  3 eigenvalues not converged
     c_bands:  1 eigenvalues not converged
     c_bands:  2 eigenvalues not converged
     c_bands:  2 eigenvalues not converged
     ethr =  1.00E-05,  avg # of iterations = 20.0

[...]

     total energy              =   -2563.41250554 Ry
     estimated scf accuracy    <    4341.74563682 Ry

     iteration #  2     ecut=    29.40 Ry     beta= 0.05
     Davidson diagonalization with overlap
     ethr =  1.00E-02,  avg # of iterations = 23.8

[...]

     iteration # 71     ecut=    29.40 Ry     beta= 0.05
     Davidson diagonalization with overlap
     c_bands:  1 eigenvalues not converged
     ethr =  4.19E-11,  avg # of iterations = 13.0

[...]

     total energy              =   -2951.44743821 Ry
     estimated scf accuracy    <       0.00000020 Ry

     iteration # 73     ecut=    29.40 Ry     beta= 0.05
     Davidson diagonalization with overlap
     ethr =  2.74E-11,  avg # of iterations = 14.1

     negative rho (up, down):  1.628E-02 0.000E+00

     Adding external electric field

     Computed dipole along edir(3) :
        Dipole                1.4857 Ry au,          3.7763 Debye
        Dipole field          0.0028 Ry au,

        Potential amp.       -0.2599 Ry
        Total length         46.3494 bohr

     End of self-consistent calculation

          k = 0.0000 0.0000 0.0000 ( 18029 PWs)   bands (ev):

   -55.3139 -55.2780 -55.2769 -55.2428 -55.2246 -55.1919 -55.1546 -55.1363
   -55.1160 -55.1055 -55.1016 -55.0909 -55.0719 -55.0051 -54.3016 -54.2675
   -31.8736 -31.7685 -31.7086 -31.6808 -31.6327 -31.6251 -31.6103 -31.6096
   -31.5659 -31.5312 -31.5247 -31.5213 -31.4987 -31.4856 -31.4617 -31.4588
   -31.4544 -31.4522 -31.4351 -31.4290 -31.4005 -31.3900 -31.3838 -31.3718
   -31.3657 -31.3370 -31.3355 -31.3341 -31.3228 -31.3213 -31.3197 -31.3026
   -31.2946 -31.2886 -31.2846 -31.2608 -31.2499 -31.2385 -31.2336 -31.2156
   -31.2143 -31.1223 -30.7108 -30.6170 -30.5949 -30.5271 -30.4404 -30.3295
   -18.9237 -17.3401 -16.1194 -15.8647 -15.7115 -15.6109 -15.5123 -15.3706
   -15.3165 -15.2068 -15.1412 -15.0006 -14.9634 -14.9450 -14.9276 -14.9248
   -14.8805 -14.8534 -14.8473 -14.8139 -14.8114 -14.7852 -14.7492 -14.7403
   -14.7099 -14.6942 -14.6468 -14.5392 -14.4700 -14.4069 -14.1102 -12.8042
   -12.6868  -8.9835  -6.6531  -4.6233  -3.4646  -3.4313  -3.3249  -3.2194
    -3.2119  -3.1875  -3.1679  -3.0587  -3.0254  -2.7758  -2.7168  -2.6583
    -2.5691  -2.4967  -2.4860  -2.4457  -2.3177  -2.2752  -2.2346  -2.1673
    -2.1487  -2.1222  -2.0981  -2.0890  -2.0289  -2.0231  -1.9993  -1.8823
    -1.8414  -1.7740  -1.7241  -1.7074  -1.6544  -1.6333  -1.6024  -1.6016
    -1.5966  -1.5515  -1.5497  -1.4962  -1.4838  -1.3784  -1.3373  -1.1490
    -1.0543  -0.9972  -0.9524  -0.8853  -0.8710  -0.7974  -0.7572  -0.7021
    -0.7002  -0.6432  -0.5228  -0.4321  -0.4114  -0.3817  -0.2961  -0.2598
    -0.1975  -0.1817  -0.0939  -0.0809  -0.0745  -0.0667   0.0622   0.1112
     0.1922   0.1979   0.2472   0.2675   0.3456   0.3603   0.4309   0.4689
     0.5248   0.5687   0.6249   0.6332   0.6584   0.6785   0.6954   0.7852
     0.7985   0.8261   0.9001   1.0370   1.2278   1.2977   1.3201   1.6286
     1.6497   1.7211   1.9060   2.2968   2.3449   3.7801   3.8590   3.9214
     3.9307   3.9432   4.0160   4.2626   4.2798   4.2807   4.2960   4.3232

[...]

          k = 0.0380-0.0419 0.0000 ( 17876 PWs)   bands (ev):

[...]

          k =-0.0760-0.0000 0.0000 ( 17886 PWs)   bands (ev):

[...]

          k =-0.0760-0.0839 0.0000 ( 17948 PWs)   bands (ev):

   -55.2974 -55.2942 -55.2598 -55.2597 -55.2223 -55.1805 -55.1660 -55.1211
   -55.1163 -55.1130 -55.0931 -55.0892 -55.0885 -55.0079 -54.2846 -54.2844
   -31.6824 -31.6744 -31.6310 -31.5836 -31.5836 -31.5693 -31.5611 -31.5513
   -31.5512 -31.5247 -31.5141 -31.5116 -31.5019 -31.4698 -31.4535 -31.4491
   -31.4448 -31.4423 -31.4405 -31.4343 -31.4294 -31.3964 -31.3938 -31.3931
   -31.3795 -31.3794 -31.3768 -31.3725 -31.3603 -31.3536 -31.3472 -31.3407
   -31.3343 -31.3298 -31.3182 -31.3165 -31.3097 -31.2768 -31.2690 -31.2685
   -31.2220 -31.2136 -30.6076 -30.6074 -30.5234 -30.5232 -30.4838 -30.4837
   -18.9228 -17.3352 -15.6554 -15.5507 -15.4410 -15.3211 -15.3131 -15.2563
   -15.2086 -15.1282 -15.0866 -15.0746 -15.0537 -15.0396 -15.0089 -15.0042
   -14.9843 -14.9102 -14.8995 -14.8892 -14.8660 -14.8246 -14.8139 -14.8112
   -14.7939 -14.7685 -14.7644 -14.6696 -14.6667 -14.5713 -14.4462 -12.7884
   -12.7883  -8.9814  -6.6463  -4.6101  -3.3329  -3.2555  -2.9315  -2.8177
    -2.7732  -2.6823  -2.5324  -2.5028  -2.4320  -2.4259  -2.3588  -2.3067
    -2.2924  -2.2732  -2.1901  -2.1733  -2.1628  -2.1505  -2.1377  -2.1096
    -2.0865  -2.0389  -2.0353  -2.0346  -2.0251  -2.0045  -1.9684  -1.9489
    -1.9093  -1.9004  -1.8792  -1.8333  -1.7899  -1.7725  -1.7553  -1.6499
    -1.6234  -1.5171  -1.5124  -1.4124  -1.4077  -1.3809  -1.3554  -1.3458
    -1.2775  -1.2105  -1.0587  -1.0492  -1.0165  -0.9393  -0.9264  -0.8693
    -0.8627  -0.7777  -0.7610  -0.7322  -0.6375  -0.6072  -0.5041  -0.4901
    -0.4815  -0.3450  -0.3409  -0.2844  -0.2730  -0.2701  -0.2016  -0.1959
    -0.1897  -0.1086  -0.0743  -0.0473  -0.0362   0.0174   0.2058   0.2328
     0.2630   0.3856   0.4335   0.5740   0.6672   0.6723   0.7429   0.8052
     0.8240   0.8843   0.9814   0.9947   1.0519   1.0815   1.1299   1.1448
     1.1549   2.0782   2.0793   2.1648   2.1649   3.8961   3.9953   4.0630
     4.1134   4.1265   4.2161   4.3011   4.3297   4.3622   4.3642   4.4409

     the Fermi energy is     3.8377 ev

!    total energy              =   -2951.44745363 Ry
     estimated scf accuracy    <       0.00000004 Ry
     smearing contrib. (-TS)   =      -0.03730949 Ry
     internal energy E=F+TS    =   -2951.41014415 Ry

     The total energy is F=E-TS. E is the sum of the following terms:
     one-electron contribution =  -24060.55728467 Ry
     hartree contribution      =   12123.36671903 Ry
     xc contribution           =    -487.22864683 Ry
     ewald contribution        =    9473.00490272 Ry
     electric field correction =       0.00416560 Ry

     convergence has been achieved in  73 iterations

     Forces acting on atoms (cartesian axes, Ry/au):

     atom    1 type  1   force =    -0.00003553   -0.00026036    0.09359736
     atom    2 type  1   force =    -0.00016218   -0.00044768   -0.17783783
     atom    3 type  2   force =     0.00002647   -0.00025505   -0.02077965
     atom    4 type  2   force =    -0.00003129   -0.00179918    0.05841549
     atom    5 type  2   force =    -0.01030140   -0.00058674    0.00697793
     atom    6 type  2   force =     0.01196550    0.00004893    0.00669002
     atom    7 type  1   force =    -0.00013116    0.00222294   -0.01162714
     atom    8 type  1   force =    -0.00007073    0.00225188   -0.00161815
     atom    9 type  2   force =     0.00007418    0.00060890    0.00060366
     atom   10 type  2   force =    -0.00107326    0.00322050   -0.00395249
     atom   11 type  2   force =     0.00037266   -0.00031635   -0.00031029
     atom   12 type  2   force =    -0.00041087   -0.00032011   -0.00018464
     atom   13 type  1   force =     0.00000880    0.00014916    0.00024802
     atom   14 type  1   force =    -0.00000138   -0.00046553    0.00042933
     atom   15 type  2   force =    -0.00025663   -0.00067576    0.00062175
     atom   16 type  2   force =    -0.00001372    0.00044506    0.00021434
     atom   17 type  2   force =     0.00002717   -0.00028464   -0.00017720
     atom   18 type  2   force =     0.00020109   -0.00025749   -0.00048391
     atom   19 type  1   force =    -0.00053688   -0.00110231   -0.00016650
     atom   20 type  1   force =     0.00017657   -0.00000419   -0.00082588
     atom   21 type  2   force =    -0.00001337   -0.00011848    0.10389346
     atom   22 type  2   force =    -0.00006564    0.00054767   -0.00041287
     atom   23 type  2   force =    -0.07054333   -0.00021991   -0.02694766
     atom   24 type  2   force =     0.07033596    0.00021260   -0.02699996
     atom   25 type  1   force =    -0.00001245   -0.00027405    0.09314226
     atom   26 type  1   force =    -0.00019135   -0.00052247   -0.17810973
     atom   27 type  2   force =     0.00007048   -0.00021537   -0.01971086
     atom   28 type  2   force =     0.00001663   -0.00155686    0.05762190
     atom   29 type  2   force =    -0.01084191   -0.00007678    0.00741355
     atom   30 type  2   force =     0.01236804    0.00026001    0.00709333
     atom   31 type  1   force =    -0.00009462    0.00572857   -0.01416311
     atom   32 type  1   force =    -0.00008868   -0.00265902   -0.00139858
     atom   33 type  2   force =     0.00011005   -0.00052040    0.00033356
     atom   34 type  2   force =    -0.00048155   -0.00029721   -0.00100419
     atom   35 type  2   force =    -0.00032950   -0.00017236   -0.00033050
     atom   36 type  2   force =     0.00032995   -0.00029624   -0.00012179
     atom   37 type  1   force =     0.00011591   -0.00043533    0.00059029
     atom   38 type  1   force =    -0.00002734   -0.00060846   -0.00027326
     atom   39 type  2   force =    -0.00000715    0.00013453    0.00016800
     atom   40 type  2   force =    -0.00006932   -0.00014535   -0.00006724
     atom   41 type  2   force =     0.00005142    0.00015920    0.00044084
     atom   42 type  2   force =     0.00020839    0.00011867    0.00026162
     atom   43 type  1   force =    -0.00069528    0.00045356   -0.00017798
     atom   44 type  1   force =     0.00045572    0.00040286   -0.00037888
     atom   45 type  2   force =    -0.00002259   -0.00014935    0.10386515
     atom   46 type  2   force =    -0.07052735   -0.00015362   -0.02694018
     atom   47 type  2   force =     0.07033022    0.00027808   -0.02699690
     atom   48 type  3   force =    -0.00003101   -0.00097809    0.00076274
     atom   49 type  4   force =    -0.00009933    0.00028964   -0.00023653
     atom   50 type  5   force =    -0.00008671   -0.00122575   -0.00020165
     atom   51 type  2   force =     0.00117298    0.00102703   -0.00031196
     atom   52 type  5   force =     0.00002165   -0.00058541   -0.00021007
     atom   53 type  5   force =    -0.00118638   -0.00057392   -0.00042700

     Total force =     0.365836     Total SCF correction =     0.000620
  @ DRIVER MODE: Message from server: STATUS
  @ DRIVER MODE: Message from server: GETFORCE
  @ DRIVER MODE: Returning v,forces,stress,ensemble

     Writing output data file ./calc.save/
  @ DRIVER MODE: Message from server: EXIT
  @ DRIVE MODE: Exiting

     General routines

     Parallel routines

   This run was terminated on:   3:30:49  16Sep2021

   JOB DONE.