     Program PWSCF v.6.7GPU starts on 22Sep2021 at 18:47: 2

     R & G space division:  proc/nbgrp/npool/nimage =      10
     Reading input from /storage/home/hcoda1/3/ntian30/research/carbon/CxH_vib/H2O_calc/ads_slab/CHNHNHH2O_b/out_0009/pw.inp
Warning: card &CELL ignored
Warning: card   CELL_DYNAMICS='IPI', ignored
Warning: card / ignored

     Current dimensions of program PWSCF are:
     Max number of different atomic species (ntypx) = 10
     Max number of k-points (npk) =  40000
     Max angular momentum in pseudopotentials (lmaxx) =  3
     Presently no symmetry can be used with electric field

     Message from routine cell_base_init:
     DEPRECATED: use true lattice parameter, not A to a.u. conversion factor

     IMPORTANT: XC functional enforced from input :
     Exchange-correlation= BEEF-VDW
                           (   1   4  43  14   2   0   0)
     Any further DFT definition will be discarded
     Please, verify this is what you really want

  @ DRIVER MODE: Connecting to
 qe_1139763_2937311.sched-torque.pace.gatech.eduw0f337n0_scratch
  using UNIX socket
  @ DRIVER MODE: Message from server: STATUS
  @ DRIVER MODE: Message from server: INIT
  @ DRIVER MODE: Receiving replica           0          -1
  @ DRIVER MODE: Receiving encoded integer          25
  @ DRIVER MODE:  SCF:  T  FORCE:  T  STRESS:  F  VC:  F  ENSEMBLE:  F
  @ DRIVER MODE:  SCF:  T  FORCE:  T  STRESS:  F  VC:  F  ENSEMBLE:  F

     Using Slab Decomposition

     bravais-lattice index     =            0
     lattice parameter (alat)  =       1.8897  a.u.
     unit-cell volume          =    6658.9804 (a.u.)^3
     number of atoms/cell      =           56
     number of atomic types    =            5
     number of electrons       =       403.00
     number of Kohn-Sham states=          211
     kinetic-energy cutoff     =      29.3995  Ry
     charge density cutoff     =     293.9946  Ry
     scf convergence threshold =      7.3E-08
     mixing beta               =       0.0500
     number of iterations used =            8  plain     mixing
     Exchange-correlation= BEEF-VDW
                           (   1   4  43  14   2   0   0)

     celldm(1)=   1.889726  celldm(2)=   0.000000  celldm(3)=   0.000000
     celldm(4)=   0.000000  celldm(5)=   0.000000  celldm(6)=   0.000000

     crystal axes: (cart. coord. in units of alat)
               a(1) = (   6.579727   0.000000   0.000000 )
               a(2) = (  -0.000775   5.961596   0.000000 )
               a(3) = (   0.000000   0.000000  25.155947 )

     reciprocal axes: (cart. coord. in units 2 pi/alat)
               b(1) = (  0.151982  0.000020  0.000000 )
               b(2) = (  0.000000  0.167740  0.000000 )
               b(3) = (  0.000000  0.000000  0.039752 )

     PseudoPot. # 1 for Ti read from file:
     /storage/coda1/p-amedford6/0/shared/rich_project_chbe-medford/medford-share/data/pseudos_module/espresso/nninc/pbe/van/Ti.UPF
     MD5 check sum: 8e4df49b7f0d34bbd5052bf3f5ea0213
     Pseudo is Ultrasoft, Zval = 12.0
     Generated by new atomic code, or converted to UPF format
     Using radial grid of  851 points,  6 beta functions with:
                l(1) =   0
                l(2) =   0
                l(3) =   1
                l(4) =   1
                l(5) =   2
                l(6) =   2
     Q(r) pseudized with  8 coefficients,  rinner =    1.000   1.000   1.000
                                                       1.000   1.000

     PseudoPot. # 2 for O  read from file:
     /storage/coda1/p-amedford6/0/shared/rich_project_chbe-medford/medford-share/data/pseudos_module/espresso/nninc/pbe/van/O.UPF
     MD5 check sum: 78c19812648e8988a0fe644b0f25305e
     Pseudo is Ultrasoft, Zval =  6.0
     Generated by new atomic code, or converted to UPF format
     Using radial grid of  737 points,  4 beta functions with:
                l(1) =   0
                l(2) =   0
                l(3) =   1
                l(4) =   1
     Q(r) pseudized with  8 coefficients,  rinner =    0.800   0.800   0.800

     PseudoPot. # 3 for N  read from file:
     /storage/coda1/p-amedford6/0/shared/rich_project_chbe-medford/medford-share/data/pseudos_module/espresso/nninc/pbe/van/N.UPF
     MD5 check sum: 90d10febe142ad51ac9d5be1deb811c4
     Pseudo is Ultrasoft, Zval =  5.0
     Generated by new atomic code, or converted to UPF format
     Using radial grid of  729 points,  4 beta functions with:
                l(1) =   0
                l(2) =   0
                l(3) =   1
                l(4) =   1
     Q(r) pseudized with  8 coefficients,  rinner =    0.800   0.800   0.800

     PseudoPot. # 4 for C  read from file:
     /storage/coda1/p-amedford6/0/shared/rich_project_chbe-medford/medford-share/data/pseudos_module/espresso/nninc/pbe/van/C.UPF
     MD5 check sum: 1a69bf6b8db32088f5b2163dbdb77a27
     Pseudo is Ultrasoft, Zval =  4.0
     Generated by new atomic code, or converted to UPF format
     Using radial grid of  721 points,  4 beta functions with:
                l(1) =   0
                l(2) =   0
                l(3) =   1
                l(4) =   1
     Q(r) pseudized with  8 coefficients,  rinner =    0.800   0.800   0.800

     PseudoPot. # 5 for H  read from file:
     /storage/coda1/p-amedford6/0/shared/rich_project_chbe-medford/medford-share/data/pseudos_module/espresso/nninc/pbe/van/H.UPF
     MD5 check sum: b5ee9d7bfd3a09ee7748110bda690ff7
     Pseudo is Ultrasoft, Zval =  1.0
     Generated by new atomic code, or converted to UPF format
     Using radial grid of  615 points,  1 beta functions with:
                l(1) =   0
     Q(r) pseudized with  8 coefficients,  rinner =    0.800

     atomic species   valence    mass     pseudopotential
        Ti1           12.00    47.86700     Ti( 1.00)
        O1             6.00    15.99900     O ( 1.00)
        N1             5.00    14.00700     N ( 1.00)
        C1             4.00    12.01100     C ( 1.00)
        H1             1.00     1.00800     H ( 1.00)

     No symmetry found

   Cartesian axes

     site n.     atom                  positions (alat units)
         1           Ti1 tau(   1) = (   0.0004258   2.9801865   6.0000000  )
         2           Ti1 tau(   2) = (   3.2906075   1.4906267   6.0002472  )
         3           O1  tau(   3) = (   0.0006271   0.0005054   7.9858123  )
         4           O1  tau(   4) = (   3.2906025   0.0005020   7.3038282  )
         5           O1  tau(   5) = (   4.5942328   1.4918067   9.2879030  )
         6           O1  tau(   6) = (   1.9868534   1.4903216   9.2879459  )
         7           Ti1 tau(   7) = (   3.2907910   2.8959150   9.1758416  )
         8           Ti1 tau(   8) = (   0.0015273   1.4827037   9.2680791  )
         9           O1  tau(   9) = (   3.2780774   5.9605562  11.3537357  )
        10           O1  tau(  10) = (   0.0116148   5.9584955  10.6183126  )
        11           O1  tau(  11) = (   1.2922713   1.4781662  12.6511241  )
        12           O1  tau(  12) = (   5.2965393   1.5043564  12.6031353  )
        13           Ti1 tau(  13) = (   6.5273184   3.0207086  12.5807821  )
        14           Ti1 tau(  14) = (   3.2344070   1.4559942  12.5004267  )
        15           O1  tau(  15) = (   6.4759410   0.0295824  14.6525783  )
        16           O1  tau(  16) = (   3.3604338   0.0238249  13.9383540  )
        17           O1  tau(  17) = (   4.5324113   1.5808541  16.1066768  )
        18           O1  tau(  18) = (   1.9684897   1.4712893  15.8817925  )
        19           Ti1 tau(  19) = (   3.2566353   3.0739815  15.8599551  )
        20           Ti1 tau(  20) = (   6.5466614   1.5318677  15.7800735  )
        21           O1  tau(  21) = (   3.2904802   0.0005063   4.7018136  )
        22           O1  tau(  22) = (   6.5744325   0.0155309  17.2227980  )
        23           O1  tau(  23) = (   1.3043587   1.4918075   6.0039043  )
        24           O1  tau(  24) = (   5.2767064   1.4903225   6.0039473  )
        25           Ti1 tau(  25) = (   0.0000382   5.9609847   6.0000000  )
        26           Ti1 tau(  26) = (   3.2902200   4.4714249   6.0002472  )
        27           O1  tau(  27) = (   0.0002396   2.9813036   7.9858123  )
        28           O1  tau(  28) = (   3.2902150   2.9813002   7.3038282  )
        29           O1  tau(  29) = (   4.5938453   4.4726049   9.2879030  )
        30           O1  tau(  30) = (   1.9864658   4.4711199   9.2879459  )
        31           Ti1 tau(  31) = (   3.2891106   5.8743827   9.1763621  )
        32           Ti1 tau(  32) = (   0.0006254   4.4649316   9.2693709  )
        33           O1  tau(  33) = (   3.2727763   2.9788165  11.3438337  )
        34           O1  tau(  34) = (   0.0092240   2.9805883  10.6323155  )
        35           O1  tau(  35) = (   1.2865780   4.4896361  12.6556599  )
        36           O1  tau(  36) = (   5.2967437   4.4749066  12.6066920  )
        37           Ti1 tau(  37) = (   6.5467059   0.0356701  12.5108493  )
        38           Ti1 tau(  38) = (   3.2305653   4.4019604  12.5605372  )
        39           O1  tau(  39) = (   6.5199767   2.9846217  14.6905747  )
        40           O1  tau(  40) = (   3.2851694   3.0254550  13.9321539  )
        41           O1  tau(  41) = (   4.5310495   4.4602642  16.1636806  )
        42           O1  tau(  42) = (   1.9842988   4.5744318  15.9411167  )
        43           Ti1 tau(  43) = (   3.2691225   0.1036042  15.7405456  )
        44           Ti1 tau(  44) = (   6.5697781   4.6877429  16.0360384  )
        45           O1  tau(  45) = (   3.2900926   2.9813045   4.7018136  )
        46           O1  tau(  46) = (   1.3039711   4.4726057   6.0039043  )
        47           O1  tau(  47) = (   5.2763189   4.4711207   6.0039473  )
        48           N1  tau(  48) = (   1.2792381   2.8578196  18.3696018  )
        49           N1  tau(  49) = (   0.1888888   2.9546215  17.5057353  )
        50           C1  tau(  50) = (   2.5352320   2.9081513  18.0382144  )
        51           H1  tau(  51) = (   3.1442446   2.7411670  18.9317345  )
        52           H1  tau(  52) = (   1.0014291   2.6635404  19.3302151  )
        53           H1  tau(  53) = (   5.9397212   2.8571719  18.0851170  )
        54           O1  tau(  54) = (   3.2630597   0.0341043  18.2348460  )
        55           H1  tau(  55) = (   4.0455299   5.4198958  18.2485053  )
        56           H1  tau(  56) = (   2.4923979   5.4091459  18.3156537  )

     number of k points=    10  Fermi-Dirac smearing, width (Ry)=  0.0073
                       cart. coord. in units 2pi/alat
        k(    1) = (   0.0000000   0.0000000   0.0000000), wk =   0.1250000
        k(    2) = (   0.0000000   0.0419351   0.0000000), wk =   0.2500000
        k(    3) = (   0.0000000  -0.0838702   0.0000000), wk =   0.1250000
        k(    4) = (   0.0379955   0.0000049   0.0000000), wk =   0.2500000
        k(    5) = (   0.0379955   0.0419400   0.0000000), wk =   0.2500000
        k(    6) = (   0.0379955  -0.0838652   0.0000000), wk =   0.2500000
        k(    7) = (   0.0379955  -0.0419301   0.0000000), wk =   0.2500000
        k(    8) = (  -0.0759910  -0.0000099   0.0000000), wk =   0.1250000
        k(    9) = (  -0.0759910   0.0419252   0.0000000), wk =   0.2500000
        k(   10) = (  -0.0759910  -0.0838800   0.0000000), wk =   0.1250000

     Initial potential from superposition of free atoms

     starting charge  386.99914, renormalised to  403.00000

     negative rho (up, down):  1.738E-02 0.000E+00

     %%%%%%%%%%%%%%%%%%%%%%%%%%%%%%%%%%%%%%%%%%%%%%%%%%%%%%%%%%%%%%%%%%%%%%%%
     %                                                                      %
     % You are using vdW-DF, which was implemented by the Thonhauser group. %
     % Please cite the following two papers that made this development      %
     % possible and the two reviews that describe the various versions:     %
     %                                                                      %
     %   T. Thonhauser et al., PRL 115, 136402 (2015).                      %
     %   T. Thonhauser et al., PRB 76, 125112 (2007).                       %
     %   K. Berland et al., Rep. Prog. Phys. 78, 066501 (2015).             %
     %   D.C. Langreth et al., J. Phys.: Condens. Matter 21, 084203 (2009). %
     %                                                                      %
     %                                                                      %
     % If you are calculating the stress with vdW-DF, please also cite:     %
     %                                                                      %
     %   R. Sabatini et al., J. Phys.: Condens. Matter 24, 424209 (2012).   %
     %                                                                      %
     %%%%%%%%%%%%%%%%%%%%%%%%%%%%%%%%%%%%%%%%%%%%%%%%%%%%%%%%%%%%%%%%%%%%%%%%

     Adding external electric field

     Computed dipole along edir(3) :
        Dipole              -12.3463 Ry au,        -31.3811 Debye
        Dipole field         -0.0233 Ry au,

        Potential amp.        2.1598 Ry
        Total length         46.3494 bohr

     Starting wfcs are  305 atomic wfcs
  @ DRIVER MODE: Message from server: STATUS
  @ DRIVER MODE: Message from server: POSDATA
  @ DRIVER MODE: Reading and sharing cell
  @ DRIVER MODE: Reading and sharing positions
  @ DRIVER MODE: Received positions

     Self-consistent Calculation

     iteration #  1     ecut=    29.40 Ry     beta= 0.05
     Davidson diagonalization with overlap
     c_bands:  5 eigenvalues not converged
     c_bands:  3 eigenvalues not converged
     c_bands:  3 eigenvalues not converged
     c_bands:  1 eigenvalues not converged
     c_bands:  2 eigenvalues not converged
     c_bands:  2 eigenvalues not converged
     c_bands:  5 eigenvalues not converged
     c_bands:  2 eigenvalues not converged
     c_bands:  4 eigenvalues not converged
     ethr =  1.00E-05,  avg # of iterations = 29.3

[...]

     total energy              =   -2358.72386182 Ry
     estimated scf accuracy    <    6971.29926924 Ry

     iteration #  2     ecut=    29.40 Ry     beta= 0.05
     Davidson diagonalization with overlap
     ethr =  1.00E-02,  avg # of iterations = 27.0

[...]

     iteration # 80     ecut=    29.40 Ry     beta= 0.05
     Davidson diagonalization with overlap
     c_bands:  1 eigenvalues not converged
     ethr =  8.44E-11,  avg # of iterations = 13.7

[...]

     total energy              =   -2973.94009412 Ry
     estimated scf accuracy    <       0.00000013 Ry

     iteration # 86     ecut=    29.40 Ry     beta= 0.05
     Davidson diagonalization with overlap
     ethr =  1.93E-11,  avg # of iterations =  8.5

     negative rho (up, down):  1.725E-02 0.000E+00

     Adding external electric field

     Computed dipole along edir(3) :
        Dipole                1.4006 Ry au,          3.5600 Debye
        Dipole field          0.0026 Ry au,

        Potential amp.       -0.2450 Ry
        Total length         46.3494 bohr

     End of self-consistent calculation

          k = 0.0000 0.0000 0.0000 ( 18029 PWs)   bands (ev):

   -55.3192 -55.2851 -55.2096 -55.1854 -55.1666 -55.1552 -55.1399 -55.1180
   -55.1060 -55.1037 -55.0969 -55.0623 -54.9895 -54.8353 -54.2995 -54.2655
   -31.8034 -31.7306 -31.6564 -31.6496 -31.6397 -31.6111 -31.5866 -31.5643
   -31.5194 -31.5002 -31.4716 -31.4635 -31.4550 -31.4403 -31.4253 -31.4209
   -31.3977 -31.3796 -31.3765 -31.3644 -31.3348 -31.3326 -31.3285 -31.3254
   -31.3224 -31.3185 -31.3145 -31.2966 -31.2884 -31.2786 -31.2719 -31.2715
   -31.2613 -31.2600 -31.2513 -31.2477 -31.2379 -31.2125 -31.2095 -31.0915
   -31.0765 -31.0492 -30.7064 -30.6184 -30.5960 -30.5233 -30.4369 -30.3256
   -18.8791 -18.6591 -15.9775 -15.7937 -15.6128 -15.4736 -15.3916 -15.1600
   -15.1018 -15.0632 -14.9821 -14.9594 -14.8587 -14.8399 -14.8384 -14.8200
   -14.8171 -14.7620 -14.7467 -14.7424 -14.6939 -14.6871 -14.6617 -14.6463
   -14.5939 -14.5150 -14.5064 -14.4601 -14.4148 -14.3683 -14.0229 -13.4183
   -12.8003 -12.6839  -8.8040  -7.2793  -6.6182  -4.3271  -3.7932  -3.3607
    -3.2844  -3.2489  -3.2240  -3.0878  -2.9717  -2.8674  -2.7534  -2.6711
    -2.5843  -2.4799  -2.4234  -2.3779  -2.3173  -2.2573  -2.2309  -2.1456
    -2.1258  -2.1061  -2.0843  -2.0576  -2.0282  -1.9914  -1.8686  -1.8582
    -1.7758  -1.7197  -1.6811  -1.6632  -1.6394  -1.6336  -1.6023  -1.5806
    -1.5720  -1.5607  -1.5590  -1.5240  -1.3847  -1.3609  -1.3320  -1.3064
    -1.1624  -1.0259  -0.9367  -0.9341  -0.8248  -0.7600  -0.7568  -0.7185
    -0.7028  -0.6004  -0.5151  -0.4789  -0.4539  -0.3745  -0.3171  -0.2626
    -0.2107  -0.1758  -0.1088  -0.0849  -0.0682  -0.0513   0.0180   0.0804
     0.1416   0.2266   0.2701   0.2945   0.3856   0.3997   0.4228   0.4870
     0.5205   0.5645   0.5999   0.6292   0.6526   0.6830   0.7084   0.7514
     0.7894   0.9152   0.9334   0.9619   0.9834   1.1575   1.2070   1.3090
     1.3402   1.4400   1.4848   1.6632   1.7243   1.8037   1.9163   2.2944
     2.3402   3.7901   3.9014   3.9356   3.9606   4.0001   4.0512   4.2577
     4.3307   4.3722   4.4292

[...]

          k = 0.0380-0.0419 0.0000 ( 17876 PWs)   bands (ev):

[...]

          k =-0.0760-0.0000 0.0000 ( 17886 PWs)   bands (ev):

[...]

          k =-0.0760-0.0839 0.0000 ( 17948 PWs)   bands (ev):

   -55.3023 -55.3019 -55.2001 -55.1821 -55.1753 -55.1437 -55.1299 -55.1230
   -55.1223 -55.1073 -55.0836 -55.0757 -54.9877 -54.8370 -54.2825 -54.2824
   -31.6188 -31.6186 -31.5967 -31.5964 -31.5648 -31.5330 -31.5019 -31.4893
   -31.4824 -31.4672 -31.4484 -31.4433 -31.4392 -31.4298 -31.4247 -31.4226
   -31.4217 -31.4215 -31.4161 -31.4004 -31.3895 -31.3754 -31.3646 -31.3624
   -31.3574 -31.3529 -31.3437 -31.3313 -31.3253 -31.3239 -31.3085 -31.2993
   -31.2962 -31.2953 -31.2936 -31.2910 -31.2607 -31.2312 -31.2171 -31.1463
   -31.0939 -31.0795 -30.6087 -30.6086 -30.5192 -30.5191 -30.4802 -30.4801
   -18.8681 -18.6658 -15.3550 -15.3198 -15.2818 -15.2545 -15.2386 -15.1175
   -15.1040 -15.0682 -15.0268 -15.0136 -14.9833 -14.9546 -14.9058 -14.8972
   -14.8629 -14.8434 -14.8043 -14.7778 -14.7584 -14.7541 -14.7373 -14.7157
   -14.6722 -14.6504 -14.6378 -14.6335 -14.5816 -14.4868 -14.2086 -13.4409
   -12.7857 -12.7856  -8.7997  -7.2048  -6.6192  -4.5349  -3.5775  -2.8666
    -2.6670  -2.6298  -2.5782  -2.4878  -2.4406  -2.3189  -2.3122  -2.2895
    -2.2441  -2.2312  -2.1905  -2.1504  -2.1443  -2.1165  -2.1039  -2.0595
    -2.0481  -2.0449  -2.0309  -1.9972  -1.9915  -1.9710  -1.9470  -1.9438
    -1.9338  -1.9172  -1.8840  -1.8772  -1.8500  -1.8300  -1.6799  -1.6059
    -1.5629  -1.4852  -1.4621  -1.4453  -1.4263  -1.3917  -1.3714  -1.3458
    -1.3176  -1.1716  -1.0309  -0.9961  -0.9714  -0.8728  -0.8572  -0.8379
    -0.7914  -0.7500  -0.7142  -0.6565  -0.6474  -0.6013  -0.5800  -0.4614
    -0.4226  -0.3233  -0.2876  -0.2861  -0.2684  -0.2542  -0.2369  -0.2109
    -0.1605  -0.0897  -0.0742  -0.0256  -0.0015   0.0005   0.0139   0.1596
     0.2306   0.2504   0.3545   0.3836   0.5582   0.7220   0.7344   0.8021
     0.8649   0.9191   0.9542   0.9938   1.0041   1.0696   1.0941   1.1984
     1.2094   1.2579   1.2632   1.3445   1.3546   2.0881   2.0898   2.1602
     2.1603   4.1540   4.1694   4.1979   4.2610   4.3044   4.3161   4.3534
     4.3572   4.4600   4.4755

     the Fermi energy is     3.8083 ev

!    total energy              =   -2973.94009875 Ry
     estimated scf accuracy    <       0.00000006 Ry
     smearing contrib. (-TS)   =      -0.02072331 Ry
     internal energy E=F+TS    =   -2973.91937544 Ry

     The total energy is F=E-TS. E is the sum of the following terms:
     one-electron contribution =  -24339.00735106 Ry
     hartree contribution      =   12267.21603935 Ry
     xc contribution           =    -494.11941774 Ry
     ewald contribution        =    9591.98765209 Ry
     electric field correction =       0.00370192 Ry

     convergence has been achieved in  86 iterations

     Forces acting on atoms (cartesian axes, Ry/au):

     atom    1 type  1   force =     0.00001817   -0.00010223    0.09506696
     atom    2 type  1   force =     0.00017802   -0.00068950   -0.17564113
     atom    3 type  2   force =     0.00008785   -0.00004759   -0.02294781
     atom    4 type  2   force =     0.00002264   -0.00143265    0.05290509
     atom    5 type  2   force =    -0.00999919   -0.00031741    0.00380998
     atom    6 type  2   force =     0.01112369    0.00019947    0.00206384
     atom    7 type  1   force =    -0.00021096    0.00177734   -0.00588409
     atom    8 type  1   force =     0.00080961    0.01009146    0.01603847
     atom    9 type  2   force =    -0.00015818    0.00086487    0.00031163
     atom   10 type  2   force =    -0.00227166    0.00217601   -0.01800194
     atom   11 type  2   force =     0.00023259   -0.00003717    0.00008884
     atom   12 type  2   force =    -0.00035049   -0.00019171    0.00057221
     atom   13 type  1   force =    -0.00003122    0.00126304    0.00021829
     atom   14 type  1   force =    -0.00011975    0.00009830    0.00000164
     atom   15 type  2   force =     0.00011480   -0.00036444    0.00016007
     atom   16 type  2   force =    -0.00037127    0.00043376   -0.00021930
     atom   17 type  2   force =    -0.00023978   -0.00024759   -0.00005160
     atom   18 type  2   force =     0.00009175   -0.00008455    0.00029825
     atom   19 type  1   force =    -0.00054278    0.00013593   -0.00026272
     atom   20 type  1   force =    -0.00020299   -0.00004013    0.00017019
     atom   21 type  2   force =     0.00009073   -0.00008320    0.10316655
     atom   22 type  2   force =     0.00038411   -0.00117847    0.00060659
     atom   23 type  2   force =    -0.07161148   -0.00017268   -0.02755954
     atom   24 type  2   force =     0.07156965    0.00024105   -0.02760577
     atom   25 type  1   force =     0.00024236   -0.00039783    0.09515457
     atom   26 type  1   force =    -0.00005156   -0.00020121   -0.17581202
     atom   27 type  2   force =     0.00012268   -0.00012315   -0.02197044
     atom   28 type  2   force =     0.00001617   -0.00139644    0.05323610
     atom   29 type  2   force =    -0.01034266   -0.00023142    0.00365169
     atom   30 type  2   force =     0.01138181    0.00042092    0.00192100
     atom   31 type  1   force =    -0.00029881    0.00266271   -0.00008576
     atom   32 type  1   force =     0.00067262   -0.01114447    0.01692137
     atom   33 type  2   force =     0.00037577   -0.00027395   -0.00001433
     atom   34 type  2   force =    -0.00033635    0.00144249   -0.01894472
     atom   35 type  2   force =    -0.00001245   -0.00034860   -0.00015898
     atom   36 type  2   force =    -0.00000141   -0.00023966    0.00043766
     atom   37 type  1   force =    -0.00005634   -0.00123129    0.00030920
     atom   38 type  1   force =    -0.00039182    0.00089334    0.00006825
     atom   39 type  2   force =     0.00010751    0.00013720    0.00001645
     atom   40 type  2   force =    -0.00049036   -0.00059531    0.00000440
     atom   41 type  2   force =     0.00026797   -0.00014031    0.00038413
     atom   42 type  2   force =    -0.00034388   -0.00043216   -0.00006996
     atom   43 type  1   force =    -0.00024835   -0.00007084    0.00042135
     atom   44 type  1   force =     0.00002131   -0.00043309   -0.00001168
     atom   45 type  2   force =     0.00009951   -0.00010185    0.10318350
     atom   46 type  2   force =    -0.07159532   -0.00016337   -0.02755152
     atom   47 type  2   force =     0.07159734    0.00024958   -0.02756353
     atom   48 type  3   force =    -0.00006974   -0.00200660    0.00088527
     atom   49 type  3   force =     0.00103062    0.00378830   -0.00194071
     atom   50 type  4   force =     0.00047227   -0.00026538    0.00024348
     atom   51 type  5   force =    -0.00017632   -0.00012800   -0.00016416
     atom   52 type  5   force =     0.00019628   -0.00095751   -0.00062867
     atom   53 type  5   force =    -0.00086140   -0.00099764    0.00050960
     atom   54 type  2   force =    -0.00006095    0.00102767   -0.00009739
     atom   55 type  5   force =     0.00013659   -0.00022006   -0.00002596
     atom   56 type  5   force =    -0.00001695   -0.00081398    0.00038713

     Total force =     0.365213     Total SCF correction =     0.000527
  @ DRIVER MODE: Message from server: STATUS
  @ DRIVER MODE: Message from server: GETFORCE
  @ DRIVER MODE: Returning v,forces,stress,ensemble

     Writing output data file ./calc.save/
  @ DRIVER MODE: Message from server: EXIT
  @ DRIVE MODE: Exiting

     General routines

     Parallel routines

   This run was terminated on:  19:11:23  22Sep2021

   JOB DONE.