     Program PWSCF v.6.7GPU starts on 23Sep2021 at  2:10:47

     R & G space division:  proc/nbgrp/npool/nimage =      10
     Reading input from /storage/home/hcoda1/3/ntian30/research/carbon/CxH_vib/H2O_calc/ads_slab/CH3NHHH2O_a/out_0032/pw.inp
Warning: card &CELL ignored
Warning: card   CELL_DYNAMICS='IPI', ignored
Warning: card / ignored

     Current dimensions of program PWSCF are:
     Max number of different atomic species (ntypx) = 10
     Max number of k-points (npk) =  40000
     Max angular momentum in pseudopotentials (lmaxx) =  3
     Presently no symmetry can be used with electric field

     Message from routine cell_base_init:
     DEPRECATED: use true lattice parameter, not A to a.u. conversion factor

     IMPORTANT: XC functional enforced from input :
     Exchange-correlation= BEEF-VDW
                           (   1   4  43  14   2   0   0)
     Any further DFT definition will be discarded
     Please, verify this is what you really want

  @ DRIVER MODE: Connecting to
 qe_1139763_2937309.sched-torque.pace.gatech.edu2sdzsiui_scratch
  using UNIX socket
  @ DRIVER MODE: Message from server: STATUS
  @ DRIVER MODE: Message from server: INIT
  @ DRIVER MODE: Receiving replica           0          -1
  @ DRIVER MODE: Receiving encoded integer          25
  @ DRIVER MODE:  SCF:  T  FORCE:  T  STRESS:  F  VC:  F  ENSEMBLE:  F
  @ DRIVER MODE:  SCF:  T  FORCE:  T  STRESS:  F  VC:  F  ENSEMBLE:  F

     Using Slab Decomposition

     bravais-lattice index     =            0
     lattice parameter (alat)  =       1.8897  a.u.
     unit-cell volume          =    6658.9804 (a.u.)^3
     number of atoms/cell      =           57
     number of atomic types    =            5
     number of electrons       =       400.00
     number of Kohn-Sham states=          210
     kinetic-energy cutoff     =      29.3995  Ry
     charge density cutoff     =     293.9946  Ry
     scf convergence threshold =      7.3E-08
     mixing beta               =       0.0500
     number of iterations used =            8  plain     mixing
     Exchange-correlation= BEEF-VDW
                           (   1   4  43  14   2   0   0)

     celldm(1)=   1.889726  celldm(2)=   0.000000  celldm(3)=   0.000000
     celldm(4)=   0.000000  celldm(5)=   0.000000  celldm(6)=   0.000000

     crystal axes: (cart. coord. in units of alat)
               a(1) = (   6.579727   0.000000   0.000000 )
               a(2) = (  -0.000775   5.961596   0.000000 )
               a(3) = (   0.000000   0.000000  25.155947 )

     reciprocal axes: (cart. coord. in units 2 pi/alat)
               b(1) = (  0.151982  0.000020  0.000000 )
               b(2) = (  0.000000  0.167740  0.000000 )
               b(3) = (  0.000000  0.000000  0.039752 )

     PseudoPot. # 1 for Ti read from file:
     /storage/coda1/p-amedford6/0/shared/rich_project_chbe-medford/medford-share/data/pseudos_module/espresso/nninc/pbe/van/Ti.UPF
     MD5 check sum: 8e4df49b7f0d34bbd5052bf3f5ea0213
     Pseudo is Ultrasoft, Zval = 12.0
     Generated by new atomic code, or converted to UPF format
     Using radial grid of  851 points,  6 beta functions with:
                l(1) =   0
                l(2) =   0
                l(3) =   1
                l(4) =   1
                l(5) =   2
                l(6) =   2
     Q(r) pseudized with  8 coefficients,  rinner =    1.000   1.000   1.000
                                                       1.000   1.000

     PseudoPot. # 2 for O  read from file:
     /storage/coda1/p-amedford6/0/shared/rich_project_chbe-medford/medford-share/data/pseudos_module/espresso/nninc/pbe/van/O.UPF
     MD5 check sum: 78c19812648e8988a0fe644b0f25305e
     Pseudo is Ultrasoft, Zval =  6.0
     Generated by new atomic code, or converted to UPF format
     Using radial grid of  737 points,  4 beta functions with:
                l(1) =   0
                l(2) =   0
                l(3) =   1
                l(4) =   1
     Q(r) pseudized with  8 coefficients,  rinner =    0.800   0.800   0.800

     PseudoPot. # 3 for N  read from file:
     /storage/coda1/p-amedford6/0/shared/rich_project_chbe-medford/medford-share/data/pseudos_module/espresso/nninc/pbe/van/N.UPF
     MD5 check sum: 90d10febe142ad51ac9d5be1deb811c4
     Pseudo is Ultrasoft, Zval =  5.0
     Generated by new atomic code, or converted to UPF format
     Using radial grid of  729 points,  4 beta functions with:
                l(1) =   0
                l(2) =   0
                l(3) =   1
                l(4) =   1
     Q(r) pseudized with  8 coefficients,  rinner =    0.800   0.800   0.800

     PseudoPot. # 4 for C  read from file:
     /storage/coda1/p-amedford6/0/shared/rich_project_chbe-medford/medford-share/data/pseudos_module/espresso/nninc/pbe/van/C.UPF
     MD5 check sum: 1a69bf6b8db32088f5b2163dbdb77a27
     Pseudo is Ultrasoft, Zval =  4.0
     Generated by new atomic code, or converted to UPF format
     Using radial grid of  721 points,  4 beta functions with:
                l(1) =   0
                l(2) =   0
                l(3) =   1
                l(4) =   1
     Q(r) pseudized with  8 coefficients,  rinner =    0.800   0.800   0.800

     PseudoPot. # 5 for H  read from file:
     /storage/coda1/p-amedford6/0/shared/rich_project_chbe-medford/medford-share/data/pseudos_module/espresso/nninc/pbe/van/H.UPF
     MD5 check sum: b5ee9d7bfd3a09ee7748110bda690ff7
     Pseudo is Ultrasoft, Zval =  1.0
     Generated by new atomic code, or converted to UPF format
     Using radial grid of  615 points,  1 beta functions with:
                l(1) =   0
     Q(r) pseudized with  8 coefficients,  rinner =    0.800

     atomic species   valence    mass     pseudopotential
        Ti1           12.00    47.86700     Ti( 1.00)
        O1             6.00    15.99900     O ( 1.00)
        N1             5.00    14.00700     N ( 1.00)
        C1             4.00    12.01100     C ( 1.00)
        H1             1.00     1.00800     H ( 1.00)

     No symmetry found

   Cartesian axes

     site n.     atom                  positions (alat units)
         1           Ti1 tau(   1) = (   0.0004258   2.9801865   6.0000000  )
         2           Ti1 tau(   2) = (   3.2906075   1.4906267   6.0002472  )
         3           O1  tau(   3) = (   0.0006271   0.0005054   7.9858123  )
         4           O1  tau(   4) = (   3.2906025   0.0005020   7.3038282  )
         5           O1  tau(   5) = (   4.5942328   1.4918067   9.2879030  )
         6           O1  tau(   6) = (   1.9868534   1.4903216   9.2879459  )
         7           Ti1 tau(   7) = (   3.2907910   2.8959150   9.1758416  )
         8           Ti1 tau(   8) = (   0.0015273   1.4827037   9.2680791  )
         9           O1  tau(   9) = (   3.2912042   0.0294118  11.3810798  )
        10           O1  tau(  10) = (   0.0116148   5.9584955  10.6183126  )
        11           O1  tau(  11) = (   1.2906363   1.5151137  12.6946382  )
        12           O1  tau(  12) = (   5.2977377   1.5118052  12.6897239  )
        13           Ti1 tau(  13) = (   0.0154927   3.0055723  12.5114375  )
        14           Ti1 tau(  14) = (   3.3120461   1.5076926  12.5412499  )
        15           O1  tau(  15) = (   0.0087391   5.9056098  14.6936070  )
        16           O1  tau(  16) = (   3.3000944   0.0090435  14.0218108  )
        17           O1  tau(  17) = (   4.5606481   1.5918460  16.0876707  )
        18           O1  tau(  18) = (   2.0070218   1.5857768  16.0794533  )
        19           Ti1 tau(  19) = (   3.2835068   3.0412122  15.7371975  )
        20           Ti1 tau(  20) = (   0.0166266   1.3536260  15.8406240  )
        21           O1  tau(  21) = (   3.2904802   0.0005063   4.7018136  )
        22           O1  tau(  22) = (   6.5628702   0.1917167  17.2472498  )
        23           O1  tau(  23) = (   1.3043587   1.4918075   6.0039043  )
        24           O1  tau(  24) = (   5.2767064   1.4903225   6.0039473  )
        25           Ti1 tau(  25) = (   0.0000382   5.9609847   6.0000000  )
        26           Ti1 tau(  26) = (   3.2902200   4.4714249   6.0002472  )
        27           O1  tau(  27) = (   0.0002396   2.9813036   7.9858123  )
        28           O1  tau(  28) = (   3.2902150   2.9813002   7.3038282  )
        29           O1  tau(  29) = (   4.5938453   4.4726049   9.2879030  )
        30           O1  tau(  30) = (   1.9864658   4.4711199   9.2879459  )
        31           Ti1 tau(  31) = (   3.2891106   5.8743827   9.1763621  )
        32           Ti1 tau(  32) = (   0.0006254   4.4649316   9.2693709  )
        33           O1  tau(  33) = (   3.2975917   2.9887808  11.3748511  )
        34           O1  tau(  34) = (   0.0092240   2.9805883  10.6323155  )
        35           O1  tau(  35) = (   1.2927870   4.4849180  12.6503915  )
        36           O1  tau(  36) = (   5.2959677   4.4879952  12.6460094  )
        37           Ti1 tau(  37) = (   0.0189062   0.0134437  12.4995343  )
        38           Ti1 tau(  38) = (   3.3131396   4.4925875  12.5257625  )
        39           O1  tau(  39) = (   6.5658147   3.0796170  14.9398047  )
        40           O1  tau(  40) = (   3.2912769   3.0351834  13.9531456  )
        41           O1  tau(  41) = (   4.5372935   4.5058929  16.2491503  )
        42           O1  tau(  42) = (   2.0060561   4.4992570  16.2466123  )
        43           Ti1 tau(  43) = (   3.3106529   0.0781036  15.8389635  )
        44           Ti1 tau(  44) = (   0.0259428   4.5566345  16.0434284  )
        45           O1  tau(  45) = (   3.2900926   2.9813045   4.7018136  )
        46           O1  tau(  46) = (   1.3039711   4.4726057   6.0039043  )
        47           O1  tau(  47) = (   5.2763189   4.4711207   6.0039473  )
        48           N1  tau(  48) = (   6.3514164   3.3085518  18.1544664  )
        49           C1  tau(  49) = (   0.8695967   3.1501053  19.1301808  )
        50           H1  tau(  50) = (   1.3785670   4.1052268  19.2416751  )
        51           H1  tau(  51) = (   0.5086663   2.8389580  20.1145987  )
        52           H1  tau(  52) = (   1.5779067   2.4119510  18.7640910  )
        53           H1  tau(  53) = (   5.7311048   4.0382881  18.4729098  )
        54           H1  tau(  54) = (   5.7931489   2.4557210  18.1309407  )
        55           O1  tau(  55) = (   3.2817172   0.3149129  18.3340421  )
        56           H1  tau(  56) = (   4.0380937   5.6864266  18.4726034  )
        57           H1  tau(  57) = (   2.4816286   5.7371253  18.4434621  )

     number of k points=    10  Fermi-Dirac smearing, width (Ry)=  0.0073
                       cart. coord. in units 2pi/alat
        k(    1) = (   0.0000000   0.0000000   0.0000000), wk =   0.1250000
        k(    2) = (   0.0000000   0.0419351   0.0000000), wk =   0.2500000
        k(    3) = (   0.0000000  -0.0838702   0.0000000), wk =   0.1250000
        k(    4) = (   0.0379955   0.0000049   0.0000000), wk =   0.2500000
        k(    5) = (   0.0379955   0.0419400   0.0000000), wk =   0.2500000
        k(    6) = (   0.0379955  -0.0838652   0.0000000), wk =   0.2500000
        k(    7) = (   0.0379955  -0.0419301   0.0000000), wk =   0.2500000
        k(    8) = (  -0.0759910  -0.0000099   0.0000000), wk =   0.1250000
        k(    9) = (  -0.0759910   0.0419252   0.0000000), wk =   0.2500000
        k(   10) = (  -0.0759910  -0.0838800   0.0000000), wk =   0.1250000

     Initial potential from superposition of free atoms

     starting charge  383.99913, renormalised to  400.00000

     negative rho (up, down):  1.554E-02 0.000E+00

     %%%%%%%%%%%%%%%%%%%%%%%%%%%%%%%%%%%%%%%%%%%%%%%%%%%%%%%%%%%%%%%%%%%%%%%%
     %                                                                      %
     % You are using vdW-DF, which was implemented by the Thonhauser group. %
     % Please cite the following two papers that made this development      %
     % possible and the two reviews that describe the various versions:     %
     %                                                                      %
     %   T. Thonhauser et al., PRL 115, 136402 (2015).                      %
     %   T. Thonhauser et al., PRB 76, 125112 (2007).                       %
     %   K. Berland et al., Rep. Prog. Phys. 78, 066501 (2015).             %
     %   D.C. Langreth et al., J. Phys.: Condens. Matter 21, 084203 (2009). %
     %                                                                      %
     %                                                                      %
     % If you are calculating the stress with vdW-DF, please also cite:     %
     %                                                                      %
     %   R. Sabatini et al., J. Phys.: Condens. Matter 24, 424209 (2012).   %
     %                                                                      %
     %%%%%%%%%%%%%%%%%%%%%%%%%%%%%%%%%%%%%%%%%%%%%%%%%%%%%%%%%%%%%%%%%%%%%%%%

     Adding external electric field

     Computed dipole along edir(3) :
        Dipole              -12.0858 Ry au,        -30.7189 Debye
        Dipole field         -0.0228 Ry au,

        Potential amp.        2.1142 Ry
        Total length         46.3494 bohr

     Starting wfcs are  303 atomic wfcs
  @ DRIVER MODE: Message from server: STATUS
  @ DRIVER MODE: Message from server: POSDATA
  @ DRIVER MODE: Reading and sharing cell
  @ DRIVER MODE: Reading and sharing positions
  @ DRIVER MODE: Received positions

     Self-consistent Calculation

     iteration #  1     ecut=    29.40 Ry     beta= 0.05
     Davidson diagonalization with overlap
     c_bands:  2 eigenvalues not converged
     c_bands:  2 eigenvalues not converged
     c_bands:  3 eigenvalues not converged
     c_bands:  4 eigenvalues not converged
     c_bands:  2 eigenvalues not converged
     c_bands:  1 eigenvalues not converged
     c_bands:  4 eigenvalues not converged
     c_bands:  4 eigenvalues not converged
     c_bands:  5 eigenvalues not converged
     ethr =  1.00E-05,  avg # of iterations = 22.0

[...]

     total energy              =   -2385.41627619 Ry
     estimated scf accuracy    <    6444.22187030 Ry

     iteration #  2     ecut=    29.40 Ry     beta= 0.05
     Davidson diagonalization with overlap
     ethr =  1.00E-02,  avg # of iterations = 25.2

[...]

     iteration # 74     ecut=    29.40 Ry     beta= 0.05
     Davidson diagonalization with overlap
     c_bands:  2 eigenvalues not converged
     ethr =  5.09E-11,  avg # of iterations = 13.9

[...]

     total energy              =   -2956.45480370 Ry
     estimated scf accuracy    <       0.00000016 Ry

     iteration # 75     ecut=    29.40 Ry     beta= 0.05
     Davidson diagonalization with overlap
     ethr =  4.12E-11,  avg # of iterations =  9.8

     negative rho (up, down):  1.589E-02 0.000E+00

     Adding external electric field

     Computed dipole along edir(3) :
        Dipole                1.4034 Ry au,          3.5671 Debye
        Dipole field          0.0026 Ry au,

        Potential amp.       -0.2455 Ry
        Total length         46.3494 bohr

     End of self-consistent calculation

          k = 0.0000 0.0000 0.0000 ( 18029 PWs)   bands (ev):

   -55.2156 -55.1783 -55.1729 -55.1470 -55.1388 -55.1186 -55.0968 -55.0618
   -55.0416 -55.0069 -55.0037 -54.9945 -54.9701 -54.9350 -54.2031 -54.1691
   -31.7790 -31.6894 -31.6654 -31.5855 -31.5304 -31.5254 -31.5167 -31.5092
   -31.4618 -31.4383 -31.4266 -31.4177 -31.4133 -31.4115 -31.3875 -31.3844
   -31.3620 -31.3608 -31.3534 -31.3381 -31.3255 -31.3176 -31.3023 -31.2934
   -31.2868 -31.2741 -31.2718 -31.2429 -31.2302 -31.2276 -31.2224 -31.2024
   -31.1994 -31.1918 -31.1877 -31.1709 -31.1548 -31.1406 -31.1332 -31.1318
   -31.1148 -31.1128 -30.6125 -30.5182 -30.4962 -30.4289 -30.3421 -30.2312
   -19.2331 -16.1714 -16.0271 -15.7764 -15.6347 -15.5396 -15.4194 -15.3040
   -15.2393 -15.1254 -15.0672 -14.9323 -14.9168 -14.9047 -14.8800 -14.8466
   -14.8081 -14.7604 -14.7590 -14.7353 -14.7149 -14.7062 -14.6644 -14.6570
   -14.6175 -14.5961 -14.5949 -14.4596 -14.3784 -14.3082 -14.1237 -12.7057
   -12.5882 -10.2764  -7.0272  -6.3074  -4.8226  -3.9406  -3.4024  -3.3429
    -3.2373  -3.1483  -3.1257  -3.1132  -2.9761  -2.8859  -2.7467  -2.6668
    -2.6344  -2.4979  -2.4245  -2.4133  -2.3805  -2.2655  -2.2131  -2.1867
    -2.1536  -2.0823  -2.0339  -2.0235  -2.0055  -1.9748  -1.9597  -1.9256
    -1.8721  -1.7869  -1.7556  -1.6528  -1.6148  -1.5851  -1.5752  -1.5507
    -1.5339  -1.5091  -1.5027  -1.4421  -1.4386  -1.4088  -1.3628  -1.2479
    -1.0854  -1.0225  -0.9504  -0.8579  -0.8099  -0.7961  -0.7271  -0.7167
    -0.7028  -0.5993  -0.5661  -0.5538  -0.4568  -0.4251  -0.3867  -0.3142
    -0.2432  -0.2148  -0.2018  -0.0865  -0.0218  -0.0032   0.0164   0.0233
     0.1132   0.1864   0.2340   0.2857   0.3265   0.3337   0.3993   0.4316
     0.4995   0.5514   0.5689   0.6565   0.7014   0.7140   0.7203   0.7534
     0.7654   0.8270   0.8635   0.8879   0.9744   1.0897   1.2415   1.3834
     1.3913   1.7244   1.7253   1.8196   2.0035   2.3960   2.4442   3.8774
     3.9501   4.0094   4.0227   4.0282   4.1134   4.3598   4.3819   4.3877
     4.3978   4.4263

[...]

          k = 0.0380-0.0419 0.0000 ( 17876 PWs)   bands (ev):

[...]

          k =-0.0760-0.0000 0.0000 ( 17886 PWs)   bands (ev):

[...]

          k =-0.0760-0.0839 0.0000 ( 17948 PWs)   bands (ev):

   -55.2019 -55.1917 -55.1559 -55.1556 -55.1453 -55.1163 -55.0826 -55.0760
   -55.0270 -55.0210 -54.9967 -54.9872 -54.9867 -54.9365 -54.1862 -54.1858
   -31.6080 -31.5877 -31.5790 -31.4806 -31.4804 -31.4766 -31.4690 -31.4471
   -31.4470 -31.4273 -31.4194 -31.4129 -31.4054 -31.3910 -31.3735 -31.3587
   -31.3558 -31.3535 -31.3516 -31.3495 -31.3420 -31.3394 -31.3228 -31.3166
   -31.2960 -31.2956 -31.2767 -31.2756 -31.2754 -31.2734 -31.2683 -31.2602
   -31.2525 -31.2399 -31.2340 -31.2196 -31.2166 -31.1992 -31.1722 -31.1677
   -31.1669 -31.1465 -30.5089 -30.5087 -30.4251 -30.4249 -30.3856 -30.3854
   -19.2322 -16.1294 -15.5983 -15.4840 -15.3582 -15.2484 -15.2276 -15.1811
   -15.1323 -15.0822 -15.0301 -15.0016 -14.9808 -14.9718 -14.9289 -14.9186
   -14.8995 -14.8339 -14.8184 -14.8073 -14.7834 -14.7361 -14.7278 -14.7201
   -14.7161 -14.6704 -14.6663 -14.6186 -14.5749 -14.5710 -14.3925 -12.6897
   -12.6896 -10.2781  -7.0545  -6.2401  -4.8233  -3.9561  -3.2397  -2.9862
    -2.7495  -2.6977  -2.6092  -2.4656  -2.4217  -2.3770  -2.3457  -2.2843
    -2.2336  -2.2186  -2.2067  -2.1305  -2.1036  -2.0958  -2.0626  -2.0509
    -2.0407  -2.0026  -1.9821  -1.9566  -1.9482  -1.9375  -1.9349  -1.9250
    -1.8672  -1.8547  -1.8442  -1.8403  -1.7816  -1.7701  -1.7554  -1.7414
    -1.5968  -1.5785  -1.4276  -1.4242  -1.4019  -1.3495  -1.3379  -1.2972
    -1.2540  -1.2446  -1.2179  -0.9737  -0.9647  -0.9615  -0.9306  -0.8961
    -0.8587  -0.7965  -0.7675  -0.6977  -0.6895  -0.5734  -0.5574  -0.4420
    -0.4335  -0.4209  -0.3380  -0.2892  -0.2407  -0.2017  -0.1848  -0.1743
    -0.1575  -0.1210  -0.1187  -0.0214   0.0147   0.0455   0.0589   0.0984
     0.2750   0.3039   0.3195   0.4634   0.4708   0.6308   0.6815   0.7096
     0.8002   0.8603   0.8949   0.9388   1.0745   1.0879   1.1051   1.1601
     1.1832   1.2325   1.2457   2.1758   2.1771   2.2642   2.2643   4.0226
     4.1317   4.1410   4.1988   4.3102   4.3186   4.3925   4.4237   4.4612
     4.4649   4.5308

     the Fermi energy is     3.9397 ev

!    total energy              =   -2956.45482182 Ry
     estimated scf accuracy    <       0.00000007 Ry
     smearing contrib. (-TS)   =      -0.03685390 Ry
     internal energy E=F+TS    =   -2956.41796792 Ry

     The total energy is F=E-TS. E is the sum of the following terms:
     one-electron contribution =  -23693.67504185 Ry
     hartree contribution      =   11942.33369509 Ry
     xc contribution           =    -490.61850653 Ry
     ewald contribution        =    9285.53816856 Ry
     electric field correction =       0.00371680 Ry

     convergence has been achieved in  75 iterations

     Forces acting on atoms (cartesian axes, Ry/au):

     atom    1 type  1   force =    -0.00000502   -0.00026241    0.09337414
     atom    2 type  1   force =    -0.00007200   -0.00035863   -0.17814488
     atom    3 type  2   force =     0.00004532   -0.00030453   -0.02034728
     atom    4 type  2   force =    -0.00003526   -0.00184936    0.05913085
     atom    5 type  2   force =    -0.01021296   -0.00060430    0.00750925
     atom    6 type  2   force =     0.01174221    0.00022514    0.00683872
     atom    7 type  1   force =    -0.00030724    0.00187551   -0.01237873
     atom    8 type  1   force =     0.00016233    0.00084980   -0.00450102
     atom    9 type  2   force =     0.00038603   -0.00015807   -0.00080488
     atom   10 type  2   force =    -0.00141666    0.00414869   -0.00108680
     atom   11 type  2   force =    -0.00087675   -0.00030756    0.00019292
     atom   12 type  2   force =     0.00088613   -0.00005999    0.00005464
     atom   13 type  1   force =    -0.00012891   -0.00022590    0.00009224
     atom   14 type  1   force =    -0.00004654   -0.00010536    0.00003486
     atom   15 type  2   force =    -0.00066295   -0.00001881   -0.00005685
     atom   16 type  2   force =    -0.00010969    0.00022902   -0.00040086
     atom   17 type  2   force =     0.00031000   -0.00072185   -0.00000383
     atom   18 type  2   force =     0.00078752   -0.00064522   -0.00027616
     atom   19 type  1   force =    -0.00078066    0.00017116    0.00151663
     atom   20 type  1   force =     0.00079406   -0.00070571    0.00031402
     atom   21 type  2   force =     0.00002068   -0.00010821    0.10398936
     atom   22 type  2   force =     0.00006462   -0.00069775    0.00048126
     atom   23 type  2   force =    -0.07042974   -0.00021321   -0.02691831
     atom   24 type  2   force =     0.07026409    0.00022743   -0.02697170
     atom   25 type  1   force =    -0.00005113   -0.00021519    0.09289119
     atom   26 type  1   force =    -0.00020662   -0.00053156   -0.17841620
     atom   27 type  2   force =     0.00007140   -0.00014016   -0.01933229
     atom   28 type  2   force =     0.00005507   -0.00157804    0.05814162
     atom   29 type  2   force =    -0.01091628   -0.00006897    0.00843273
     atom   30 type  2   force =     0.01232350    0.00012029    0.00771676
     atom   31 type  1   force =    -0.00029548    0.00668488   -0.01505184
     atom   32 type  1   force =     0.00011179   -0.00074703   -0.00470846
     atom   33 type  2   force =    -0.00022019    0.00035509   -0.00052444
     atom   34 type  2   force =    -0.00111026   -0.00023333   -0.00039325
     atom   35 type  2   force =    -0.00019901   -0.00011459   -0.00015673
     atom   36 type  2   force =     0.00027599   -0.00035911   -0.00025701
     atom   37 type  1   force =     0.00023256   -0.00018603    0.00020352
     atom   38 type  1   force =    -0.00011197    0.00067822    0.00063034
     atom   39 type  2   force =     0.00013464   -0.00113886    0.00102669
     atom   40 type  2   force =     0.00026148    0.00099901   -0.00060738
     atom   41 type  2   force =    -0.00018035    0.00019747   -0.00027763
     atom   42 type  2   force =     0.00117741    0.00019903   -0.00048397
     atom   43 type  1   force =    -0.00110928    0.00000596    0.00037385
     atom   44 type  1   force =     0.00036380   -0.00120755    0.00086454
     atom   45 type  2   force =     0.00001445   -0.00011685    0.10393090
     atom   46 type  2   force =    -0.07039558   -0.00012277   -0.02688555
     atom   47 type  2   force =     0.07025042    0.00028774   -0.02695283
     atom   48 type  3   force =     0.00780407   -0.00636771   -0.00285440
     atom   49 type  4   force =     0.00074334   -0.00086596   -0.00036876
     atom   50 type  5   force =    -0.00018452   -0.00075203    0.00010583
     atom   51 type  5   force =    -0.00009517   -0.00056502   -0.00060925
     atom   52 type  5   force =     0.00008856    0.00009428   -0.00028604
     atom   53 type  5   force =    -0.00745366    0.00674624    0.00180052
     atom   54 type  5   force =    -0.00042612    0.00050230   -0.00043695
     atom   55 type  2   force =     0.00034485   -0.00081749    0.00061101
     atom   56 type  5   force =    -0.00073336   -0.00023481    0.00015267
     atom   57 type  5   force =    -0.00094297   -0.00088731    0.00008321

     Total force =     0.366572     Total SCF correction =     0.000586
  @ DRIVER MODE: Message from server: STATUS
  @ DRIVER MODE: Message from server: GETFORCE
  @ DRIVER MODE: Returning v,forces,stress,ensemble

     Writing output data file ./calc.save/
  @ DRIVER MODE: Message from server: EXIT
  @ DRIVE MODE: Exiting

     General routines

     Parallel routines

   This run was terminated on:   2:31:14  23Sep2021

   JOB DONE.