     Program PWSCF v.6.8 starts on 30Aug2021 at 14:39:26

     R & G space division:  proc/nbgrp/npool/nimage =      24

     Reading input from /storage/home/hcoda1/3/ntian30/research/carbon/methanol/ads_slab/CH3OHN2_Y/methanol.log/pw.inp
Warning: card &CELL ignored
Warning: card   CELL_DYNAMICS='IPI', ignored
Warning: card / ignored

     Current dimensions of program PWSCF are:
     Max number of different atomic species (ntypx) = 10
     Max number of k-points (npk) =  40000
     Max angular momentum in pseudopotentials (lmaxx) =  4
     Presently no symmetry can be used with electric field

     Message from routine cell_base_init:
     DEPRECATED: use true lattice parameter, not A to a.u. conversion factor

     IMPORTANT: XC functional enforced from input :
     Exchange-correlation= BEEF-VDW
                           (   1   4  43  14   2   0   0)
     Any further DFT definition will be discarded
     Please, verify this is what you really want

  @ DRIVER MODE: Connecting to
 qe_1139763_2685209.sched-torque.pace.gatech.edudcjc5i8b_scratch
  using UNIX socket
  @ DRIVER MODE: Message from server: STATUS
  @ DRIVER MODE: Message from server: INIT
  @ DRIVER MODE: Receiving replica           0          -1
  @ DRIVER MODE: Receiving encoded integer          25
  @ DRIVER MODE:  SCF:  T  FORCE:  T  STRESS:  F  VC:  F  ENSEMBLE:  F
  @ DRIVER MODE:  SCF:  T  FORCE:  T  STRESS:  F  VC:  F  ENSEMBLE:  F

     Using Slab Decomposition

     bravais-lattice index     =            0
     lattice parameter (alat)  =       1.8897  a.u.
     unit-cell volume          =    6658.9804 (a.u.)^3
     number of atoms/cell      =           55
     number of atomic types    =            5
     number of electrons       =       402.00
     number of Kohn-Sham states=          211
     kinetic-energy cutoff     =      29.3995  Ry
     charge density cutoff     =     293.9946  Ry
     scf convergence threshold =      7.3E-08
     mixing beta               =       0.0500
     number of iterations used =            8  plain     mixing
     Exchange-correlation= BEEF-VDW
                           (   1   4  43  14   2   0   0)

     celldm(1)=   1.889726  celldm(2)=   0.000000  celldm(3)=   0.000000
     celldm(4)=   0.000000  celldm(5)=   0.000000  celldm(6)=   0.000000

     crystal axes: (cart. coord. in units of alat)
               a(1) = (   6.579727   0.000000   0.000000 )
               a(2) = (  -0.000775   5.961596   0.000000 )
               a(3) = (   0.000000   0.000000  25.155947 )

     reciprocal axes: (cart. coord. in units 2 pi/alat)
               b(1) = (  0.151982  0.000020  0.000000 )
               b(2) = (  0.000000  0.167740  0.000000 )
               b(3) = (  0.000000  0.000000  0.039752 )

     PseudoPot. # 1 for Ti read from file:
     /storage/coda1/p-amedford6/0/shared/rich_project_chbe-medford/medford-share/data/pseudos_module/espresso/nninc/pbe/van/Ti.UPF
     MD5 check sum: 8e4df49b7f0d34bbd5052bf3f5ea0213
     Pseudo is Ultrasoft, Zval = 12.0
     Generated by new atomic code, or converted to UPF format
     Using radial grid of  851 points,  6 beta functions with:
                l(1) =   0
                l(2) =   0
                l(3) =   1
                l(4) =   1
                l(5) =   2
                l(6) =   2
     Q(r) pseudized with  8 coefficients,  rinner =    1.000   1.000   1.000
                                                       1.000   1.000

     PseudoPot. # 2 for O  read from file:
     /storage/coda1/p-amedford6/0/shared/rich_project_chbe-medford/medford-share/data/pseudos_module/espresso/nninc/pbe/van/O.UPF
     MD5 check sum: 78c19812648e8988a0fe644b0f25305e
     Pseudo is Ultrasoft, Zval =  6.0
     Generated by new atomic code, or converted to UPF format
     Using radial grid of  737 points,  4 beta functions with:
                l(1) =   0
                l(2) =   0
                l(3) =   1
                l(4) =   1
     Q(r) pseudized with  8 coefficients,  rinner =    0.800   0.800   0.800

     PseudoPot. # 3 for C  read from file:
     /storage/coda1/p-amedford6/0/shared/rich_project_chbe-medford/medford-share/data/pseudos_module/espresso/nninc/pbe/van/C.UPF
     MD5 check sum: 1a69bf6b8db32088f5b2163dbdb77a27
     Pseudo is Ultrasoft, Zval =  4.0
     Generated by new atomic code, or converted to UPF format
     Using radial grid of  721 points,  4 beta functions with:
                l(1) =   0
                l(2) =   0
                l(3) =   1
                l(4) =   1
     Q(r) pseudized with  8 coefficients,  rinner =    0.800   0.800   0.800

     PseudoPot. # 4 for H  read from file:
     /storage/coda1/p-amedford6/0/shared/rich_project_chbe-medford/medford-share/data/pseudos_module/espresso/nninc/pbe/van/H.UPF
     MD5 check sum: b5ee9d7bfd3a09ee7748110bda690ff7
     Pseudo is Ultrasoft, Zval =  1.0
     Generated by new atomic code, or converted to UPF format
     Using radial grid of  615 points,  1 beta functions with:
                l(1) =   0
     Q(r) pseudized with  8 coefficients,  rinner =    0.800

     PseudoPot. # 5 for N  read from file:
     /storage/coda1/p-amedford6/0/shared/rich_project_chbe-medford/medford-share/data/pseudos_module/espresso/nninc/pbe/van/N.UPF
     MD5 check sum: 90d10febe142ad51ac9d5be1deb811c4
     Pseudo is Ultrasoft, Zval =  5.0
     Generated by new atomic code, or converted to UPF format
     Using radial grid of  729 points,  4 beta functions with:
                l(1) =   0
                l(2) =   0
                l(3) =   1
                l(4) =   1
     Q(r) pseudized with  8 coefficients,  rinner =    0.800   0.800   0.800

     atomic species   valence    mass     pseudopotential
        Ti1           12.00    47.86700     Ti( 1.00)
        O1             6.00    15.99900     O ( 1.00)
        C1             4.00    12.01100     C ( 1.00)
        H1             1.00     1.00800     H ( 1.00)
        N1             5.00    14.00700     N ( 1.00)

     No symmetry found

   Cartesian axes

     site n.     atom                  positions (alat units)
         1           Ti1 tau(   1) = (   0.0004258   2.9801865   6.0000000  )
         2           Ti1 tau(   2) = (   3.2906075   1.4906267   6.0002472  )
         3           O1  tau(   3) = (   0.0006271   0.0005054   7.9858123  )
         4           O1  tau(   4) = (   3.2906025   0.0005020   7.3038282  )
         5           O1  tau(   5) = (   4.5942328   1.4918067   9.2879030  )
         6           O1  tau(   6) = (   1.9868534   1.4903216   9.2879459  )
         7           Ti1 tau(   7) = (   3.3158351   2.9795272   9.1571407  )
         8           Ti1 tau(   8) = (   0.0345117   1.4954568   9.2575666  )
         9           O1  tau(   9) = (   3.2804148   0.0005216  11.3961210  )
        10           O1  tau(  10) = (   6.5754384   0.0027490  10.6104223  )
        11           O1  tau(  11) = (   1.2711157   1.5048091  12.6625889  )
        12           O1  tau(  12) = (   5.2819882   1.5086244  12.6575238  )
        13           Ti1 tau(  13) = (   6.5611464   2.9928142  12.4891984  )
        14           Ti1 tau(  14) = (   3.2628853   1.4881963  12.5400211  )
        15           O1  tau(  15) = (   6.5462708   0.0383706  14.6849076  )
        16           O1  tau(  16) = (   3.2762351   0.0314270  14.0210983  )
        17           O1  tau(  17) = (   4.5480503   1.5258664  16.2093047  )
        18           O1  tau(  18) = (   2.0091799   1.5236472  16.2076768  )
        19           Ti1 tau(  19) = (   3.2615833   3.0079505  15.7899682  )
        20           Ti1 tau(  20) = (   6.5461430   1.3591503  15.9841226  )
        21           O1  tau(  21) = (   3.2904802   0.0005063   4.7018136  )
        22           O1  tau(  22) = (   0.0055641   5.9323274  17.2271586  )
        23           O1  tau(  23) = (   1.3043587   1.4918075   6.0039043  )
        24           O1  tau(  24) = (   5.2767064   1.4903225   6.0039473  )
        25           Ti1 tau(  25) = (   0.0000382   5.9609847   6.0000000  )
        26           Ti1 tau(  26) = (   3.2902200   4.4714249   6.0002472  )
        27           O1  tau(  27) = (   0.0002396   2.9813036   7.9858123  )
        28           O1  tau(  28) = (   3.2902150   2.9813002   7.3038282  )
        29           O1  tau(  29) = (   4.5938453   4.4726049   9.2879030  )
        30           O1  tau(  30) = (   1.9864658   4.4711199   9.2879459  )
        31           Ti1 tau(  31) = (   3.3150948   5.9586858   9.1561628  )
        32           Ti1 tau(  32) = (   0.0340967   4.4763829   9.2524718  )
        33           O1  tau(  33) = (   3.2753113   2.9914731  11.3901290  )
        34           O1  tau(  34) = (   6.5780236   2.9893894  10.6266999  )
        35           O1  tau(  35) = (   1.2714098   4.4783180  12.6834591  )
        36           O1  tau(  36) = (   5.2817444   4.4746391  12.6770453  )
        37           Ti1 tau(  37) = (   6.5518553   0.0146490  12.4787168  )
        38           Ti1 tau(  38) = (   3.2609386   4.4666435  12.5436525  )
        39           O1  tau(  39) = (   6.5727554   2.9765611  15.0046942  )
        40           O1  tau(  40) = (   3.2753211   2.9893216  13.9945429  )
        41           O1  tau(  41) = (   4.5407595   4.4795142  16.1711177  )
        42           O1  tau(  42) = (   2.0079144   4.4851887  16.1445895  )
        43           Ti1 tau(  43) = (   3.2645986   0.0272911  15.8248446  )
        44           Ti1 tau(  44) = (   6.5393768   4.6192689  15.8991084  )
        45           O1  tau(  45) = (   3.2900926   2.9813045   4.7018136  )
        46           O1  tau(  46) = (   1.3039711   4.4726057   6.0039043  )
        47           O1  tau(  47) = (   5.2763189   4.4711207   6.0039473  )
        48           C1  tau(  48) = (   0.2825875   3.2559775  19.2685358  )
        49           O1  tau(  49) = (   1.2951032   4.2390751  19.3812768  )
        50           H1  tau(  50) = (   0.6415048   2.3562466  19.7635977  )
        51           H1  tau(  51) = (   0.9956314   5.0335145  18.9054436  )
        52           H1  tau(  52) = (   5.9119845   3.5690521  19.7114027  )
        53           H1  tau(  53) = (   0.0782633   2.9856970  18.2099924  )
        54           N1  tau(  54) = (   3.2615833   3.0079505  19.0899682  )
        55           N1  tau(  55) = (   3.2615833   3.0079505  17.9599882  )

     number of k points=    10  Fermi-Dirac smearing, width (Ry)=  0.0073
                       cart. coord. in units 2pi/alat
        k(    1) = (   0.0000000   0.0000000   0.0000000), wk =   0.1250000
        k(    2) = (   0.0000000   0.0419351   0.0000000), wk =   0.2500000
        k(    3) = (   0.0000000  -0.0838702   0.0000000), wk =   0.1250000
        k(    4) = (   0.0379955   0.0000049   0.0000000), wk =   0.2500000
        k(    5) = (   0.0379955   0.0419400   0.0000000), wk =   0.2500000
        k(    6) = (   0.0379955  -0.0838652   0.0000000), wk =   0.2500000
        k(    7) = (   0.0379955  -0.0419301   0.0000000), wk =   0.2500000
        k(    8) = (  -0.0759910  -0.0000099   0.0000000), wk =   0.1250000
        k(    9) = (  -0.0759910   0.0419252   0.0000000), wk =   0.2500000
[...]
        43           Ti1 tau(  43) = (   3.2608950   5.9366880  15.8214421  )
        44           Ti1 tau(  44) = (   6.5469778   4.5956086  15.9353286  )
        45           O1  tau(  45) = (   3.2900926   2.9813045   4.7018136  )
        46           O1  tau(  46) = (   1.3039711   4.4726057   6.0039043  )
        47           O1  tau(  47) = (   5.2763189   4.4711207   6.0039473  )
        48           C1  tau(  48) = (   0.2583285   3.5640637  19.4712074  )
        49           O1  tau(  49) = (   1.0671087   4.7269146  19.5203915  )
        50           H1  tau(  50) = (   0.7717466   2.7777589  20.0209274  )
        51           H1  tau(  51) = (   0.7041855   5.3619236  18.8705049  )
        52           H1  tau(  52) = (   5.8431010   3.7130779  19.8984767  )
        53           H1  tau(  53) = (   0.1171339   3.1914385  18.4358343  )
        54           N1  tau(  54) = (   3.4133587   2.0030568  20.0597300  )
        55           N1  tau(  55) = (   3.4176688   2.4447990  19.0462555  )

     number of k points=    10  Fermi-Dirac smearing, width (Ry)=  0.0073
                       cart. coord. in units 2pi/alat
        k(    1) = (   0.0000000   0.0000000   0.0000000), wk =   0.1250000
        k(    2) = (   0.0000000   0.0419351   0.0000000), wk =   0.2500000
        k(    3) = (   0.0000000  -0.0838702   0.0000000), wk =   0.1250000
        k(    4) = (   0.0379955   0.0000049   0.0000000), wk =   0.2500000
        k(    5) = (   0.0379955   0.0419400   0.0000000), wk =   0.2500000
        k(    6) = (   0.0379955  -0.0838652   0.0000000), wk =   0.2500000
        k(    7) = (   0.0379955  -0.0419301   0.0000000), wk =   0.2500000
        k(    8) = (  -0.0759910  -0.0000099   0.0000000), wk =   0.1250000
        k(    9) = (  -0.0759910   0.0419252   0.0000000), wk =   0.2500000
        k(   10) = (  -0.0759910  -0.0838800   0.0000000), wk =   0.1250000

     Initial potential from superposition of free atoms

     starting charge  385.99915, renormalised to  402.00000

[...]

     %%%%%%%%%%%%%%%%%%%%%%%%%%%%%%%%%%%%%%%%%%%%%%%%%%%%%%%%%%%%%%%%%%%%%%%%
     %                                                                      %
     % You are using vdW-DF, which was implemented by the Thonhauser group. %
     % Please cite the following two papers that made this development      %
     % possible and the two reviews that describe the various versions:     %
     %                                                                      %
     %   T. Thonhauser et al., PRL 115, 136402 (2015).                      %
     %   T. Thonhauser et al., PRB 76, 125112 (2007).                       %
     %   K. Berland et al., Rep. Prog. Phys. 78, 066501 (2015).             %
     %   D.C. Langreth et al., J. Phys.: Condens. Matter 21, 084203 (2009). %
     %                                                                      %
     %                                                                      %
     % If you are calculating the stress with vdW-DF, please also cite:     %
     %                                                                      %
     %   R. Sabatini et al., J. Phys.: Condens. Matter 24, 424209 (2012).   %
     %                                                                      %
     %%%%%%%%%%%%%%%%%%%%%%%%%%%%%%%%%%%%%%%%%%%%%%%%%%%%%%%%%%%%%%%%%%%%%%%%

[...]

     Starting wfcs are  304 atomic wfcs
  @ DRIVER MODE: Message from server: STATUS
  @ DRIVER MODE: Message from server: POSDATA
  @ DRIVER MODE: Reading and sharing cell
  @ DRIVER MODE: Reading and sharing positions
  @ DRIVER MODE: Received positions

[...]

     Self-consistent Calculation

[...]

     iteration # 16     ecut=    29.40 Ry     beta= 0.05
     Davidson diagonalization with overlap
     c_bands:  1 eigenvalues not converged
     ethr =  2.70E-11,  avg # of iterations = 16.8

[...]

     total energy              =   -2972.78690001 Ry
     estimated scf accuracy    <       0.00000011 Ry

     iteration # 18     ecut=    29.40 Ry     beta= 0.05
     Davidson diagonalization with overlap
     ethr =  2.66E-11,  avg # of iterations = 12.0

[...]

     End of self-consistent calculation

[...]

          k = 0.0380-0.0419 0.0000 ( 17876 PWs)   bands (ev):

[...]

          k =-0.0760-0.0839 0.0000 ( 17948 PWs)   bands (ev):

   -55.8498 -55.8486 -55.8022 -55.8017 -55.7428 -55.7219 -55.7157 -55.6979
   -55.6960 -55.6934 -55.6926 -55.6409 -55.6278 -55.6266 -54.9127 -54.9127
   -32.3181 -32.2339 -32.2311 -32.1360 -32.1355 -32.1329 -32.1211 -32.0949
   -32.0948 -32.0673 -32.0625 -32.0606 -32.0569 -32.0162 -32.0129 -32.0123
   -32.0112 -32.0106 -31.9987 -31.9885 -31.9843 -31.9825 -31.9808 -31.9574
   -31.9543 -31.9455 -31.9435 -31.9384 -31.9201 -31.9197 -31.9154 -31.9088
   -31.8949 -31.8932 -31.8726 -31.8704 -31.8616 -31.8602 -31.8402 -31.8275
   -31.8136 -31.8124 -31.2295 -31.2295 -31.1553 -31.1553 -31.1154 -31.1154
   -20.7543 -17.7653 -16.4199 -16.0405 -16.0193 -15.9329 -15.9200 -15.8141
   -15.8040 -15.7181 -15.6684 -15.6441 -15.6412 -15.6038 -15.5650 -15.5586
   -15.5491 -15.4909 -15.4749 -15.4450 -15.4400 -15.3894 -15.3870 -15.3848
   -15.3840 -15.3515 -15.3485 -15.3068 -15.3042 -15.2310 -15.0829 -13.4123
   -13.4122  -9.2952  -5.9818  -4.8564  -3.9125  -3.8993  -3.4352  -3.3091
    -3.2761  -3.2038  -3.1583  -3.0851  -3.0401  -2.9954  -2.9914  -2.9147
    -2.8707  -2.8681  -2.7887  -2.7779  -2.7732  -2.7631  -2.7507  -2.7217
    -2.6826  -2.6610  -2.6534  -2.6355  -2.6182  -2.5855  -2.5820  -2.5720
    -2.5375  -2.5312  -2.5268  -2.5167  -2.4828  -2.4577  -2.4469  -2.4198
    -2.2716  -2.2623  -2.1542  -2.1105  -2.1033  -2.0248  -2.0202  -1.9821
    -1.9440  -1.8958  -1.8583  -1.6948  -1.6690  -1.6684  -1.6151  -1.5640
    -1.5076  -1.4396  -1.4287  -1.3879  -1.3410  -1.1877  -1.1835  -1.1547
    -1.0759  -1.0599  -0.9814  -0.9184  -0.8791  -0.8608  -0.8599  -0.8327
    -0.8240  -0.7913  -0.7086  -0.6621  -0.6243  -0.6109  -0.5900  -0.5121
    -0.3853  -0.3344  -0.3187  -0.2047  -0.1132   0.0316   0.0365   0.0857
     0.1951   0.2046   0.2241   0.2454   0.3733   0.3843   0.4508   0.4938
     0.4998   0.5443   0.5467   1.3404   1.4449   1.4455   1.5524   1.5529
     3.3995   3.4701   3.5029   3.5378   3.6750   3.6849   3.7333   3.7770
     3.7867   3.8017   3.8565

     the Fermi energy is     3.2943 ev

!    total energy              =   -2972.78689019 Ry
     estimated scf accuracy    <       0.00000005 Ry
     smearing contrib. (-TS)   =      -0.03678742 Ry
     internal energy E=F+TS    =   -2972.75010277 Ry

     The total energy is F=E-TS. E is the sum of the following terms:
     one-electron contribution =  -22489.20131448 Ry
     hartree contribution      =   11334.93203700 Ry
     xc contribution           =    -493.17882469 Ry
     ewald contribution        =    8674.69780885 Ry
     electric field correction =       0.00019055 Ry

     convergence has been achieved in  18 iterations

     Forces acting on atoms (cartesian axes, Ry/au):

     atom    1 type  1   force =    -0.00010926    0.00003179    0.08973376
     atom    2 type  1   force =    -0.00012830    0.00018115   -0.18421409
     atom    3 type  2   force =     0.00050105   -0.00010004   -0.02412110
     atom    4 type  2   force =     0.00064502   -0.00003800    0.05303530
     atom    5 type  2   force =    -0.01434329   -0.00023973    0.00616153
     atom    6 type  2   force =     0.01331227    0.00029556    0.00559696
     atom    7 type  1   force =    -0.00001494   -0.00024543   -0.00017611
     atom    8 type  1   force =    -0.00009019   -0.00019061    0.00059564
     atom    9 type  2   force =    -0.00007963   -0.00008677    0.00005649
     atom   10 type  2   force =     0.00006046   -0.00000688   -0.00006770
     atom   11 type  2   force =     0.00021018   -0.00013820    0.00002927
     atom   12 type  2   force =     0.00008690   -0.00005301    0.00000380
     atom   13 type  1   force =    -0.00052614    0.00054510    0.00023611
     atom   14 type  1   force =     0.00063935   -0.00026234   -0.00001711
     atom   15 type  2   force =    -0.00002111    0.00038327    0.00001895
     atom   16 type  2   force =    -0.00008148    0.00008501   -0.00029571
     atom   17 type  2   force =    -0.00015898    0.00011568    0.00009578
     atom   18 type  2   force =    -0.00026862   -0.00001273    0.00028071
     atom   19 type  1   force =     0.00097943    0.00032493   -0.00012746
     atom   20 type  1   force =    -0.00064123   -0.00013388    0.00014278
     atom   21 type  2   force =     0.00005598    0.00008899    0.10526770
     atom   22 type  2   force =     0.00013581   -0.00028856    0.00015524
     atom   23 type  2   force =    -0.06766444   -0.00023276   -0.02595009
     atom   24 type  2   force =     0.06754515    0.00018079   -0.02604946
     atom   25 type  1   force =    -0.00017617    0.00000775    0.08883005
     atom   26 type  1   force =    -0.00011863   -0.00031224   -0.18428981
     atom   27 type  2   force =     0.00045436    0.00010906   -0.02306397
     atom   28 type  2   force =     0.00063146   -0.00000829    0.05289886
     atom   29 type  2   force =    -0.01428096   -0.00036952    0.00633386
     atom   30 type  2   force =     0.01329226    0.00022555    0.00578304
     atom   31 type  1   force =     0.00009281    0.00031881   -0.00000534
     atom   32 type  1   force =    -0.00012500    0.00016833    0.00061763
     atom   33 type  2   force =     0.00002159    0.00014034   -0.00038750
     atom   34 type  2   force =     0.00005268   -0.00001937   -0.00019990
     atom   35 type  2   force =     0.00041073    0.00016782    0.00011461
     atom   36 type  2   force =    -0.00014989    0.00004449    0.00010262
     atom   37 type  1   force =    -0.00051702   -0.00040666   -0.00058892
     atom   38 type  1   force =     0.00061394    0.00014954   -0.00000036
     atom   39 type  2   force =     0.00040501   -0.00009297   -0.00009210
     atom   40 type  2   force =    -0.00028442   -0.00006178    0.00027128
     atom   41 type  2   force =    -0.00021906    0.00000647   -0.00022091
     atom   42 type  2   force =    -0.00014279    0.00010055    0.00013128
     atom   43 type  1   force =     0.00086862   -0.00042924    0.00020494
     atom   44 type  1   force =    -0.00072191   -0.00021772   -0.00000344
     atom   45 type  2   force =     0.00003580    0.00008697    0.10523109
     atom   46 type  2   force =    -0.06764907   -0.00017160   -0.02594127
     atom   47 type  2   force =     0.06753758    0.00028068   -0.02604284
     atom   48 type  3   force =    -0.00013692   -0.00040482   -0.00015868
     atom   49 type  2   force =     0.00021171   -0.00011468   -0.00001086
     atom   50 type  4   force =     0.00000591    0.00034129    0.00033354
     atom   51 type  4   force =    -0.00014057    0.00030821   -0.00042095
     atom   52 type  4   force =    -0.00028970   -0.00002706   -0.00033983
     atom   53 type  4   force =     0.00030417    0.00027577    0.00051062
     atom   54 type  5   force =     0.00015438   -0.00116037    0.00086012
     atom   55 type  5   force =    -0.00018487    0.00086137   -0.00084802

     Total force =     0.366911     Total SCF correction =     0.000804
  @ DRIVER MODE: Message from server: STATUS
  @ DRIVER MODE: Message from server: GETFORCE
  @ DRIVER MODE: Returning v,forces,stress,ensemble

     Writing config to output data dir ./calc.save/
  @ DRIVER MODE: Message from server: STATUS
  @ DRIVER MODE: Message from server: INIT
  @ DRIVER MODE: Receiving replica           0           0
  @ DRIVER MODE: Receiving encoded integer           2
  @ DRIVER MODE:  SCF:  T  FORCE:  T  STRESS:  F  VC:  F  ENSEMBLE:  F
  @ DRIVER MODE:  SCF:  F  FORCE:  F  STRESS:  F  VC:  F  ENSEMBLE:  T
  @ DRIVER MODE: Message from server: STATUS
  @ DRIVER MODE: Message from server: POSDATA
  @ DRIVER MODE: Reading and sharing positions
  @ DRIVER MODE: Received positions
     NEW-OLD atomic charge density approx. for the potential

[...]

     Adding external electric field

     Computed dipole along edir(3) :
        Dipole                0.3178 Ry au,          0.8077 Debye
        Dipole field          0.0006 Ry au,

        Potential amp.       -0.0556 Ry
        Total length         46.3494 bohr

  @ DRIVER MODE: BEEF-vdw

[...]

     negative rho (up, down):  1.403E-02 0.000E+00

     negative rho (up, down):  1.403E-02 0.000E+00
 BEEFens 2000 ensemble energies
             -0.354106585920092E+02
             -0.203407278542204E+01
             -0.731516858735877E+01
              0.245573087079793E+02
             -0.121782299960936E+02
             -0.942036096557018E+01
             -0.246148290400584E+02
             -0.514261940662812E+02
             -0.219617841538697E+02
             -0.230725862651192E+02
             -0.213570164478136E+02
              0.430873745535777E+01
              0.203082713034047E+01
             -0.107863539065100E+01
              0.178391276108570E+01
              0.270415945260688E+02
             -0.104776617217798E+02
             -0.738266429019657E+01
              0.119371097776782E+02
             -0.632431366658890E+02
              0.316561612472890E+02
             -0.135338141631699E+02
             -0.247903299403900E+01
             -0.572936170641171E+01
             -0.942809706272214E+00
             -0.222543640795810E+01
              0.490802759630620E+02
             -0.152453484886313E+02
             -0.416244896030275E+01
             -0.309844423169569E+02
              0.400880823164280E+02
             -0.445688474846176E+01
             -0.218154401406082E+02
              0.114710438656386E+02
             -0.208914583277218E+01
              0.132626308600225E+02
             -0.553350468003657E+00
              0.279108377115672E+01
              0.192881539497311E+02
             -0.558596440337619E+02
              0.311279247310673E+02
              0.828070283057220E+01
             -0.637515411001596E+01
             -0.178650419087175E+02
              0.703680709281193E+01
             -0.111510860345438E+02
              0.254263775248689E+02
              0.203008138160363E+02
             -0.130798506742776E+02
             -0.166940969684724E+02
             -0.176006811125884E+02
             -0.212384736420076E+02
              0.107753561619467E+02
             -0.277099245534947E+02
              0.849459794833541E+01
              0.353443406648918E+02
              0.407091237569948E+02
              0.189920547547221E+02
              0.854792172783552E+01
              0.177190079511671E+02
[...]
             -0.416454869493427E+02
              0.282910984947824E+01
             -0.141226467036456E+01
             -0.580901233873010E+01
              0.543695678850611E-01
             -0.370804704137337E+02
             -0.717412981358314E+01
              0.506778456678789E+01
              0.754653041656924E+01
              0.277789101897558E+02
             -0.242572959793160E+02
              0.317497322231679E+02
             -0.227048105502462E+02
              0.145957865795439E+02
              0.229763487300398E+02

 BEEF-vdW xc energy contributions
           1 :   -417.715258444111
           2 :    363.552569750737
           3 :   -276.558143870269
           4 :    186.221772354498
           5 :   -115.468941614352
           6 :    73.0791834499394
           7 :   -55.1272328990433
           8 :    51.5715658627789
           9 :   -53.0130325210884
          10 :    54.2025936349917
          11 :   -53.8414807322168
          12 :    52.3921320401279
          13 :   -50.1991914223334
          14 :    46.9883775399457
          15 :   -42.4255411758793
          16 :    36.7618888602918
          17 :   -30.9548040570994
          18 :    26.2180366738496
          19 :   -23.4021978073623
          20 :    22.6295516756570
          21 :   -23.3851497754902
          22 :    24.8953566229424
          23 :   -26.4660604206726
          24 :    27.5825444366373
          25 :   -27.8840671365991
          26 :    27.1695792543318
          27 :   -25.4471632448364
          28 :    22.9631807959722
          29 :   -20.1847812595175
          30 :    17.7000721294797
          31 :   -49.1582377520302
          32 :   -33.3129174857344
  @ DRIVER MODE: Message from server: STATUS
  @ DRIVER MODE: Message from server: GETFORCE
  @ DRIVER MODE: Returning v,forces,stress,ensemble
  @ DRIVE MODE: Returning Ensemble Energies

     Writing config to output data dir ./calc.save/
  @ DRIVER MODE: Message from server: EXIT
  @ DRIVE MODE: Exiting

     General routines

     Parallel routines

   This run was terminated on:  21:34:26  30Aug2021

   JOB DONE.