     Program PWSCF v.6.7GPU starts on 15Sep2021 at 22:46: 5

     R & G space division:  proc/nbgrp/npool/nimage =      10
     Reading input from /storage/home/hcoda1/3/ntian30/research/carbon/CxH_vib/H2O_calc/ads_slab/CH2NH2O_a/out_0022/pw.inp
Warning: card &CELL ignored
Warning: card   CELL_DYNAMICS='IPI', ignored
Warning: card / ignored

     Current dimensions of program PWSCF are:
     Max number of different atomic species (ntypx) = 10
     Max number of k-points (npk) =  40000
     Max angular momentum in pseudopotentials (lmaxx) =  3
     Presently no symmetry can be used with electric field

     Message from routine cell_base_init:
     DEPRECATED: use true lattice parameter, not A to a.u. conversion factor

     IMPORTANT: XC functional enforced from input :
     Exchange-correlation= BEEF-VDW
                           (   1   4  43  14   2   0   0)
     Any further DFT definition will be discarded
     Please, verify this is what you really want

  @ DRIVER MODE: Connecting to
 qe_1139763_2852607.sched-torque.pace.gatech.edu1lrl4miw_scratch
  using UNIX socket
  @ DRIVER MODE: Message from server: STATUS
  @ DRIVER MODE: Message from server: INIT
  @ DRIVER MODE: Receiving replica           0          -1
  @ DRIVER MODE: Receiving encoded integer          25
  @ DRIVER MODE:  SCF:  T  FORCE:  T  STRESS:  F  VC:  F  ENSEMBLE:  F
  @ DRIVER MODE:  SCF:  T  FORCE:  T  STRESS:  F  VC:  F  ENSEMBLE:  F

     Using Slab Decomposition

     bravais-lattice index     =            0
     lattice parameter (alat)  =       1.8897  a.u.
     unit-cell volume          =    6658.9804 (a.u.)^3
     number of atoms/cell      =           54
     number of atomic types    =            5
     number of electrons       =       397.00
     number of Kohn-Sham states=          208
     kinetic-energy cutoff     =      29.3995  Ry
     charge density cutoff     =     293.9946  Ry
     scf convergence threshold =      7.3E-08
     mixing beta               =       0.0500
     number of iterations used =            8  plain     mixing
     Exchange-correlation= BEEF-VDW
                           (   1   4  43  14   2   0   0)

     celldm(1)=   1.889726  celldm(2)=   0.000000  celldm(3)=   0.000000
     celldm(4)=   0.000000  celldm(5)=   0.000000  celldm(6)=   0.000000

     crystal axes: (cart. coord. in units of alat)
               a(1) = (   6.579727   0.000000   0.000000 )
               a(2) = (  -0.000775   5.961596   0.000000 )
               a(3) = (   0.000000   0.000000  25.155947 )

     reciprocal axes: (cart. coord. in units 2 pi/alat)
               b(1) = (  0.151982  0.000020  0.000000 )
               b(2) = (  0.000000  0.167740  0.000000 )
               b(3) = (  0.000000  0.000000  0.039752 )

     PseudoPot. # 1 for Ti read from file:
     /storage/coda1/p-amedford6/0/shared/rich_project_chbe-medford/medford-share/data/pseudos_module/espresso/nninc/pbe/van/Ti.UPF
     MD5 check sum: 8e4df49b7f0d34bbd5052bf3f5ea0213
     Pseudo is Ultrasoft, Zval = 12.0
     Generated by new atomic code, or converted to UPF format
     Using radial grid of  851 points,  6 beta functions with:
                l(1) =   0
                l(2) =   0
                l(3) =   1
                l(4) =   1
                l(5) =   2
                l(6) =   2
     Q(r) pseudized with  8 coefficients,  rinner =    1.000   1.000   1.000
                                                       1.000   1.000

     PseudoPot. # 2 for O  read from file:
     /storage/coda1/p-amedford6/0/shared/rich_project_chbe-medford/medford-share/data/pseudos_module/espresso/nninc/pbe/van/O.UPF
     MD5 check sum: 78c19812648e8988a0fe644b0f25305e
     Pseudo is Ultrasoft, Zval =  6.0
     Generated by new atomic code, or converted to UPF format
     Using radial grid of  737 points,  4 beta functions with:
                l(1) =   0
                l(2) =   0
                l(3) =   1
                l(4) =   1
     Q(r) pseudized with  8 coefficients,  rinner =    0.800   0.800   0.800

     PseudoPot. # 3 for N  read from file:
     /storage/coda1/p-amedford6/0/shared/rich_project_chbe-medford/medford-share/data/pseudos_module/espresso/nninc/pbe/van/N.UPF
     MD5 check sum: 90d10febe142ad51ac9d5be1deb811c4
     Pseudo is Ultrasoft, Zval =  5.0
     Generated by new atomic code, or converted to UPF format
     Using radial grid of  729 points,  4 beta functions with:
                l(1) =   0
                l(2) =   0
                l(3) =   1
                l(4) =   1
     Q(r) pseudized with  8 coefficients,  rinner =    0.800   0.800   0.800

     PseudoPot. # 4 for C  read from file:
     /storage/coda1/p-amedford6/0/shared/rich_project_chbe-medford/medford-share/data/pseudos_module/espresso/nninc/pbe/van/C.UPF
     MD5 check sum: 1a69bf6b8db32088f5b2163dbdb77a27
     Pseudo is Ultrasoft, Zval =  4.0
     Generated by new atomic code, or converted to UPF format
     Using radial grid of  721 points,  4 beta functions with:
                l(1) =   0
                l(2) =   0
                l(3) =   1
                l(4) =   1
     Q(r) pseudized with  8 coefficients,  rinner =    0.800   0.800   0.800

     PseudoPot. # 5 for H  read from file:
     /storage/coda1/p-amedford6/0/shared/rich_project_chbe-medford/medford-share/data/pseudos_module/espresso/nninc/pbe/van/H.UPF
     MD5 check sum: b5ee9d7bfd3a09ee7748110bda690ff7
     Pseudo is Ultrasoft, Zval =  1.0
     Generated by new atomic code, or converted to UPF format
     Using radial grid of  615 points,  1 beta functions with:
                l(1) =   0
     Q(r) pseudized with  8 coefficients,  rinner =    0.800

     atomic species   valence    mass     pseudopotential
        Ti1           12.00    47.86700     Ti( 1.00)
        O1             6.00    15.99900     O ( 1.00)
        N1             5.00    14.00700     N ( 1.00)
        C1             4.00    12.01100     C ( 1.00)
        H1             1.00     1.00800     H ( 1.00)

     No symmetry found

   Cartesian axes

     site n.     atom                  positions (alat units)
         1           Ti1 tau(   1) = (   0.0004258   2.9801865   6.0000000  )
         2           Ti1 tau(   2) = (   3.2906075   1.4906267   6.0002472  )
         3           O1  tau(   3) = (   0.0006271   0.0005054   7.9858123  )
         4           O1  tau(   4) = (   3.2906025   0.0005020   7.3038282  )
         5           O1  tau(   5) = (   4.5942328   1.4918067   9.2879030  )
         6           O1  tau(   6) = (   1.9868534   1.4903216   9.2879459  )
         7           Ti1 tau(   7) = (   3.2907910   2.8959150   9.1758416  )
         8           Ti1 tau(   8) = (   0.0015273   1.4827037   9.2680791  )
         9           O1  tau(   9) = (   3.3024300   0.0156651  11.3362489  )
        10           O1  tau(  10) = (   0.0116148   5.9584955  10.6183126  )
        11           O1  tau(  11) = (   1.3202942   1.5021919  12.6211084  )
        12           O1  tau(  12) = (   5.3089492   1.4933221  12.6244093  )
        13           Ti1 tau(  13) = (   6.5318549   2.9554166  12.6004298  )
        14           Ti1 tau(  14) = (   3.2163550   1.4959796  12.4995714  )
        15           O1  tau(  15) = (   0.0198598   0.0281632  14.6562685  )
        16           O1  tau(  16) = (   3.3115091   0.0214956  13.9462002  )
        17           O1  tau(  17) = (   4.5768415   1.5604546  16.0171077  )
        18           O1  tau(  18) = (   2.0579415   1.5629007  16.0064375  )
        19           Ti1 tau(  19) = (   3.3180608   3.0267156  15.6839788  )
        20           Ti1 tau(  20) = (   0.0373526   1.5614015  15.8096867  )
        21           O1  tau(  21) = (   3.2904802   0.0005063   4.7018136  )
        22           O1  tau(  22) = (   0.0417102   0.0258274  17.2400240  )
        23           O1  tau(  23) = (   1.3043587   1.4918075   6.0039043  )
        24           O1  tau(  24) = (   5.2767064   1.4903225   6.0039473  )
        25           Ti1 tau(  25) = (   0.0000382   5.9609847   6.0000000  )
        26           Ti1 tau(  26) = (   3.2902200   4.4714249   6.0002472  )
        27           O1  tau(  27) = (   0.0002396   2.9813036   7.9858123  )
        28           O1  tau(  28) = (   3.2902150   2.9813002   7.3038282  )
        29           O1  tau(  29) = (   4.5938453   4.4726049   9.2879030  )
        30           O1  tau(  30) = (   1.9864658   4.4711199   9.2879459  )
        31           Ti1 tau(  31) = (   3.2891106   5.8743827   9.1763621  )
        32           Ti1 tau(  32) = (   0.0006254   4.4649316   9.2693709  )
        33           O1  tau(  33) = (   3.2972593   2.9937737  11.3378417  )
        34           O1  tau(  34) = (   0.0092240   2.9805883  10.6323155  )
        35           O1  tau(  35) = (   1.3143161   4.4928581  12.6237603  )
        36           O1  tau(  36) = (   5.3098643   4.4818631  12.6293382  )
        37           Ti1 tau(  37) = (   6.5333161   5.9285706  12.5502982  )
        38           Ti1 tau(  38) = (   3.2144982   4.4885123  12.4917375  )
        39           O1  tau(  39) = (   0.0198576   2.9709144  14.6477637  )
        40           O1  tau(  40) = (   3.3145585   3.0140958  13.8917140  )
        41           O1  tau(  41) = (   4.5688195   4.4932876  16.0791699  )
        42           O1  tau(  42) = (   2.0650477   4.4875755  16.0663885  )
        43           Ti1 tau(  43) = (   3.3331689   0.0560974  15.7812046  )
        44           Ti1 tau(  44) = (   0.0348837   4.6827776  16.0884590  )
        45           O1  tau(  45) = (   3.2900926   2.9813045   4.7018136  )
        46           O1  tau(  46) = (   1.3039711   4.4726057   6.0039043  )
        47           O1  tau(  47) = (   5.2763189   4.4711207   6.0039473  )
        48           N1  tau(  48) = (   0.0359943   2.9709886  17.3934402  )
        49           C1  tau(  49) = (   0.0487696   2.8543938  18.6443550  )
        50           H1  tau(  50) = (   0.0551173   3.7295775  19.3121947  )
        51           H1  tau(  51) = (   0.0550652   1.8805629  19.1311967  )
        52           O1  tau(  52) = (   3.2796845   0.1561466  18.1797653  )
        53           H1  tau(  53) = (   4.0301203   5.5808867  18.4795516  )
        54           H1  tau(  54) = (   2.4663764   5.6445902  18.4210942  )

     number of k points=    10  Fermi-Dirac smearing, width (Ry)=  0.0073
                       cart. coord. in units 2pi/alat
        k(    1) = (   0.0000000   0.0000000   0.0000000), wk =   0.1250000
        k(    2) = (   0.0000000   0.0419351   0.0000000), wk =   0.2500000
        k(    3) = (   0.0000000  -0.0838702   0.0000000), wk =   0.1250000
        k(    4) = (   0.0379955   0.0000049   0.0000000), wk =   0.2500000
        k(    5) = (   0.0379955   0.0419400   0.0000000), wk =   0.2500000
        k(    6) = (   0.0379955  -0.0838652   0.0000000), wk =   0.2500000
        k(    7) = (   0.0379955  -0.0419301   0.0000000), wk =   0.2500000
        k(    8) = (  -0.0759910  -0.0000099   0.0000000), wk =   0.1250000
        k(    9) = (  -0.0759910   0.0419252   0.0000000), wk =   0.2500000
        k(   10) = (  -0.0759910  -0.0838800   0.0000000), wk =   0.1250000

     Initial potential from superposition of free atoms

     starting charge  380.99916, renormalised to  397.00000

     negative rho (up, down):  1.694E-02 0.000E+00

     %%%%%%%%%%%%%%%%%%%%%%%%%%%%%%%%%%%%%%%%%%%%%%%%%%%%%%%%%%%%%%%%%%%%%%%%
     %                                                                      %
     % You are using vdW-DF, which was implemented by the Thonhauser group. %
     % Please cite the following two papers that made this development      %
     % possible and the two reviews that describe the various versions:     %
     %                                                                      %
     %   T. Thonhauser et al., PRL 115, 136402 (2015).                      %
     %   T. Thonhauser et al., PRB 76, 125112 (2007).                       %
     %   K. Berland et al., Rep. Prog. Phys. 78, 066501 (2015).             %
     %   D.C. Langreth et al., J. Phys.: Condens. Matter 21, 084203 (2009). %
     %                                                                      %
     %                                                                      %
     % If you are calculating the stress with vdW-DF, please also cite:     %
     %                                                                      %
     %   R. Sabatini et al., J. Phys.: Condens. Matter 24, 424209 (2012).   %
     %                                                                      %
     %%%%%%%%%%%%%%%%%%%%%%%%%%%%%%%%%%%%%%%%%%%%%%%%%%%%%%%%%%%%%%%%%%%%%%%%

     Adding external electric field

     Computed dipole along edir(3) :
        Dipole               -9.2265 Ry au,        -23.4513 Debye
        Dipole field         -0.0174 Ry au,

        Potential amp.        1.6140 Ry
        Total length         46.3494 bohr

     Starting wfcs are  300 atomic wfcs
  @ DRIVER MODE: Message from server: STATUS
  @ DRIVER MODE: Message from server: POSDATA
  @ DRIVER MODE: Reading and sharing cell
  @ DRIVER MODE: Reading and sharing positions
  @ DRIVER MODE: Received positions

     Self-consistent Calculation

     iteration #  1     ecut=    29.40 Ry     beta= 0.05
     Davidson diagonalization with overlap
     c_bands:  1 eigenvalues not converged
     c_bands:  1 eigenvalues not converged
     c_bands:  1 eigenvalues not converged
     c_bands:  1 eigenvalues not converged
     c_bands:  1 eigenvalues not converged
     c_bands:  1 eigenvalues not converged
     c_bands:  1 eigenvalues not converged
     ethr =  1.00E-05,  avg # of iterations = 19.0

[...]

     total energy              =   -2550.54153260 Ry
     estimated scf accuracy    <    4467.32039425 Ry

     iteration #  2     ecut=    29.40 Ry     beta= 0.05
     Davidson diagonalization with overlap
     ethr =  1.00E-02,  avg # of iterations = 25.0

[...]

     iteration # 68     ecut=    29.40 Ry     beta= 0.05
     Davidson diagonalization with overlap
     c_bands:  1 eigenvalues not converged
     c_bands:  2 eigenvalues not converged
     ethr =  7.41E-11,  avg # of iterations = 13.7

[...]

     total energy              =   -2952.76135863 Ry
     estimated scf accuracy    <       0.00000009 Ry

     iteration # 70     ecut=    29.40 Ry     beta= 0.05
     Davidson diagonalization with overlap
     ethr =  2.32E-11,  avg # of iterations = 12.0

     negative rho (up, down):  1.682E-02 0.000E+00

     Adding external electric field

     Computed dipole along edir(3) :
        Dipole                1.0257 Ry au,          2.6072 Debye
        Dipole field          0.0019 Ry au,

        Potential amp.       -0.1794 Ry
        Total length         46.3494 bohr

     End of self-consistent calculation

          k = 0.0000 0.0000 0.0000 ( 18029 PWs)   bands (ev):

   -55.6867 -55.6550 -55.6526 -55.6268 -55.6192 -55.5341 -55.5003 -55.4990
   -55.4681 -55.4663 -55.4627 -55.4290 -55.2124 -54.9955 -54.6658 -54.6318
   -32.1992 -32.1700 -32.0410 -32.0373 -31.9988 -31.9793 -31.9596 -31.9529
   -31.9304 -31.8897 -31.8808 -31.8503 -31.8388 -31.8376 -31.8330 -31.8126
   -31.7918 -31.7844 -31.7815 -31.7487 -31.7437 -31.7361 -31.7020 -31.6911
   -31.6910 -31.6896 -31.6797 -31.6622 -31.6618 -31.6536 -31.6484 -31.6398
   -31.6312 -31.6302 -31.6162 -31.6085 -31.5750 -31.4612 -31.4084 -31.2684
   -31.2477 -31.2097 -31.0729 -30.9847 -30.9623 -30.8896 -30.8031 -30.6921
   -19.1478 -16.4028 -16.1604 -15.9425 -15.8432 -15.8060 -15.6082 -15.5059
   -15.4189 -15.3090 -15.2446 -15.2239 -15.2173 -15.1974 -15.1868 -15.1456
   -15.1325 -15.1282 -15.1088 -15.0913 -15.0384 -15.0284 -15.0206 -14.9314
   -14.8579 -14.8234 -14.8126 -14.8050 -14.7884 -14.7448 -14.2978 -13.1681
   -13.0516  -7.5303  -6.9579  -4.2862  -3.8254  -3.7478  -3.6421  -3.5937
    -3.5522  -3.4099  -3.3491  -3.2613  -3.1448  -2.9333  -2.8737  -2.8340
    -2.8061  -2.7452  -2.5949  -2.5507  -2.4990  -2.4890  -2.4775  -2.4642
    -2.4368  -2.4222  -2.3264  -2.2853  -2.2386  -2.2289  -2.0892  -2.0763
    -2.0492  -1.9999  -1.9660  -1.9516  -1.9460  -1.9342  -1.9204  -1.8973
    -1.8721  -1.7691  -1.6794  -1.6099  -1.4979  -1.4536  -1.4039  -1.3099
    -1.3011  -1.2313  -1.1528  -1.1405  -1.1164  -1.0867  -1.0787  -0.9638
    -0.8581  -0.8442  -0.7441  -0.6911  -0.6081  -0.5789  -0.5244  -0.4792
    -0.4497  -0.4460  -0.4300  -0.3789  -0.2361  -0.2105  -0.1720  -0.0924
    -0.0331  -0.0215   0.0227   0.0638   0.1174   0.1430   0.1975   0.2048
     0.2391   0.2833   0.2866   0.3055   0.3228   0.3483   0.5226   0.5637
     0.5752   0.6509   0.6605   0.8284   0.8414   0.9681   1.0787   1.2832
     1.3565   1.4428   1.5487   1.6491   1.9275   1.9732   3.4419   3.5335
     3.5762   3.6073   3.6864   3.6895   3.8996   3.9168   3.9383   4.0214

[...]

          k = 0.0380-0.0419 0.0000 ( 17876 PWs)   bands (ev):

[...]

          k =-0.0760-0.0000 0.0000 ( 17886 PWs)   bands (ev):

[...]

          k =-0.0760-0.0839 0.0000 ( 17948 PWs)   bands (ev):

   -55.6700 -55.6692 -55.6381 -55.6359 -55.6247 -55.5196 -55.5136 -55.4832
   -55.4828 -55.4699 -55.4472 -55.4447 -55.2112 -54.9966 -54.6488 -54.6486
   -32.0115 -31.9970 -31.9855 -31.9849 -31.9651 -31.9643 -31.9213 -31.9157
   -31.9032 -31.8807 -31.8723 -31.8508 -31.8337 -31.8192 -31.8050 -31.8017
   -31.7984 -31.7950 -31.7894 -31.7887 -31.7861 -31.7832 -31.7715 -31.7373
   -31.7298 -31.7180 -31.7077 -31.6840 -31.6827 -31.6775 -31.6727 -31.6696
   -31.6628 -31.6599 -31.6572 -31.6549 -31.5824 -31.4646 -31.4031 -31.3425
   -31.2495 -31.2312 -30.9750 -30.9749 -30.8857 -30.8856 -30.8464 -30.8464
   -19.1470 -15.8543 -15.7561 -15.6415 -15.6109 -15.5597 -15.4951 -15.4828
   -15.4161 -15.3714 -15.3682 -15.2982 -15.2913 -15.2580 -15.2480 -15.2137
   -15.2132 -15.2063 -15.1558 -15.1430 -15.1275 -15.1252 -15.1187 -15.0417
   -15.0063 -15.0014 -14.9931 -14.9099 -14.8295 -14.7685 -14.4569 -13.1535
   -13.1533  -7.5274  -6.9508  -4.2612  -3.5312  -3.4436  -3.1391  -2.9689
    -2.8834  -2.8171  -2.7919  -2.7669  -2.6165  -2.5950  -2.5418  -2.5381
    -2.5141  -2.5117  -2.5076  -2.4892  -2.4815  -2.4561  -2.4301  -2.3891
    -2.3638  -2.3573  -2.3450  -2.3322  -2.3083  -2.2954  -2.2863  -2.2385
    -2.2363  -2.2173  -2.1245  -2.0539  -1.9102  -1.8917  -1.8484  -1.8271
    -1.8143  -1.7803  -1.7543  -1.7367  -1.6841  -1.6046  -1.5126  -1.4201
    -1.3792  -1.3668  -1.2999  -1.2814  -1.1896  -1.1646  -1.0891  -1.0696
    -0.9924  -0.9731  -0.8834  -0.8402  -0.8197  -0.7852  -0.7516  -0.7401
    -0.7104  -0.6539  -0.6418  -0.5897  -0.5628  -0.4998  -0.4377  -0.4168
    -0.4050  -0.3683  -0.3487  -0.3227  -0.1833  -0.1518  -0.1359  -0.0979
     0.0395   0.0700   0.2804   0.3671   0.3880   0.4663   0.5173   0.5982
     0.6219   0.6304   0.6469   0.6830   0.7746   0.8457   0.8570   0.8897
     0.9902   1.4944   1.7200   1.7210   1.7931   1.7932   3.7319   3.7752
     3.8106   3.8328   3.9284   3.9600   3.9807   3.9827   4.0347   4.1151

     the Fermi energy is     3.4456 ev

!    total energy              =   -2952.76137982 Ry
     estimated scf accuracy    <       0.00000003 Ry
     smearing contrib. (-TS)   =      -0.02154871 Ry
     internal energy E=F+TS    =   -2952.73983111 Ry

     The total energy is F=E-TS. E is the sum of the following terms:
     one-electron contribution =  -24472.85072758 Ry
     hartree contribution      =   12327.55645823 Ry
     xc contribution           =    -488.07057448 Ry
     ewald contribution        =    9680.62302719 Ry
     electric field correction =       0.00198553 Ry

     convergence has been achieved in  70 iterations

     Forces acting on atoms (cartesian axes, Ry/au):

     atom    1 type  1   force =    -0.00000984   -0.00028953    0.09611682
     atom    2 type  1   force =     0.00007952   -0.00044555   -0.17559777
     atom    3 type  2   force =     0.00011161   -0.00005051   -0.02421646
     atom    4 type  2   force =     0.00000800   -0.00136845    0.05324165
     atom    5 type  2   force =    -0.01131580    0.00005604    0.00282162
     atom    6 type  2   force =     0.01306650    0.00040074    0.00282891
     atom    7 type  1   force =     0.00079946    0.00048193   -0.00792016
     atom    8 type  1   force =     0.00007736    0.00682811    0.02439418
     atom    9 type  2   force =    -0.00025161   -0.00080245    0.00031329
     atom   10 type  2   force =    -0.00265914    0.00235243   -0.01482396
     atom   11 type  2   force =    -0.00020391   -0.00012074   -0.00055318
     atom   12 type  2   force =     0.00053902   -0.00002315   -0.00062077
     atom   13 type  1   force =    -0.00055674   -0.00160134    0.00048180
     atom   14 type  1   force =     0.00044459   -0.00022078   -0.00028227
     atom   15 type  2   force =    -0.00000026   -0.00077909   -0.00069970
     atom   16 type  2   force =    -0.00005556   -0.00043276   -0.00029857
     atom   17 type  2   force =    -0.00108194   -0.00070222    0.00005710
     atom   18 type  2   force =     0.00150634   -0.00045225    0.00010803
     atom   19 type  1   force =    -0.00038316    0.00058519    0.00009933
     atom   20 type  1   force =     0.00040755   -0.00073706   -0.00053304
     atom   21 type  2   force =     0.00005408   -0.00001735    0.10319899
     atom   22 type  2   force =    -0.00008661   -0.00037046    0.00103638
     atom   23 type  2   force =    -0.07152191   -0.00012306   -0.02770142
     atom   24 type  2   force =     0.07143912    0.00035486   -0.02777434
     atom   25 type  1   force =     0.00017969   -0.00025370    0.09583133
     atom   26 type  1   force =     0.00005861   -0.00033634   -0.17581140
     atom   27 type  2   force =     0.00014664   -0.00004170   -0.02330061
     atom   28 type  2   force =     0.00000998   -0.00107084    0.05285023
     atom   29 type  2   force =    -0.01165697    0.00075196    0.00296229
     atom   30 type  2   force =     0.01328758    0.00126347    0.00299022
     atom   31 type  1   force =     0.00071549    0.00395139   -0.01082309
     atom   32 type  1   force =     0.00010108   -0.00902934    0.02486940
     atom   33 type  2   force =    -0.00007086    0.00061039   -0.00013864
     atom   34 type  2   force =    -0.00202783    0.00169318   -0.02186767
     atom   35 type  2   force =     0.00004864   -0.00025662   -0.00026708
     atom   36 type  2   force =    -0.00007239   -0.00006678   -0.00060143
     atom   37 type  1   force =    -0.00029141    0.00156343    0.00008919
     atom   38 type  1   force =     0.00052897    0.00040924    0.00021824
     atom   39 type  2   force =    -0.00009186   -0.00010696   -0.00115451
     atom   40 type  2   force =     0.00012932    0.00012417    0.00034707
     atom   41 type  2   force =     0.00011197   -0.00022698    0.00007757
     atom   42 type  2   force =     0.00045575   -0.00031176    0.00013349
     atom   43 type  1   force =    -0.00104905   -0.00056731    0.00043797
     atom   44 type  1   force =     0.00038978    0.00011413    0.00010038
     atom   45 type  2   force =     0.00004282   -0.00005472    0.10318772
     atom   46 type  2   force =    -0.07154698   -0.00006244   -0.02771774
     atom   47 type  2   force =     0.07145888    0.00037353   -0.02777645
     atom   48 type  3   force =    -0.00034793   -0.00043259   -0.00049711
     atom   49 type  4   force =    -0.00019527    0.00934866   -0.00240530
     atom   50 type  5   force =    -0.00014695    0.00104417   -0.00007281
     atom   51 type  5   force =    -0.00010999   -0.01024422    0.00467185
     atom   52 type  2   force =     0.00151842    0.00041440   -0.00032059
     atom   53 type  5   force =    -0.00045749   -0.00044112   -0.00005105
     atom   54 type  5   force =    -0.00152530   -0.00068126    0.00036213

     Total force =     0.367287     Total SCF correction =     0.000495
  @ DRIVER MODE: Message from server: STATUS
  @ DRIVER MODE: Message from server: GETFORCE
  @ DRIVER MODE: Returning v,forces,stress,ensemble

     Writing output data file ./calc.save/
  @ DRIVER MODE: Message from server: EXIT
  @ DRIVE MODE: Exiting

     General routines

     Parallel routines

   This run was terminated on:  23: 6:48  15Sep2021

   JOB DONE.