     Program PWSCF v.6.7GPU starts on 17Jul2021 at  0:38:52

     R & G space division:  proc/nbgrp/npool/nimage =      16
     Reading input from /storage/home/hcoda1/3/ntian30/research/carbon/15Jul_vib/ads_slab/CH3NH2_a/out_0014/pw.inp
Warning: card &CELL ignored
Warning: card   CELL_DYNAMICS='IPI', ignored
Warning: card / ignored

     Current dimensions of program PWSCF are:
     Max number of different atomic species (ntypx) = 10
     Max number of k-points (npk) =  40000
     Max angular momentum in pseudopotentials (lmaxx) =  3
     Presently no symmetry can be used with electric field

     Message from routine cell_base_init:
     DEPRECATED: use true lattice parameter, not A to a.u. conversion factor

     IMPORTANT: XC functional enforced from input :
     Exchange-correlation= BEEF-VDW
                           (   1   4  43  14   2   0   0)
     Any further DFT definition will be discarded
     Please, verify this is what you really want

  @ DRIVER MODE: Connecting to
 qe_1139763_2351647.sched-torque.pace.gatech.edu2lwdevhj_scratch
  using UNIX socket
  @ DRIVER MODE: Message from server: STATUS
  @ DRIVER MODE: Message from server: INIT
  @ DRIVER MODE: Receiving replica           0          -1
  @ DRIVER MODE: Receiving encoded integer          25
  @ DRIVER MODE:  SCF:  T  FORCE:  T  STRESS:  F  VC:  F  ENSEMBLE:  F
  @ DRIVER MODE:  SCF:  T  FORCE:  T  STRESS:  F  VC:  F  ENSEMBLE:  F

     Using Slab Decomposition

     bravais-lattice index     =            0
     lattice parameter (alat)  =       1.8897  a.u.
     unit-cell volume          =    6658.9804 (a.u.)^3
     number of atoms/cell      =           54
     number of atomic types    =            5
     number of electrons       =       392.00
     number of Kohn-Sham states=          206
     kinetic-energy cutoff     =      29.3995  Ry
     charge density cutoff     =     293.9946  Ry
     scf convergence threshold =      7.3E-08
     mixing beta               =       0.0500
     number of iterations used =            8  plain     mixing
     Exchange-correlation= BEEF-VDW
                           (   1   4  43  14   2   0   0)

     celldm(1)=   1.889726  celldm(2)=   0.000000  celldm(3)=   0.000000
     celldm(4)=   0.000000  celldm(5)=   0.000000  celldm(6)=   0.000000

     crystal axes: (cart. coord. in units of alat)
               a(1) = (   6.579727   0.000000   0.000000 )
               a(2) = (  -0.000775   5.961596   0.000000 )
               a(3) = (   0.000000   0.000000  25.155947 )

     reciprocal axes: (cart. coord. in units 2 pi/alat)
               b(1) = (  0.151982  0.000020  0.000000 )
               b(2) = (  0.000000  0.167740  0.000000 )
               b(3) = (  0.000000  0.000000  0.039752 )

     PseudoPot. # 1 for Ti read from file:
     /storage/coda1/p-amedford6/0/shared/rich_project_chbe-medford/medford-share/data/pseudos_module/espresso/nninc/pbe/van/Ti.UPF
     MD5 check sum: 8e4df49b7f0d34bbd5052bf3f5ea0213
     Pseudo is Ultrasoft, Zval = 12.0
     Generated by new atomic code, or converted to UPF format
     Using radial grid of  851 points,  6 beta functions with:
                l(1) =   0
                l(2) =   0
                l(3) =   1
                l(4) =   1
                l(5) =   2
                l(6) =   2
     Q(r) pseudized with  8 coefficients,  rinner =    1.000   1.000   1.000
                                                       1.000   1.000

     PseudoPot. # 2 for O  read from file:
     /storage/coda1/p-amedford6/0/shared/rich_project_chbe-medford/medford-share/data/pseudos_module/espresso/nninc/pbe/van/O.UPF
     MD5 check sum: 78c19812648e8988a0fe644b0f25305e
     Pseudo is Ultrasoft, Zval =  6.0
     Generated by new atomic code, or converted to UPF format
     Using radial grid of  737 points,  4 beta functions with:
                l(1) =   0
                l(2) =   0
                l(3) =   1
                l(4) =   1
     Q(r) pseudized with  8 coefficients,  rinner =    0.800   0.800   0.800

     PseudoPot. # 3 for H  read from file:
     /storage/coda1/p-amedford6/0/shared/rich_project_chbe-medford/medford-share/data/pseudos_module/espresso/nninc/pbe/van/H.UPF
     MD5 check sum: b5ee9d7bfd3a09ee7748110bda690ff7
     Pseudo is Ultrasoft, Zval =  1.0
     Generated by new atomic code, or converted to UPF format
     Using radial grid of  615 points,  1 beta functions with:
                l(1) =   0
     Q(r) pseudized with  8 coefficients,  rinner =    0.800

     PseudoPot. # 4 for N  read from file:
     /storage/coda1/p-amedford6/0/shared/rich_project_chbe-medford/medford-share/data/pseudos_module/espresso/nninc/pbe/van/N.UPF
     MD5 check sum: 90d10febe142ad51ac9d5be1deb811c4
     Pseudo is Ultrasoft, Zval =  5.0
     Generated by new atomic code, or converted to UPF format
     Using radial grid of  729 points,  4 beta functions with:
                l(1) =   0
                l(2) =   0
                l(3) =   1
                l(4) =   1
     Q(r) pseudized with  8 coefficients,  rinner =    0.800   0.800   0.800

     PseudoPot. # 5 for C  read from file:
     /storage/coda1/p-amedford6/0/shared/rich_project_chbe-medford/medford-share/data/pseudos_module/espresso/nninc/pbe/van/C.UPF
     MD5 check sum: 1a69bf6b8db32088f5b2163dbdb77a27
     Pseudo is Ultrasoft, Zval =  4.0
     Generated by new atomic code, or converted to UPF format
     Using radial grid of  721 points,  4 beta functions with:
                l(1) =   0
                l(2) =   0
                l(3) =   1
                l(4) =   1
     Q(r) pseudized with  8 coefficients,  rinner =    0.800   0.800   0.800

     atomic species   valence    mass     pseudopotential
        Ti1           12.00    47.86700     Ti( 1.00)
        O1             6.00    15.99900     O ( 1.00)
        H1             1.00     1.00800     H ( 1.00)
        N1             5.00    14.00700     N ( 1.00)
        C1             4.00    12.01100     C ( 1.00)

     Starting magnetic structure
     atomic species   magnetization
        Ti1          0.000
        O1           0.000
        H1           0.000
        N1           0.000
        C1           0.025

     No symmetry found

   Cartesian axes

     site n.     atom                  positions (alat units)
         1           Ti1 tau(   1) = (   0.0004258   2.9801865   6.0000000  )
         2           Ti1 tau(   2) = (   3.2906075   1.4906267   6.0002472  )
         3           O1  tau(   3) = (   0.0006271   0.0005054   7.9858123  )
         4           O1  tau(   4) = (   3.2906025   0.0005020   7.3038282  )
         5           O1  tau(   5) = (   4.5942328   1.4918067   9.2879030  )
         6           O1  tau(   6) = (   1.9868534   1.4903216   9.2879459  )
         7           Ti1 tau(   7) = (   3.2907910   2.8959150   9.1758416  )
         8           Ti1 tau(   8) = (   0.0015273   1.4827037   9.2680791  )
         9           O1  tau(   9) = (   3.2764298   0.0032354  11.3770789  )
        10           O1  tau(  10) = (   0.0116148   5.9584955  10.6183126  )
        11           O1  tau(  11) = (   1.2747638   1.4931710  12.6971893  )
        12           O1  tau(  12) = (   5.2817712   1.4903522  12.6806618  )
        13           Ti1 tau(  13) = (   6.5676529   2.9732189  12.5062122  )
        14           Ti1 tau(  14) = (   3.2766800   1.4809802  12.5336434  )
        15           O1  tau(  15) = (   6.5470194   5.8867849  14.7036171  )
        16           O1  tau(  16) = (   3.2776651   5.9556151  14.0032320  )
        17           O1  tau(  17) = (   4.5091997   1.5331545  16.1660716  )
        18           O1  tau(  18) = (   1.9944719   1.5276542  16.1393230  )
        19           Ti1 tau(  19) = (   3.2573122   3.0077756  15.7593658  )
        20           Ti1 tau(  20) = (   6.5589466   1.3143649  15.8680718  )
        21           O1  tau(  21) = (   3.2904802   0.0005063   4.7018136  )
        22           O1  tau(  22) = (   6.5386106   0.1512346  17.2501133  )
        23           O1  tau(  23) = (   1.3043587   1.4918075   6.0039043  )
        24           O1  tau(  24) = (   5.2767064   1.4903225   6.0039473  )
        25           Ti1 tau(  25) = (   0.0000382   5.9609847   6.0000000  )
        26           Ti1 tau(  26) = (   3.2902200   4.4714249   6.0002472  )
        27           O1  tau(  27) = (   0.0002396   2.9813036   7.9858123  )
        28           O1  tau(  28) = (   3.2902150   2.9813002   7.3038282  )
        29           O1  tau(  29) = (   4.5938453   4.4726049   9.2879030  )
        30           O1  tau(  30) = (   1.9864658   4.4711199   9.2879459  )
        31           Ti1 tau(  31) = (   3.2891106   5.8743827   9.1763621  )
        32           Ti1 tau(  32) = (   0.0006254   4.4649316   9.2693709  )
        33           O1  tau(  33) = (   3.2800745   2.9703478  11.3709363  )
        34           O1  tau(  34) = (   0.0092240   2.9805883  10.6323155  )
        35           O1  tau(  35) = (   1.2777299   4.4606407  12.6608526  )
        36           O1  tau(  36) = (   5.2778393   4.4632610  12.6460003  )
        37           Ti1 tau(  37) = (   6.5690533   5.9429793  12.5031582  )
        38           Ti1 tau(  38) = (   3.2786254   4.4589551  12.5214668  )
        39           O1  tau(  39) = (   6.5354733   3.0384833  14.9766919  )
        40           O1  tau(  40) = (   3.2791638   3.0036098  13.9700814  )
        41           O1  tau(  41) = (   4.4983502   4.4848413  16.2456934  )
        42           O1  tau(  42) = (   1.9866127   4.4820094  16.2221982  )
        43           Ti1 tau(  43) = (   3.2666378   0.0261420  15.7997788  )
        44           Ti1 tau(  44) = (   6.5668271   4.5279224  16.0664899  )
        45           O1  tau(  45) = (   3.2900926   2.9813045   4.7018136  )
        46           O1  tau(  46) = (   1.3039711   4.4726057   6.0039043  )
        47           O1  tau(  47) = (   5.2763189   4.4711207   6.0039473  )
        48           H1  tau(  48) = (   5.7254277   4.1132278  18.4743583  )
        49           H1  tau(  49) = (   5.8544422   2.5125186  18.2095680  )
        50           N1  tau(  50) = (   6.3803568   3.3906518  18.1617682  )
        51           C1  tau(  51) = (   0.9530889   3.3347298  19.0741625  )
        52           H1  tau(  52) = (   1.4659278   4.2935310  19.0402106  )
        53           H1  tau(  53) = (   0.6569204   3.1189037  20.1036144  )
        54           H1  tau(  54) = (   1.6325849   2.5561260  18.7331930  )

     number of k points=    10  Fermi-Dirac smearing, width (Ry)=  0.0073
                       cart. coord. in units 2pi/alat
        k(    1) = (   0.0000000   0.0000000   0.0000000), wk =   0.0625000
        k(    2) = (   0.0000000   0.0419351   0.0000000), wk =   0.1250000
        k(    3) = (   0.0000000  -0.0838702   0.0000000), wk =   0.0625000
        k(    4) = (   0.0379955   0.0000049   0.0000000), wk =   0.1250000
        k(    5) = (   0.0379955   0.0419400   0.0000000), wk =   0.1250000
        k(    6) = (   0.0379955  -0.0838652   0.0000000), wk =   0.1250000
        k(    7) = (   0.0379955  -0.0419301   0.0000000), wk =   0.1250000
[...]

     Initial potential from superposition of free atoms

     starting charge  375.99915, renormalised to  392.00000

     negative rho (up, down):  8.115E-03 8.122E-03

     %%%%%%%%%%%%%%%%%%%%%%%%%%%%%%%%%%%%%%%%%%%%%%%%%%%%%%%%%%%%%%%%%%%%%%%%
     %                                                                      %
     % You are using vdW-DF, which was implemented by the Thonhauser group. %
     % Please cite the following two papers that made this development      %
     % possible and the two reviews that describe the various versions:     %
     %                                                                      %
     %   T. Thonhauser et al., PRL 115, 136402 (2015).                      %
     %   T. Thonhauser et al., PRB 76, 125112 (2007).                       %
     %   K. Berland et al., Rep. Prog. Phys. 78, 066501 (2015).             %
     %   D.C. Langreth et al., J. Phys.: Condens. Matter 21, 084203 (2009). %
     %                                                                      %
     %                                                                      %
     % If you are calculating the stress with vdW-DF, please also cite:     %
     %                                                                      %
     %   R. Sabatini et al., J. Phys.: Condens. Matter 24, 424209 (2012).   %
     %                                                                      %
     %%%%%%%%%%%%%%%%%%%%%%%%%%%%%%%%%%%%%%%%%%%%%%%%%%%%%%%%%%%%%%%%%%%%%%%%

     Adding external electric field

     Computed dipole along edir(3) :
        Dipole               -7.5680 Ry au,        -19.2360 Debye
        Dipole field         -0.0143 Ry au,

        Potential amp.        1.3239 Ry
        Total length         46.3494 bohr

[...]

     Starting wfcs are  297 atomic wfcs
  @ DRIVER MODE: Message from server: STATUS
  @ DRIVER MODE: Message from server: POSDATA
  @ DRIVER MODE: Reading and sharing cell
  @ DRIVER MODE: Reading and sharing positions
  @ DRIVER MODE: Received positions

     Self-consistent Calculation

     iteration #  1     ecut=    29.40 Ry     beta= 0.05
     Davidson diagonalization with overlap
     c_bands:  1 eigenvalues not converged
     c_bands:  2 eigenvalues not converged
     c_bands:  1 eigenvalues not converged
     c_bands:  1 eigenvalues not converged
     c_bands:  1 eigenvalues not converged
     c_bands:  1 eigenvalues not converged
     c_bands:  1 eigenvalues not converged
     c_bands:  2 eigenvalues not converged
     c_bands:  1 eigenvalues not converged
     c_bands:  1 eigenvalues not converged
     c_bands:  1 eigenvalues not converged
     c_bands:  1 eigenvalues not converged
     ethr =  1.00E-05,  avg # of iterations = 19.6

[...]

     total energy              =   -2678.27346588 Ry
     estimated scf accuracy    <    2693.49628398 Ry

     total magnetization       =     0.00 Bohr mag/cell
     absolute magnetization    =     0.01 Bohr mag/cell

[...]

     iteration #  5     ecut=    29.40 Ry     beta= 0.05
     Davidson diagonalization with overlap
     ethr =  1.00E-02,  avg # of iterations =  3.1

[...]

     iteration # 70     ecut=    29.40 Ry     beta= 0.05
     Davidson diagonalization with overlap
     c_bands:  1 eigenvalues not converged
     c_bands:  1 eigenvalues not converged
     c_bands:  1 eigenvalues not converged
     c_bands:  1 eigenvalues not converged
     c_bands:  1 eigenvalues not converged
     ethr =  2.52E-11,  avg # of iterations = 17.6

[...]

     total energy              =   -2921.63328922 Ry
     estimated scf accuracy    <       0.00000008 Ry

[...]

     iteration # 71     ecut=    29.40 Ry     beta= 0.05
     Davidson diagonalization with overlap
     ethr =  2.13E-11,  avg # of iterations =  2.6

     negative rho (up, down):  8.556E-03 8.555E-03

[...]

     Adding external electric field

     Computed dipole along edir(3) :
        Dipole                1.3065 Ry au,          3.3207 Debye
        Dipole field          0.0025 Ry au,

        Potential amp.       -0.2285 Ry
        Total length         46.3494 bohr

     Magnetic moment per site  (integrated on atomic sphere of radius R)
     atom   1 (R=0.738)  charge=  8.0466  magn=  0.0002
     atom   2 (R=0.738)  charge=  8.0283  magn= -0.0001
     atom   3 (R=0.738)  charge=  5.0153  magn= -0.0001
     atom   4 (R=0.738)  charge=  5.0522  magn=  0.0000
     atom   5 (R=0.738)  charge=  5.0214  magn= -0.0000
     atom   6 (R=0.738)  charge=  5.0219  magn= -0.0000
     atom   7 (R=0.738)  charge=  8.0284  magn= -0.0000
     atom   8 (R=0.738)  charge=  8.0296  magn=  0.0009
     atom   9 (R=0.738)  charge=  5.0288  magn=  0.0000
     atom  10 (R=0.738)  charge=  5.0292  magn= -0.0000
     atom  11 (R=0.738)  charge=  5.0169  magn= -0.0000
     atom  12 (R=0.738)  charge=  5.0160  magn= -0.0000
     atom  13 (R=0.738)  charge=  8.0366  magn=  0.0001
     atom  14 (R=0.738)  charge=  8.0338  magn= -0.0006
     atom  15 (R=0.738)  charge=  5.0279  magn=  0.0001
     atom  16 (R=0.738)  charge=  5.0249  magn=  0.0003
     atom  17 (R=0.738)  charge=  5.0031  magn=  0.0003
     atom  18 (R=0.738)  charge=  5.0056  magn=  0.0003
     atom  19 (R=0.738)  charge=  8.0664  magn= -0.0050
     atom  20 (R=0.738)  charge=  8.0804  magn= -0.0011
     atom  21 (R=0.738)  charge=  4.9003  magn=  0.0003
     atom  22 (R=0.738)  charge=  4.9790  magn=  0.0003
     atom  23 (R=0.738)  charge=  5.0126  magn= -0.0001
     atom  24 (R=0.738)  charge=  5.0127  magn= -0.0000
     atom  25 (R=0.738)  charge=  8.0466  magn=  0.0003
     atom  26 (R=0.738)  charge=  8.0283  magn= -0.0001
     atom  27 (R=0.738)  charge=  5.0151  magn= -0.0001
     atom  28 (R=0.738)  charge=  5.0525  magn=  0.0000
     atom  29 (R=0.738)  charge=  5.0223  magn= -0.0000
     atom  30 (R=0.738)  charge=  5.0226  magn= -0.0000
     atom  31 (R=0.738)  charge=  8.0286  magn=  0.0000
     atom  32 (R=0.738)  charge=  8.0297  magn=  0.0009
     atom  33 (R=0.738)  charge=  5.0280  magn=  0.0000
     atom  34 (R=0.738)  charge=  5.0267  magn= -0.0001
     atom  35 (R=0.738)  charge=  5.0201  magn=  0.0000
     atom  36 (R=0.738)  charge=  5.0197  magn=  0.0000
     atom  37 (R=0.738)  charge=  8.0322  magn= -0.0001
     atom  38 (R=0.738)  charge=  8.0345  magn= -0.0007
     atom  39 (R=0.738)  charge=  5.0089  magn=  0.0003
     atom  40 (R=0.738)  charge=  5.0372  magn=  0.0003
     atom  41 (R=0.738)  charge=  5.0005  magn=  0.0004
     atom  42 (R=0.738)  charge=  5.0042  magn=  0.0005
     atom  43 (R=0.738)  charge=  8.0647  magn= -0.0049
     atom  44 (R=0.738)  charge=  8.0445  magn= -0.0031
     atom  45 (R=0.738)  charge=  4.9002  magn=  0.0003
     atom  46 (R=0.738)  charge=  5.0126  magn= -0.0000
     atom  47 (R=0.738)  charge=  5.0127  magn= -0.0001
     atom  48 (R=0.422)  charge=  0.4523  magn= -0.0000
     atom  49 (R=0.422)  charge=  0.4527  magn=  0.0000
     atom  50 (R=0.422)  charge=  1.3591  magn=  0.0000
     atom  51 (R=0.449)  charge=  0.8471  magn=  0.0000
     atom  52 (R=0.422)  charge=  0.4502  magn= -0.0000
     atom  53 (R=0.422)  charge=  0.4523  magn= -0.0000
     atom  54 (R=0.422)  charge=  0.4503  magn= -0.0000

     End of self-consistent calculation

 ------ SPIN UP ------------

          k = 0.0000 0.0000 0.0000 ( 18029 PWs)   bands (ev):

   -55.4292 -55.3918 -55.3797 -55.3497 -55.3456 -55.3078 -55.3049 -55.2735
   -55.2498 -55.2279 -55.2153 -55.2119 -55.1782 -55.0989 -54.4099 -54.3758
   -31.9970 -31.8795 -31.8722 -31.7953 -31.7410 -31.7391 -31.7293 -31.7178
   -31.6684 -31.6654 -31.6385 -31.6350 -31.6245 -31.6113 -31.5973 -31.5872
   -31.5841 -31.5732 -31.5662 -31.5464 -31.5321 -31.5291 -31.4947 -31.4935
   -31.4844 -31.4804 -31.4712 -31.4522 -31.4378 -31.4367 -31.4306 -31.4112
   -31.4097 -31.4004 -31.3995 -31.3965 -31.3634 -31.3470 -31.3403 -31.3232
   -31.3048 -31.2882 -30.8191 -30.7248 -30.7027 -30.6354 -30.5486 -30.4377
   -16.2837 -16.1660 -15.9746 -15.8244 -15.7372 -15.6281 -15.5090 -15.4906
   -15.3587 -15.2806 -15.1553 -15.1291 -15.1005 -15.0847 -15.0738 -15.0604
   -14.9745 -14.9687 -14.9528 -14.9235 -14.9228 -14.8770 -14.8681 -14.8271
   -14.8037 -14.7944 -14.6782 -14.5890 -14.5158 -14.2725 -12.9130 -12.7956
   -10.2088  -6.2377  -4.8709  -3.9592  -3.6007  -3.4493  -3.3562  -3.3257
    -3.3207  -3.1849  -3.0322  -2.8769  -2.8347  -2.8174  -2.7133  -2.6393
    -2.6288  -2.6093  -2.4562  -2.4256  -2.3765  -2.3303  -2.2889  -2.2381
    -2.2200  -2.2098  -2.1944  -2.1702  -2.1601  -2.0502  -1.9958  -1.9103
    -1.8539  -1.8300  -1.7806  -1.7642  -1.7375  -1.7188  -1.7091  -1.6625
    -1.6370  -1.6229  -1.5689  -1.4567  -1.3515  -1.3017  -1.1818  -1.0670
    -1.0285  -1.0142  -0.9615  -0.9241  -0.9131  -0.8441  -0.8061  -0.7756
    -0.7088  -0.6610  -0.5928  -0.5428  -0.4763  -0.4599  -0.4169  -0.3537
    -0.2467  -0.2110  -0.1958  -0.1675  -0.0718  -0.0396   0.0100   0.0913
     0.0967   0.1097   0.2130   0.2276   0.2994   0.3485   0.3663   0.4522
     0.4865   0.5017   0.5053   0.5317   0.5562   0.6114   0.6443   0.6722
     0.7473   0.8708   1.0933   1.1633   1.1827   1.5085   1.5178   1.6124
     1.7960   2.1885   2.2369   3.6672   3.7372   3.8149   3.8194   3.8418
     3.9054   4.1443   4.1659   4.1753   4.1789   4.2022

[...]

          k =-0.0760-0.0000 0.0000 ( 17886 PWs)   bands (ev):

[...]

 ------ SPIN DOWN ----------

[...]

          k = 0.0380-0.0419 0.0000 ( 17876 PWs)   bands (ev):

[...]

          k =-0.0760-0.0839 0.0000 ( 17948 PWs)   bands (ev):

   -55.4163 -55.4061 -55.3624 -55.3617 -55.3544 -55.3093 -55.2915 -55.2898
   -55.2403 -55.2342 -55.2303 -55.1938 -55.1931 -55.1023 -54.3934 -54.3931
   -31.8056 -31.8016 -31.7981 -31.7131 -31.6896 -31.6869 -31.6865 -31.6535
   -31.6531 -31.6378 -31.6309 -31.6285 -31.6223 -31.5972 -31.5870 -31.5703
   -31.5669 -31.5626 -31.5612 -31.5582 -31.5538 -31.5513 -31.5095 -31.5088
   -31.5053 -31.5038 -31.4983 -31.4843 -31.4820 -31.4813 -31.4807 -31.4673
   -31.4634 -31.4472 -31.4433 -31.4283 -31.4271 -31.4243 -31.3743 -31.3740
   -31.3673 -31.3124 -30.7159 -30.7157 -30.6322 -30.6320 -30.5925 -30.5924
   -16.1428 -15.7641 -15.6771 -15.6295 -15.4659 -15.4330 -15.4122 -15.3949
   -15.2644 -15.2380 -15.2133 -15.1962 -15.1741 -15.1372 -15.1318 -15.1266
   -15.0504 -15.0342 -15.0295 -15.0113 -14.9487 -14.9391 -14.9361 -14.9289
   -14.8781 -14.8745 -14.8085 -14.7824 -14.7792 -14.5613 -12.8961 -12.8959
   -10.2126  -6.2098  -4.8665  -3.9235  -2.9464  -2.8992  -2.8810  -2.8763
    -2.6813  -2.6310  -2.5976  -2.5703  -2.4814  -2.4465  -2.4234  -2.4191
    -2.3477  -2.3307  -2.3128  -2.2713  -2.2647  -2.2500  -2.2276  -2.1910
    -2.1648  -2.1559  -2.1489  -2.1264  -2.0821  -2.0688  -2.0507  -2.0276
    -2.0240  -2.0125  -1.9848  -1.9370  -1.8109  -1.8017  -1.7273  -1.6371
    -1.6322  -1.5560  -1.5397  -1.4924  -1.4758  -1.4618  -1.4196  -1.2359
    -1.1987  -1.1764  -1.1664  -1.0974  -1.0382  -1.0226  -0.9494  -0.9332
    -0.9168  -0.8083  -0.7615  -0.7503  -0.6581  -0.6478  -0.5694  -0.5087
    -0.4553  -0.4354  -0.3944  -0.3849  -0.3820  -0.3364  -0.3290  -0.2435
    -0.1993  -0.1634  -0.1498  -0.1163   0.0850   0.0905   0.1133   0.2566
     0.2892   0.4128   0.4449   0.4981   0.5738   0.6072   0.6825   0.7173
     0.8503   0.8772   0.8781   0.9500   0.9593   1.0232   1.0328   1.9695
     1.9703   2.0577   2.0579   3.8187   3.9053   3.9314   3.9712   4.0839
     4.1603   4.1837   4.2053   4.2541   4.2571   4.3200

     the Fermi energy is     3.7325 ev

!    total energy              =   -2921.63330503 Ry
     estimated scf accuracy    <       0.00000007 Ry
     smearing contrib. (-TS)   =      -0.03705172 Ry
     internal energy E=F+TS    =   -2921.59625331 Ry

     The total energy is F=E-TS. E is the sum of the following terms:
     one-electron contribution =  -23999.96620529 Ry
     hartree contribution      =   12089.12228323 Ry
     xc contribution           =    -481.73375180 Ry
     ewald contribution        =    9470.97819943 Ry
     electric field correction =       0.00322112 Ry

     total magnetization       =    -0.02 Bohr mag/cell
     absolute magnetization    =     0.03 Bohr mag/cell

     convergence has been achieved in  71 iterations

     Forces acting on atoms (cartesian axes, Ry/au):

     atom    1 type  1   force =     0.00019778   -0.00022259    0.09321096
     atom    2 type  1   force =    -0.00003305   -0.00041617   -0.17832577
     atom    3 type  2   force =     0.00007978   -0.00040123   -0.02015556
     atom    4 type  2   force =     0.00001466   -0.00194875    0.05891266
     atom    5 type  2   force =    -0.01033391   -0.00094779    0.00824847
     atom    6 type  2   force =     0.01151769   -0.00018295    0.00658256
     atom    7 type  1   force =    -0.00063448    0.00208077   -0.01451189
     atom    8 type  1   force =     0.00067336   -0.00094360   -0.00515377
     atom    9 type  2   force =     0.00014148    0.00031486    0.00008719
     atom   10 type  2   force =    -0.00249428    0.00189154    0.00100087
     atom   11 type  2   force =    -0.00015808    0.00003663    0.00029014
     atom   12 type  2   force =     0.00001266    0.00029587    0.00018069
     atom   13 type  1   force =    -0.00001302    0.00007169    0.00006994
     atom   14 type  1   force =     0.00006381   -0.00002682    0.00012067
     atom   15 type  2   force =     0.00009874   -0.00017516   -0.00005235
     atom   16 type  2   force =     0.00035243    0.00000012   -0.00002416
     atom   17 type  2   force =     0.00013624   -0.00031400    0.00010807
     atom   18 type  2   force =     0.00012776   -0.00003540   -0.00005531
     atom   19 type  1   force =     0.00031398   -0.00004892    0.00046609
     atom   20 type  1   force =     0.00037221    0.00042606    0.00047846
     atom   21 type  2   force =     0.00014136   -0.00009175    0.10392777
     atom   22 type  2   force =     0.00013641    0.00064665    0.00041907
     atom   23 type  2   force =    -0.07030677   -0.00018955   -0.02690558
     atom   24 type  2   force =     0.07032051    0.00027066   -0.02693691
     atom   25 type  1   force =     0.00013946   -0.00017931    0.09281232
     atom   26 type  1   force =    -0.00005440   -0.00052814   -0.17835882
     atom   27 type  2   force =     0.00011559   -0.00025918   -0.01922173
     atom   28 type  2   force =     0.00008443   -0.00170928    0.05822125
     atom   29 type  2   force =    -0.01083016   -0.00099305    0.00882452
     atom   30 type  2   force =     0.01193844   -0.00068363    0.00714120
     atom   31 type  1   force =    -0.00065772    0.00611608   -0.01533269
     atom   32 type  1   force =     0.00081642    0.00034903   -0.00555793
     atom   33 type  2   force =    -0.00037713   -0.00032556    0.00017356
     atom   34 type  2   force =    -0.00223982   -0.00203935   -0.00003578
     atom   35 type  2   force =    -0.00073210    0.00026721    0.00034469
     atom   36 type  2   force =     0.00075781   -0.00009626   -0.00017726
     atom   37 type  1   force =     0.00004074    0.00021225    0.00004608
     atom   38 type  1   force =    -0.00028888    0.00023333    0.00049173
     atom   39 type  2   force =    -0.00041823   -0.00007244   -0.00004483
     atom   40 type  2   force =    -0.00006072   -0.00008649    0.00034526
     atom   41 type  2   force =    -0.00001040   -0.00009472    0.00011804
     atom   42 type  2   force =     0.00059671   -0.00010213   -0.00025802
     atom   43 type  1   force =    -0.00039182    0.00000371    0.00009370
     atom   44 type  1   force =     0.00077213    0.00005483    0.00002605
     atom   45 type  2   force =     0.00012481   -0.00010648    0.10392924
     atom   46 type  2   force =    -0.07029761   -0.00012272   -0.02686641
     atom   47 type  2   force =     0.07029157    0.00029485   -0.02690234
     atom   48 type  3   force =     0.00722485   -0.00568294   -0.00282151
     atom   49 type  3   force =     0.00589492    0.00594632   -0.00162930
     atom   50 type  4   force =    -0.02067111   -0.00001548   -0.00104365
     atom   51 type  5   force =     0.00659430    0.00002102    0.00231298
     atom   52 type  3   force =     0.00064200   -0.00047138    0.00046904
     atom   53 type  3   force =    -0.00007566    0.00000471    0.00008490
     atom   54 type  3   force =     0.00034431   -0.00002496    0.00083344

     Total force =     0.367132     Total SCF correction =     0.000531
  @ DRIVER MODE: Message from server: STATUS
  @ DRIVER MODE: Message from server: GETFORCE
  @ DRIVER MODE: Returning v,forces,stress,ensemble

     Writing output data file ./calc.save/
  @ DRIVER MODE: Message from server: EXIT
  @ DRIVE MODE: Exiting

     General routines

     Parallel routines

   This run was terminated on:   1: 9:40  17Jul2021

   JOB DONE.