     Program PWSCF v.6.7GPU starts on  9Sep2021 at 10:19:43

     R & G space division:  proc/nbgrp/npool/nimage =      10
     Reading input from /storage/home/hcoda1/3/ntian30/research/carbon/CxH_vib/CH2_calc/ads_slab/CH2NNHHH_a/out_0037/pw.inp
Warning: card &CELL ignored
Warning: card   CELL_DYNAMICS='IPI', ignored
Warning: card / ignored

     Current dimensions of program PWSCF are:
     Max number of different atomic species (ntypx) = 10
     Max number of k-points (npk) =  40000
     Max angular momentum in pseudopotentials (lmaxx) =  3
     Presently no symmetry can be used with electric field

     Message from routine cell_base_init:
     DEPRECATED: use true lattice parameter, not A to a.u. conversion factor

     IMPORTANT: XC functional enforced from input :
     Exchange-correlation= BEEF-VDW
                           (   1   4  43  14   2   0   0)
     Any further DFT definition will be discarded
     Please, verify this is what you really want

  @ DRIVER MODE: Connecting to
 qe_1139763_2767390.sched-torque.pace.gatech.edu15ctwsle_scratch
  using UNIX socket
  @ DRIVER MODE: Message from server: STATUS
  @ DRIVER MODE: Message from server: INIT
  @ DRIVER MODE: Receiving replica           0          -1
  @ DRIVER MODE: Receiving encoded integer          25
  @ DRIVER MODE:  SCF:  T  FORCE:  T  STRESS:  F  VC:  F  ENSEMBLE:  F
  @ DRIVER MODE:  SCF:  T  FORCE:  T  STRESS:  F  VC:  F  ENSEMBLE:  F

     Using Slab Decomposition

     bravais-lattice index     =            0
     lattice parameter (alat)  =       1.8897  a.u.
     unit-cell volume          =    6658.9804 (a.u.)^3
     number of atoms/cell      =           55
     number of atomic types    =            5
     number of electrons       =       397.00
     number of Kohn-Sham states=          208
     kinetic-energy cutoff     =      29.3995  Ry
     charge density cutoff     =     293.9946  Ry
     scf convergence threshold =      7.3E-08
     mixing beta               =       0.0500
     number of iterations used =            8  plain     mixing
     Exchange-correlation= BEEF-VDW
                           (   1   4  43  14   2   0   0)

     celldm(1)=   1.889726  celldm(2)=   0.000000  celldm(3)=   0.000000
     celldm(4)=   0.000000  celldm(5)=   0.000000  celldm(6)=   0.000000

     crystal axes: (cart. coord. in units of alat)
               a(1) = (   6.579727   0.000000   0.000000 )
               a(2) = (  -0.000775   5.961596   0.000000 )
               a(3) = (   0.000000   0.000000  25.155947 )

     reciprocal axes: (cart. coord. in units 2 pi/alat)
               b(1) = (  0.151982  0.000020  0.000000 )
               b(2) = (  0.000000  0.167740  0.000000 )
               b(3) = (  0.000000  0.000000  0.039752 )

     PseudoPot. # 1 for Ti read from file:
     /storage/coda1/p-amedford6/0/shared/rich_project_chbe-medford/medford-share/data/pseudos_module/espresso/nninc/pbe/van/Ti.UPF
     MD5 check sum: 8e4df49b7f0d34bbd5052bf3f5ea0213
     Pseudo is Ultrasoft, Zval = 12.0
     Generated by new atomic code, or converted to UPF format
     Using radial grid of  851 points,  6 beta functions with:
                l(1) =   0
                l(2) =   0
                l(3) =   1
                l(4) =   1
                l(5) =   2
                l(6) =   2
     Q(r) pseudized with  8 coefficients,  rinner =    1.000   1.000   1.000
                                                       1.000   1.000

     PseudoPot. # 2 for O  read from file:
     /storage/coda1/p-amedford6/0/shared/rich_project_chbe-medford/medford-share/data/pseudos_module/espresso/nninc/pbe/van/O.UPF
     MD5 check sum: 78c19812648e8988a0fe644b0f25305e
     Pseudo is Ultrasoft, Zval =  6.0
     Generated by new atomic code, or converted to UPF format
     Using radial grid of  737 points,  4 beta functions with:
                l(1) =   0
                l(2) =   0
                l(3) =   1
                l(4) =   1
     Q(r) pseudized with  8 coefficients,  rinner =    0.800   0.800   0.800

     PseudoPot. # 3 for N  read from file:
     /storage/coda1/p-amedford6/0/shared/rich_project_chbe-medford/medford-share/data/pseudos_module/espresso/nninc/pbe/van/N.UPF
     MD5 check sum: 90d10febe142ad51ac9d5be1deb811c4
     Pseudo is Ultrasoft, Zval =  5.0
     Generated by new atomic code, or converted to UPF format
     Using radial grid of  729 points,  4 beta functions with:
                l(1) =   0
                l(2) =   0
                l(3) =   1
                l(4) =   1
     Q(r) pseudized with  8 coefficients,  rinner =    0.800   0.800   0.800

     PseudoPot. # 4 for C  read from file:
     /storage/coda1/p-amedford6/0/shared/rich_project_chbe-medford/medford-share/data/pseudos_module/espresso/nninc/pbe/van/C.UPF
     MD5 check sum: 1a69bf6b8db32088f5b2163dbdb77a27
     Pseudo is Ultrasoft, Zval =  4.0
     Generated by new atomic code, or converted to UPF format
     Using radial grid of  721 points,  4 beta functions with:
                l(1) =   0
                l(2) =   0
                l(3) =   1
                l(4) =   1
     Q(r) pseudized with  8 coefficients,  rinner =    0.800   0.800   0.800

     PseudoPot. # 5 for H  read from file:
     /storage/coda1/p-amedford6/0/shared/rich_project_chbe-medford/medford-share/data/pseudos_module/espresso/nninc/pbe/van/H.UPF
     MD5 check sum: b5ee9d7bfd3a09ee7748110bda690ff7
     Pseudo is Ultrasoft, Zval =  1.0
     Generated by new atomic code, or converted to UPF format
     Using radial grid of  615 points,  1 beta functions with:
                l(1) =   0
     Q(r) pseudized with  8 coefficients,  rinner =    0.800

     atomic species   valence    mass     pseudopotential
        Ti1           12.00    47.86700     Ti( 1.00)
        O1             6.00    15.99900     O ( 1.00)
        N1             5.00    14.00700     N ( 1.00)
        C1             4.00    12.01100     C ( 1.00)
        H1             1.00     1.00800     H ( 1.00)

     No symmetry found

   Cartesian axes

     site n.     atom                  positions (alat units)
         1           Ti1 tau(   1) = (   0.0004258   2.9801865   6.0000000  )
         2           Ti1 tau(   2) = (   3.2906075   1.4906267   6.0002472  )
         3           O1  tau(   3) = (   0.0006271   0.0005054   7.9858123  )
         4           O1  tau(   4) = (   3.2906025   0.0005020   7.3038282  )
         5           O1  tau(   5) = (   4.5942328   1.4918067   9.2879030  )
         6           O1  tau(   6) = (   1.9868534   1.4903216   9.2879459  )
         7           Ti1 tau(   7) = (   3.2907910   2.8959150   9.1758416  )
         8           Ti1 tau(   8) = (   0.0015273   1.4827037   9.2680791  )
         9           O1  tau(   9) = (   3.2797308   5.9473376  11.3602069  )
        10           O1  tau(  10) = (   0.0116148   5.9584955  10.6183126  )
        11           O1  tau(  11) = (   1.2902197   1.4970218  12.6485984  )
        12           O1  tau(  12) = (   5.2825647   1.4998509  12.6204812  )
        13           Ti1 tau(  13) = (   6.5707130   2.9731531  12.5352273  )
        14           Ti1 tau(  14) = (   3.2824754   1.4851695  12.4964603  )
        15           O1  tau(  15) = (   6.5335774   0.0914421  14.6722524  )
        16           O1  tau(  16) = (   3.3157438   0.0180770  13.9903400  )
        17           O1  tau(  17) = (   4.5084513   1.5196572  16.2619966  )
        18           O1  tau(  18) = (   2.0062152   1.4815140  16.1839734  )
        19           Ti1 tau(  19) = (   3.2259906   2.9465836  15.7211513  )
        20           Ti1 tau(  20) = (   6.5090593   1.4075841  16.1508600  )
        21           O1  tau(  21) = (   3.2904802   0.0005063   4.7018136  )
        22           O1  tau(  22) = (   6.5630310   5.8123487  17.2302531  )
        23           O1  tau(  23) = (   1.3043587   1.4918075   6.0039043  )
        24           O1  tau(  24) = (   5.2767064   1.4903225   6.0039473  )
        25           Ti1 tau(  25) = (   0.0000382   5.9609847   6.0000000  )
        26           Ti1 tau(  26) = (   3.2902200   4.4714249   6.0002472  )
        27           O1  tau(  27) = (   0.0002396   2.9813036   7.9858123  )
        28           O1  tau(  28) = (   3.2902150   2.9813002   7.3038282  )
        29           O1  tau(  29) = (   4.5938453   4.4726049   9.2879030  )
        30           O1  tau(  30) = (   1.9864658   4.4711199   9.2879459  )
        31           Ti1 tau(  31) = (   3.2891106   5.8743827   9.1763621  )
        32           Ti1 tau(  32) = (   0.0006254   4.4649316   9.2693709  )
        33           O1  tau(  33) = (   3.2783824   2.9878764  11.3535400  )
        34           O1  tau(  34) = (   0.0092240   2.9805883  10.6323155  )
        35           O1  tau(  35) = (   1.2857266   4.4729298  12.7006550  )
        36           O1  tau(  36) = (   5.2845514   4.4687958  12.6640455  )
        37           Ti1 tau(  37) = (   6.5734551   0.0101047  12.5124135  )
        38           Ti1 tau(  38) = (   3.2852174   4.4611384  12.5175569  )
        39           O1  tau(  39) = (   6.5279837   2.9480221  14.9030702  )
        40           O1  tau(  40) = (   3.2956390   2.9588503  13.9390168  )
        41           O1  tau(  41) = (   4.4992944   4.4159585  16.2207858  )
        42           O1  tau(  42) = (   2.0104883   4.4624356  16.0673450  )
        43           Ti1 tau(  43) = (   3.2790961   0.0058003  15.7788240  )
        44           Ti1 tau(  44) = (   0.0606790   4.6093333  15.7554573  )
        45           O1  tau(  45) = (   3.2900926   2.9813045   4.7018136  )
        46           O1  tau(  46) = (   1.3039711   4.4726057   6.0039043  )
        47           O1  tau(  47) = (   5.2763189   4.4711207   6.0039473  )
        48           N1  tau(  48) = (   0.0403274   2.7191540  18.0026804  )
        49           C1  tau(  49) = (   0.9398849   2.4944932  18.9664025  )
        50           H1  tau(  50) = (   0.9073005   3.0183022  19.9142263  )
        51           H1  tau(  51) = (   1.7098349   1.7704235  18.7615287  )
        52           N1  tau(  52) = (   5.5765855   3.6054979  18.4816711  )
        53           H1  tau(  53) = (   5.9881759   4.5320851  18.7147717  )
        54           H1  tau(  54) = (   4.9244470   3.8465857  17.6610935  )
        55           H1  tau(  55) = (   5.0674124   3.1947177  19.2767304  )

     number of k points=    10  Fermi-Dirac smearing, width (Ry)=  0.0073
                       cart. coord. in units 2pi/alat
        k(    1) = (   0.0000000   0.0000000   0.0000000), wk =   0.1250000
        k(    2) = (   0.0000000   0.0419351   0.0000000), wk =   0.2500000
        k(    3) = (   0.0000000  -0.0838702   0.0000000), wk =   0.1250000
        k(    4) = (   0.0379955   0.0000049   0.0000000), wk =   0.2500000
        k(    5) = (   0.0379955   0.0419400   0.0000000), wk =   0.2500000
        k(    6) = (   0.0379955  -0.0838652   0.0000000), wk =   0.2500000
        k(    7) = (   0.0379955  -0.0419301   0.0000000), wk =   0.2500000
        k(    8) = (  -0.0759910  -0.0000099   0.0000000), wk =   0.1250000
        k(    9) = (  -0.0759910   0.0419252   0.0000000), wk =   0.2500000
        k(   10) = (  -0.0759910  -0.0838800   0.0000000), wk =   0.1250000

     Initial potential from superposition of free atoms

     starting charge  380.99914, renormalised to  397.00000

     negative rho (up, down):  1.589E-02 0.000E+00

     %%%%%%%%%%%%%%%%%%%%%%%%%%%%%%%%%%%%%%%%%%%%%%%%%%%%%%%%%%%%%%%%%%%%%%%%
     %                                                                      %
     % You are using vdW-DF, which was implemented by the Thonhauser group. %
     % Please cite the following two papers that made this development      %
     % possible and the two reviews that describe the various versions:     %
     %                                                                      %
     %   T. Thonhauser et al., PRL 115, 136402 (2015).                      %
     %   T. Thonhauser et al., PRB 76, 125112 (2007).                       %
     %   K. Berland et al., Rep. Prog. Phys. 78, 066501 (2015).             %
     %   D.C. Langreth et al., J. Phys.: Condens. Matter 21, 084203 (2009). %
     %                                                                      %
     %                                                                      %
     % If you are calculating the stress with vdW-DF, please also cite:     %
     %                                                                      %
     %   R. Sabatini et al., J. Phys.: Condens. Matter 24, 424209 (2012).   %
     %                                                                      %
     %%%%%%%%%%%%%%%%%%%%%%%%%%%%%%%%%%%%%%%%%%%%%%%%%%%%%%%%%%%%%%%%%%%%%%%%

     Adding external electric field

     Computed dipole along edir(3) :
        Dipole              -10.3122 Ry au,        -26.2111 Debye
        Dipole field         -0.0195 Ry au,

        Potential amp.        1.8040 Ry
        Total length         46.3494 bohr

     Starting wfcs are  301 atomic wfcs
  @ DRIVER MODE: Message from server: STATUS
  @ DRIVER MODE: Message from server: POSDATA
  @ DRIVER MODE: Reading and sharing cell
  @ DRIVER MODE: Reading and sharing positions
  @ DRIVER MODE: Received positions

     Self-consistent Calculation

     iteration #  1     ecut=    29.40 Ry     beta= 0.05
     Davidson diagonalization with overlap
     c_bands:  3 eigenvalues not converged
     c_bands:  2 eigenvalues not converged
     c_bands:  3 eigenvalues not converged
     c_bands:  2 eigenvalues not converged
     c_bands:  3 eigenvalues not converged
     c_bands:  2 eigenvalues not converged
     c_bands:  3 eigenvalues not converged
     c_bands:  2 eigenvalues not converged
     c_bands:  2 eigenvalues not converged
     c_bands:  3 eigenvalues not converged
     ethr =  1.00E-05,  avg # of iterations = 20.0

[...]

     total energy              =   -2480.07809624 Ry
     estimated scf accuracy    <    5159.14465778 Ry

     iteration #  2     ecut=    29.40 Ry     beta= 0.05
     Davidson diagonalization with overlap
     ethr =  1.00E-02,  avg # of iterations = 22.7

[...]

     iteration # 65     ecut=    29.40 Ry     beta= 0.05
     Davidson diagonalization with overlap
     c_bands:  2 eigenvalues not converged
     c_bands:  2 eigenvalues not converged
     ethr =  6.38E-11,  avg # of iterations = 15.6

[...]

     total energy              =   -2941.49081524 Ry
     estimated scf accuracy    <       0.00000013 Ry

     iteration # 67     ecut=    29.40 Ry     beta= 0.05
     Davidson diagonalization with overlap
     ethr =  3.35E-11,  avg # of iterations = 13.3

     negative rho (up, down):  1.345E-02 0.000E+00

     Adding external electric field

     Computed dipole along edir(3) :
        Dipole                1.3632 Ry au,          3.4649 Debye
        Dipole field          0.0026 Ry au,

        Potential amp.       -0.2385 Ry
        Total length         46.3494 bohr

     End of self-consistent calculation

          k = 0.0000 0.0000 0.0000 ( 18029 PWs)   bands (ev):

   -55.2837 -55.2448 -55.2447 -55.2107 -55.1595 -55.1576 -55.1210 -55.0941
   -55.0771 -55.0757 -55.0593 -55.0425 -54.9568 -54.7914 -54.2629 -54.2289
   -31.8559 -31.7356 -31.6459 -31.6108 -31.5839 -31.5815 -31.5789 -31.5345
   -31.5319 -31.4917 -31.4899 -31.4897 -31.4575 -31.4541 -31.4401 -31.4186
   -31.4036 -31.3985 -31.3942 -31.3932 -31.3570 -31.3519 -31.3382 -31.3247
   -31.3017 -31.2966 -31.2904 -31.2863 -31.2740 -31.2708 -31.2610 -31.2509
   -31.2441 -31.2392 -31.2091 -31.2047 -31.1979 -31.1855 -31.1483 -31.1056
   -31.0623 -30.9327 -30.6718 -30.5789 -30.5568 -30.4882 -30.4015 -30.2905
   -19.2085 -16.1259 -15.8645 -15.7364 -15.5440 -15.4777 -15.3823 -15.2448
   -15.1935 -15.1352 -15.0826 -15.0429 -15.0292 -14.9635 -14.9064 -14.8180
   -14.8162 -14.7993 -14.7893 -14.7775 -14.7740 -14.7117 -14.7091 -14.6819
   -14.6673 -14.6570 -14.5164 -14.4323 -14.3708 -14.2694 -14.0248 -12.7657
   -12.6485  -9.1410  -7.7755  -7.0428  -5.9993  -3.8229  -3.4632  -3.2903
    -3.2443  -3.2035  -3.1785  -3.0100  -2.9287  -2.6610  -2.5931  -2.5534
    -2.5061  -2.4946  -2.4691  -2.2969  -2.2663  -2.2274  -2.1908  -2.1667
    -2.1267  -2.0987  -2.0827  -2.0536  -2.0408  -2.0385  -1.8559  -1.7847
    -1.7627  -1.7016  -1.6847  -1.6685  -1.6110  -1.5821  -1.5690  -1.5666
    -1.5446  -1.5271  -1.5039  -1.4613  -1.3746  -1.2829  -1.2385  -1.2165
    -1.1035  -1.0390  -0.9153  -0.8745  -0.8587  -0.8313  -0.7596  -0.6935
    -0.6654  -0.6297  -0.4896  -0.4848  -0.4010  -0.3905  -0.3177  -0.3014
    -0.2611  -0.2154  -0.1048  -0.0705  -0.0488   0.0028   0.0648   0.0874
     0.1700   0.2239   0.2809   0.2949   0.3741   0.4145   0.4507   0.4738
     0.5607   0.6024   0.6620   0.6684   0.7054   0.7088   0.7341   0.8204
     0.8337   0.8534   0.8941   1.0634   1.2638   1.3158   1.3367   1.6694
     1.6888   1.7595   1.9448   2.3343   2.3819   3.8173   3.8827   3.9533
     3.9678   3.9776   4.0497   4.0951   4.2846   4.3137   4.3167   4.3382

[...]

          k = 0.0380-0.0419 0.0000 ( 17876 PWs)   bands (ev):

[...]

          k =-0.0760-0.0000 0.0000 ( 17886 PWs)   bands (ev):

[...]

          k =-0.0760-0.0839 0.0000 ( 17948 PWs)   bands (ev):

   -55.2716 -55.2566 -55.2277 -55.2276 -55.1557 -55.1457 -55.1328 -55.0807
   -55.0778 -55.0748 -55.0596 -55.0591 -54.9552 -54.7929 -54.2459 -54.2458
   -31.6654 -31.6524 -31.5787 -31.5508 -31.5506 -31.5472 -31.5200 -31.5197
   -31.4925 -31.4839 -31.4794 -31.4757 -31.4213 -31.4124 -31.4123 -31.4088
   -31.4068 -31.4026 -31.3960 -31.3811 -31.3689 -31.3581 -31.3539 -31.3471
   -31.3470 -31.3452 -31.3437 -31.3280 -31.3112 -31.3081 -31.2919 -31.2891
   -31.2846 -31.2827 -31.2825 -31.2517 -31.2399 -31.2388 -31.1657 -31.0925
   -31.0631 -31.0103 -30.5695 -30.5695 -30.4843 -30.4842 -30.4449 -30.4449
   -19.2048 -15.5913 -15.5148 -15.4589 -15.3712 -15.2905 -15.2706 -15.2608
   -15.2283 -15.1612 -15.1379 -15.0720 -15.0372 -14.9913 -14.9885 -14.9734
   -14.8887 -14.8695 -14.8544 -14.8501 -14.7891 -14.7877 -14.7607 -14.7383
   -14.7316 -14.7279 -14.6282 -14.6272 -14.4629 -14.4288 -14.1919 -12.7501
   -12.7500  -9.1280  -7.7850  -7.0270  -6.0097  -3.8464  -2.8520  -2.7654
    -2.6759  -2.5195  -2.4819  -2.4721  -2.4170  -2.3266  -2.3008  -2.2871
    -2.2669  -2.2595  -2.1867  -2.1816  -2.1374  -2.1158  -2.1052  -2.0990
    -2.0651  -2.0517  -2.0382  -2.0014  -1.9930  -1.9767  -1.9427  -1.9228
    -1.8986  -1.8705  -1.8563  -1.8273  -1.7042  -1.6751  -1.6309  -1.5697
    -1.5437  -1.4767  -1.4714  -1.3692  -1.3572  -1.3465  -1.3053  -1.2912
    -1.2713  -1.1093  -1.0643  -1.0288  -1.0168  -1.0111  -0.8554  -0.8386
    -0.7707  -0.7549  -0.7402  -0.6634  -0.6223  -0.6054  -0.5263  -0.4862
    -0.4567  -0.4356  -0.2932  -0.2811  -0.2553  -0.2405  -0.2339  -0.1415
    -0.1209  -0.0850  -0.0507  -0.0127   0.0037   0.0625   0.2155   0.2424
     0.2792   0.4237   0.4388   0.5234   0.5707   0.6987   0.7635   0.7657
     0.8470   0.9169   1.0190   1.0315   1.0506   1.1367   1.1829   1.1879
     1.1891   2.1176   2.1184   2.2018   2.2021   3.6945   3.9565   4.0788
     4.0853   4.1276   4.2503   4.3340   4.3576   4.3957   4.3978   4.4719

     the Fermi energy is     3.8722 ev

!    total energy              =   -2941.49084987 Ry
     estimated scf accuracy    <       0.00000006 Ry
     smearing contrib. (-TS)   =      -0.04234862 Ry
     internal energy E=F+TS    =   -2941.44850125 Ry

     The total energy is F=E-TS. E is the sum of the following terms:
     one-electron contribution =  -23921.93144470 Ry
     hartree contribution      =   12054.14834962 Ry
     xc contribution           =    -486.85613200 Ry
     ewald contribution        =    9413.18721896 Ry
     electric field correction =       0.00350688 Ry

     convergence has been achieved in  67 iterations

     Forces acting on atoms (cartesian axes, Ry/au):

     atom    1 type  1   force =     0.00017417   -0.00017209    0.09404491
     atom    2 type  1   force =    -0.00005277   -0.00042839   -0.17753807
     atom    3 type  2   force =     0.00006629   -0.00005146   -0.02098828
     atom    4 type  2   force =     0.00001772   -0.00180480    0.05733068
     atom    5 type  2   force =    -0.01086250   -0.00090892    0.00782528
     atom    6 type  2   force =     0.01207177   -0.00034112    0.00622333
     atom    7 type  1   force =    -0.00065688    0.00290147   -0.01528446
     atom    8 type  1   force =     0.00059584    0.00234370    0.00235136
     atom    9 type  2   force =    -0.00010185    0.00013224    0.00092067
     atom   10 type  2   force =    -0.00165450   -0.00050346   -0.00380397
     atom   11 type  2   force =    -0.00003764   -0.00023882    0.00020959
     atom   12 type  2   force =    -0.00019862   -0.00039850    0.00027685
     atom   13 type  1   force =     0.00043139    0.00109064    0.00061062
     atom   14 type  1   force =     0.00020379   -0.00062020    0.00033212
     atom   15 type  2   force =    -0.00020020    0.00030628    0.00048624
     atom   16 type  2   force =    -0.00014802   -0.00026987   -0.00114038
     atom   17 type  2   force =     0.00008748   -0.00023986    0.00017998
     atom   18 type  2   force =    -0.00077339   -0.00032588    0.00008636
     atom   19 type  1   force =    -0.00078250    0.00077522   -0.00074643
     atom   20 type  1   force =    -0.00034549    0.00129554   -0.00107111
     atom   21 type  2   force =     0.00010907   -0.00004422    0.10376859
     atom   22 type  2   force =     0.00011013    0.00024933    0.00044300
     atom   23 type  2   force =    -0.07061734   -0.00018148   -0.02705571
     atom   24 type  2   force =     0.07056346    0.00029498   -0.02709590
     atom   25 type  1   force =     0.00015537   -0.00023946    0.09337646
     atom   26 type  1   force =    -0.00000759   -0.00037506   -0.17775690
     atom   27 type  2   force =     0.00010935   -0.00039565   -0.02000641
     atom   28 type  2   force =     0.00003455   -0.00146568    0.05680916
     atom   29 type  2   force =    -0.01075865   -0.00066278    0.00674376
     atom   30 type  2   force =     0.01187511   -0.00016989    0.00509971
     atom   31 type  1   force =    -0.00063401    0.00411240   -0.01558553
     atom   32 type  1   force =     0.00067561   -0.00279782    0.00213103
     atom   33 type  2   force =     0.00015912   -0.00021947   -0.00059203
     atom   34 type  2   force =    -0.00109108    0.00272905   -0.00202474
     atom   35 type  2   force =     0.00009857    0.00019870    0.00009443
     atom   36 type  2   force =    -0.00034148    0.00033855   -0.00006891
     atom   37 type  1   force =     0.00046786   -0.00008311    0.00030466
     atom   38 type  1   force =     0.00008019    0.00089638    0.00012784
     atom   39 type  2   force =    -0.00006119   -0.00094644    0.00040670
     atom   40 type  2   force =    -0.00022513   -0.00041820    0.00067960
     atom   41 type  2   force =    -0.00037537   -0.00031154    0.00042523
     atom   42 type  2   force =     0.00015551   -0.00000458    0.00027281
     atom   43 type  1   force =    -0.00019973   -0.00117460    0.00078469
     atom   44 type  1   force =    -0.00001463   -0.00085393   -0.00119100
     atom   45 type  2   force =     0.00009626   -0.00008070    0.10375593
     atom   46 type  2   force =    -0.07063663   -0.00009359   -0.02706854
     atom   47 type  2   force =     0.07058881    0.00028856   -0.02710479
     atom   48 type  3   force =    -0.00127641   -0.00020903   -0.00031977
     atom   49 type  4   force =     0.00014510   -0.00050410    0.00116428
     atom   50 type  5   force =     0.00080021    0.00004433   -0.00100932
     atom   51 type  5   force =    -0.00018862    0.00059249   -0.00018423
     atom   52 type  3   force =    -0.00498721    0.00118982   -0.00243887
     atom   53 type  5   force =    -0.00002444   -0.00160735   -0.00112839
     atom   54 type  5   force =     0.00605281   -0.00081839    0.00377538
     atom   55 type  5   force =     0.00132829    0.00018074    0.00016251

     Total force =     0.365803     Total SCF correction =     0.000559
  @ DRIVER MODE: Message from server: STATUS
  @ DRIVER MODE: Message from server: GETFORCE
  @ DRIVER MODE: Returning v,forces,stress,ensemble

     Writing output data file ./calc.save/
  @ DRIVER MODE: Message from server: EXIT
  @ DRIVE MODE: Exiting

     General routines

     Parallel routines

   This run was terminated on:  10:37:30   9Sep2021

   JOB DONE.