     Program PWSCF v.6.7GPU starts on  5Nov2021 at 17:51:39

     R & G space division:  proc/nbgrp/npool/nimage =       8
     Reading input from /storage/home/hcoda1/3/ntian30/research/carbon/CxH_vib/CH2_calc/ads_slab/N2/out_0012/pw.inp
Warning: card &CELL ignored
Warning: card   CELL_DYNAMICS='IPI', ignored
Warning: card / ignored

     Current dimensions of program PWSCF are:
     Max number of different atomic species (ntypx) = 10
     Max number of k-points (npk) =  40000
     Max angular momentum in pseudopotentials (lmaxx) =  3
     Presently no symmetry can be used with electric field

     Message from routine cell_base_init:
     DEPRECATED: use true lattice parameter, not A to a.u. conversion factor

     IMPORTANT: XC functional enforced from input :
     Exchange-correlation= BEEF-VDW
                           (   1   4  43  14   2   0   0)
     Any further DFT definition will be discarded
     Please, verify this is what you really want

  @ DRIVER MODE: Connecting to
 qe_1139763_3472288.sched-torque.pace.gatech.edu5bo8bdlw_scratch
  using UNIX socket
  @ DRIVER MODE: Message from server: STATUS
  @ DRIVER MODE: Message from server: INIT
  @ DRIVER MODE: Receiving replica           0          -1
  @ DRIVER MODE: Receiving encoded integer          25
  @ DRIVER MODE:  SCF:  T  FORCE:  T  STRESS:  F  VC:  F  ENSEMBLE:  F
  @ DRIVER MODE:  SCF:  T  FORCE:  T  STRESS:  F  VC:  F  ENSEMBLE:  F

     Using Slab Decomposition

     bravais-lattice index     =            0
     lattice parameter (alat)  =       1.8897  a.u.
     unit-cell volume          =    6658.9804 (a.u.)^3
     number of atoms/cell      =           49
     number of atomic types    =            3
     number of electrons       =       388.00
     number of Kohn-Sham states=          204
     kinetic-energy cutoff     =      29.3995  Ry
     charge density cutoff     =     293.9946  Ry
     scf convergence threshold =      7.3E-08
     mixing beta               =       0.0500
     number of iterations used =            8  plain     mixing
     Exchange-correlation= BEEF-VDW
                           (   1   4  43  14   2   0   0)

     celldm(1)=   1.889726  celldm(2)=   0.000000  celldm(3)=   0.000000
     celldm(4)=   0.000000  celldm(5)=   0.000000  celldm(6)=   0.000000

     crystal axes: (cart. coord. in units of alat)
               a(1) = (   6.579727   0.000000   0.000000 )
               a(2) = (  -0.000775   5.961596   0.000000 )
               a(3) = (   0.000000   0.000000  25.155947 )

     reciprocal axes: (cart. coord. in units 2 pi/alat)
               b(1) = (  0.151982  0.000020  0.000000 )
               b(2) = (  0.000000  0.167740  0.000000 )
               b(3) = (  0.000000  0.000000  0.039752 )

     PseudoPot. # 1 for Ti read from file:
     /storage/coda1/p-amedford6/0/shared/rich_project_chbe-medford/medford-share/data/pseudos_module/espresso/nninc/pbe/van/Ti.UPF
     MD5 check sum: 8e4df49b7f0d34bbd5052bf3f5ea0213
     Pseudo is Ultrasoft, Zval = 12.0
     Generated by new atomic code, or converted to UPF format
     Using radial grid of  851 points,  6 beta functions with:
                l(1) =   0
                l(2) =   0
                l(3) =   1
                l(4) =   1
                l(5) =   2
                l(6) =   2
     Q(r) pseudized with  8 coefficients,  rinner =    1.000   1.000   1.000
                                                       1.000   1.000

     PseudoPot. # 2 for O  read from file:
     /storage/coda1/p-amedford6/0/shared/rich_project_chbe-medford/medford-share/data/pseudos_module/espresso/nninc/pbe/van/O.UPF
     MD5 check sum: 78c19812648e8988a0fe644b0f25305e
     Pseudo is Ultrasoft, Zval =  6.0
     Generated by new atomic code, or converted to UPF format
     Using radial grid of  737 points,  4 beta functions with:
                l(1) =   0
                l(2) =   0
                l(3) =   1
                l(4) =   1
     Q(r) pseudized with  8 coefficients,  rinner =    0.800   0.800   0.800

     PseudoPot. # 3 for N  read from file:
     /storage/coda1/p-amedford6/0/shared/rich_project_chbe-medford/medford-share/data/pseudos_module/espresso/nninc/pbe/van/N.UPF
     MD5 check sum: 90d10febe142ad51ac9d5be1deb811c4
     Pseudo is Ultrasoft, Zval =  5.0
     Generated by new atomic code, or converted to UPF format
     Using radial grid of  729 points,  4 beta functions with:
                l(1) =   0
                l(2) =   0
                l(3) =   1
                l(4) =   1
     Q(r) pseudized with  8 coefficients,  rinner =    0.800   0.800   0.800

     atomic species   valence    mass     pseudopotential
        Ti1           12.00    47.86700     Ti( 1.00)
        O1             6.00    15.99900     O ( 1.00)
        N1             5.00    14.00700     N ( 1.00)

     No symmetry found

   Cartesian axes

     site n.     atom                  positions (alat units)
         1           Ti1 tau(   1) = (   0.0004258   2.9801865   6.0000000  )
         2           Ti1 tau(   2) = (   3.2906075   1.4906267   6.0002472  )
         3           O1  tau(   3) = (   0.0006271   0.0005054   7.9858123  )
         4           O1  tau(   4) = (   3.2906025   0.0005020   7.3038282  )
         5           O1  tau(   5) = (   4.5942328   1.4918067   9.2879030  )
         6           O1  tau(   6) = (   1.9868534   1.4903216   9.2879459  )
         7           Ti1 tau(   7) = (   3.2908052   2.9770834   9.1558022  )
         8           Ti1 tau(   8) = (   0.0014723   1.4899557   9.2574618  )
         9           O1  tau(   9) = (   3.2881908   5.9516078  11.3945087  )
        10           O1  tau(  10) = (  -0.0003175   5.9583709  10.6096931  )
        11           O1  tau(  11) = (   1.2852824   1.4845632  12.6702234  )
        12           O1  tau(  12) = (   5.2939303   1.4843324  12.6686402  )
        13           Ti1 tau(  13) = (   6.5787990   2.9666629  12.5005897  )
        14           Ti1 tau(  14) = (   3.2868008   1.4811001  12.5380687  )
        15           O1  tau(  15) = (   6.5784413   5.9555407  14.6880896  )
        16           O1  tau(  16) = (   3.2900854   5.9490857  14.0192957  )
        17           O1  tau(  17) = (   4.5550864   1.4910534  16.1905290  )
        18           O1  tau(  18) = (   2.0267207   1.4911860  16.1885539  )
        19           Ti1 tau(  19) = (   3.2920938   2.9632630  15.7783758  )
        20           Ti1 tau(  20) = (   0.0012712   1.3436693  15.9485112  )
        21           O1  tau(  21) = (   3.2904802   0.0005063   4.7018136  )
        22           O1  tau(  22) = (   0.0010074   5.9436290  17.2207989  )
        23           O1  tau(  23) = (   1.3043587   1.4918075   6.0039043  )
        24           O1  tau(  24) = (   5.2767064   1.4903225   6.0039473  )
        25           Ti1 tau(  25) = (   0.0000382   5.9609847   6.0000000  )
        26           Ti1 tau(  26) = (   3.2902200   4.4714249   6.0002472  )
        27           O1  tau(  27) = (   0.0002396   2.9813036   7.9858123  )
        28           O1  tau(  28) = (   3.2902150   2.9813002   7.3038282  )
        29           O1  tau(  29) = (   4.5938453   4.4726049   9.2879030  )
        30           O1  tau(  30) = (   1.9864658   4.4711199   9.2879459  )
        31           Ti1 tau(  31) = (   3.2904038   5.9576809   9.1543053  )
        32           Ti1 tau(  32) = (   0.0010712   4.4688839   9.2576884  )
        33           O1  tau(  33) = (   3.2885413   2.9721674  11.3880671  )
        34           O1  tau(  34) = (   0.0004151   2.9779830  10.6294632  )
        35           O1  tau(  35) = (   1.2846649   4.4573343  12.6727517  )
        36           O1  tau(  36) = (   5.2936178   4.4572275  12.6712304  )
        37           Ti1 tau(  37) = (   6.5756517   5.9477182  12.4782824  )
        38           Ti1 tau(  38) = (   3.2865759   4.4596547  12.5399293  )
        39           O1  tau(  39) = (   6.5788509   2.9666905  14.9890508  )
        40           O1  tau(  40) = (   3.2903703   2.9673333  13.9858678  )
        41           O1  tau(  41) = (   4.5544046   4.4428806  16.1860403  )
        42           O1  tau(  42) = (   2.0267033   4.4429097  16.1842269  )
        43           Ti1 tau(  43) = (   3.2900559   5.9435813  15.8195655  )
        44           Ti1 tau(  44) = (   0.0007437   4.6011129  15.9424720  )
        45           O1  tau(  45) = (   3.2900926   2.9813045   4.7018136  )
        46           O1  tau(  46) = (   1.3039711   4.4726057   6.0039043  )
        47           O1  tau(  47) = (   5.2763189   4.4711207   6.0039473  )
        48           N1  tau(  48) = (   0.1199117   2.9186963  19.5608096  )
        49           N1  tau(  49) = (   0.0588791   2.9354632  18.4691897  )

     number of k points=    10  Fermi-Dirac smearing, width (Ry)=  0.0073
                       cart. coord. in units 2pi/alat
        k(    1) = (   0.0000000   0.0000000   0.0000000), wk =   0.1250000
        k(    2) = (   0.0000000   0.0419351   0.0000000), wk =   0.2500000
        k(    3) = (   0.0000000  -0.0838702   0.0000000), wk =   0.1250000
        k(    4) = (   0.0379955   0.0000049   0.0000000), wk =   0.2500000
        k(    5) = (   0.0379955   0.0419400   0.0000000), wk =   0.2500000
        k(    6) = (   0.0379955  -0.0838652   0.0000000), wk =   0.2500000
        k(    7) = (   0.0379955  -0.0419301   0.0000000), wk =   0.2500000
        k(    8) = (  -0.0759910  -0.0000099   0.0000000), wk =   0.1250000
        k(    9) = (  -0.0759910   0.0419252   0.0000000), wk =   0.2500000
        k(   10) = (  -0.0759910  -0.0838800   0.0000000), wk =   0.1250000

     Initial potential from superposition of free atoms

     starting charge  371.99923, renormalised to  388.00000

     negative rho (up, down):  1.868E-02 0.000E+00

     %%%%%%%%%%%%%%%%%%%%%%%%%%%%%%%%%%%%%%%%%%%%%%%%%%%%%%%%%%%%%%%%%%%%%%%%
     %                                                                      %
     % You are using vdW-DF, which was implemented by the Thonhauser group. %
     % Please cite the following two papers that made this development      %
     % possible and the two reviews that describe the various versions:     %
     %                                                                      %
     %   T. Thonhauser et al., PRL 115, 136402 (2015).                      %
     %   T. Thonhauser et al., PRB 76, 125112 (2007).                       %
     %   K. Berland et al., Rep. Prog. Phys. 78, 066501 (2015).             %
     %   D.C. Langreth et al., J. Phys.: Condens. Matter 21, 084203 (2009). %
     %                                                                      %
     %                                                                      %
     % If you are calculating the stress with vdW-DF, please also cite:     %
     %                                                                      %
     %   R. Sabatini et al., J. Phys.: Condens. Matter 24, 424209 (2012).   %
     %                                                                      %
     %%%%%%%%%%%%%%%%%%%%%%%%%%%%%%%%%%%%%%%%%%%%%%%%%%%%%%%%%%%%%%%%%%%%%%%%

     Adding external electric field

     Computed dipole along edir(3) :
        Dipole               -5.4573 Ry au,        -13.8710 Debye
        Dipole field         -0.0103 Ry au,

        Potential amp.        0.9547 Ry
        Total length         46.3494 bohr

     Starting wfcs are  292 atomic wfcs
  @ DRIVER MODE: Message from server: STATUS
  @ DRIVER MODE: Message from server: POSDATA
  @ DRIVER MODE: Reading and sharing cell
  @ DRIVER MODE: Reading and sharing positions
  @ DRIVER MODE: Received positions

     Self-consistent Calculation

     iteration #  1     ecut=    29.40 Ry     beta= 0.05
     Davidson diagonalization with overlap
     c_bands:  4 eigenvalues not converged
     c_bands:  2 eigenvalues not converged
     c_bands:  2 eigenvalues not converged
     c_bands:  1 eigenvalues not converged
     c_bands:  3 eigenvalues not converged
     c_bands:  2 eigenvalues not converged
     c_bands:  4 eigenvalues not converged
     c_bands:  1 eigenvalues not converged
     ethr =  1.00E-05,  avg # of iterations = 21.4

[...]

     total energy              =   -2822.38752711 Ry
     estimated scf accuracy    <    1129.37912371 Ry

     iteration #  2     ecut=    29.40 Ry     beta= 0.05
     Davidson diagonalization with overlap
     ethr =  1.00E-02,  avg # of iterations = 17.1

[...]

     iteration # 48     ecut=    29.40 Ry     beta= 0.05
     Davidson diagonalization with overlap
     c_bands:  1 eigenvalues not converged
     c_bands:  1 eigenvalues not converged
     ethr =  9.05E-11,  avg # of iterations = 13.0

[...]

     total energy              =   -2924.04820550 Ry
     estimated scf accuracy    <       0.00000012 Ry

     iteration # 50     ecut=    29.40 Ry     beta= 0.05
     Davidson diagonalization with overlap
     ethr =  2.99E-11,  avg # of iterations = 14.0

     negative rho (up, down):  1.842E-02 0.000E+00

     Adding external electric field

     Computed dipole along edir(3) :
        Dipole                0.7023 Ry au,          1.7850 Debye
        Dipole field          0.0013 Ry au,

        Potential amp.       -0.1229 Ry
        Total length         46.3494 bohr

     End of self-consistent calculation

          k = 0.0000 0.0000 0.0000 ( 18029 PWs)   bands (ev):

   -55.9022 -55.8663 -55.8564 -55.8222 -55.7854 -55.7748 -55.7404 -55.7399
   -55.7312 -55.7062 -55.7040 -55.6830 -55.6695 -55.6490 -54.9670 -54.9329
   -32.4661 -32.4159 -32.3575 -32.2603 -32.2131 -32.2100 -32.2079 -32.1959
   -32.1465 -32.1351 -32.1091 -32.1030 -32.1014 -32.0743 -32.0711 -32.0522
   -32.0382 -32.0376 -32.0311 -32.0169 -32.0083 -32.0077 -32.0016 -31.9999
   -31.9780 -31.9717 -31.9538 -31.9120 -31.9053 -31.8998 -31.8917 -31.8865
   -31.8789 -31.8782 -31.8750 -31.8692 -31.8604 -31.8376 -31.8265 -31.8155
   -31.7975 -31.7471 -31.3798 -31.2754 -31.2540 -31.1959 -31.1095 -30.9985
   -21.9872 -16.7336 -16.5007 -16.3633 -16.2353 -16.1287 -16.0200 -15.9207
   -15.8540 -15.7822 -15.6292 -15.5966 -15.5661 -15.5310 -15.5099 -15.5052
   -15.4957 -15.4594 -15.4373 -15.4130 -15.4116 -15.3949 -15.3810 -15.3486
   -15.2948 -15.2143 -15.1345 -15.0645 -15.0061 -14.6798 -13.4681 -13.3484
    -7.1935  -5.0528  -5.0474  -4.0699  -4.0241  -3.9155  -3.8380  -3.8246
    -3.7340  -3.6682  -3.4639  -3.3897  -3.3507  -3.2003  -3.1572  -3.1004
    -3.0501  -2.9621  -2.8976  -2.8897  -2.8002  -2.7776  -2.7758  -2.7655
    -2.6765  -2.6643  -2.6294  -2.6204  -2.5946  -2.4986  -2.3745  -2.3393
    -2.2841  -2.2830  -2.2618  -2.2473  -2.2224  -2.1829  -2.1598  -2.1505
    -2.0997  -2.0882  -1.9461  -1.8022  -1.7679  -1.6913  -1.6073  -1.5127
    -1.4631  -1.4233  -1.3643  -1.3575  -1.3108  -1.2843  -1.2470  -1.1629
    -1.0739  -1.0321  -0.9369  -0.9200  -0.8494  -0.8118  -0.7575  -0.6975
    -0.6954  -0.6554  -0.5609  -0.5256  -0.4082  -0.3993  -0.3847  -0.3648
    -0.3028  -0.2480  -0.1420  -0.1142  -0.1125  -0.1021   0.0051   0.0337
     0.0354   0.0485   0.0601   0.1234   0.1909   0.2327   0.2752   0.4223
     0.6469   0.6485   0.7088   0.9433   1.0211   1.0590   1.2161   1.6451
     1.6991   3.1930   3.2597   3.2905   3.3234   3.3574   3.4000   3.6889
     3.7047   3.7311   3.7466   3.7682

[...]

          k = 0.0380-0.0419 0.0000 ( 17876 PWs)   bands (ev):

[...]

          k =-0.0760-0.0000 0.0000 ( 17886 PWs)   bands (ev):

[...]

          k =-0.0760-0.0839 0.0000 ( 17948 PWs)   bands (ev):

   -55.8843 -55.8839 -55.8399 -55.8385 -55.7815 -55.7605 -55.7542 -55.7248
   -55.7244 -55.7219 -55.7077 -55.6759 -55.6661 -55.6659 -54.9499 -54.9498
   -32.3410 -32.2702 -32.2693 -32.1762 -32.1729 -32.1716 -32.1560 -32.1327
   -32.1307 -32.1023 -32.1008 -32.0985 -32.0915 -32.0492 -32.0433 -32.0416
   -32.0390 -32.0375 -32.0298 -32.0224 -32.0220 -32.0123 -32.0000 -31.9869
   -31.9822 -31.9821 -31.9796 -31.9778 -31.9581 -31.9571 -31.9539 -31.9463
   -31.9202 -31.9187 -31.9053 -31.8948 -31.8944 -31.8898 -31.8774 -31.8524
   -31.8511 -31.8480 -31.2665 -31.2665 -31.1924 -31.1923 -31.1527 -31.1527
   -21.9870 -16.4125 -16.1035 -16.0634 -15.9486 -15.9437 -15.8626 -15.8472
   -15.7412 -15.6958 -15.6859 -15.6847 -15.6246 -15.6215 -15.6018 -15.5911
   -15.5164 -15.5053 -15.4813 -15.4779 -15.4207 -15.4164 -15.4150 -15.4108
   -15.3731 -15.3725 -15.3369 -15.3337 -15.2169 -15.0509 -13.4493 -13.4492
    -7.1978  -5.0493  -5.0491  -3.9928  -3.4415  -3.3759  -3.3218  -3.1704
    -3.0941  -3.0822  -3.0363  -3.0075  -2.9333  -2.8982  -2.8977  -2.8151
    -2.8056  -2.8007  -2.7989  -2.7324  -2.7179  -2.6879  -2.6727  -2.6213
    -2.6198  -2.5971  -2.5934  -2.5783  -2.5693  -2.5506  -2.5444  -2.5148
    -2.4853  -2.4315  -2.4245  -2.2826  -2.2725  -2.2172  -2.1412  -2.1382
    -2.0565  -2.0416  -2.0057  -1.9740  -1.9098  -1.8945  -1.7255  -1.7033
    -1.6997  -1.6399  -1.5541  -1.5287  -1.4823  -1.4620  -1.4101  -1.3577
    -1.2527  -1.2266  -1.2060  -1.0995  -1.0914  -1.0274  -0.9412  -0.9002
    -0.8981  -0.8934  -0.8707  -0.8498  -0.8478  -0.7462  -0.6952  -0.6476
    -0.6366  -0.6246  -0.4244  -0.3676  -0.3405  -0.2335  -0.1920   0.0053
     0.0126   0.0384   0.1554   0.1560   0.1626   0.2221   0.3491   0.3542
     0.4226   0.4655   0.4938   0.5175   0.5197   1.4080   1.4091   1.5162
     1.5167   3.3536   3.4360   3.4520   3.5093   3.6386   3.6517   3.7012
     3.7395   3.7482   3.7487   3.8347

     the Fermi energy is     3.2573 ev

!    total energy              =   -2924.04832871 Ry
     estimated scf accuracy    <       0.00000005 Ry
     smearing contrib. (-TS)   =      -0.03675431 Ry
     internal energy E=F+TS    =   -2924.01157440 Ry

     The total energy is F=E-TS. E is the sum of the following terms:
     one-electron contribution =  -24115.01947714 Ry
     hartree contribution      =   12139.95075612 Ry
     xc contribution           =    -479.20014376 Ry
     ewald contribution        =    9530.25635970 Ry
     electric field correction =       0.00093069 Ry

     convergence has been achieved in  50 iterations

     Forces acting on atoms (cartesian axes, Ry/au):

     atom    1 type  1   force =     0.00004738    0.00004936    0.09037328
     atom    2 type  1   force =    -0.00002599    0.00038834   -0.18442759
     atom    3 type  2   force =     0.00007513   -0.00045081   -0.02391153
     atom    4 type  2   force =     0.00002066   -0.00009288    0.05156530
     atom    5 type  2   force =    -0.01360688   -0.00063647    0.00573433
     atom    6 type  2   force =     0.01347988   -0.00016040    0.00564010
     atom    7 type  1   force =     0.00011463   -0.00002647    0.00098466
     atom    8 type  1   force =     0.00001897    0.00011136    0.00020428
     atom    9 type  2   force =     0.00005982    0.00011692   -0.00043375
     atom   10 type  2   force =     0.00000089    0.00009360    0.00079190
     atom   11 type  2   force =    -0.00002150    0.00022295    0.00002393
     atom   12 type  2   force =     0.00000751    0.00022693    0.00010537
     atom   13 type  1   force =     0.00002736    0.00031186   -0.00069625
     atom   14 type  1   force =    -0.00006688    0.00014864   -0.00113944
     atom   15 type  2   force =     0.00008604   -0.00037426   -0.00029801
     atom   16 type  2   force =    -0.00005211    0.00021812   -0.00020974
     atom   17 type  2   force =    -0.00004355   -0.00013508    0.00024653
     atom   18 type  2   force =     0.00012785   -0.00018013    0.00030289
     atom   19 type  1   force =     0.00013940    0.00003168    0.00061631
     atom   20 type  1   force =    -0.00005848    0.00003104    0.00165645
     atom   21 type  2   force =     0.00007190    0.00014146    0.10521949
     atom   22 type  2   force =     0.00002056    0.00006311   -0.00094854
     atom   23 type  2   force =    -0.06757387   -0.00012189   -0.02618944
     atom   24 type  2   force =     0.06750368    0.00031567   -0.02622990
     atom   25 type  1   force =     0.00005737    0.00005249    0.09062222
     atom   26 type  1   force =    -0.00007683   -0.00034977   -0.18437429
     atom   27 type  2   force =     0.00006529   -0.00050473   -0.02272313
     atom   28 type  2   force =     0.00002605   -0.00008736    0.05139469
     atom   29 type  2   force =    -0.01362931   -0.00058695    0.00566623
     atom   30 type  2   force =     0.01349367   -0.00007271    0.00557636
     atom   31 type  1   force =     0.00008651    0.00010278    0.00080162
     atom   32 type  1   force =     0.00001038   -0.00001841    0.00015903
     atom   33 type  2   force =     0.00007054   -0.00005734   -0.00002414
     atom   34 type  2   force =    -0.00000616   -0.00005128    0.00000626
     atom   35 type  2   force =    -0.00010041    0.00000502   -0.00001887
     atom   36 type  2   force =     0.00011891    0.00000128    0.00004596
     atom   37 type  1   force =     0.00006295    0.00013059    0.00076338
     atom   38 type  1   force =    -0.00006178   -0.00015968   -0.00130758
     atom   39 type  2   force =     0.00009865    0.00030467    0.00011844
     atom   40 type  2   force =     0.00004950    0.00001447    0.00016145
     atom   41 type  2   force =     0.00021395    0.00001154    0.00026268
     atom   42 type  2   force =    -0.00014439   -0.00001548    0.00033292
     atom   43 type  1   force =     0.00003927    0.00048503    0.00083362
     atom   44 type  1   force =    -0.00009316   -0.00010330    0.00149282
     atom   45 type  2   force =     0.00006577    0.00013707    0.10518389
     atom   46 type  2   force =    -0.06758097   -0.00019071   -0.02618723
     atom   47 type  2   force =     0.06750478    0.00023702   -0.02623161
     atom   48 type  3   force =     0.00322713   -0.00046656    0.06076334
     atom   49 type  3   force =    -0.00385011    0.00088962   -0.06229872

     Total force =     0.377338     Total SCF correction =     0.000588
  @ DRIVER MODE: Message from server: STATUS
  @ DRIVER MODE: Message from server: GETFORCE
  @ DRIVER MODE: Returning v,forces,stress,ensemble

     Writing output data file ./calc.save/
  @ DRIVER MODE: Message from server: EXIT
  @ DRIVE MODE: Exiting

     General routines

     Parallel routines

   This run was terminated on:  18: 7:20   5Nov2021

   JOB DONE.