     Program PWSCF v.6.7GPU starts on  9Sep2021 at  1:32: 0

     R & G space division:  proc/nbgrp/npool/nimage =      10
     Reading input from /storage/home/hcoda1/3/ntian30/research/carbon/CxH_vib/CH_calc/ads_slab/CHN2_c/out_0012/pw.inp
Warning: card &CELL ignored
Warning: card   CELL_DYNAMICS='IPI', ignored
Warning: card / ignored

     Current dimensions of program PWSCF are:
     Max number of different atomic species (ntypx) = 10
     Max number of k-points (npk) =  40000
     Max angular momentum in pseudopotentials (lmaxx) =  3
     Presently no symmetry can be used with electric field

     Message from routine cell_base_init:
     DEPRECATED: use true lattice parameter, not A to a.u. conversion factor

     IMPORTANT: XC functional enforced from input :
     Exchange-correlation= BEEF-VDW
                           (   1   4  43  14   2   0   0)
     Any further DFT definition will be discarded
     Please, verify this is what you really want

  @ DRIVER MODE: Connecting to
 qe_1139763_2767377.sched-torque.pace.gatech.edujx4jb1bt_scratch
  using UNIX socket
  @ DRIVER MODE: Message from server: STATUS
  @ DRIVER MODE: Message from server: INIT
  @ DRIVER MODE: Receiving replica           0          -1
  @ DRIVER MODE: Receiving encoded integer          25
  @ DRIVER MODE:  SCF:  T  FORCE:  T  STRESS:  F  VC:  F  ENSEMBLE:  F
  @ DRIVER MODE:  SCF:  T  FORCE:  T  STRESS:  F  VC:  F  ENSEMBLE:  F

     Using Slab Decomposition

     bravais-lattice index     =            0
     lattice parameter (alat)  =       1.8897  a.u.
     unit-cell volume          =    6658.9804 (a.u.)^3
     number of atoms/cell      =           51
     number of atomic types    =            5
     number of electrons       =       393.00
     number of Kohn-Sham states=          206
     kinetic-energy cutoff     =      29.3995  Ry
     charge density cutoff     =     293.9946  Ry
     scf convergence threshold =      7.3E-08
     mixing beta               =       0.0500
     number of iterations used =            8  plain     mixing
     Exchange-correlation= BEEF-VDW
                           (   1   4  43  14   2   0   0)

     celldm(1)=   1.889726  celldm(2)=   0.000000  celldm(3)=   0.000000
     celldm(4)=   0.000000  celldm(5)=   0.000000  celldm(6)=   0.000000

     crystal axes: (cart. coord. in units of alat)
               a(1) = (   6.579727   0.000000   0.000000 )
               a(2) = (  -0.000775   5.961596   0.000000 )
               a(3) = (   0.000000   0.000000  25.155947 )

     reciprocal axes: (cart. coord. in units 2 pi/alat)
               b(1) = (  0.151982  0.000020  0.000000 )
               b(2) = (  0.000000  0.167740  0.000000 )
               b(3) = (  0.000000  0.000000  0.039752 )

     PseudoPot. # 1 for Ti read from file:
     /storage/coda1/p-amedford6/0/shared/rich_project_chbe-medford/medford-share/data/pseudos_module/espresso/nninc/pbe/van/Ti.UPF
     MD5 check sum: 8e4df49b7f0d34bbd5052bf3f5ea0213
     Pseudo is Ultrasoft, Zval = 12.0
     Generated by new atomic code, or converted to UPF format
     Using radial grid of  851 points,  6 beta functions with:
                l(1) =   0
                l(2) =   0
                l(3) =   1
                l(4) =   1
                l(5) =   2
                l(6) =   2
     Q(r) pseudized with  8 coefficients,  rinner =    1.000   1.000   1.000
                                                       1.000   1.000

     PseudoPot. # 2 for O  read from file:
     /storage/coda1/p-amedford6/0/shared/rich_project_chbe-medford/medford-share/data/pseudos_module/espresso/nninc/pbe/van/O.UPF
     MD5 check sum: 78c19812648e8988a0fe644b0f25305e
     Pseudo is Ultrasoft, Zval =  6.0
     Generated by new atomic code, or converted to UPF format
     Using radial grid of  737 points,  4 beta functions with:
                l(1) =   0
                l(2) =   0
                l(3) =   1
                l(4) =   1
     Q(r) pseudized with  8 coefficients,  rinner =    0.800   0.800   0.800

     PseudoPot. # 3 for C  read from file:
     /storage/coda1/p-amedford6/0/shared/rich_project_chbe-medford/medford-share/data/pseudos_module/espresso/nninc/pbe/van/C.UPF
     MD5 check sum: 1a69bf6b8db32088f5b2163dbdb77a27
     Pseudo is Ultrasoft, Zval =  4.0
     Generated by new atomic code, or converted to UPF format
     Using radial grid of  721 points,  4 beta functions with:
                l(1) =   0
                l(2) =   0
                l(3) =   1
                l(4) =   1
     Q(r) pseudized with  8 coefficients,  rinner =    0.800   0.800   0.800

     PseudoPot. # 4 for H  read from file:
     /storage/coda1/p-amedford6/0/shared/rich_project_chbe-medford/medford-share/data/pseudos_module/espresso/nninc/pbe/van/H.UPF
     MD5 check sum: b5ee9d7bfd3a09ee7748110bda690ff7
     Pseudo is Ultrasoft, Zval =  1.0
     Generated by new atomic code, or converted to UPF format
     Using radial grid of  615 points,  1 beta functions with:
                l(1) =   0
     Q(r) pseudized with  8 coefficients,  rinner =    0.800

     PseudoPot. # 5 for N  read from file:
     /storage/coda1/p-amedford6/0/shared/rich_project_chbe-medford/medford-share/data/pseudos_module/espresso/nninc/pbe/van/N.UPF
     MD5 check sum: 90d10febe142ad51ac9d5be1deb811c4
     Pseudo is Ultrasoft, Zval =  5.0
     Generated by new atomic code, or converted to UPF format
     Using radial grid of  729 points,  4 beta functions with:
                l(1) =   0
                l(2) =   0
                l(3) =   1
                l(4) =   1
     Q(r) pseudized with  8 coefficients,  rinner =    0.800   0.800   0.800

     atomic species   valence    mass     pseudopotential
        Ti1           12.00    47.86700     Ti( 1.00)
        O1             6.00    15.99900     O ( 1.00)
        C1             4.00    12.01100     C ( 1.00)
        H1             1.00     1.00800     H ( 1.00)
        N1             5.00    14.00700     N ( 1.00)

     No symmetry found

   Cartesian axes

     site n.     atom                  positions (alat units)
         1           Ti1 tau(   1) = (   0.0004258   2.9801865   6.0000000  )
         2           Ti1 tau(   2) = (   3.2906075   1.4906267   6.0002472  )
         3           O1  tau(   3) = (   0.0006271   0.0005054   7.9858123  )
         4           O1  tau(   4) = (   3.2906025   0.0005020   7.3038282  )
         5           O1  tau(   5) = (   4.5942328   1.4918067   9.2879030  )
         6           O1  tau(   6) = (   1.9868534   1.4903216   9.2879459  )
         7           Ti1 tau(   7) = (   3.2907910   2.8959150   9.1758416  )
         8           Ti1 tau(   8) = (   0.0015273   1.4827037   9.2680791  )
         9           O1  tau(   9) = (   3.2947523   5.9577806  11.3289702  )
        10           O1  tau(  10) = (   0.0116148   5.9584955  10.6183126  )
        11           O1  tau(  11) = (   1.2923655   1.4808044  12.6140338  )
        12           O1  tau(  12) = (   5.2760440   1.4916827  12.6110895  )
        13           Ti1 tau(  13) = (   0.0641422   2.9468446  12.6204329  )
        14           Ti1 tau(  14) = (   3.3828727   1.4858934  12.4752560  )
        15           O1  tau(  15) = (   0.0059231   0.0169234  14.6319368  )
        16           O1  tau(  16) = (   3.2943198   0.0056150  13.9184638  )
        17           O1  tau(  17) = (   4.5468153   1.5236546  16.0329375  )
        18           O1  tau(  18) = (   2.0515374   1.5217879  16.0554076  )
        19           Ti1 tau(  19) = (   3.2830080   3.0033146  15.6914404  )
        20           Ti1 tau(  20) = (   0.0154850   1.5188701  15.8391361  )
        21           O1  tau(  21) = (   3.2904802   0.0005063   4.7018136  )
        22           O1  tau(  22) = (   6.5736218   0.0255948  17.1842280  )
        23           O1  tau(  23) = (   1.3043587   1.4918075   6.0039043  )
        24           O1  tau(  24) = (   5.2767064   1.4903225   6.0039473  )
        25           Ti1 tau(  25) = (   0.0000382   5.9609847   6.0000000  )
        26           Ti1 tau(  26) = (   3.2902200   4.4714249   6.0002472  )
        27           O1  tau(  27) = (   0.0002396   2.9813036   7.9858123  )
        28           O1  tau(  28) = (   3.2902150   2.9813002   7.3038282  )
        29           O1  tau(  29) = (   4.5938453   4.4726049   9.2879030  )
        30           O1  tau(  30) = (   1.9864658   4.4711199   9.2879459  )
        31           Ti1 tau(  31) = (   3.2891106   5.8743827   9.1763621  )
        32           Ti1 tau(  32) = (   0.0006254   4.4649316   9.2693709  )
        33           O1  tau(  33) = (   3.2953046   2.9833475  11.3259646  )
        34           O1  tau(  34) = (   0.0092240   2.9805883  10.6323155  )
        35           O1  tau(  35) = (   1.2912205   4.4696366  12.6263023  )
        36           O1  tau(  36) = (   5.2799819   4.4751186  12.6219323  )
        37           Ti1 tau(  37) = (   0.0684868   5.9252938  12.5505524  )
        38           Ti1 tau(  38) = (   3.3848087   4.4651122  12.4793038  )
        39           O1  tau(  39) = (   0.0176302   2.9443755  14.6544446  )
        40           O1  tau(  40) = (   3.2854840   2.9900965  13.8959901  )
        41           O1  tau(  41) = (   4.5427396   4.4796010  16.0582459  )
        42           O1  tau(  42) = (   2.0519076   4.4830995  16.0738147  )
        43           Ti1 tau(  43) = (   3.3192208   0.0178015  15.7165103  )
        44           Ti1 tau(  44) = (   0.0190484   4.6579992  16.0750729  )
        45           O1  tau(  45) = (   3.2900926   2.9813045   4.7018136  )
        46           O1  tau(  46) = (   1.3039711   4.4726057   6.0039043  )
        47           O1  tau(  47) = (   5.2763189   4.4711207   6.0039473  )
        48           C1  tau(  48) = (   0.0285071   2.9528277  17.6086602  )
        49           H1  tau(  49) = (   0.9556717   2.9086103  18.1859260  )
        50           N1  tau(  50) = (   5.5646879   2.9115633  18.3869838  )
        51           N1  tau(  51) = (   4.5815072   2.8727048  18.9619008  )

     number of k points=    10  Fermi-Dirac smearing, width (Ry)=  0.0073
                       cart. coord. in units 2pi/alat
        k(    1) = (   0.0000000   0.0000000   0.0000000), wk =   0.1250000
        k(    2) = (   0.0000000   0.0419351   0.0000000), wk =   0.2500000
        k(    3) = (   0.0000000  -0.0838702   0.0000000), wk =   0.1250000
        k(    4) = (   0.0379955   0.0000049   0.0000000), wk =   0.2500000
        k(    5) = (   0.0379955   0.0419400   0.0000000), wk =   0.2500000
        k(    6) = (   0.0379955  -0.0838652   0.0000000), wk =   0.2500000
        k(    7) = (   0.0379955  -0.0419301   0.0000000), wk =   0.2500000
        k(    8) = (  -0.0759910  -0.0000099   0.0000000), wk =   0.1250000
        k(    9) = (  -0.0759910   0.0419252   0.0000000), wk =   0.2500000
        k(   10) = (  -0.0759910  -0.0838800   0.0000000), wk =   0.1250000

     Initial potential from superposition of free atoms

     starting charge  376.99918, renormalised to  393.00000

     negative rho (up, down):  1.907E-02 0.000E+00

     %%%%%%%%%%%%%%%%%%%%%%%%%%%%%%%%%%%%%%%%%%%%%%%%%%%%%%%%%%%%%%%%%%%%%%%%
     %                                                                      %
     % You are using vdW-DF, which was implemented by the Thonhauser group. %
     % Please cite the following two papers that made this development      %
     % possible and the two reviews that describe the various versions:     %
     %                                                                      %
     %   T. Thonhauser et al., PRL 115, 136402 (2015).                      %
     %   T. Thonhauser et al., PRB 76, 125112 (2007).                       %
     %   K. Berland et al., Rep. Prog. Phys. 78, 066501 (2015).             %
     %   D.C. Langreth et al., J. Phys.: Condens. Matter 21, 084203 (2009). %
     %                                                                      %
     %                                                                      %
     % If you are calculating the stress with vdW-DF, please also cite:     %
     %                                                                      %
     %   R. Sabatini et al., J. Phys.: Condens. Matter 24, 424209 (2012).   %
     %                                                                      %
     %%%%%%%%%%%%%%%%%%%%%%%%%%%%%%%%%%%%%%%%%%%%%%%%%%%%%%%%%%%%%%%%%%%%%%%%

     Adding external electric field

     Computed dipole along edir(3) :
        Dipole               -7.1737 Ry au,        -18.2337 Debye
        Dipole field         -0.0135 Ry au,

        Potential amp.        1.2549 Ry
        Total length         46.3494 bohr

     Starting wfcs are  297 atomic wfcs
  @ DRIVER MODE: Message from server: STATUS
  @ DRIVER MODE: Message from server: POSDATA
  @ DRIVER MODE: Reading and sharing cell
  @ DRIVER MODE: Reading and sharing positions
  @ DRIVER MODE: Received positions

     Self-consistent Calculation

     iteration #  1     ecut=    29.40 Ry     beta= 0.05
     Davidson diagonalization with overlap
     c_bands:  1 eigenvalues not converged
     c_bands:  1 eigenvalues not converged
     c_bands:  1 eigenvalues not converged
     c_bands:  1 eigenvalues not converged
     c_bands:  2 eigenvalues not converged
     c_bands:  2 eigenvalues not converged
     ethr =  1.00E-05,  avg # of iterations = 18.6

[...]

     total energy              =   -2708.65769032 Ry
     estimated scf accuracy    <    2526.60068645 Ry

[...]

     iteration #  3     ecut=    29.40 Ry     beta= 0.05
     Davidson diagonalization with overlap
     ethr =  1.00E-02,  avg # of iterations = 15.7

[...]

     iteration # 64     ecut=    29.40 Ry     beta= 0.05
     Davidson diagonalization with overlap
     c_bands:  1 eigenvalues not converged
     ethr =  9.15E-09,  avg # of iterations =  9.8

[...]

     total energy              =   -2936.64845289 Ry
     estimated scf accuracy    <       0.00000013 Ry

     iteration # 75     ecut=    29.40 Ry     beta= 0.05
     Davidson diagonalization with overlap
     ethr =  3.22E-11,  avg # of iterations =  6.6

     negative rho (up, down):  1.866E-02 0.000E+00

     Adding external electric field

     Computed dipole along edir(3) :
        Dipole                0.3012 Ry au,          0.7656 Debye
        Dipole field          0.0006 Ry au,

        Potential amp.       -0.0527 Ry
        Total length         46.3494 bohr

     End of self-consistent calculation

          k = 0.0000 0.0000 0.0000 ( 18029 PWs)   bands (ev):

   -56.1899 -56.1806 -56.1558 -56.1440 -56.0921 -56.0335 -56.0223 -55.9982
   -55.9964 -55.9640 -55.9608 -55.9271 -55.7111 -55.4392 -55.1659 -55.1319
   -32.7358 -32.6723 -32.5347 -32.5338 -32.5004 -32.4971 -32.4827 -32.4518
   -32.4323 -32.4205 -32.4038 -32.3836 -32.3615 -32.3420 -32.3339 -32.3201
   -32.3178 -32.2942 -32.2788 -32.2470 -32.2441 -32.2416 -32.2056 -32.1916
   -32.1908 -32.1884 -32.1863 -32.1764 -32.1632 -32.1477 -32.1434 -32.1371
   -32.1328 -32.1290 -32.1142 -32.1045 -32.0734 -31.9697 -31.8970 -31.7090
   -31.7001 -31.6532 -31.5729 -31.4849 -31.4624 -31.3897 -31.3032 -31.1921
   -20.6516 -16.9408 -16.6661 -16.4462 -16.3440 -16.3182 -16.2045 -16.0308
   -15.9115 -15.8675 -15.7645 -15.7484 -15.7253 -15.6930 -15.6842 -15.6780
   -15.6430 -15.6316 -15.6152 -15.6022 -15.5478 -15.5264 -15.5084 -15.4133
   -15.3682 -15.3260 -15.3163 -15.2500 -15.2439 -14.7395 -13.6683 -13.6376
   -13.5519  -5.8350  -4.8032  -4.5800  -4.3124  -4.1493  -4.0955  -4.0481
    -3.9962  -3.8083  -3.7462  -3.4312  -3.3975  -3.3755  -3.3608  -3.3478
    -3.3122  -3.1034  -3.0569  -3.0208  -2.9992  -2.9747  -2.9674  -2.9602
    -2.9517  -2.9089  -2.8537  -2.7750  -2.7367  -2.6432  -2.6038  -2.5814
    -2.5013  -2.4864  -2.4634  -2.4320  -2.4266  -2.4222  -2.3890  -2.3734
    -2.2412  -2.1831  -2.0539  -1.9937  -1.9660  -1.7952  -1.7623  -1.6583
    -1.6484  -1.6164  -1.5928  -1.5802  -1.4918  -1.3707  -1.3480  -1.3282
    -1.2859  -1.2096  -1.1713  -1.0784  -1.0444  -0.9719  -0.9535  -0.9512
    -0.9404  -0.8937  -0.7424  -0.6764  -0.6451  -0.5963  -0.5765  -0.5312
    -0.4877  -0.4648  -0.3519  -0.3199  -0.3160  -0.2614  -0.2524  -0.2148
    -0.2098  -0.1957  -0.1802  -0.1594   0.0020   0.0875   0.1506   0.1652
     0.2962   0.3510   0.4132   0.4695   0.5690   0.7830   0.8562   0.9448
     1.0486   1.4273   1.4728   1.6378   2.9458   3.0312   3.0786   3.0953
     3.1891   3.1965   3.3998   3.4219   3.4288   3.4961

[...]

          k = 0.0380-0.0419 0.0000 ( 17876 PWs)   bands (ev):

[...]

          k =-0.0760-0.0000 0.0000 ( 17886 PWs)   bands (ev):

[...]

          k =-0.0760-0.0839 0.0000 ( 17948 PWs)   bands (ev):

   -56.1732 -56.1724 -56.1654 -56.1590 -56.0875 -56.0267 -56.0218 -56.0082
   -55.9819 -55.9796 -55.9447 -55.9434 -55.7101 -55.4400 -55.1489 -55.1488
   -32.5406 -32.5372 -32.4878 -32.4873 -32.4684 -32.4677 -32.4657 -32.4424
   -32.3891 -32.3856 -32.3830 -32.3809 -32.3500 -32.3162 -32.3133 -32.3082
   -32.3002 -32.2936 -32.2926 -32.2918 -32.2873 -32.2842 -32.2819 -32.2411
   -32.2281 -32.2266 -32.2124 -32.2007 -32.1809 -32.1802 -32.1764 -32.1754
   -32.1596 -32.1589 -32.1544 -32.1521 -32.0663 -31.9721 -31.8922 -31.7695
   -31.7055 -31.6739 -31.4752 -31.4751 -31.3858 -31.3856 -31.3465 -31.3465
   -20.6511 -16.3793 -16.3510 -16.1401 -16.1108 -16.1045 -16.0949 -15.9860
   -15.8998 -15.8850 -15.8830 -15.8178 -15.7943 -15.7779 -15.7340 -15.7202
   -15.7156 -15.7090 -15.7020 -15.6502 -15.6453 -15.6260 -15.6188 -15.5433
   -15.5046 -15.5011 -15.4858 -15.3626 -15.2288 -14.9154 -13.6538 -13.6537
   -13.6452  -5.8343  -4.7394  -4.5700  -3.6726  -3.6380  -3.4545  -3.3830
    -3.3572  -3.3443  -3.2793  -3.1145  -3.0937  -3.0718  -3.0604  -3.0220
    -3.0202  -3.0056  -2.9962  -2.9785  -2.9401  -2.9093  -2.8856  -2.8579
    -2.8554  -2.8455  -2.8174  -2.8032  -2.7772  -2.7619  -2.7417  -2.7273
    -2.7076  -2.6943  -2.5758  -2.4232  -2.3916  -2.3264  -2.3176  -2.2928
    -2.2597  -2.2529  -2.2381  -2.1889  -2.0595  -1.9290  -1.8914  -1.8737
    -1.8205  -1.7964  -1.7649  -1.6506  -1.6133  -1.5744  -1.5409  -1.4791
    -1.4473  -1.4090  -1.3600  -1.3339  -1.2672  -1.2450  -1.1856  -1.1509
    -1.1462  -1.1149  -1.0324  -0.9580  -0.9568  -0.9351  -0.9111  -0.8821
    -0.8281  -0.8026  -0.6979  -0.6726  -0.5727  -0.5013  -0.4674  -0.2225
    -0.1580  -0.1287  -0.1112  -0.0569   0.0172   0.0965   0.1210   0.1316
     0.1870   0.2578   0.2630   0.3523   0.3600   0.3950   0.5197   1.2201
     1.2209   1.2925   1.2927   1.6078   3.2303   3.2354   3.2833   3.3058
     3.4478   3.4556   3.4785   3.4796   3.5904   3.6163

     the Fermi energy is     2.9443 ev

!    total energy              =   -2936.64847452 Ry
     estimated scf accuracy    <       0.00000004 Ry
     smearing contrib. (-TS)   =      -0.02176212 Ry
     internal energy E=F+TS    =   -2936.62671240 Ry

     The total energy is F=E-TS. E is the sum of the following terms:
     one-electron contribution =  -24544.70932123 Ry
     hartree contribution      =   12355.41287676 Ry
     xc contribution           =    -483.52745466 Ry
     ewald contribution        =    9736.19701551 Ry
     electric field correction =       0.00017122 Ry

     convergence has been achieved in  75 iterations

     Forces acting on atoms (cartesian axes, Ry/au):

     atom    1 type  1   force =     0.00022415   -0.00016984    0.09656201
     atom    2 type  1   force =    -0.00008451   -0.00055440   -0.17534772
     atom    3 type  2   force =    -0.00002144   -0.00007409   -0.02490161
     atom    4 type  2   force =     0.00006772   -0.00140850    0.05269116
     atom    5 type  2   force =    -0.01181041   -0.00063819    0.00343416
     atom    6 type  2   force =     0.01353759    0.00002866    0.00245892
     atom    7 type  1   force =    -0.00104850    0.00054580   -0.01186883
     atom    8 type  1   force =     0.00048850    0.00952502    0.02774285
     atom    9 type  2   force =     0.00003493    0.00091412   -0.00046015
     atom   10 type  2   force =    -0.00161527    0.00102212   -0.01733041
     atom   11 type  2   force =     0.00043921    0.00014379    0.00023914
     atom   12 type  2   force =    -0.00047757   -0.00017048    0.00010749
     atom   13 type  1   force =     0.00089750    0.00137338   -0.00035168
     atom   14 type  1   force =    -0.00069778    0.00000844   -0.00003880
     atom   15 type  2   force =     0.00006585   -0.00023721    0.00018200
     atom   16 type  2   force =     0.00027947    0.00026047    0.00103467
     atom   17 type  2   force =     0.00015977   -0.00029577    0.00031618
     atom   18 type  2   force =    -0.00011224   -0.00022802    0.00043604
     atom   19 type  1   force =    -0.00025129   -0.00088084    0.00081425
     atom   20 type  1   force =     0.00021941   -0.00013260    0.00101206
     atom   21 type  2   force =     0.00008305   -0.00005026    0.10318462
     atom   22 type  2   force =     0.00007237   -0.00039466   -0.00064887
     atom   23 type  2   force =    -0.07155522   -0.00012067   -0.02774450
     atom   24 type  2   force =     0.07150628    0.00028464   -0.02775440
     atom   25 type  1   force =     0.00000281   -0.00018882    0.09613271
     atom   26 type  1   force =    -0.00017953   -0.00028050   -0.17548163
     atom   27 type  2   force =     0.00005735   -0.00023443   -0.02386326
     atom   28 type  2   force =     0.00010947   -0.00116024    0.05258230
     atom   29 type  2   force =    -0.01193937    0.00045019    0.00310317
     atom   30 type  2   force =     0.01358105    0.00085602    0.00215210
     atom   31 type  1   force =    -0.00088906    0.00309745   -0.01274175
     atom   32 type  1   force =     0.00046692   -0.01168737    0.02820994
     atom   33 type  2   force =     0.00030389   -0.00090046   -0.00023040
     atom   34 type  2   force =    -0.00077465    0.00070771   -0.02378545
     atom   35 type  2   force =    -0.00067367   -0.00003874    0.00005489
     atom   36 type  2   force =     0.00037107   -0.00021512    0.00000318
     atom   37 type  1   force =     0.00089743   -0.00125627   -0.00039955
     atom   38 type  1   force =    -0.00090862    0.00019370    0.00031971
     atom   39 type  2   force =    -0.00013792    0.00048535    0.00015297
     atom   40 type  2   force =     0.00011955   -0.00030562    0.00027669
     atom   41 type  2   force =     0.00013094    0.00045219    0.00032302
     atom   42 type  2   force =    -0.00000677    0.00048705    0.00028824
     atom   43 type  1   force =    -0.00036730    0.00107872   -0.00001584
     atom   44 type  1   force =     0.00006587   -0.00026162    0.00062064
     atom   45 type  2   force =     0.00007050   -0.00008015    0.10315296
     atom   46 type  2   force =    -0.07156890   -0.00010037   -0.02775417
     atom   47 type  2   force =     0.07154275    0.00033915   -0.02777922
     atom   48 type  3   force =     0.00499641    0.00042880    0.00415852
     atom   49 type  4   force =    -0.00411668   -0.00008373   -0.00311497
     atom   50 type  5   force =    -0.00122137   -0.00077783    0.00054317
     atom   51 type  5   force =    -0.00033376    0.00024405   -0.00067653

     Total force =     0.368018     Total SCF correction =     0.000593
  @ DRIVER MODE: Message from server: STATUS
  @ DRIVER MODE: Message from server: GETFORCE
  @ DRIVER MODE: Returning v,forces,stress,ensemble

     Writing output data file ./calc.save/
  @ DRIVER MODE: Message from server: EXIT
  @ DRIVE MODE: Exiting

     General routines

     Parallel routines

   This run was terminated on:   1:51:39   9Sep2021

   JOB DONE.