     Program PWSCF v.6.7GPU starts on 23Sep2021 at 21:52:46

     R & G space division:  proc/nbgrp/npool/nimage =       8
     Reading input from /storage/home/hcoda1/3/ntian30/research/carbon/CxH_vib/H2O_calc/ads_slab/CH3NHHHO_a/out_0027/pw.inp
Warning: card &CELL ignored
Warning: card   CELL_DYNAMICS='IPI', ignored
Warning: card / ignored

     Current dimensions of program PWSCF are:
     Max number of different atomic species (ntypx) = 10
     Max number of k-points (npk) =  40000
     Max angular momentum in pseudopotentials (lmaxx) =  3
     Presently no symmetry can be used with electric field

     Message from routine cell_base_init:
     DEPRECATED: use true lattice parameter, not A to a.u. conversion factor

     IMPORTANT: XC functional enforced from input :
     Exchange-correlation= BEEF-VDW
                           (   1   4  43  14   2   0   0)
     Any further DFT definition will be discarded
     Please, verify this is what you really want

  @ DRIVER MODE: Connecting to
 qe_1139763_2947311.sched-torque.pace.gatech.educe3ko7rs_scratch
  using UNIX socket
  @ DRIVER MODE: Message from server: STATUS
  @ DRIVER MODE: Message from server: INIT
  @ DRIVER MODE: Receiving replica           0          -1
  @ DRIVER MODE: Receiving encoded integer          25
  @ DRIVER MODE:  SCF:  T  FORCE:  T  STRESS:  F  VC:  F  ENSEMBLE:  F
  @ DRIVER MODE:  SCF:  T  FORCE:  T  STRESS:  F  VC:  F  ENSEMBLE:  F

     Using Slab Decomposition

     bravais-lattice index     =            0
     lattice parameter (alat)  =       1.8897  a.u.
     unit-cell volume          =    6658.9804 (a.u.)^3
     number of atoms/cell      =           56
     number of atomic types    =            5
     number of electrons       =       399.00
     number of Kohn-Sham states=          209
     kinetic-energy cutoff     =      29.3995  Ry
     charge density cutoff     =     293.9946  Ry
     scf convergence threshold =      7.3E-08
     mixing beta               =       0.0500
     number of iterations used =            8  plain     mixing
     Exchange-correlation= BEEF-VDW
                           (   1   4  43  14   2   0   0)

     celldm(1)=   1.889726  celldm(2)=   0.000000  celldm(3)=   0.000000
     celldm(4)=   0.000000  celldm(5)=   0.000000  celldm(6)=   0.000000

     crystal axes: (cart. coord. in units of alat)
               a(1) = (   6.579727   0.000000   0.000000 )
               a(2) = (  -0.000775   5.961596   0.000000 )
               a(3) = (   0.000000   0.000000  25.155947 )

     reciprocal axes: (cart. coord. in units 2 pi/alat)
               b(1) = (  0.151982  0.000020  0.000000 )
               b(2) = (  0.000000  0.167740  0.000000 )
               b(3) = (  0.000000  0.000000  0.039752 )

     PseudoPot. # 1 for Ti read from file:
     /storage/coda1/p-amedford6/0/shared/rich_project_chbe-medford/medford-share/data/pseudos_module/espresso/nninc/pbe/van/Ti.UPF
     MD5 check sum: 8e4df49b7f0d34bbd5052bf3f5ea0213
     Pseudo is Ultrasoft, Zval = 12.0
     Generated by new atomic code, or converted to UPF format
     Using radial grid of  851 points,  6 beta functions with:
                l(1) =   0
                l(2) =   0
                l(3) =   1
                l(4) =   1
                l(5) =   2
                l(6) =   2
     Q(r) pseudized with  8 coefficients,  rinner =    1.000   1.000   1.000
                                                       1.000   1.000

     PseudoPot. # 2 for O  read from file:
     /storage/coda1/p-amedford6/0/shared/rich_project_chbe-medford/medford-share/data/pseudos_module/espresso/nninc/pbe/van/O.UPF
     MD5 check sum: 78c19812648e8988a0fe644b0f25305e
     Pseudo is Ultrasoft, Zval =  6.0
     Generated by new atomic code, or converted to UPF format
     Using radial grid of  737 points,  4 beta functions with:
                l(1) =   0
                l(2) =   0
                l(3) =   1
                l(4) =   1
     Q(r) pseudized with  8 coefficients,  rinner =    0.800   0.800   0.800

     PseudoPot. # 3 for N  read from file:
     /storage/coda1/p-amedford6/0/shared/rich_project_chbe-medford/medford-share/data/pseudos_module/espresso/nninc/pbe/van/N.UPF
     MD5 check sum: 90d10febe142ad51ac9d5be1deb811c4
     Pseudo is Ultrasoft, Zval =  5.0
     Generated by new atomic code, or converted to UPF format
     Using radial grid of  729 points,  4 beta functions with:
                l(1) =   0
                l(2) =   0
                l(3) =   1
                l(4) =   1
     Q(r) pseudized with  8 coefficients,  rinner =    0.800   0.800   0.800

     PseudoPot. # 4 for C  read from file:
     /storage/coda1/p-amedford6/0/shared/rich_project_chbe-medford/medford-share/data/pseudos_module/espresso/nninc/pbe/van/C.UPF
     MD5 check sum: 1a69bf6b8db32088f5b2163dbdb77a27
     Pseudo is Ultrasoft, Zval =  4.0
     Generated by new atomic code, or converted to UPF format
     Using radial grid of  721 points,  4 beta functions with:
                l(1) =   0
                l(2) =   0
                l(3) =   1
                l(4) =   1
     Q(r) pseudized with  8 coefficients,  rinner =    0.800   0.800   0.800

     PseudoPot. # 5 for H  read from file:
     /storage/coda1/p-amedford6/0/shared/rich_project_chbe-medford/medford-share/data/pseudos_module/espresso/nninc/pbe/van/H.UPF
     MD5 check sum: b5ee9d7bfd3a09ee7748110bda690ff7
     Pseudo is Ultrasoft, Zval =  1.0
     Generated by new atomic code, or converted to UPF format
     Using radial grid of  615 points,  1 beta functions with:
                l(1) =   0
     Q(r) pseudized with  8 coefficients,  rinner =    0.800

     atomic species   valence    mass     pseudopotential
        Ti1           12.00    47.86700     Ti( 1.00)
        O1             6.00    15.99900     O ( 1.00)
        N1             5.00    14.00700     N ( 1.00)
        C1             4.00    12.01100     C ( 1.00)
        H1             1.00     1.00800     H ( 1.00)

     No symmetry found

   Cartesian axes

     site n.     atom                  positions (alat units)
         1           Ti1 tau(   1) = (   0.0004258   2.9801865   6.0000000  )
         2           Ti1 tau(   2) = (   3.2906075   1.4906267   6.0002472  )
         3           O1  tau(   3) = (   0.0006271   0.0005054   7.9858123  )
         4           O1  tau(   4) = (   3.2906025   0.0005020   7.3038282  )
         5           O1  tau(   5) = (   4.5942328   1.4918067   9.2879030  )
         6           O1  tau(   6) = (   1.9868534   1.4903216   9.2879459  )
         7           Ti1 tau(   7) = (   3.2907910   2.8959150   9.1758416  )
         8           Ti1 tau(   8) = (   0.0015273   1.4827037   9.2680791  )
         9           O1  tau(   9) = (   3.2949530   5.9481847  11.3666340  )
        10           O1  tau(  10) = (   0.0116148   5.9584955  10.6183126  )
        11           O1  tau(  11) = (   1.2732546   1.4916747  12.6876809  )
        12           O1  tau(  12) = (   5.3119445   1.4892451  12.6851550  )
        13           Ti1 tau(  13) = (   6.5688325   2.9465269  12.5174317  )
        14           Ti1 tau(  14) = (   3.2996026   1.2975375  12.7241829  )
        15           O1  tau(  15) = (   0.0172205   5.8793003  14.6619373  )
        16           O1  tau(  16) = (   3.2917661   0.0702926  14.0149596  )
        17           O1  tau(  17) = (   4.5643074   1.5920826  16.1346482  )
        18           O1  tau(  18) = (   2.0131957   1.5841813  16.0575481  )
        19           Ti1 tau(  19) = (   3.2662748   3.0407108  15.6947786  )
        20           Ti1 tau(  20) = (   0.0618610   1.3206105  15.7998127  )
        21           O1  tau(  21) = (   3.2904802   0.0005063   4.7018136  )
        22           O1  tau(  22) = (   0.0233933   0.1570098  17.1842078  )
        23           O1  tau(  23) = (   1.3043587   1.4918075   6.0039043  )
        24           O1  tau(  24) = (   5.2767064   1.4903225   6.0039473  )
        25           Ti1 tau(  25) = (   0.0000382   5.9609847   6.0000000  )
        26           Ti1 tau(  26) = (   3.2902200   4.4714249   6.0002472  )
        27           O1  tau(  27) = (   0.0002396   2.9813036   7.9858123  )
        28           O1  tau(  28) = (   3.2902150   2.9813002   7.3038282  )
        29           O1  tau(  29) = (   4.5938453   4.4726049   9.2879030  )
        30           O1  tau(  30) = (   1.9864658   4.4711199   9.2879459  )
        31           Ti1 tau(  31) = (   3.2891106   5.8743827   9.1763621  )
        32           Ti1 tau(  32) = (   0.0006254   4.4649316   9.2693709  )
        33           O1  tau(  33) = (   3.2948289   2.9949798  11.3176834  )
        34           O1  tau(  34) = (   0.0092240   2.9805883  10.6323155  )
        35           O1  tau(  35) = (   1.2828652   4.4571597  12.6432593  )
        36           O1  tau(  36) = (   5.3079144   4.4605214  12.6419564  )
        37           Ti1 tau(  37) = (   0.0266940   5.9154698  12.5044250  )
        38           Ti1 tau(  38) = (   3.3008436   4.3760658  12.4353554  )
        39           O1  tau(  39) = (   6.5507285   3.0461080  14.9005035  )
        40           O1  tau(  40) = (   3.2938476   3.0131494  13.9233183  )
        41           O1  tau(  41) = (   4.5350990   4.4864192  16.1518712  )
        42           O1  tau(  42) = (   1.9883536   4.4285065  16.1690201  )
        43           Ti1 tau(  43) = (   3.3916644   0.0784854  16.2809578  )
        44           Ti1 tau(  44) = (   0.0590441   4.5159846  16.0209683  )
        45           O1  tau(  45) = (   3.2900926   2.9813045   4.7018136  )
        46           O1  tau(  46) = (   1.3039711   4.4726057   6.0039043  )
        47           O1  tau(  47) = (   5.2763189   4.4711207   6.0039473  )
        48           N1  tau(  48) = (   6.2706434   3.3837210  18.0754458  )
        49           C1  tau(  49) = (   0.7642246   3.1223808  19.0622891  )
        50           H1  tau(  50) = (   1.3158356   4.0410886  19.2409436  )
        51           H1  tau(  51) = (   0.3597117   2.7583523  20.0089400  )
        52           H1  tau(  52) = (   1.4517744   2.3710259  18.6668870  )
        53           H1  tau(  53) = (   5.6745199   4.1349376  18.4206214  )
        54           H1  tau(  54) = (   5.6587021   2.5696541  18.0151127  )
        55           O1  tau(  55) = (   3.1972372   0.0910451  18.1323504  )
        56           H1  tau(  56) = (   2.2767176   0.1080423  18.4377142  )

     number of k points=    10  Fermi-Dirac smearing, width (Ry)=  0.0073
                       cart. coord. in units 2pi/alat
        k(    1) = (   0.0000000   0.0000000   0.0000000), wk =   0.1250000
        k(    2) = (   0.0000000   0.0419351   0.0000000), wk =   0.2500000
        k(    3) = (   0.0000000  -0.0838702   0.0000000), wk =   0.1250000
        k(    4) = (   0.0379955   0.0000049   0.0000000), wk =   0.2500000
        k(    5) = (   0.0379955   0.0419400   0.0000000), wk =   0.2500000
        k(    6) = (   0.0379955  -0.0838652   0.0000000), wk =   0.2500000
        k(    7) = (   0.0379955  -0.0419301   0.0000000), wk =   0.2500000
        k(    8) = (  -0.0759910  -0.0000099   0.0000000), wk =   0.1250000
        k(    9) = (  -0.0759910   0.0419252   0.0000000), wk =   0.2500000
        k(   10) = (  -0.0759910  -0.0838800   0.0000000), wk =   0.1250000

     Initial potential from superposition of free atoms

     starting charge  382.99914, renormalised to  399.00000

     negative rho (up, down):  1.588E-02 0.000E+00

     %%%%%%%%%%%%%%%%%%%%%%%%%%%%%%%%%%%%%%%%%%%%%%%%%%%%%%%%%%%%%%%%%%%%%%%%
     %                                                                      %
     % You are using vdW-DF, which was implemented by the Thonhauser group. %
     % Please cite the following two papers that made this development      %
     % possible and the two reviews that describe the various versions:     %
     %                                                                      %
     %   T. Thonhauser et al., PRL 115, 136402 (2015).                      %
     %   T. Thonhauser et al., PRB 76, 125112 (2007).                       %
     %   K. Berland et al., Rep. Prog. Phys. 78, 066501 (2015).             %
     %   D.C. Langreth et al., J. Phys.: Condens. Matter 21, 084203 (2009). %
     %                                                                      %
     %                                                                      %
     % If you are calculating the stress with vdW-DF, please also cite:     %
     %                                                                      %
     %   R. Sabatini et al., J. Phys.: Condens. Matter 24, 424209 (2012).   %
     %                                                                      %
     %%%%%%%%%%%%%%%%%%%%%%%%%%%%%%%%%%%%%%%%%%%%%%%%%%%%%%%%%%%%%%%%%%%%%%%%

     Adding external electric field

     Computed dipole along edir(3) :
        Dipole              -10.6962 Ry au,        -27.1870 Debye
        Dipole field         -0.0202 Ry au,

        Potential amp.        1.8711 Ry
        Total length         46.3494 bohr

     Starting wfcs are  302 atomic wfcs
  @ DRIVER MODE: Message from server: STATUS
  @ DRIVER MODE: Message from server: POSDATA
  @ DRIVER MODE: Reading and sharing cell
  @ DRIVER MODE: Reading and sharing positions
  @ DRIVER MODE: Received positions

     Self-consistent Calculation

     iteration #  1     ecut=    29.40 Ry     beta= 0.05
     Davidson diagonalization with overlap
     c_bands:  3 eigenvalues not converged
     c_bands:  2 eigenvalues not converged
     c_bands:  2 eigenvalues not converged
     c_bands:  5 eigenvalues not converged
     c_bands:  2 eigenvalues not converged
     c_bands:  5 eigenvalues not converged
     c_bands:  4 eigenvalues not converged
     c_bands:  3 eigenvalues not converged
     ethr =  1.00E-05,  avg # of iterations = 21.6

[...]

     total energy              =   -2438.26516576 Ry
     estimated scf accuracy    <    5770.44551399 Ry

     iteration #  2     ecut=    29.40 Ry     beta= 0.05
     Davidson diagonalization with overlap
     ethr =  1.00E-02,  avg # of iterations = 23.4

[...]

     iteration # 57     ecut=    29.40 Ry     beta= 0.05
     Davidson diagonalization with overlap
     c_bands:  1 eigenvalues not converged
     ethr =  3.71E-10,  avg # of iterations = 12.2

[...]

     total energy              =   -2955.26283319 Ry
     estimated scf accuracy    <       0.00000012 Ry

     iteration # 62     ecut=    29.40 Ry     beta= 0.05
     Davidson diagonalization with overlap
     ethr =  3.05E-11,  avg # of iterations =  9.1

     negative rho (up, down):  1.647E-02 0.000E+00

     Adding external electric field

     Computed dipole along edir(3) :
        Dipole                0.9738 Ry au,          2.4751 Debye
        Dipole field          0.0018 Ry au,

        Potential amp.       -0.1704 Ry
        Total length         46.3494 bohr

     End of self-consistent calculation

          k = 0.0000 0.0000 0.0000 ( 18029 PWs)   bands (ev):

   -55.6833 -55.6368 -55.6028 -55.5126 -55.5025 -55.4667 -55.4661 -55.4642
   -55.4320 -55.4185 -55.3678 -55.2728 -55.2270 -55.2127 -54.6124 -54.5783
   -32.1222 -32.0201 -32.0122 -31.9886 -31.9689 -31.9566 -31.9275 -31.9017
   -31.8946 -31.8830 -31.8827 -31.7901 -31.7894 -31.7748 -31.7493 -31.7457
   -31.7441 -31.7431 -31.7424 -31.7061 -31.6943 -31.6650 -31.6622 -31.6562
   -31.6505 -31.6444 -31.6365 -31.6061 -31.6041 -31.5986 -31.5931 -31.5898
   -31.5789 -31.5638 -31.5492 -31.5239 -31.4642 -31.4555 -31.4460 -31.4227
   -31.4193 -31.4145 -31.0184 -30.9319 -30.9095 -30.8360 -30.7496 -30.6378
   -16.5124 -16.2966 -16.1499 -15.9790 -15.8395 -15.8106 -15.7695 -15.5992
   -15.5065 -15.4427 -15.2425 -15.2215 -15.1755 -15.1642 -15.1589 -15.1361
   -15.1266 -15.0817 -15.0629 -15.0594 -15.0497 -15.0320 -14.9958 -14.9535
   -14.9101 -14.8891 -14.7766 -14.7204 -14.6798 -14.4685 -14.4005 -13.1110
   -12.9946  -9.9730  -6.0195  -4.5884  -4.0633  -3.7521  -3.6437  -3.5468
    -3.5357  -3.4139  -3.4034  -3.1659  -3.0424  -2.9829  -2.9050  -2.7829
    -2.7513  -2.6789  -2.6390  -2.5884  -2.5689  -2.5324  -2.4923  -2.4482
    -2.4233  -2.3956  -2.3625  -2.3063  -2.2947  -2.1964  -2.1820  -2.1595
    -2.0536  -2.0127  -1.9726  -1.9545  -1.9492  -1.9303  -1.8916  -1.8855
    -1.8656  -1.7875  -1.7185  -1.6720  -1.6375  -1.6098  -1.3320  -1.2464
    -1.2030  -1.1884  -1.0846  -1.0609  -1.0323  -1.0183  -0.9816  -0.9658
    -0.8533  -0.8368  -0.7681  -0.7186  -0.7035  -0.6670  -0.5476  -0.5112
    -0.4607  -0.4205  -0.3704  -0.3527  -0.3479  -0.2533  -0.2267  -0.1918
    -0.0834  -0.0667  -0.0042   0.0811   0.0907   0.1421   0.1656   0.2259
     0.2302   0.2850   0.3147   0.3370   0.3902   0.4227   0.4589   0.4919
     0.5092   0.6113   0.6866   0.6994   0.7962   0.8710   0.9245   1.0287
     1.0964   1.3605   1.4141   1.4376   1.6060   1.9813   2.0267   3.4447
     3.5936   3.6092   3.6839   3.6965   3.7735   3.9340   3.9591   4.0949
     4.1331

[...]

          k = 0.0380-0.0419 0.0000 ( 17876 PWs)   bands (ev):

[...]

          k =-0.0760-0.0000 0.0000 ( 17886 PWs)   bands (ev):

[...]

          k =-0.0760-0.0839 0.0000 ( 17948 PWs)   bands (ev):

   -55.6823 -55.6199 -55.6196 -55.5113 -55.4914 -55.4752 -55.4676 -55.4496
   -55.4479 -55.4122 -55.3742 -55.2681 -55.2280 -55.2173 -54.5958 -54.5948
   -31.9531 -31.9452 -31.9376 -31.9374 -31.9304 -31.9131 -31.9128 -31.8970
   -31.8525 -31.8114 -31.7933 -31.7805 -31.7764 -31.7748 -31.7531 -31.7435
   -31.7397 -31.7392 -31.7289 -31.7253 -31.7176 -31.7167 -31.7021 -31.6781
   -31.6720 -31.6675 -31.6580 -31.6476 -31.6325 -31.6315 -31.6293 -31.6240
   -31.6224 -31.5970 -31.5964 -31.5554 -31.5308 -31.4956 -31.4686 -31.4637
   -31.4484 -31.4186 -30.9226 -30.9218 -30.8319 -30.8306 -30.7932 -30.7924
   -16.4825 -15.9391 -15.8580 -15.7449 -15.6218 -15.6085 -15.4974 -15.4145
   -15.4109 -15.3804 -15.3497 -15.3217 -15.3124 -15.2953 -15.2484 -15.2049
   -15.1698 -15.1420 -15.1400 -15.0941 -15.0871 -15.0758 -15.0632 -15.0409
   -15.0070 -14.9572 -14.9428 -14.9041 -14.7662 -14.6905 -14.5909 -13.0965
   -13.0962  -9.9750  -5.9994  -4.5859  -4.0281  -3.7038  -3.0564  -2.9601
    -2.8482  -2.7247  -2.7172  -2.7002  -2.6426  -2.6117  -2.5856  -2.5445
    -2.4870  -2.4669  -2.4471  -2.4302  -2.4084  -2.3906  -2.3820  -2.3768
    -2.3403  -2.3226  -2.3142  -2.2730  -2.2654  -2.2496  -2.2291  -2.2115
    -2.1807  -2.1765  -2.1471  -2.0956  -2.0462  -1.9723  -1.8795  -1.7982
    -1.7871  -1.7687  -1.7189  -1.7123  -1.6669  -1.6589  -1.6344  -1.5474
    -1.4368  -1.3863  -1.2756  -1.2553  -1.2289  -1.1886  -1.1364  -1.1220
    -1.0768  -1.0463  -0.9864  -0.8855  -0.8553  -0.8002  -0.6868  -0.6489
    -0.6107  -0.5907  -0.5785  -0.5535  -0.5367  -0.4972  -0.4691  -0.4202
    -0.3814  -0.3474  -0.3205  -0.2950  -0.2479  -0.1465  -0.0522  -0.0148
     0.0865   0.1330   0.1752   0.2068   0.2689   0.4036   0.4303   0.5265
     0.5411   0.5701   0.6718   0.6820   0.7829   0.8070   0.8453   0.8862
     0.9110   0.9321   0.9518   1.7757   1.7842   1.8470   1.8471   3.7375
     3.9301   3.9452   3.9614   4.0061   4.0133   4.0403   4.0461   4.1126
     4.1251

     the Fermi energy is     3.4836 ev

!    total energy              =   -2955.26289153 Ry
     estimated scf accuracy    <       0.00000007 Ry
     smearing contrib. (-TS)   =      -0.01953182 Ry
     internal energy E=F+TS    =   -2955.24335971 Ry

     The total energy is F=E-TS. E is the sum of the following terms:
     one-electron contribution =  -23741.52327430 Ry
     hartree contribution      =   11962.87335011 Ry
     xc contribution           =    -489.73287551 Ry
     ewald contribution        =    9313.13765047 Ry
     electric field correction =       0.00178952 Ry

     convergence has been achieved in  62 iterations

     Forces acting on atoms (cartesian axes, Ry/au):

     atom    1 type  1   force =     0.00008348   -0.00029602    0.09416591
     atom    2 type  1   force =    -0.00003888    0.00042833   -0.17541014
     atom    3 type  2   force =     0.00003919   -0.00033565   -0.02109357
     atom    4 type  2   force =     0.00002399   -0.00197661    0.05458875
     atom    5 type  2   force =    -0.00674011   -0.00244949    0.00300914
     atom    6 type  2   force =     0.00834640   -0.00187236    0.00243031
     atom    7 type  1   force =    -0.00018078   -0.00404090    0.00896561
     atom    8 type  1   force =     0.00031908    0.00081924    0.00311932
     atom    9 type  2   force =    -0.00057995    0.00058332   -0.00016558
     atom   10 type  2   force =    -0.00139219    0.00173308   -0.00929315
     atom   11 type  2   force =     0.00003547   -0.00015613    0.00037246
     atom   12 type  2   force =    -0.00005329   -0.00010944   -0.00031571
     atom   13 type  1   force =    -0.00048687   -0.00025126    0.00004638
     atom   14 type  1   force =     0.00001248   -0.00032770   -0.00008608
     atom   15 type  2   force =    -0.00031541   -0.00002240   -0.00013946
     atom   16 type  2   force =     0.00032374   -0.00052912   -0.00042568
     atom   17 type  2   force =     0.00044125   -0.00015602   -0.00077082
     atom   18 type  2   force =    -0.00046601    0.00012059   -0.00016046
     atom   19 type  1   force =     0.00046412   -0.00062396    0.00079047
     atom   20 type  1   force =     0.00050943    0.00029465    0.00037947
     atom   21 type  2   force =     0.00007333    0.00004975    0.10329708
     atom   22 type  2   force =    -0.00048709    0.00036875    0.00020821
     atom   23 type  2   force =    -0.07189405   -0.00019663   -0.02721378
     atom   24 type  2   force =     0.07182404    0.00024263   -0.02726347
     atom   25 type  1   force =     0.00002237   -0.00024094    0.09384738
     atom   26 type  1   force =    -0.00005736   -0.00131391   -0.17560315
     atom   27 type  2   force =     0.00015499   -0.00011565   -0.01984964
     atom   28 type  2   force =     0.00006982   -0.00032399    0.04986867
     atom   29 type  2   force =    -0.00613119    0.00232057    0.00251398
     atom   30 type  2   force =     0.00762383    0.00268656    0.00196331
     atom   31 type  1   force =     0.00002245    0.00840747   -0.00275061
     atom   32 type  1   force =     0.00011854   -0.00236148    0.00259945
     atom   33 type  2   force =     0.00005290   -0.00000865   -0.00004741
     atom   34 type  2   force =    -0.00211730   -0.00248961   -0.01006595
     atom   35 type  2   force =    -0.00014439   -0.00002226    0.00052471
     atom   36 type  2   force =    -0.00007063    0.00006611   -0.00008314
     atom   37 type  1   force =     0.00015989   -0.00008115   -0.00024512
     atom   38 type  1   force =     0.00005148   -0.00018593    0.00024051
     atom   39 type  2   force =    -0.00012733    0.00008832   -0.00025388
     atom   40 type  2   force =     0.00017063   -0.00025297   -0.00010902
     atom   41 type  2   force =    -0.00037092   -0.00073165    0.00063845
     atom   42 type  2   force =     0.00050707    0.00006764   -0.00021440
     atom   43 type  1   force =    -0.00079907   -0.00062030    0.00024896
     atom   44 type  1   force =     0.00044660    0.00041974   -0.00024626
     atom   45 type  2   force =     0.00006858   -0.00007539    0.10307143
     atom   46 type  2   force =    -0.07191265   -0.00003835   -0.02724810
     atom   47 type  2   force =     0.07187441    0.00040199   -0.02729440
     atom   48 type  3   force =     0.00003826    0.00022493    0.00029781
     atom   49 type  4   force =     0.00475519   -0.00605631   -0.00200797
     atom   50 type  5   force =     0.00115520    0.00025127   -0.00056780
     atom   51 type  5   force =    -0.00039304    0.00103009    0.00032219
     atom   52 type  5   force =    -0.00431197    0.00667166    0.00204828
     atom   53 type  5   force =    -0.00035206    0.00059215   -0.00067582
     atom   54 type  5   force =     0.00032135   -0.00000397    0.00001906
     atom   55 type  2   force =    -0.00046648    0.00036591    0.00046510
     atom   56 type  5   force =    -0.00022053    0.00003145   -0.00044184

     Total force =     0.362389     Total SCF correction =     0.000732
  @ DRIVER MODE: Message from server: STATUS
  @ DRIVER MODE: Message from server: GETFORCE
  @ DRIVER MODE: Returning v,forces,stress,ensemble

     Writing output data file ./calc.save/
  @ DRIVER MODE: Message from server: EXIT
  @ DRIVE MODE: Exiting

     General routines

     Parallel routines

   This run was terminated on:  22:14:46  23Sep2021

   JOB DONE.