     Program PWSCF v.6.7GPU starts on 16Jul2021 at  2:28:36

     R & G space division:  proc/nbgrp/npool/nimage =      16
     Reading input from /storage/home/hcoda1/3/ntian30/research/carbon/15Jul_vib/ads_slab/CH3N2_b/out_0017/pw.inp
Warning: card &CELL ignored
Warning: card   CELL_DYNAMICS='IPI', ignored
Warning: card / ignored

     Current dimensions of program PWSCF are:
     Max number of different atomic species (ntypx) = 10
     Max number of k-points (npk) =  40000
     Max angular momentum in pseudopotentials (lmaxx) =  3
     Presently no symmetry can be used with electric field

     Message from routine cell_base_init:
     DEPRECATED: use true lattice parameter, not A to a.u. conversion factor

     IMPORTANT: XC functional enforced from input :
     Exchange-correlation= BEEF-VDW
                           (   1   4  43  14   2   0   0)
     Any further DFT definition will be discarded
     Please, verify this is what you really want

  @ DRIVER MODE: Connecting to
 qe_1139763_2351645.sched-torque.pace.gatech.edupu6avf6u_scratch
  using UNIX socket
  @ DRIVER MODE: Message from server: STATUS
  @ DRIVER MODE: Message from server: INIT
  @ DRIVER MODE: Receiving replica           0          -1
  @ DRIVER MODE: Receiving encoded integer          25
  @ DRIVER MODE:  SCF:  T  FORCE:  T  STRESS:  F  VC:  F  ENSEMBLE:  F
  @ DRIVER MODE:  SCF:  T  FORCE:  T  STRESS:  F  VC:  F  ENSEMBLE:  F

     Using Slab Decomposition

     bravais-lattice index     =            0
     lattice parameter (alat)  =       1.8897  a.u.
     unit-cell volume          =    6658.9804 (a.u.)^3
     number of atoms/cell      =           53
     number of atomic types    =            5
     number of electrons       =       395.00
     number of Kohn-Sham states=          207
     kinetic-energy cutoff     =      29.3995  Ry
     charge density cutoff     =     293.9946  Ry
     scf convergence threshold =      7.3E-08
     mixing beta               =       0.0500
     number of iterations used =            8  plain     mixing
     Exchange-correlation= BEEF-VDW
                           (   1   4  43  14   2   0   0)

     celldm(1)=   1.889726  celldm(2)=   0.000000  celldm(3)=   0.000000
     celldm(4)=   0.000000  celldm(5)=   0.000000  celldm(6)=   0.000000

     crystal axes: (cart. coord. in units of alat)
               a(1) = (   6.579727   0.000000   0.000000 )
               a(2) = (  -0.000775   5.961596   0.000000 )
               a(3) = (   0.000000   0.000000  25.155947 )

     reciprocal axes: (cart. coord. in units 2 pi/alat)
               b(1) = (  0.151982  0.000020  0.000000 )
               b(2) = (  0.000000  0.167740  0.000000 )
               b(3) = (  0.000000  0.000000  0.039752 )

     PseudoPot. # 1 for Ti read from file:
     /storage/coda1/p-amedford6/0/shared/rich_project_chbe-medford/medford-share/data/pseudos_module/espresso/nninc/pbe/van/Ti.UPF
     MD5 check sum: 8e4df49b7f0d34bbd5052bf3f5ea0213
     Pseudo is Ultrasoft, Zval = 12.0
     Generated by new atomic code, or converted to UPF format
     Using radial grid of  851 points,  6 beta functions with:
                l(1) =   0
                l(2) =   0
                l(3) =   1
                l(4) =   1
                l(5) =   2
                l(6) =   2
     Q(r) pseudized with  8 coefficients,  rinner =    1.000   1.000   1.000
                                                       1.000   1.000

     PseudoPot. # 2 for O  read from file:
     /storage/coda1/p-amedford6/0/shared/rich_project_chbe-medford/medford-share/data/pseudos_module/espresso/nninc/pbe/van/O.UPF
     MD5 check sum: 78c19812648e8988a0fe644b0f25305e
     Pseudo is Ultrasoft, Zval =  6.0
     Generated by new atomic code, or converted to UPF format
     Using radial grid of  737 points,  4 beta functions with:
                l(1) =   0
                l(2) =   0
                l(3) =   1
                l(4) =   1
     Q(r) pseudized with  8 coefficients,  rinner =    0.800   0.800   0.800

     PseudoPot. # 3 for N  read from file:
     /storage/coda1/p-amedford6/0/shared/rich_project_chbe-medford/medford-share/data/pseudos_module/espresso/nninc/pbe/van/N.UPF
     MD5 check sum: 90d10febe142ad51ac9d5be1deb811c4
     Pseudo is Ultrasoft, Zval =  5.0
     Generated by new atomic code, or converted to UPF format
     Using radial grid of  729 points,  4 beta functions with:
                l(1) =   0
                l(2) =   0
                l(3) =   1
                l(4) =   1
     Q(r) pseudized with  8 coefficients,  rinner =    0.800   0.800   0.800

     PseudoPot. # 4 for C  read from file:
     /storage/coda1/p-amedford6/0/shared/rich_project_chbe-medford/medford-share/data/pseudos_module/espresso/nninc/pbe/van/C.UPF
     MD5 check sum: 1a69bf6b8db32088f5b2163dbdb77a27
     Pseudo is Ultrasoft, Zval =  4.0
     Generated by new atomic code, or converted to UPF format
     Using radial grid of  721 points,  4 beta functions with:
                l(1) =   0
                l(2) =   0
                l(3) =   1
                l(4) =   1
     Q(r) pseudized with  8 coefficients,  rinner =    0.800   0.800   0.800

     PseudoPot. # 5 for H  read from file:
     /storage/coda1/p-amedford6/0/shared/rich_project_chbe-medford/medford-share/data/pseudos_module/espresso/nninc/pbe/van/H.UPF
     MD5 check sum: b5ee9d7bfd3a09ee7748110bda690ff7
     Pseudo is Ultrasoft, Zval =  1.0
     Generated by new atomic code, or converted to UPF format
     Using radial grid of  615 points,  1 beta functions with:
                l(1) =   0
     Q(r) pseudized with  8 coefficients,  rinner =    0.800

     atomic species   valence    mass     pseudopotential
        Ti1           12.00    47.86700     Ti( 1.00)
        O1             6.00    15.99900     O ( 1.00)
        N1             5.00    14.00700     N ( 1.00)
        C1             4.00    12.01100     C ( 1.00)
        H1             1.00     1.00800     H ( 1.00)

     Starting magnetic structure
     atomic species   magnetization
        Ti1          0.000
        O1           0.000
        N1           0.000
        C1           0.025
        H1           0.000

     No symmetry found

   Cartesian axes

     site n.     atom                  positions (alat units)
         1           Ti1 tau(   1) = (   0.0004258   2.9801865   6.0000000  )
         2           Ti1 tau(   2) = (   3.2906075   1.4906267   6.0002472  )
         3           O1  tau(   3) = (   0.0006271   0.0005054   7.9858123  )
         4           O1  tau(   4) = (   3.2906025   0.0005020   7.3038282  )
         5           O1  tau(   5) = (   4.5942328   1.4918067   9.2879030  )
         6           O1  tau(   6) = (   1.9868534   1.4903216   9.2879459  )
         7           Ti1 tau(   7) = (   3.2907910   2.8959150   9.1758416  )
         8           Ti1 tau(   8) = (   0.0015273   1.4827037   9.2680791  )
         9           O1  tau(   9) = (   3.3037365   0.0094216  11.3222111  )
        10           O1  tau(  10) = (   0.0116148   5.9584955  10.6183126  )
        11           O1  tau(  11) = (   1.3152514   1.5075076  12.6320051  )
        12           O1  tau(  12) = (   5.3186361   1.4995162  12.6508707  )
        13           Ti1 tau(  13) = (   6.5540705   2.9956815  12.5884341  )
        14           Ti1 tau(  14) = (   3.2234832   1.4927074  12.4921739  )
        15           O1  tau(  15) = (   0.0610261   5.9052480  14.6017706  )
        16           O1  tau(  16) = (   3.2936532   0.0132264  13.8830087  )
        17           O1  tau(  17) = (   4.5722397   1.5061520  16.0138922  )
        18           O1  tau(  18) = (   2.0767725   1.5295127  16.0808449  )
        19           Ti1 tau(  19) = (   3.3650854   3.0251465  15.6907462  )
        20           Ti1 tau(  20) = (   0.0387768   1.3037779  15.7216176  )
        21           O1  tau(  21) = (   3.2904802   0.0005063   4.7018136  )
        22           O1  tau(  22) = (   0.0189486   0.1070799  17.1824039  )
        23           O1  tau(  23) = (   1.3043587   1.4918075   6.0039043  )
        24           O1  tau(  24) = (   5.2767064   1.4903225   6.0039473  )
        25           Ti1 tau(  25) = (   0.0000382   5.9609847   6.0000000  )
        26           Ti1 tau(  26) = (   3.2902200   4.4714249   6.0002472  )
        27           O1  tau(  27) = (   0.0002396   2.9813036   7.9858123  )
        28           O1  tau(  28) = (   3.2902150   2.9813002   7.3038282  )
        29           O1  tau(  29) = (   4.5938453   4.4726049   9.2879030  )
        30           O1  tau(  30) = (   1.9864658   4.4711199   9.2879459  )
        31           Ti1 tau(  31) = (   3.2891106   5.8743827   9.1763621  )
        32           Ti1 tau(  32) = (   0.0006254   4.4649316   9.2693709  )
        33           O1  tau(  33) = (   3.3043114   2.9829305  11.3227053  )
        34           O1  tau(  34) = (   0.0092240   2.9805883  10.6323155  )
        35           O1  tau(  35) = (   1.3131995   4.4620516  12.6081187  )
        36           O1  tau(  36) = (   5.3117129   4.4692194  12.6284301  )
        37           Ti1 tau(  37) = (   6.5303063   5.9583428  12.5400172  )
        38           Ti1 tau(  38) = (   3.2255477   4.4746212  12.4748647  )
        39           O1  tau(  39) = (   0.0377805   3.0059521  14.8845374  )
        40           O1  tau(  40) = (   3.3120027   2.9986483  13.8863452  )
        41           O1  tau(  41) = (   4.5434534   4.5277214  16.0148975  )
        42           O1  tau(  42) = (   2.1165747   4.4940517  16.0783766  )
        43           Ti1 tau(  43) = (   3.3042555   0.0241951  15.7004812  )
        44           Ti1 tau(  44) = (   0.0495666   4.4505358  16.3362958  )
        45           O1  tau(  45) = (   3.2900926   2.9813045   4.7018136  )
        46           O1  tau(  46) = (   1.3039711   4.4726057   6.0039043  )
        47           O1  tau(  47) = (   5.2763189   4.4711207   6.0039473  )
        48           N1  tau(  48) = (   0.5348212   3.4288502  18.0689430  )
        49           C1  tau(  49) = (   1.3556880   3.0079929  19.2215664  )
        50           H1  tau(  50) = (   1.4862090   3.8900195  19.8396782  )
        51           H1  tau(  51) = (   0.8469181   2.2141957  19.7647163  )
        52           H1  tau(  52) = (   2.3296892   2.6851793  18.8624704  )
        53           N1  tau(  53) = (   5.9145885   3.2636146  17.9655992  )

     number of k points=    10  Fermi-Dirac smearing, width (Ry)=  0.0073
                       cart. coord. in units 2pi/alat
        k(    1) = (   0.0000000   0.0000000   0.0000000), wk =   0.0625000
        k(    2) = (   0.0000000   0.0419351   0.0000000), wk =   0.1250000
        k(    3) = (   0.0000000  -0.0838702   0.0000000), wk =   0.0625000
        k(    4) = (   0.0379955   0.0000049   0.0000000), wk =   0.1250000
        k(    5) = (   0.0379955   0.0419400   0.0000000), wk =   0.1250000
        k(    6) = (   0.0379955  -0.0838652   0.0000000), wk =   0.1250000
        k(    7) = (   0.0379955  -0.0419301   0.0000000), wk =   0.1250000
        k(    8) = (  -0.0759910  -0.0000099   0.0000000), wk =   0.0625000
[...]
        k(   10) = (  -0.0759910  -0.0838800   0.0000000), wk =   0.0625000

     Initial potential from superposition of free atoms

     starting charge  378.99916, renormalised to  395.00000

     negative rho (up, down):  8.053E-03 8.060E-03

     %%%%%%%%%%%%%%%%%%%%%%%%%%%%%%%%%%%%%%%%%%%%%%%%%%%%%%%%%%%%%%%%%%%%%%%%
     %                                                                      %
     % You are using vdW-DF, which was implemented by the Thonhauser group. %
     % Please cite the following two papers that made this development      %
     % possible and the two reviews that describe the various versions:     %
     %                                                                      %
     %   T. Thonhauser et al., PRL 115, 136402 (2015).                      %
     %   T. Thonhauser et al., PRB 76, 125112 (2007).                       %
     %   K. Berland et al., Rep. Prog. Phys. 78, 066501 (2015).             %
     %   D.C. Langreth et al., J. Phys.: Condens. Matter 21, 084203 (2009). %
     %                                                                      %
     %                                                                      %
     % If you are calculating the stress with vdW-DF, please also cite:     %
     %                                                                      %
     %   R. Sabatini et al., J. Phys.: Condens. Matter 24, 424209 (2012).   %
     %                                                                      %
     %%%%%%%%%%%%%%%%%%%%%%%%%%%%%%%%%%%%%%%%%%%%%%%%%%%%%%%%%%%%%%%%%%%%%%%%

     Adding external electric field

     Computed dipole along edir(3) :
        Dipole               -8.5778 Ry au,        -21.8026 Debye
        Dipole field         -0.0162 Ry au,

        Potential amp.        1.5006 Ry
        Total length         46.3494 bohr

[...]

     Starting wfcs are  299 atomic wfcs
  @ DRIVER MODE: Message from server: STATUS
  @ DRIVER MODE: Message from server: POSDATA
  @ DRIVER MODE: Reading and sharing cell
  @ DRIVER MODE: Reading and sharing positions
  @ DRIVER MODE: Received positions

     Self-consistent Calculation

     iteration #  1     ecut=    29.40 Ry     beta= 0.05
     Davidson diagonalization with overlap
     c_bands:  1 eigenvalues not converged
     c_bands:  1 eigenvalues not converged
     c_bands:  1 eigenvalues not converged
     c_bands:  3 eigenvalues not converged
     c_bands:  1 eigenvalues not converged
     c_bands:  3 eigenvalues not converged
     c_bands:  1 eigenvalues not converged
     c_bands:  2 eigenvalues not converged
     c_bands:  1 eigenvalues not converged
     c_bands:  1 eigenvalues not converged
     c_bands:  1 eigenvalues not converged
     c_bands:  3 eigenvalues not converged
     c_bands:  1 eigenvalues not converged
     c_bands:  3 eigenvalues not converged
     c_bands:  1 eigenvalues not converged
     c_bands:  2 eigenvalues not converged
     ethr =  1.00E-05,  avg # of iterations = 19.2

[...]

     total energy              =   -2599.55837855 Ry
     estimated scf accuracy    <    3761.46961008 Ry

     total magnetization       =     0.00 Bohr mag/cell
     absolute magnetization    =     0.02 Bohr mag/cell

     iteration #  2     ecut=    29.40 Ry     beta= 0.05
     Davidson diagonalization with overlap
     ethr =  1.00E-02,  avg # of iterations = 22.4

[...]

     iteration # 79     ecut=    29.40 Ry     beta= 0.05
     Davidson diagonalization with overlap
     c_bands:  1 eigenvalues not converged
     c_bands:  1 eigenvalues not converged
     ethr =  1.92E-11,  avg # of iterations = 16.0

[...]

     total energy              =   -2939.12589297 Ry
     estimated scf accuracy    <       0.00000009 Ry

[...]

     iteration # 80     ecut=    29.40 Ry     beta= 0.05
     Davidson diagonalization with overlap
     ethr =  1.92E-11,  avg # of iterations =  4.8

     negative rho (up, down):  8.125E-03 8.124E-03

[...]

     Adding external electric field

     Computed dipole along edir(3) :
        Dipole                0.9120 Ry au,          2.3181 Debye
        Dipole field          0.0017 Ry au,

        Potential amp.       -0.1595 Ry
        Total length         46.3494 bohr

     Magnetic moment per site  (integrated on atomic sphere of radius R)
     atom   1 (R=0.727)  charge=  7.9485  magn= -0.0099
     atom   2 (R=0.727)  charge=  7.9316  magn= -0.0003
     atom   3 (R=0.727)  charge=  4.9369  magn=  0.0008
     atom   4 (R=0.727)  charge=  4.9738  magn=  0.0001
     atom   5 (R=0.727)  charge=  4.9424  magn=  0.0001
     atom   6 (R=0.727)  charge=  4.9431  magn=  0.0001
     atom   7 (R=0.727)  charge=  7.9299  magn= -0.0004
     atom   8 (R=0.727)  charge=  7.9249  magn= -0.0035
     atom   9 (R=0.727)  charge=  4.9562  magn=  0.0001
     atom  10 (R=0.727)  charge=  4.9398  magn=  0.0002
     atom  11 (R=0.727)  charge=  4.9438  magn=  0.0001
     atom  12 (R=0.727)  charge=  4.9403  magn=  0.0001
     atom  13 (R=0.727)  charge=  7.9199  magn= -0.0008
     atom  14 (R=0.727)  charge=  7.9286  magn= -0.0002
     atom  15 (R=0.727)  charge=  4.9368  magn= -0.0000
     atom  16 (R=0.727)  charge=  4.9585  magn=  0.0000
     atom  17 (R=0.727)  charge=  4.9269  magn= -0.0000
     atom  18 (R=0.727)  charge=  4.9196  magn= -0.0000
     atom  19 (R=0.727)  charge=  7.9516  magn=  0.0000
     atom  20 (R=0.727)  charge=  7.9765  magn= -0.0000
     atom  21 (R=0.727)  charge=  4.8265  magn=  0.0003
     atom  22 (R=0.727)  charge=  4.9097  magn= -0.0001
     atom  23 (R=0.727)  charge=  4.9340  magn=  0.0012
     atom  24 (R=0.727)  charge=  4.9340  magn=  0.0012
     atom  25 (R=0.727)  charge=  7.9485  magn= -0.0098
     atom  26 (R=0.727)  charge=  7.9316  magn= -0.0003
     atom  27 (R=0.727)  charge=  4.9364  magn=  0.0009
     atom  28 (R=0.727)  charge=  4.9740  magn=  0.0001
     atom  29 (R=0.727)  charge=  4.9433  magn=  0.0001
     atom  30 (R=0.727)  charge=  4.9439  magn=  0.0001
     atom  31 (R=0.727)  charge=  7.9304  magn= -0.0004
     atom  32 (R=0.727)  charge=  7.9251  magn= -0.0035
     atom  33 (R=0.727)  charge=  4.9553  magn=  0.0001
     atom  34 (R=0.727)  charge=  4.9242  magn=  0.0003
     atom  35 (R=0.727)  charge=  4.9448  magn=  0.0001
     atom  36 (R=0.727)  charge=  4.9438  magn=  0.0001
     atom  37 (R=0.727)  charge=  7.9230  magn= -0.0008
     atom  38 (R=0.727)  charge=  7.9295  magn= -0.0003
     atom  39 (R=0.727)  charge=  4.9078  magn= -0.0001
     atom  40 (R=0.727)  charge=  4.9611  magn=  0.0000
     atom  41 (R=0.727)  charge=  4.9355  magn= -0.0000
     atom  42 (R=0.727)  charge=  4.9348  magn= -0.0000
     atom  43 (R=0.727)  charge=  7.9537  magn=  0.0000
     atom  44 (R=0.727)  charge=  7.9726  magn=  0.0000
     atom  45 (R=0.727)  charge=  4.8265  magn=  0.0000
     atom  46 (R=0.727)  charge=  4.9340  magn=  0.0012
     atom  47 (R=0.727)  charge=  4.9341  magn=  0.0012
     atom  48 (R=0.501)  charge=  1.9977  magn= -0.0000
     atom  49 (R=0.448)  charge=  0.8442  magn=  0.0000
     atom  50 (R=0.448)  charge=  0.5014  magn= -0.0000
     atom  51 (R=0.448)  charge=  0.5007  magn= -0.0000
     atom  52 (R=0.448)  charge=  0.5020  magn= -0.0000
     atom  53 (R=0.501)  charge=  1.9556  magn= -0.0000

     End of self-consistent calculation

 ------ SPIN UP ------------

          k = 0.0000 0.0000 0.0000 ( 18029 PWs)   bands (ev):

   -55.7694 -55.7663 -55.7334 -55.7322 -55.6826 -55.6343 -55.5931 -55.5591
   -55.5548 -55.5212 -55.5197 -55.4466 -54.9563 -54.8072 -54.7556 -54.7216
   -32.3183 -32.2555 -32.1742 -32.0911 -32.0570 -32.0558 -32.0468 -32.0110
   -32.0051 -31.9701 -31.9397 -31.9212 -31.9166 -31.9044 -31.8813 -31.8782
   -31.8772 -31.8767 -31.8644 -31.8340 -31.8213 -31.8206 -31.8002 -31.7893
   -31.7861 -31.7818 -31.7801 -31.7547 -31.7410 -31.7346 -31.7223 -31.7098
   -31.7032 -31.6686 -31.6362 -31.5639 -31.4925 -31.3380 -31.1674 -31.1625
   -31.1050 -31.0741 -31.0662 -31.0518 -30.9793 -30.9130 -30.8928 -30.7817
   -19.4386 -16.5171 -16.2525 -15.9673 -15.9153 -15.8410 -15.7476 -15.6246
   -15.5292 -15.4103 -15.3715 -15.3160 -15.3080 -15.2636 -15.2366 -15.2326
   -15.2063 -15.1988 -15.1340 -15.1265 -15.0760 -15.0643 -15.0165 -14.9814
   -14.9699 -14.9151 -14.8459 -14.8046 -14.6855 -14.1600 -13.2569 -13.1404
   -12.3197  -7.2603  -4.9404  -4.7990  -3.8993  -3.7568  -3.7037  -3.6843
    -3.6401  -3.4392  -3.3517  -3.2837  -3.0437  -2.9524  -2.9279  -2.9172
    -2.8682  -2.7110  -2.6696  -2.6041  -2.5880  -2.5617  -2.5401  -2.5319
    -2.4969  -2.4864  -2.4640  -2.4281  -2.3265  -2.2128  -2.1834  -2.1059
    -2.0894  -2.0748  -2.0442  -2.0344  -2.0246  -2.0150  -1.9968  -1.9590
    -1.8951  -1.8518  -1.7865  -1.7020  -1.5607  -1.5391  -1.4606  -1.3849
    -1.3052  -1.2626  -1.2408  -1.2123  -1.1723  -1.0929  -1.0668  -0.9207
    -0.8237  -0.7908  -0.7735  -0.7312  -0.6951  -0.5929  -0.5713  -0.5423
    -0.5335  -0.5054  -0.4316  -0.3752  -0.2438  -0.2126  -0.2087  -0.1710
    -0.1001  -0.0462   0.0071   0.0562   0.0641   0.0997   0.1601   0.1850
     0.1897   0.2326   0.2750   0.3499   0.3762   0.4502   0.4542   0.5183
     0.5621   0.6438   0.7512   0.8738   1.0169   1.1539   1.1990   1.2680
     1.3628   1.4596   1.8379   1.8838   2.1442   3.3432   3.4564   3.4701
     3.4839   3.5895   3.8016   3.8190   3.8682   3.8889   3.8966

[...]

          k =-0.0760-0.0000 0.0000 ( 17886 PWs)   bands (ev):

[...]

 ------ SPIN DOWN ----------

[...]

          k = 0.0380-0.0419 0.0000 ( 17876 PWs)   bands (ev):

[...]

          k =-0.0760-0.0839 0.0000 ( 17948 PWs)   bands (ev):

   -55.7678 -55.7673 -55.7526 -55.7511 -55.6769 -55.6429 -55.5823 -55.5820
   -55.5390 -55.5386 -55.5151 -55.4509 -54.9549 -54.8082 -54.7390 -54.7389
   -32.1222 -32.1186 -32.0786 -32.0783 -32.0634 -32.0629 -32.0199 -32.0049
   -31.9986 -31.9900 -31.9212 -31.9162 -31.9077 -31.9015 -31.8888 -31.8885
   -31.8822 -31.8803 -31.8792 -31.8722 -31.8548 -31.8524 -31.8512 -31.8135
   -31.7843 -31.7840 -31.7825 -31.7684 -31.7682 -31.7612 -31.7604 -31.7561
   -31.7549 -31.7363 -31.7118 -31.6608 -31.4396 -31.3201 -31.1692 -31.1589
   -31.0832 -31.0652 -31.0651 -30.9754 -30.9752 -30.9366 -30.9365 -30.9157
   -19.4365 -15.9175 -15.9113 -15.7495 -15.7148 -15.6496 -15.6408 -15.5729
   -15.5059 -15.4606 -15.4555 -15.3408 -15.3388 -15.3239 -15.3027 -15.2484
   -15.2321 -15.2310 -15.2268 -15.2191 -15.2082 -15.1806 -15.1498 -15.0989
   -15.0939 -15.0737 -15.0630 -14.9419 -14.5321 -14.4703 -13.2425 -13.2422
   -12.3222  -7.2471  -4.9420  -4.7973  -3.6284  -3.2067  -3.1904  -3.0029
    -2.9192  -2.9080  -2.8929  -2.7402  -2.7282  -2.7113  -2.6535  -2.6466
    -2.6370  -2.6003  -2.5842  -2.5603  -2.5203  -2.5147  -2.4678  -2.4651
    -2.4492  -2.4405  -2.4085  -2.4035  -2.3894  -2.3751  -2.3371  -2.2812
    -2.2426  -2.2154  -2.1872  -2.0910  -2.0299  -1.9941  -1.9270  -1.9184
    -1.8674  -1.8426  -1.8281  -1.7616  -1.6914  -1.6619  -1.5777  -1.4861
    -1.4677  -1.4523  -1.3337  -1.3198  -1.2451  -1.2212  -1.1373  -1.1203
    -1.0806  -0.9701  -0.9467  -0.9154  -0.8807  -0.8367  -0.7730  -0.7358
    -0.7338  -0.6858  -0.6415  -0.5854  -0.5243  -0.5123  -0.4966  -0.4877
    -0.4245  -0.3909  -0.3689  -0.2865  -0.2714  -0.1896  -0.0459  -0.0131
     0.1444   0.1936   0.3025   0.3302   0.4210   0.4426   0.5374   0.5407
     0.5727   0.7018   0.7207   0.7383   0.7545   0.7741   0.7981   0.9370
     1.6320   1.6321   1.7033   1.7037   2.0817   3.6702   3.7072   3.7570
     3.7781   3.8785   3.8849   3.8879   3.8949   4.0176   4.0217

     the Fermi energy is     3.3514 ev

!    total energy              =   -2939.12589980 Ry
     estimated scf accuracy    <       0.00000005 Ry
     smearing contrib. (-TS)   =      -0.02051575 Ry
     internal energy E=F+TS    =   -2939.10538405 Ry

     The total energy is F=E-TS. E is the sum of the following terms:
     one-electron contribution =  -24213.84602831 Ry
     hartree contribution      =   12195.67984194 Ry
     xc contribution           =    -485.20433163 Ry
     ewald contribution        =    9564.26356437 Ry
     electric field correction =       0.00156958 Ry

     total magnetization       =    -0.04 Bohr mag/cell
     absolute magnetization    =     0.06 Bohr mag/cell

     convergence has been achieved in  80 iterations

     Forces acting on atoms (cartesian axes, Ry/au):

     atom    1 type  1   force =     0.00008752   -0.00020784    0.09579921
     atom    2 type  1   force =     0.00007446   -0.00063278   -0.17549977
     atom    3 type  2   force =     0.00017872   -0.00019349   -0.02304063
     atom    4 type  2   force =     0.00004099   -0.00128679    0.05262890
     atom    5 type  2   force =    -0.00977134   -0.00031720    0.00253834
     atom    6 type  2   force =     0.01165102    0.00022431    0.00292130
     atom    7 type  1   force =     0.00088316   -0.00000465   -0.00989973
     atom    8 type  1   force =     0.00000738    0.00530541    0.01815473
     atom    9 type  2   force =    -0.00001396   -0.00028999   -0.00010540
     atom   10 type  2   force =    -0.00253906    0.00216289   -0.01348725
     atom   11 type  2   force =    -0.00097176    0.00010754    0.00018010
     atom   12 type  2   force =     0.00038855   -0.00025633    0.00049509
     atom   13 type  1   force =     0.00009607   -0.00007993    0.00053921
     atom   14 type  1   force =    -0.00003650   -0.00013841   -0.00016415
     atom   15 type  2   force =    -0.00059453    0.00023202    0.00043398
     atom   16 type  2   force =    -0.00043610    0.00007817    0.00019497
     atom   17 type  2   force =    -0.00015046   -0.00008818   -0.00031109
     atom   18 type  2   force =     0.00028759    0.00021925    0.00008736
     atom   19 type  1   force =    -0.00058014   -0.00056545    0.00071088
     atom   20 type  1   force =    -0.00025863    0.00039153   -0.00075192
     atom   21 type  2   force =     0.00006791   -0.00005901    0.10322929
     atom   22 type  2   force =     0.00010772   -0.00003961   -0.00038050
     atom   23 type  2   force =    -0.07155075   -0.00019244   -0.02754871
     atom   24 type  2   force =     0.07152982    0.00031055   -0.02760768
     atom   25 type  1   force =     0.00012035   -0.00028018    0.09518794
     atom   26 type  1   force =     0.00008833   -0.00048651   -0.17565230
     atom   27 type  2   force =     0.00016030   -0.00012045   -0.02178887
     atom   28 type  2   force =     0.00008207   -0.00105987    0.05250616
     atom   29 type  2   force =    -0.01015221    0.00023281    0.00291364
     atom   30 type  2   force =     0.01196869    0.00051879    0.00329286
     atom   31 type  1   force =     0.00088816    0.00413859   -0.01177350
     atom   32 type  1   force =     0.00013780   -0.00633995    0.01829524
     atom   33 type  2   force =     0.00016324    0.00041751   -0.00010190
     atom   34 type  2   force =    -0.00308468   -0.00010662   -0.00866956
     atom   35 type  2   force =    -0.00020833    0.00007033    0.00001594
     atom   36 type  2   force =    -0.00003672    0.00028083   -0.00005891
     atom   37 type  1   force =     0.00043363   -0.00094936    0.00019738
     atom   38 type  1   force =    -0.00031700    0.00009762    0.00034790
     atom   39 type  2   force =     0.00011111   -0.00026850    0.00054103
     atom   40 type  2   force =    -0.00008197    0.00026907    0.00015723
     atom   41 type  2   force =     0.00001199   -0.00014346   -0.00019219
     atom   42 type  2   force =    -0.00044236    0.00013095   -0.00038911
     atom   43 type  1   force =     0.00027019    0.00051901    0.00011638
     atom   44 type  1   force =    -0.00025770   -0.00081289   -0.00088672
     atom   45 type  2   force =     0.00007448   -0.00005990    0.10317564
     atom   46 type  2   force =    -0.07156452   -0.00009311   -0.02754201
     atom   47 type  2   force =     0.07154799    0.00025745   -0.02760317
     atom   48 type  3   force =     0.00022883   -0.00132309   -0.00006835
     atom   49 type  4   force =    -0.00026664   -0.00443972   -0.00543560
     atom   50 type  5   force =     0.00118018    0.00527035    0.00523325
     atom   51 type  5   force =    -0.00074695    0.00023471    0.00032597
     atom   52 type  5   force =     0.00018642   -0.00112122   -0.00083261
     atom   53 type  3   force =     0.00100765    0.00048725   -0.00042827

     Total force =     0.364894     Total SCF correction =     0.000624
  @ DRIVER MODE: Message from server: STATUS
  @ DRIVER MODE: Message from server: GETFORCE
  @ DRIVER MODE: Returning v,forces,stress,ensemble

     Writing output data file ./calc.save/
  @ DRIVER MODE: Message from server: EXIT
  @ DRIVE MODE: Exiting

     General routines

     Parallel routines

   This run was terminated on:   3: 2:42  16Jul2021

   JOB DONE.