     Program PWSCF v.6.7GPU starts on  2Aug2021 at 15:33:43

     R & G space division:  proc/nbgrp/npool/nimage =      16
     Reading input from /storage/home/hcoda1/3/ntian30/research/carbon/02Aug_vib_paired/ads_slab/CH3N2H_a/out_0013/pw.inp
Warning: card &CELL ignored
Warning: card   CELL_DYNAMICS='IPI', ignored
Warning: card / ignored

     Current dimensions of program PWSCF are:
     Max number of different atomic species (ntypx) = 10
     Max number of k-points (npk) =  40000
     Max angular momentum in pseudopotentials (lmaxx) =  3
     Presently no symmetry can be used with electric field

     Message from routine cell_base_init:
     DEPRECATED: use true lattice parameter, not A to a.u. conversion factor

     IMPORTANT: XC functional enforced from input :
     Exchange-correlation= BEEF-VDW
                           (   1   4  43  14   2   0   0)
     Any further DFT definition will be discarded
     Please, verify this is what you really want

  @ DRIVER MODE: Connecting to
 qe_1139763_2482535.sched-torque.pace.gatech.edurcphtgi7_scratch
  using UNIX socket
  @ DRIVER MODE: Message from server: STATUS
  @ DRIVER MODE: Message from server: INIT
  @ DRIVER MODE: Receiving replica           0          -1
  @ DRIVER MODE: Receiving encoded integer          25
  @ DRIVER MODE:  SCF:  T  FORCE:  T  STRESS:  F  VC:  F  ENSEMBLE:  F
  @ DRIVER MODE:  SCF:  T  FORCE:  T  STRESS:  F  VC:  F  ENSEMBLE:  F

     Using Slab Decomposition

     bravais-lattice index     =            0
     lattice parameter (alat)  =       1.8897  a.u.
     unit-cell volume          =    6658.9804 (a.u.)^3
     number of atoms/cell      =           54
     number of atomic types    =            5
     number of electrons       =       396.00
     number of Kohn-Sham states=          208
     kinetic-energy cutoff     =      29.3995  Ry
     charge density cutoff     =     293.9946  Ry
     scf convergence threshold =      7.3E-08
     mixing beta               =       0.0500
     number of iterations used =            8  plain     mixing
     Exchange-correlation= BEEF-VDW
                           (   1   4  43  14   2   0   0)

     celldm(1)=   1.889726  celldm(2)=   0.000000  celldm(3)=   0.000000
     celldm(4)=   0.000000  celldm(5)=   0.000000  celldm(6)=   0.000000

     crystal axes: (cart. coord. in units of alat)
               a(1) = (   6.579727   0.000000   0.000000 )
               a(2) = (  -0.000775   5.961596   0.000000 )
               a(3) = (   0.000000   0.000000  25.155947 )

     reciprocal axes: (cart. coord. in units 2 pi/alat)
               b(1) = (  0.151982  0.000020  0.000000 )
               b(2) = (  0.000000  0.167740  0.000000 )
               b(3) = (  0.000000  0.000000  0.039752 )

     PseudoPot. # 1 for Ti read from file:
     /storage/coda1/p-amedford6/0/shared/rich_project_chbe-medford/medford-share/data/pseudos_module/espresso/nninc/pbe/van/Ti.UPF
     MD5 check sum: 8e4df49b7f0d34bbd5052bf3f5ea0213
     Pseudo is Ultrasoft, Zval = 12.0
     Generated by new atomic code, or converted to UPF format
     Using radial grid of  851 points,  6 beta functions with:
                l(1) =   0
                l(2) =   0
                l(3) =   1
                l(4) =   1
                l(5) =   2
                l(6) =   2
     Q(r) pseudized with  8 coefficients,  rinner =    1.000   1.000   1.000
                                                       1.000   1.000

     PseudoPot. # 2 for O  read from file:
     /storage/coda1/p-amedford6/0/shared/rich_project_chbe-medford/medford-share/data/pseudos_module/espresso/nninc/pbe/van/O.UPF
     MD5 check sum: 78c19812648e8988a0fe644b0f25305e
     Pseudo is Ultrasoft, Zval =  6.0
     Generated by new atomic code, or converted to UPF format
     Using radial grid of  737 points,  4 beta functions with:
                l(1) =   0
                l(2) =   0
                l(3) =   1
                l(4) =   1
     Q(r) pseudized with  8 coefficients,  rinner =    0.800   0.800   0.800

     PseudoPot. # 3 for N  read from file:
     /storage/coda1/p-amedford6/0/shared/rich_project_chbe-medford/medford-share/data/pseudos_module/espresso/nninc/pbe/van/N.UPF
     MD5 check sum: 90d10febe142ad51ac9d5be1deb811c4
     Pseudo is Ultrasoft, Zval =  5.0
     Generated by new atomic code, or converted to UPF format
     Using radial grid of  729 points,  4 beta functions with:
                l(1) =   0
                l(2) =   0
                l(3) =   1
                l(4) =   1
     Q(r) pseudized with  8 coefficients,  rinner =    0.800   0.800   0.800

     PseudoPot. # 4 for C  read from file:
     /storage/coda1/p-amedford6/0/shared/rich_project_chbe-medford/medford-share/data/pseudos_module/espresso/nninc/pbe/van/C.UPF
     MD5 check sum: 1a69bf6b8db32088f5b2163dbdb77a27
     Pseudo is Ultrasoft, Zval =  4.0
     Generated by new atomic code, or converted to UPF format
     Using radial grid of  721 points,  4 beta functions with:
                l(1) =   0
                l(2) =   0
                l(3) =   1
                l(4) =   1
     Q(r) pseudized with  8 coefficients,  rinner =    0.800   0.800   0.800

     PseudoPot. # 5 for H  read from file:
     /storage/coda1/p-amedford6/0/shared/rich_project_chbe-medford/medford-share/data/pseudos_module/espresso/nninc/pbe/van/H.UPF
     MD5 check sum: b5ee9d7bfd3a09ee7748110bda690ff7
     Pseudo is Ultrasoft, Zval =  1.0
     Generated by new atomic code, or converted to UPF format
     Using radial grid of  615 points,  1 beta functions with:
                l(1) =   0
     Q(r) pseudized with  8 coefficients,  rinner =    0.800

     atomic species   valence    mass     pseudopotential
        Ti1           12.00    47.86700     Ti( 1.00)
        O1             6.00    15.99900     O ( 1.00)
        N1             5.00    14.00700     N ( 1.00)
        C1             4.00    12.01100     C ( 1.00)
        H1             1.00     1.00800     H ( 1.00)

     No symmetry found

   Cartesian axes

     site n.     atom                  positions (alat units)
         1           Ti1 tau(   1) = (   0.0004258   2.9801865   6.0000000  )
         2           Ti1 tau(   2) = (   3.2906075   1.4906267   6.0002472  )
         3           O1  tau(   3) = (   0.0006271   0.0005054   7.9858123  )
         4           O1  tau(   4) = (   3.2906025   0.0005020   7.3038282  )
         5           O1  tau(   5) = (   4.5942328   1.4918067   9.2879030  )
         6           O1  tau(   6) = (   1.9868534   1.4903216   9.2879459  )
         7           Ti1 tau(   7) = (   3.2907910   2.8959150   9.1758416  )
         8           Ti1 tau(   8) = (   0.0015273   1.4827037   9.2680791  )
         9           O1  tau(   9) = (   3.3106937   0.0084137  11.2927479  )
        10           O1  tau(  10) = (   0.0116148   5.9584955  10.6183126  )
        11           O1  tau(  11) = (   1.3255326   1.5151957  12.5859258  )
        12           O1  tau(  12) = (   5.3246634   1.4871208  12.6441624  )
        13           Ti1 tau(  13) = (   6.5358624   2.9940264  12.7507449  )
        14           Ti1 tau(  14) = (   3.1828407   1.5032771  12.4528579  )
        15           O1  tau(  15) = (   0.1336207   0.0073438  14.6266748  )
        16           O1  tau(  16) = (   3.2550344   0.0288700  13.8306396  )
        17           O1  tau(  17) = (   4.6334483   1.5013943  15.9792279  )
        18           O1  tau(  18) = (   2.1409664   1.5470880  15.9954950  )
        19           Ti1 tau(  19) = (   3.4798582   3.0305884  15.6593850  )
        20           Ti1 tau(  20) = (   0.1386493   1.3724552  15.8613965  )
        21           O1  tau(  21) = (   3.2904802   0.0005063   4.7018136  )
        22           O1  tau(  22) = (   0.1429122   0.0333940  17.1908172  )
        23           O1  tau(  23) = (   1.3043587   1.4918075   6.0039043  )
        24           O1  tau(  24) = (   5.2767064   1.4903225   6.0039473  )
        25           Ti1 tau(  25) = (   0.0000382   5.9609847   6.0000000  )
        26           Ti1 tau(  26) = (   3.2902200   4.4714249   6.0002472  )
        27           O1  tau(  27) = (   0.0002396   2.9813036   7.9858123  )
        28           O1  tau(  28) = (   3.2902150   2.9813002   7.3038282  )
        29           O1  tau(  29) = (   4.5938453   4.4726049   9.2879030  )
        30           O1  tau(  30) = (   1.9864658   4.4711199   9.2879459  )
        31           Ti1 tau(  31) = (   3.2891106   5.8743827   9.1763621  )
        32           Ti1 tau(  32) = (   0.0006254   4.4649316   9.2693709  )
        33           O1  tau(  33) = (   3.3137399   2.9960163  11.2943833  )
        34           O1  tau(  34) = (   0.0092240   2.9805883  10.6323155  )
        35           O1  tau(  35) = (   1.3234708   4.4688006  12.5930975  )
        36           O1  tau(  36) = (   5.3222282   4.4932535  12.6449723  )
        37           Ti1 tau(  37) = (   6.5041614   0.0053836  12.5833808  )
        38           Ti1 tau(  38) = (   3.1843229   4.4812189  12.4522442  )
        39           O1  tau(  39) = (   0.0584892   2.9792810  14.6723703  )
        40           O1  tau(  40) = (   3.3232524   2.9928384  13.8523860  )
        41           O1  tau(  41) = (   4.6237859   4.5837569  15.7472905  )
        42           O1  tau(  42) = (   2.1882403   4.4693611  16.1038286  )
        43           Ti1 tau(  43) = (   3.3015484   0.0242660  15.6383815  )
        44           Ti1 tau(  44) = (   0.0181797   4.4930750  16.1931172  )
        45           O1  tau(  45) = (   3.2900926   2.9813045   4.7018136  )
        46           O1  tau(  46) = (   1.3039711   4.4726057   6.0039043  )
        47           O1  tau(  47) = (   5.2763189   4.4711207   6.0039473  )
        48           N1  tau(  48) = (   0.2677213   2.8760844  17.5655548  )
        49           C1  tau(  49) = (   1.2271684   2.7639891  18.6598760  )
        50           H1  tau(  50) = (   1.2830054   3.7106696  19.2072709  )
        51           H1  tau(  51) = (   0.8976878   1.9730418  19.3402421  )
        52           H1  tau(  52) = (   2.2102292   2.4972526  18.2850250  )
        53           N1  tau(  53) = (   5.6732178   3.4927010  17.8452151  )
        54           H1  tau(  54) = (   5.7345573   4.0058295  18.7343860  )

     number of k points=    10  Fermi-Dirac smearing, width (Ry)=  0.0073
                       cart. coord. in units 2pi/alat
        k(    1) = (   0.0000000   0.0000000   0.0000000), wk =   0.1250000
        k(    2) = (   0.0000000   0.0419351   0.0000000), wk =   0.2500000
        k(    3) = (   0.0000000  -0.0838702   0.0000000), wk =   0.1250000
        k(    4) = (   0.0379955   0.0000049   0.0000000), wk =   0.2500000
        k(    5) = (   0.0379955   0.0419400   0.0000000), wk =   0.2500000
        k(    6) = (   0.0379955  -0.0838652   0.0000000), wk =   0.2500000
        k(    7) = (   0.0379955  -0.0419301   0.0000000), wk =   0.2500000
        k(    8) = (  -0.0759910  -0.0000099   0.0000000), wk =   0.1250000
        k(    9) = (  -0.0759910   0.0419252   0.0000000), wk =   0.2500000
        k(   10) = (  -0.0759910  -0.0838800   0.0000000), wk =   0.1250000

     Initial potential from superposition of free atoms

     starting charge  379.99915, renormalised to  396.00000

     negative rho (up, down):  1.687E-02 0.000E+00

     %%%%%%%%%%%%%%%%%%%%%%%%%%%%%%%%%%%%%%%%%%%%%%%%%%%%%%%%%%%%%%%%%%%%%%%%
     %                                                                      %
     % You are using vdW-DF, which was implemented by the Thonhauser group. %
     % Please cite the following two papers that made this development      %
     % possible and the two reviews that describe the various versions:     %
     %                                                                      %
     %   T. Thonhauser et al., PRL 115, 136402 (2015).                      %
     %   T. Thonhauser et al., PRB 76, 125112 (2007).                       %
     %   K. Berland et al., Rep. Prog. Phys. 78, 066501 (2015).             %
     %   D.C. Langreth et al., J. Phys.: Condens. Matter 21, 084203 (2009). %
     %                                                                      %
     %                                                                      %
     % If you are calculating the stress with vdW-DF, please also cite:     %
     %                                                                      %
     %   R. Sabatini et al., J. Phys.: Condens. Matter 24, 424209 (2012).   %
     %                                                                      %
     %%%%%%%%%%%%%%%%%%%%%%%%%%%%%%%%%%%%%%%%%%%%%%%%%%%%%%%%%%%%%%%%%%%%%%%%

     Adding external electric field

     Computed dipole along edir(3) :
        Dipole               -8.2222 Ry au,        -20.8988 Debye
        Dipole field         -0.0155 Ry au,

        Potential amp.        1.4384 Ry
        Total length         46.3494 bohr

     Starting wfcs are  300 atomic wfcs
  @ DRIVER MODE: Message from server: STATUS
  @ DRIVER MODE: Message from server: POSDATA
  @ DRIVER MODE: Reading and sharing cell
  @ DRIVER MODE: Reading and sharing positions
  @ DRIVER MODE: Received positions

     Self-consistent Calculation

     iteration #  1     ecut=    29.40 Ry     beta= 0.05
     Davidson diagonalization with overlap
     c_bands:  1 eigenvalues not converged
     c_bands:  1 eigenvalues not converged
     c_bands:  1 eigenvalues not converged
     c_bands:  1 eigenvalues not converged
     c_bands:  4 eigenvalues not converged
     c_bands:  1 eigenvalues not converged
     c_bands:  4 eigenvalues not converged
     c_bands:  2 eigenvalues not converged
     c_bands:  1 eigenvalues not converged
     ethr =  1.00E-05,  avg # of iterations = 19.9

[...]

     total energy              =   -2607.33383800 Ry
     estimated scf accuracy    <    3677.91105667 Ry

     iteration #  2     ecut=    29.40 Ry     beta= 0.05
     Davidson diagonalization with overlap
     ethr =  1.00E-02,  avg # of iterations = 22.1

[...]

     iteration # 60     ecut=    29.40 Ry     beta= 0.05
     Davidson diagonalization with overlap
     c_bands:  1 eigenvalues not converged
     ethr =  1.77E-07,  avg # of iterations = 10.8

[...]

     total energy              =   -2940.35219503 Ry
     estimated scf accuracy    <       0.00000010 Ry

     iteration # 78     ecut=    29.40 Ry     beta= 0.05
     Davidson diagonalization with overlap
     ethr =  2.47E-11,  avg # of iterations =  5.8

     negative rho (up, down):  1.746E-02 0.000E+00

     Adding external electric field

     Computed dipole along edir(3) :
        Dipole                0.7383 Ry au,          1.8765 Debye
        Dipole field          0.0014 Ry au,

        Potential amp.       -0.1291 Ry
        Total length         46.3494 bohr

     End of self-consistent calculation

          k = 0.0000 0.0000 0.0000 ( 18029 PWs)   bands (ev):

   -56.0229 -55.9889 -55.8042 -55.7654 -55.7249 -55.6904 -55.6635 -55.6393
   -55.6293 -55.6046 -55.5762 -55.4967 -55.2413 -54.9192 -54.8852 -54.7892
   -32.4896 -32.3464 -32.3169 -32.2934 -32.1918 -32.1777 -32.1662 -32.1289
   -32.1124 -32.0991 -32.0838 -32.0452 -32.0222 -31.9820 -31.9756 -31.9732
   -31.9416 -31.9310 -31.9205 -31.8961 -31.8869 -31.8696 -31.8638 -31.8597
   -31.8396 -31.8374 -31.8293 -31.8249 -31.8193 -31.8023 -31.7942 -31.7935
   -31.7761 -31.7521 -31.6930 -31.6653 -31.6173 -31.4680 -31.4649 -31.3227
   -31.2434 -31.2205 -31.2066 -31.1401 -31.0541 -30.9938 -30.9428 -30.9138
   -17.3112 -16.5592 -16.3684 -16.0784 -15.9275 -15.9085 -15.7887 -15.6915
   -15.6139 -15.5141 -15.4612 -15.4065 -15.3944 -15.3689 -15.3103 -15.2882
   -15.2470 -15.2295 -15.1870 -15.1763 -15.1307 -15.1080 -15.0857 -15.0523
   -14.9866 -14.9163 -14.9035 -14.7478 -14.6078 -14.4556 -13.4203 -13.3055
   -11.5543  -8.3381  -5.0102  -4.0163  -3.9459  -3.8760  -3.8463  -3.7741
    -3.6930  -3.4426  -3.4203  -3.3586  -3.0708  -3.0233  -2.9993  -2.9948
    -2.8970  -2.7575  -2.7267  -2.6668  -2.6609  -2.6403  -2.6207  -2.6035
    -2.5465  -2.4912  -2.4750  -2.4337  -2.2978  -2.2723  -2.2678  -2.2455
    -2.1757  -2.1665  -2.1020  -2.0843  -2.0617  -2.0430  -2.0063  -1.8733
    -1.8398  -1.7750  -1.6936  -1.6044  -1.5246  -1.4891  -1.4018  -1.3864
    -1.3383  -1.2609  -1.2549  -1.1791  -1.1459  -1.0713  -1.0448  -1.0074
    -0.8986  -0.8710  -0.8132  -0.7556  -0.7106  -0.6973  -0.6562  -0.6317
    -0.6265  -0.6115  -0.5987  -0.4047  -0.3741  -0.2316  -0.1858  -0.1613
    -0.1205  -0.0974  -0.0394  -0.0158  -0.0105   0.0295   0.0474   0.0904
     0.1460   0.1606   0.1868   0.2802   0.3126   0.3675   0.4938   0.5075
     0.5952   0.6625   0.7683   0.7812   0.8326   0.9637   1.0597   1.0814
     1.1031   1.3084   1.4134   1.6672   1.7096   3.0251   3.1703   3.2658
     3.3744   3.4948   3.5701   3.6081   3.7833   3.8207   3.8624   3.9185

[...]

          k = 0.0380-0.0419 0.0000 ( 17876 PWs)   bands (ev):

[...]

          k =-0.0760-0.0000 0.0000 ( 17886 PWs)   bands (ev):

[...]

          k =-0.0760-0.0839 0.0000 ( 17948 PWs)   bands (ev):

   -56.0068 -56.0048 -55.7921 -55.7773 -55.7112 -55.7037 -55.6480 -55.6446
   -55.6260 -55.6180 -55.5723 -55.5005 -55.2407 -54.9023 -54.9021 -54.7897
   -32.3060 -32.3050 -32.3027 -32.3009 -32.1538 -32.1417 -32.1297 -32.1275
   -32.0503 -32.0376 -32.0273 -32.0235 -32.0166 -32.0138 -31.9707 -31.9652
   -31.9556 -31.9436 -31.9135 -31.9024 -31.8902 -31.8859 -31.8813 -31.8802
   -31.8761 -31.8715 -31.8557 -31.8503 -31.8446 -31.8407 -31.8356 -31.8169
   -31.7981 -31.7944 -31.7654 -31.7069 -31.6071 -31.4705 -31.4643 -31.2568
   -31.2334 -31.2332 -31.1361 -31.1358 -31.0972 -31.0970 -31.0058 -30.9178
   -17.2921 -15.9764 -15.9479 -15.8406 -15.8212 -15.7327 -15.7194 -15.6046
   -15.5968 -15.5839 -15.5176 -15.4720 -15.4614 -15.3793 -15.3524 -15.3409
   -15.3164 -15.3066 -15.3001 -15.2892 -15.2773 -15.1971 -15.1919 -15.1898
   -15.1145 -15.0915 -14.9057 -14.8624 -14.6650 -14.6185 -13.4079 -13.4075
   -11.5578  -8.3181  -5.0165  -3.9149  -3.8429  -3.2786  -3.2424  -3.0267
    -3.0008  -2.9803  -2.9510  -2.7663  -2.7524  -2.7461  -2.7287  -2.7158
    -2.6786  -2.6596  -2.6472  -2.5813  -2.5718  -2.5508  -2.5460  -2.5364
    -2.5172  -2.5021  -2.4944  -2.4745  -2.4603  -2.4161  -2.3613  -2.3383
    -2.2883  -2.1941  -2.0907  -2.0435  -2.0297  -2.0216  -1.9987  -1.9895
    -1.9490  -1.9363  -1.8504  -1.6671  -1.6190  -1.5574  -1.5515  -1.5442
    -1.4844  -1.4285  -1.3856  -1.3096  -1.2453  -1.1920  -1.1632  -1.1389
    -1.1037  -1.0373  -0.9716  -0.9520  -0.9392  -0.9101  -0.9067  -0.8890
    -0.8104  -0.7272  -0.6861  -0.6558  -0.6332  -0.6192  -0.6034  -0.5808
    -0.4740  -0.4054  -0.3577  -0.3123  -0.2704  -0.2278  -0.1094  -0.0943
     0.0999   0.1661   0.1914   0.2700   0.3670   0.3923   0.4028   0.4672
     0.5423   0.6051   0.6397   0.6944   0.7097   0.7309   0.7980   1.0127
     1.0687   1.4772   1.4788   1.5278   1.5288   2.9887   3.6709   3.6784
     3.6817   3.6919   3.7126   3.7360   3.7883   3.8230   3.9245   3.9455

     the Fermi energy is     3.1350 ev

!    total energy              =   -2940.35221245 Ry
     estimated scf accuracy    <       0.00000005 Ry
     smearing contrib. (-TS)   =      -0.01869116 Ry
     internal energy E=F+TS    =   -2940.33352129 Ry

     The total energy is F=E-TS. E is the sum of the following terms:
     one-electron contribution =  -24661.70064266 Ry
     hartree contribution      =   12419.97854298 Ry
     xc contribution           =    -486.05071908 Ry
     ewald contribution        =    9787.43826895 Ry
     electric field correction =       0.00102853 Ry

     convergence has been achieved in  78 iterations

     Forces acting on atoms (cartesian axes, Ry/au):

     atom    1 type  1   force =     0.00026490   -0.00035775    0.10152916
     atom    2 type  1   force =     0.00003450   -0.00086980   -0.17138330
     atom    3 type  2   force =     0.00029226    0.00021738   -0.03323791
     atom    4 type  2   force =     0.00003240   -0.00078680    0.04481099
     atom    5 type  2   force =    -0.01194619   -0.00021086   -0.00231934
     atom    6 type  2   force =     0.01438295    0.00038302   -0.00111980
     atom    7 type  1   force =     0.00140362   -0.00129395   -0.00427395
     atom    8 type  1   force =    -0.00078525    0.02219467    0.05622484
     atom    9 type  2   force =     0.00003058   -0.00032464    0.00046408
     atom   10 type  2   force =    -0.00266593    0.00207363   -0.02592564
     atom   11 type  2   force =     0.00002640    0.00024721   -0.00006410
     atom   12 type  2   force =     0.00009361    0.00074271    0.00001506
     atom   13 type  1   force =    -0.00005076    0.00013952    0.00023802
     atom   14 type  1   force =     0.00027805    0.00028211   -0.00002832
     atom   15 type  2   force =     0.00019297   -0.00023900   -0.00000239
     atom   16 type  2   force =    -0.00002323   -0.00013417    0.00076902
     atom   17 type  2   force =    -0.00011921   -0.00078829    0.00001551
     atom   18 type  2   force =     0.00050446   -0.00069469    0.00032837
     atom   19 type  1   force =    -0.00007757   -0.00045011    0.00018083
     atom   20 type  1   force =    -0.00000950    0.00017311   -0.00022390
     atom   21 type  2   force =     0.00006707   -0.00001173    0.10208476
     atom   22 type  2   force =    -0.00001381   -0.00029674    0.00035581
     atom   23 type  2   force =    -0.07326581   -0.00015338   -0.02887105
     atom   24 type  2   force =     0.07321907    0.00033534   -0.02892302
     atom   25 type  1   force =    -0.00029043   -0.00032934    0.10198640
     atom   26 type  1   force =     0.00002308   -0.00016613   -0.17138014
     atom   27 type  2   force =     0.00036459   -0.00022971   -0.03196276
     atom   28 type  2   force =     0.00009118   -0.00056916    0.04542532
     atom   29 type  2   force =    -0.01209628    0.00213031   -0.00287318
     atom   30 type  2   force =     0.01440972    0.00228950   -0.00161817
     atom   31 type  1   force =     0.00160028    0.00092955   -0.00561107
     atom   32 type  1   force =    -0.00059050   -0.02474611    0.05727843
     atom   33 type  2   force =     0.00015012    0.00035965    0.00062834
     atom   34 type  2   force =    -0.00420624    0.00212245   -0.04831624
     atom   35 type  2   force =     0.00061684   -0.00058918    0.00000324
     atom   36 type  2   force =    -0.00039968   -0.00075359    0.00013110
     atom   37 type  1   force =     0.00005864    0.00060678   -0.00006676
     atom   38 type  1   force =     0.00002805   -0.00014254   -0.00012912
     atom   39 type  2   force =     0.00019291   -0.00003063   -0.00067152
     atom   40 type  2   force =    -0.00008325   -0.00003568   -0.00033317
     atom   41 type  2   force =     0.00006221    0.00048818   -0.00007001
     atom   42 type  2   force =     0.00000968    0.00036803    0.00068012
     atom   43 type  1   force =    -0.00021858   -0.00016610    0.00013062
     atom   44 type  1   force =    -0.00000034    0.00007333    0.00021705
     atom   45 type  2   force =     0.00004634   -0.00004921    0.10214898
     atom   46 type  2   force =    -0.07327556   -0.00009788   -0.02884755
     atom   47 type  2   force =     0.07322802    0.00027964   -0.02888398
     atom   48 type  3   force =    -0.00074038    0.00005628   -0.00006064
     atom   49 type  4   force =    -0.00211351   -0.00074387   -0.00013003
     atom   50 type  5   force =     0.00184472    0.00013061    0.00032974
     atom   51 type  5   force =    -0.00051867   -0.00083284    0.00037278
     atom   52 type  5   force =    -0.00004820    0.00046157    0.00064425
     atom   53 type  3   force =     0.00003583   -0.00064579    0.00066151
     atom   54 type  5   force =    -0.00004618   -0.00034491   -0.00032725

     Total force =     0.377759     Total SCF correction =     0.000655
  @ DRIVER MODE: Message from server: STATUS
  @ DRIVER MODE: Message from server: GETFORCE
  @ DRIVER MODE: Returning v,forces,stress,ensemble

     Writing output data file ./calc.save/
  @ DRIVER MODE: Message from server: EXIT
  @ DRIVE MODE: Exiting

     General routines

     Parallel routines

   This run was terminated on:  15:51: 9   2Aug2021

   JOB DONE.