     Program PWSCF v.6.7GPU starts on 23Aug2021 at 17:20:32

     R & G space division:  proc/nbgrp/npool/nimage =       6
     Reading input from /storage/home/hcoda1/3/ntian30/research/carbon/CH_vib/ads_slab/CHN2_a/out_0009/pw.inp
Warning: card &CELL ignored
Warning: card   CELL_DYNAMICS='IPI', ignored
Warning: card / ignored

     Current dimensions of program PWSCF are:
     Max number of different atomic species (ntypx) = 10
     Max number of k-points (npk) =  40000
     Max angular momentum in pseudopotentials (lmaxx) =  3
     Presently no symmetry can be used with electric field

     Message from routine cell_base_init:
     DEPRECATED: use true lattice parameter, not A to a.u. conversion factor

     IMPORTANT: XC functional enforced from input :
     Exchange-correlation= BEEF-VDW
                           (   1   4  43  14   2   0   0)
     Any further DFT definition will be discarded
     Please, verify this is what you really want

  @ DRIVER MODE: Connecting to
 qe_1139763_2632791.sched-torque.pace.gatech.edu4mla1_eq_scratch
  using UNIX socket
  @ DRIVER MODE: Message from server: STATUS
  @ DRIVER MODE: Message from server: INIT
  @ DRIVER MODE: Receiving replica           0          -1
  @ DRIVER MODE: Receiving encoded integer          25
  @ DRIVER MODE:  SCF:  T  FORCE:  T  STRESS:  F  VC:  F  ENSEMBLE:  F
  @ DRIVER MODE:  SCF:  T  FORCE:  T  STRESS:  F  VC:  F  ENSEMBLE:  F

     Using Slab Decomposition

     bravais-lattice index     =            0
     lattice parameter (alat)  =       1.8897  a.u.
     unit-cell volume          =    6658.9804 (a.u.)^3
     number of atoms/cell      =           51
     number of atomic types    =            5
     number of electrons       =       393.00
     number of Kohn-Sham states=          206
     kinetic-energy cutoff     =      29.3995  Ry
     charge density cutoff     =     293.9946  Ry
     scf convergence threshold =      7.3E-08
     mixing beta               =       0.0500
     number of iterations used =            8  plain     mixing
     Exchange-correlation= BEEF-VDW
                           (   1   4  43  14   2   0   0)

     celldm(1)=   1.889726  celldm(2)=   0.000000  celldm(3)=   0.000000
     celldm(4)=   0.000000  celldm(5)=   0.000000  celldm(6)=   0.000000

     crystal axes: (cart. coord. in units of alat)
               a(1) = (   6.579727   0.000000   0.000000 )
               a(2) = (  -0.000775   5.961596   0.000000 )
               a(3) = (   0.000000   0.000000  25.155947 )

     reciprocal axes: (cart. coord. in units 2 pi/alat)
               b(1) = (  0.151982  0.000020  0.000000 )
               b(2) = (  0.000000  0.167740  0.000000 )
               b(3) = (  0.000000  0.000000  0.039752 )

     PseudoPot. # 1 for Ti read from file:
     /storage/coda1/p-amedford6/0/shared/rich_project_chbe-medford/medford-share/data/pseudos_module/espresso/nninc/pbe/van/Ti.UPF
     MD5 check sum: 8e4df49b7f0d34bbd5052bf3f5ea0213
     Pseudo is Ultrasoft, Zval = 12.0
     Generated by new atomic code, or converted to UPF format
     Using radial grid of  851 points,  6 beta functions with:
                l(1) =   0
                l(2) =   0
                l(3) =   1
                l(4) =   1
                l(5) =   2
                l(6) =   2
     Q(r) pseudized with  8 coefficients,  rinner =    1.000   1.000   1.000
                                                       1.000   1.000

     PseudoPot. # 2 for O  read from file:
     /storage/coda1/p-amedford6/0/shared/rich_project_chbe-medford/medford-share/data/pseudos_module/espresso/nninc/pbe/van/O.UPF
     MD5 check sum: 78c19812648e8988a0fe644b0f25305e
     Pseudo is Ultrasoft, Zval =  6.0
     Generated by new atomic code, or converted to UPF format
     Using radial grid of  737 points,  4 beta functions with:
                l(1) =   0
                l(2) =   0
                l(3) =   1
                l(4) =   1
     Q(r) pseudized with  8 coefficients,  rinner =    0.800   0.800   0.800

     PseudoPot. # 3 for N  read from file:
     /storage/coda1/p-amedford6/0/shared/rich_project_chbe-medford/medford-share/data/pseudos_module/espresso/nninc/pbe/van/N.UPF
     MD5 check sum: 90d10febe142ad51ac9d5be1deb811c4
     Pseudo is Ultrasoft, Zval =  5.0
     Generated by new atomic code, or converted to UPF format
     Using radial grid of  729 points,  4 beta functions with:
                l(1) =   0
                l(2) =   0
                l(3) =   1
                l(4) =   1
     Q(r) pseudized with  8 coefficients,  rinner =    0.800   0.800   0.800

     PseudoPot. # 4 for C  read from file:
     /storage/coda1/p-amedford6/0/shared/rich_project_chbe-medford/medford-share/data/pseudos_module/espresso/nninc/pbe/van/C.UPF
     MD5 check sum: 1a69bf6b8db32088f5b2163dbdb77a27
     Pseudo is Ultrasoft, Zval =  4.0
     Generated by new atomic code, or converted to UPF format
     Using radial grid of  721 points,  4 beta functions with:
                l(1) =   0
                l(2) =   0
                l(3) =   1
                l(4) =   1
     Q(r) pseudized with  8 coefficients,  rinner =    0.800   0.800   0.800

     PseudoPot. # 5 for H  read from file:
     /storage/coda1/p-amedford6/0/shared/rich_project_chbe-medford/medford-share/data/pseudos_module/espresso/nninc/pbe/van/H.UPF
     MD5 check sum: b5ee9d7bfd3a09ee7748110bda690ff7
     Pseudo is Ultrasoft, Zval =  1.0
     Generated by new atomic code, or converted to UPF format
     Using radial grid of  615 points,  1 beta functions with:
                l(1) =   0
     Q(r) pseudized with  8 coefficients,  rinner =    0.800

     atomic species   valence    mass     pseudopotential
        Ti1           12.00    47.86700     Ti( 1.00)
        O1             6.00    15.99900     O ( 1.00)
        N1             5.00    14.00700     N ( 1.00)
        C1             4.00    12.01100     C ( 1.00)
        H1             1.00     1.00800     H ( 1.00)

     No symmetry found

   Cartesian axes

     site n.     atom                  positions (alat units)
         1           Ti1 tau(   1) = (   0.0004258   2.9801865   6.0000000  )
         2           Ti1 tau(   2) = (   3.2906075   1.4906267   6.0002472  )
         3           O1  tau(   3) = (   0.0006271   0.0005054   7.9858123  )
         4           O1  tau(   4) = (   3.2906025   0.0005020   7.3038282  )
         5           O1  tau(   5) = (   4.5942328   1.4918067   9.2879030  )
         6           O1  tau(   6) = (   1.9868534   1.4903216   9.2879459  )
         7           Ti1 tau(   7) = (   3.2907910   2.8959150   9.1758416  )
         8           Ti1 tau(   8) = (   0.0015273   1.4827037   9.2680791  )
         9           O1  tau(   9) = (   3.3035207   5.9473585  11.3310231  )
        10           O1  tau(  10) = (   0.0116148   5.9584955  10.6183126  )
        11           O1  tau(  11) = (   1.3208475   1.4758257  12.6111770  )
        12           O1  tau(  12) = (   5.3082752   1.4698866  12.6250687  )
        13           Ti1 tau(  13) = (   6.5356446   2.9641997  12.6185077  )
        14           Ti1 tau(  14) = (   3.2189969   1.4721334  12.4835407  )
        15           O1  tau(  15) = (   0.0393797   5.9575543  14.6615593  )
        16           O1  tau(  16) = (   3.2985004   5.9511915  13.9168519  )
        17           O1  tau(  17) = (   4.5692420   1.4945533  16.0479082  )
        18           O1  tau(  18) = (   2.0930108   1.4957509  16.0624375  )
        19           Ti1 tau(  19) = (   3.3255584   2.9801015  15.7018593  )
        20           Ti1 tau(  20) = (   6.5669960   1.4976744  15.8335939  )
        21           O1  tau(  21) = (   3.2904802   0.0005063   4.7018136  )
        22           O1  tau(  22) = (   0.0392190   0.0140749  17.2134629  )
        23           O1  tau(  23) = (   1.3043587   1.4918075   6.0039043  )
        24           O1  tau(  24) = (   5.2767064   1.4903225   6.0039473  )
        25           Ti1 tau(  25) = (   0.0000382   5.9609847   6.0000000  )
        26           Ti1 tau(  26) = (   3.2902200   4.4714249   6.0002472  )
        27           O1  tau(  27) = (   0.0002396   2.9813036   7.9858123  )
        28           O1  tau(  28) = (   3.2902150   2.9813002   7.3038282  )
        29           O1  tau(  29) = (   4.5938453   4.4726049   9.2879030  )
        30           O1  tau(  30) = (   1.9864658   4.4711199   9.2879459  )
        31           Ti1 tau(  31) = (   3.2891106   5.8743827   9.1763621  )
        32           Ti1 tau(  32) = (   0.0006254   4.4649316   9.2693709  )
        33           O1  tau(  33) = (   3.3031456   2.9698018  11.3313920  )
        34           O1  tau(  34) = (   0.0092240   2.9805883  10.6323155  )
        35           O1  tau(  35) = (   1.3161540   4.4602657  12.6201046  )
        36           O1  tau(  36) = (   5.3094940   4.4638127  12.6365964  )
        37           Ti1 tau(  37) = (   6.5345696   5.9399333  12.5489351  )
        38           Ti1 tau(  38) = (   3.2177077   4.4523588  12.4826418  )
        39           O1  tau(  39) = (   0.0172592   2.9259015  14.6604509  )
        40           O1  tau(  40) = (   3.3090452   2.9742471  13.9045505  )
        41           O1  tau(  41) = (   4.5663562   4.4668710  16.0744231  )
        42           O1  tau(  42) = (   2.0880155   4.4652721  16.0825153  )
        43           Ti1 tau(  43) = (   3.2840513   5.9573583  15.7162584  )
        44           Ti1 tau(  44) = (   0.0037803   4.6334615  16.1183230  )
        45           O1  tau(  45) = (   3.2900926   2.9813045   4.7018136  )
        46           O1  tau(  46) = (   1.3039711   4.4726057   6.0039043  )
        47           O1  tau(  47) = (   5.2763189   4.4711207   6.0039473  )
        48           N1  tau(  48) = (   0.6403421   2.7964730  18.4694378  )
        49           C1  tau(  49) = (   1.0548146   2.6113466  19.5673862  )
        50           H1  tau(  50) = (   1.9720372   2.4638087  20.0927579  )
        51           N1  tau(  51) = (   0.0785678   2.9476959  17.3929364  )

     number of k points=    10  Fermi-Dirac smearing, width (Ry)=  0.0073
                       cart. coord. in units 2pi/alat
        k(    1) = (   0.0000000   0.0000000   0.0000000), wk =   0.1250000
        k(    2) = (   0.0000000   0.0419351   0.0000000), wk =   0.2500000
        k(    3) = (   0.0000000  -0.0838702   0.0000000), wk =   0.1250000
        k(    4) = (   0.0379955   0.0000049   0.0000000), wk =   0.2500000
        k(    5) = (   0.0379955   0.0419400   0.0000000), wk =   0.2500000
        k(    6) = (   0.0379955  -0.0838652   0.0000000), wk =   0.2500000
        k(    7) = (   0.0379955  -0.0419301   0.0000000), wk =   0.2500000
        k(    8) = (  -0.0759910  -0.0000099   0.0000000), wk =   0.1250000
        k(    9) = (  -0.0759910   0.0419252   0.0000000), wk =   0.2500000
        k(   10) = (  -0.0759910  -0.0838800   0.0000000), wk =   0.1250000

     Initial potential from superposition of free atoms

     starting charge  376.99918, renormalised to  393.00000

     negative rho (up, down):  1.612E-02 0.000E+00

     %%%%%%%%%%%%%%%%%%%%%%%%%%%%%%%%%%%%%%%%%%%%%%%%%%%%%%%%%%%%%%%%%%%%%%%%
     %                                                                      %
     % You are using vdW-DF, which was implemented by the Thonhauser group. %
     % Please cite the following two papers that made this development      %
     % possible and the two reviews that describe the various versions:     %
     %                                                                      %
     %   T. Thonhauser et al., PRL 115, 136402 (2015).                      %
     %   T. Thonhauser et al., PRB 76, 125112 (2007).                       %
     %   K. Berland et al., Rep. Prog. Phys. 78, 066501 (2015).             %
     %   D.C. Langreth et al., J. Phys.: Condens. Matter 21, 084203 (2009). %
     %                                                                      %
     %                                                                      %
     % If you are calculating the stress with vdW-DF, please also cite:     %
     %                                                                      %
     %   R. Sabatini et al., J. Phys.: Condens. Matter 24, 424209 (2012).   %
     %                                                                      %
     %%%%%%%%%%%%%%%%%%%%%%%%%%%%%%%%%%%%%%%%%%%%%%%%%%%%%%%%%%%%%%%%%%%%%%%%

     Adding external electric field

     Computed dipole along edir(3) :
        Dipole               -7.3725 Ry au,        -18.7391 Debye
        Dipole field         -0.0139 Ry au,

        Potential amp.        1.2897 Ry
        Total length         46.3494 bohr

     Starting wfcs are  297 atomic wfcs
  @ DRIVER MODE: Message from server: STATUS
  @ DRIVER MODE: Message from server: POSDATA
  @ DRIVER MODE: Reading and sharing cell
  @ DRIVER MODE: Reading and sharing positions
  @ DRIVER MODE: Received positions

     Self-consistent Calculation

     iteration #  1     ecut=    29.40 Ry     beta= 0.05
     Davidson diagonalization with overlap
     c_bands:  1 eigenvalues not converged
     c_bands:  1 eigenvalues not converged
     c_bands:  1 eigenvalues not converged
     c_bands:  1 eigenvalues not converged
     ethr =  1.00E-05,  avg # of iterations = 18.6

[...]

     total energy              =   -2707.98918323 Ry
     estimated scf accuracy    <    2533.41944204 Ry

[...]

     iteration #  4     ecut=    29.40 Ry     beta= 0.05
     Davidson diagonalization with overlap
     ethr =  1.00E-02,  avg # of iterations = 11.5

[...]

     iteration # 47     ecut=    29.40 Ry     beta= 0.05
     Davidson diagonalization with overlap
     c_bands:  1 eigenvalues not converged
     ethr =  5.03E-08,  avg # of iterations = 11.5

[...]

     total energy              =   -2936.63873750 Ry
     estimated scf accuracy    <       0.00000015 Ry

     iteration # 64     ecut=    29.40 Ry     beta= 0.05
     Davidson diagonalization with overlap
     ethr =  2.26E-11,  avg # of iterations =  8.8

     negative rho (up, down):  1.643E-02 0.000E+00

     Adding external electric field

     Computed dipole along edir(3) :
        Dipole                0.6612 Ry au,          1.6805 Debye
        Dipole field          0.0012 Ry au,

        Potential amp.       -0.1157 Ry
        Total length         46.3494 bohr

     End of self-consistent calculation

          k = 0.0000 0.0000 0.0000 ( 18029 PWs)   bands (ev):

   -55.9531 -55.9483 -55.9191 -55.9123 -55.8160 -55.8116 -55.7808 -55.7754
   -55.7638 -55.7299 -55.7297 -55.6960 -55.5070 -55.2864 -54.9319 -54.8979
   -32.5025 -32.4360 -32.3150 -32.2727 -32.2628 -32.2555 -32.2458 -32.2205
   -32.1962 -32.1734 -32.1501 -32.1421 -32.1279 -32.1053 -32.0998 -32.0879
   -32.0578 -32.0513 -32.0465 -32.0214 -32.0175 -32.0102 -31.9892 -31.9703
   -31.9607 -31.9532 -31.9528 -31.9507 -31.9410 -31.9316 -31.9276 -31.9049
   -31.8948 -31.8829 -31.8800 -31.8708 -31.8420 -31.7357 -31.7265 -31.5572
   -31.5216 -31.5061 -31.3390 -31.2508 -31.2284 -31.1559 -31.0694 -30.9582
   -19.2955 -16.7019 -16.4317 -16.1984 -16.1081 -16.0839 -15.9635 -15.7992
   -15.6803 -15.6245 -15.5237 -15.5188 -15.4905 -15.4583 -15.4379 -15.4256
   -15.4013 -15.3975 -15.3744 -15.3606 -15.3156 -15.2948 -15.2786 -15.1850
   -15.1312 -15.0888 -15.0535 -15.0290 -15.0133 -14.5570 -13.9930 -13.4343
   -13.3178  -6.7711  -5.2448  -4.2764  -4.0745  -4.0513  -3.9175  -3.8604
    -3.8115  -3.7065  -3.5707  -3.5046  -3.1935  -3.1374  -3.1225  -3.1067
    -3.0748  -2.8612  -2.8065  -2.7691  -2.7420  -2.7319  -2.7236  -2.7179
    -2.7014  -2.6739  -2.5675  -2.4966  -2.4217  -2.4118  -2.3549  -2.3524
    -2.2663  -2.2430  -2.2208  -2.1991  -2.1948  -2.1843  -2.1580  -2.1363
    -2.0107  -1.9401  -1.8288  -1.7609  -1.7255  -1.5627  -1.5449  -1.4178
    -1.4139  -1.3823  -1.3466  -1.3285  -1.2547  -1.1550  -1.1207  -1.1053
    -1.0588  -0.9758  -0.9293  -0.8481  -0.8032  -0.7772  -0.7248  -0.7170
    -0.7089  -0.6619  -0.5097  -0.4345  -0.3807  -0.3677  -0.3330  -0.2597
    -0.2343  -0.1512  -0.1084  -0.0839  -0.0737  -0.0203   0.0194   0.0328
     0.0464   0.0556   0.0662   0.2442   0.2931   0.3180   0.3711   0.3925
     0.5703   0.6017   0.7009   0.7900   1.0167   1.0903   1.1692   1.2752
     1.2823   1.4879   1.6614   1.7071   3.1775   3.2674   3.3089   3.3137
     3.4194   3.4853   3.6324   3.6538   3.6780   3.7207

[...]

          k = 0.0380-0.0419 0.0000 ( 17876 PWs)   bands (ev):

[...]

          k =-0.0760-0.0000 0.0000 ( 17886 PWs)   bands (ev):

[...]

          k =-0.0760-0.0839 0.0000 ( 17948 PWs)   bands (ev):

   -55.9364 -55.9356 -55.9310 -55.9293 -55.8021 -55.7988 -55.7946 -55.7880
   -55.7475 -55.7456 -55.7144 -55.7115 -55.5058 -55.2875 -54.9149 -54.9148
   -32.3058 -32.3049 -32.2515 -32.2510 -32.2315 -32.2308 -32.2059 -32.2045
   -32.1605 -32.1562 -32.1351 -32.1322 -32.0855 -32.0824 -32.0799 -32.0732
   -32.0679 -32.0604 -32.0560 -32.0551 -32.0529 -32.0500 -32.0182 -32.0080
   -32.0068 -31.9951 -31.9890 -31.9785 -31.9483 -31.9476 -31.9453 -31.9429
   -31.9289 -31.9272 -31.9241 -31.9215 -31.8809 -31.7380 -31.7235 -31.6261
   -31.5317 -31.5223 -31.2411 -31.2410 -31.1519 -31.1517 -31.1127 -31.1126
   -19.2927 -16.1340 -16.1119 -15.9083 -15.8729 -15.8674 -15.8553 -15.7449
   -15.6673 -15.6494 -15.6472 -15.5765 -15.5497 -15.5309 -15.4937 -15.4886
   -15.4748 -15.4713 -15.4400 -15.4182 -15.4113 -15.3937 -15.3857 -15.3082
   -15.2728 -15.2683 -15.2475 -15.1367 -14.9977 -14.7364 -13.9989 -13.4197
   -13.4196  -6.7702  -5.2146  -4.2443  -4.0412  -3.4238  -3.3989  -3.1493
    -3.1126  -3.1043  -3.0481  -2.8761  -2.8598  -2.8446  -2.8190  -2.7877
    -2.7821  -2.7757  -2.7618  -2.7433  -2.7081  -2.6752  -2.6498  -2.6272
    -2.6222  -2.6129  -2.5825  -2.5690  -2.5432  -2.5243  -2.5016  -2.4857
    -2.4715  -2.4612  -2.2807  -2.1961  -2.1597  -2.0960  -2.0868  -2.0624
    -2.0191  -2.0104  -1.9909  -1.9452  -1.8099  -1.6972  -1.6563  -1.6379
    -1.5604  -1.5225  -1.4478  -1.3848  -1.3446  -1.3364  -1.2878  -1.2235
    -1.1771  -1.1606  -1.1018  -1.0693  -1.0200  -1.0039  -0.9549  -0.9149
    -0.9108  -0.8352  -0.7818  -0.7613  -0.7246  -0.7201  -0.6814  -0.6261
    -0.6092  -0.5753  -0.4582  -0.4334  -0.3221  -0.2417  -0.1910   0.0074
     0.0812   0.1181   0.1726   0.2384   0.3203   0.3423   0.3539   0.3641
     0.4155   0.4659   0.5734   0.5847   0.6193   0.7433   1.1871   1.4005
     1.4540   1.4547   1.5269   1.5271   3.4794   3.4964   3.5190   3.5339
     3.6872   3.6923   3.7139   3.7147   3.8419   3.8565

     the Fermi energy is     3.1795 ev

!    total energy              =   -2936.63876765 Ry
     estimated scf accuracy    <       0.00000004 Ry
     smearing contrib. (-TS)   =      -0.02149922 Ry
     internal energy E=F+TS    =   -2936.61726842 Ry

     The total energy is F=E-TS. E is the sum of the following terms:
     one-electron contribution =  -24412.53140072 Ry
     hartree contribution      =   12291.60891841 Ry
     xc contribution           =    -483.58972934 Ry
     ewald contribution        =    9667.89411832 Ry
     electric field correction =       0.00082490 Ry

     convergence has been achieved in  64 iterations

     Forces acting on atoms (cartesian axes, Ry/au):

     atom    1 type  1   force =     0.00001064   -0.00025178    0.09653075
     atom    2 type  1   force =     0.00006247   -0.00047970   -0.17540240
     atom    3 type  2   force =     0.00017430   -0.00005922   -0.02449452
     atom    4 type  2   force =     0.00003337   -0.00142511    0.05286930
     atom    5 type  2   force =    -0.01166629   -0.00077576    0.00291132
     atom    6 type  2   force =     0.01353846   -0.00029168    0.00322657
     atom    7 type  1   force =     0.00094939    0.00042370   -0.01152949
     atom    8 type  1   force =    -0.00000661    0.00992672    0.02613180
     atom    9 type  2   force =    -0.00030800    0.00021230    0.00024481
     atom   10 type  2   force =    -0.00267394    0.00000297   -0.01399958
     atom   11 type  2   force =     0.00068937    0.00022564    0.00032217
     atom   12 type  2   force =    -0.00057939    0.00001131   -0.00002281
     atom   13 type  1   force =     0.00035908   -0.00029844    0.00038754
     atom   14 type  1   force =    -0.00059819   -0.00055521   -0.00049455
     atom   15 type  2   force =    -0.00014260   -0.00017795    0.00060903
     atom   16 type  2   force =     0.00023517   -0.00010697   -0.00033951
     atom   17 type  2   force =     0.00009435    0.00014100   -0.00018786
     atom   18 type  2   force =    -0.00030058    0.00028185   -0.00028806
     atom   19 type  1   force =    -0.00049521   -0.00002993   -0.00069746
     atom   20 type  1   force =     0.00047428   -0.00007916   -0.00004921
     atom   21 type  2   force =     0.00006016    0.00001855    0.10327359
     atom   22 type  2   force =     0.00014371   -0.00028289   -0.00029172
     atom   23 type  2   force =    -0.07146273   -0.00007394   -0.02761646
     atom   24 type  2   force =     0.07143712    0.00039638   -0.02769600
     atom   25 type  1   force =     0.00025337   -0.00023943    0.09598089
     atom   26 type  1   force =     0.00010400   -0.00027718   -0.17569805
     atom   27 type  2   force =     0.00019968   -0.00017228   -0.02352956
     atom   28 type  2   force =     0.00004840   -0.00120695    0.05302033
     atom   29 type  2   force =    -0.01183827   -0.00001544    0.00275663
     atom   30 type  2   force =     0.01361394    0.00036007    0.00305158
     atom   31 type  1   force =     0.00086244    0.00350214   -0.01215416
     atom   32 type  1   force =     0.00012312   -0.01160572    0.02660424
     atom   33 type  2   force =    -0.00010095    0.00007654   -0.00034306
     atom   34 type  2   force =    -0.00274400   -0.00024643   -0.02148800
     atom   35 type  2   force =     0.00043411   -0.00004079    0.00029339
     atom   36 type  2   force =    -0.00034472   -0.00023374   -0.00022087
     atom   37 type  1   force =     0.00046382   -0.00076506   -0.00039374
     atom   38 type  1   force =    -0.00058876    0.00095035    0.00011423
     atom   39 type  2   force =    -0.00029407   -0.00017755    0.00074127
     atom   40 type  2   force =     0.00010011    0.00020135    0.00000182
     atom   41 type  2   force =     0.00001390    0.00026707   -0.00011632
     atom   42 type  2   force =     0.00001399    0.00014927   -0.00005757
     atom   43 type  1   force =    -0.00003552    0.00057999   -0.00067176
     atom   44 type  1   force =     0.00027434    0.00110090   -0.00090645
     atom   45 type  2   force =     0.00006415    0.00002175    0.10324492
     atom   46 type  2   force =    -0.07150327   -0.00000267   -0.02764577
     atom   47 type  2   force =     0.07144415    0.00037764   -0.02770377
     atom   48 type  3   force =     0.00247375   -0.00173684    0.00516986
     atom   49 type  4   force =    -0.00380272    0.00190600   -0.00590588
     atom   50 type  5   force =     0.00063661    0.00076278    0.00106599
     atom   51 type  3   force =     0.00010012   -0.00028845    0.00139257

     Total force =     0.367588     Total SCF correction =     0.000336
  @ DRIVER MODE: Message from server: STATUS
  @ DRIVER MODE: Message from server: GETFORCE
  @ DRIVER MODE: Returning v,forces,stress,ensemble

     Writing output data file ./calc.save/
  @ DRIVER MODE: Message from server: EXIT
  @ DRIVE MODE: Exiting

     General routines

     Parallel routines

   This run was terminated on:  17:49:12  23Aug2021

   JOB DONE.