     Program PWSCF v.6.7GPU starts on 16Sep2021 at  6: 4: 2

     R & G space division:  proc/nbgrp/npool/nimage =      10
     Reading input from /storage/home/hcoda1/3/ntian30/research/carbon/CxH_vib/H2O_calc/ads_slab/CH3NHNH2H2O_a/out_0041/pw.inp
Warning: card &CELL ignored
Warning: card   CELL_DYNAMICS='IPI', ignored
Warning: card / ignored

     Current dimensions of program PWSCF are:
     Max number of different atomic species (ntypx) = 10
     Max number of k-points (npk) =  40000
     Max angular momentum in pseudopotentials (lmaxx) =  3
     Presently no symmetry can be used with electric field

     Message from routine cell_base_init:
     DEPRECATED: use true lattice parameter, not A to a.u. conversion factor

     IMPORTANT: XC functional enforced from input :
     Exchange-correlation= BEEF-VDW
                           (   1   4  43  14   2   0   0)
     Any further DFT definition will be discarded
     Please, verify this is what you really want

  @ DRIVER MODE: Connecting to
 qe_1139763_2852619.sched-torque.pace.gatech.eduz2xpdxxh_scratch
  using UNIX socket
  @ DRIVER MODE: Message from server: STATUS
  @ DRIVER MODE: Message from server: INIT
  @ DRIVER MODE: Receiving replica           0          -1
  @ DRIVER MODE: Receiving encoded integer          25
  @ DRIVER MODE:  SCF:  T  FORCE:  T  STRESS:  F  VC:  F  ENSEMBLE:  F
  @ DRIVER MODE:  SCF:  T  FORCE:  T  STRESS:  F  VC:  F  ENSEMBLE:  F

     Using Slab Decomposition

     bravais-lattice index     =            0
     lattice parameter (alat)  =       1.8897  a.u.
     unit-cell volume          =    6658.9804 (a.u.)^3
     number of atoms/cell      =           59
     number of atomic types    =            5
     number of electrons       =       406.00
     number of Kohn-Sham states=          213
     kinetic-energy cutoff     =      29.3995  Ry
     charge density cutoff     =     293.9946  Ry
     scf convergence threshold =      7.3E-08
     mixing beta               =       0.0500
     number of iterations used =            8  plain     mixing
     Exchange-correlation= BEEF-VDW
                           (   1   4  43  14   2   0   0)

     celldm(1)=   1.889726  celldm(2)=   0.000000  celldm(3)=   0.000000
     celldm(4)=   0.000000  celldm(5)=   0.000000  celldm(6)=   0.000000

     crystal axes: (cart. coord. in units of alat)
               a(1) = (   6.579727   0.000000   0.000000 )
               a(2) = (  -0.000775   5.961596   0.000000 )
               a(3) = (   0.000000   0.000000  25.155947 )

     reciprocal axes: (cart. coord. in units 2 pi/alat)
               b(1) = (  0.151982  0.000020  0.000000 )
               b(2) = (  0.000000  0.167740  0.000000 )
               b(3) = (  0.000000  0.000000  0.039752 )

     PseudoPot. # 1 for Ti read from file:
     /storage/coda1/p-amedford6/0/shared/rich_project_chbe-medford/medford-share/data/pseudos_module/espresso/nninc/pbe/van/Ti.UPF
     MD5 check sum: 8e4df49b7f0d34bbd5052bf3f5ea0213
     Pseudo is Ultrasoft, Zval = 12.0
     Generated by new atomic code, or converted to UPF format
     Using radial grid of  851 points,  6 beta functions with:
                l(1) =   0
                l(2) =   0
                l(3) =   1
                l(4) =   1
                l(5) =   2
                l(6) =   2
     Q(r) pseudized with  8 coefficients,  rinner =    1.000   1.000   1.000
                                                       1.000   1.000

     PseudoPot. # 2 for O  read from file:
     /storage/coda1/p-amedford6/0/shared/rich_project_chbe-medford/medford-share/data/pseudos_module/espresso/nninc/pbe/van/O.UPF
     MD5 check sum: 78c19812648e8988a0fe644b0f25305e
     Pseudo is Ultrasoft, Zval =  6.0
     Generated by new atomic code, or converted to UPF format
     Using radial grid of  737 points,  4 beta functions with:
                l(1) =   0
                l(2) =   0
                l(3) =   1
                l(4) =   1
     Q(r) pseudized with  8 coefficients,  rinner =    0.800   0.800   0.800

     PseudoPot. # 3 for N  read from file:
     /storage/coda1/p-amedford6/0/shared/rich_project_chbe-medford/medford-share/data/pseudos_module/espresso/nninc/pbe/van/N.UPF
     MD5 check sum: 90d10febe142ad51ac9d5be1deb811c4
     Pseudo is Ultrasoft, Zval =  5.0
     Generated by new atomic code, or converted to UPF format
     Using radial grid of  729 points,  4 beta functions with:
                l(1) =   0
                l(2) =   0
                l(3) =   1
                l(4) =   1
     Q(r) pseudized with  8 coefficients,  rinner =    0.800   0.800   0.800

     PseudoPot. # 4 for C  read from file:
     /storage/coda1/p-amedford6/0/shared/rich_project_chbe-medford/medford-share/data/pseudos_module/espresso/nninc/pbe/van/C.UPF
     MD5 check sum: 1a69bf6b8db32088f5b2163dbdb77a27
     Pseudo is Ultrasoft, Zval =  4.0
     Generated by new atomic code, or converted to UPF format
     Using radial grid of  721 points,  4 beta functions with:
                l(1) =   0
                l(2) =   0
                l(3) =   1
                l(4) =   1
     Q(r) pseudized with  8 coefficients,  rinner =    0.800   0.800   0.800

     PseudoPot. # 5 for H  read from file:
     /storage/coda1/p-amedford6/0/shared/rich_project_chbe-medford/medford-share/data/pseudos_module/espresso/nninc/pbe/van/H.UPF
     MD5 check sum: b5ee9d7bfd3a09ee7748110bda690ff7
     Pseudo is Ultrasoft, Zval =  1.0
     Generated by new atomic code, or converted to UPF format
     Using radial grid of  615 points,  1 beta functions with:
                l(1) =   0
     Q(r) pseudized with  8 coefficients,  rinner =    0.800

     atomic species   valence    mass     pseudopotential
        Ti1           12.00    47.86700     Ti( 1.00)
        O1             6.00    15.99900     O ( 1.00)
        N1             5.00    14.00700     N ( 1.00)
        C1             4.00    12.01100     C ( 1.00)
        H1             1.00     1.00800     H ( 1.00)

     No symmetry found

   Cartesian axes

     site n.     atom                  positions (alat units)
         1           Ti1 tau(   1) = (   0.0004258   2.9801865   6.0000000  )
         2           Ti1 tau(   2) = (   3.2906075   1.4906267   6.0002472  )
         3           O1  tau(   3) = (   0.0006271   0.0005054   7.9858123  )
         4           O1  tau(   4) = (   3.2906025   0.0005020   7.3038282  )
         5           O1  tau(   5) = (   4.5942328   1.4918067   9.2879030  )
         6           O1  tau(   6) = (   1.9868534   1.4903216   9.2879459  )
         7           Ti1 tau(   7) = (   3.2907910   2.8959150   9.1758416  )
         8           Ti1 tau(   8) = (   0.0015273   1.4827037   9.2680791  )
         9           O1  tau(   9) = (   3.2683845   0.0132936  11.3796717  )
        10           O1  tau(  10) = (   0.0116148   5.9584955  10.6183126  )
        11           O1  tau(  11) = (   1.2681313   1.5011218  12.7194972  )
        12           O1  tau(  12) = (   5.2787963   1.4993765  12.6897032  )
        13           Ti1 tau(  13) = (   6.5560253   2.9823375  12.4990790  )
        14           Ti1 tau(  14) = (   3.2673924   1.4925278  12.5394213  )
        15           O1  tau(  15) = (   6.5345332   5.8735037  14.6996474  )
        16           O1  tau(  16) = (   3.2898196   5.9462848  13.9939205  )
        17           O1  tau(  17) = (   4.4957945   1.5291507  16.1605787  )
        18           O1  tau(  18) = (   1.9883785   1.5110281  16.0762771  )
        19           Ti1 tau(  19) = (   3.2526948   3.0056396  15.7740191  )
        20           Ti1 tau(  20) = (   0.0000763   1.3299063  15.8143521  )
        21           O1  tau(  21) = (   3.2904802   0.0005063   4.7018136  )
        22           O1  tau(  22) = (   6.5205728   0.2065101  17.2442985  )
        23           O1  tau(  23) = (   1.3043587   1.4918075   6.0039043  )
        24           O1  tau(  24) = (   5.2767064   1.4903225   6.0039473  )
        25           Ti1 tau(  25) = (   0.0000382   5.9609847   6.0000000  )
        26           Ti1 tau(  26) = (   3.2902200   4.4714249   6.0002472  )
        27           O1  tau(  27) = (   0.0002396   2.9813036   7.9858123  )
        28           O1  tau(  28) = (   3.2902150   2.9813002   7.3038282  )
        29           O1  tau(  29) = (   4.5938453   4.4726049   9.2879030  )
        30           O1  tau(  30) = (   1.9864658   4.4711199   9.2879459  )
        31           Ti1 tau(  31) = (   3.2891106   5.8743827   9.1763621  )
        32           Ti1 tau(  32) = (   0.0006254   4.4649316   9.2693709  )
        33           O1  tau(  33) = (   3.2688559   2.9716192  11.3757022  )
        34           O1  tau(  34) = (   0.0092240   2.9805883  10.6323155  )
        35           O1  tau(  35) = (   1.2711362   4.4646907  12.6658965  )
        36           O1  tau(  36) = (   5.2748280   4.4660984  12.6332574  )
        37           Ti1 tau(  37) = (   6.5627654   5.9477838  12.5072267  )
        38           Ti1 tau(  38) = (   3.2667511   4.4702655  12.5260729  )
        39           O1  tau(  39) = (   6.5087961   3.0586107  15.0099536  )
        40           O1  tau(  40) = (   3.2849776   3.0149387  13.9815115  )
        41           O1  tau(  41) = (   4.4906635   4.4862850  16.2792570  )
        42           O1  tau(  42) = (   1.9756856   4.4939852  16.2100911  )
        43           Ti1 tau(  43) = (   3.2747729   0.0241646  15.7895078  )
        44           Ti1 tau(  44) = (   6.5697470   4.5456975  16.1185117  )
        45           O1  tau(  45) = (   3.2900926   2.9813045   4.7018136  )
        46           O1  tau(  46) = (   1.3039711   4.4726057   6.0039043  )
        47           O1  tau(  47) = (   5.2763189   4.4711207   6.0039473  )
        48           N1  tau(  48) = (   0.9980056   3.0961469  19.0053282  )
        49           N1  tau(  49) = (   6.4063515   3.4839273  18.2229180  )
        50           C1  tau(  50) = (   1.6570833   4.2684698  19.5811903  )
        51           H1  tau(  51) = (   0.9936588   4.8902639  20.1979557  )
        52           H1  tau(  52) = (   2.4789334   3.9063689  20.1993048  )
        53           H1  tau(  53) = (   2.0598354   4.8861676  18.7819781  )
        54           H1  tau(  54) = (   0.6510520   2.5058952  19.7502174  )
        55           H1  tau(  55) = (   5.8507131   4.1735594  18.7414995  )
        56           H1  tau(  56) = (   5.8147758   2.6545292  18.1916272  )
        57           O1  tau(  57) = (   5.1718451   0.7889162  19.5681371  )
        58           H1  tau(  58) = (   5.5516362   0.5215711  18.6954158  )
        59           H1  tau(  59) = (   4.2099197   0.7512590  19.4668632  )

     number of k points=    10  Fermi-Dirac smearing, width (Ry)=  0.0073
                       cart. coord. in units 2pi/alat
        k(    1) = (   0.0000000   0.0000000   0.0000000), wk =   0.1250000
        k(    2) = (   0.0000000   0.0419351   0.0000000), wk =   0.2500000
        k(    3) = (   0.0000000  -0.0838702   0.0000000), wk =   0.1250000
        k(    4) = (   0.0379955   0.0000049   0.0000000), wk =   0.2500000
        k(    5) = (   0.0379955   0.0419400   0.0000000), wk =   0.2500000
        k(    6) = (   0.0379955  -0.0838652   0.0000000), wk =   0.2500000
        k(    7) = (   0.0379955  -0.0419301   0.0000000), wk =   0.2500000
        k(    8) = (  -0.0759910  -0.0000099   0.0000000), wk =   0.1250000
        k(    9) = (  -0.0759910   0.0419252   0.0000000), wk =   0.2500000
        k(   10) = (  -0.0759910  -0.0838800   0.0000000), wk =   0.1250000

     Initial potential from superposition of free atoms

     starting charge  389.99912, renormalised to  406.00000

     negative rho (up, down):  1.389E-02 0.000E+00

     %%%%%%%%%%%%%%%%%%%%%%%%%%%%%%%%%%%%%%%%%%%%%%%%%%%%%%%%%%%%%%%%%%%%%%%%
     %                                                                      %
     % You are using vdW-DF, which was implemented by the Thonhauser group. %
     % Please cite the following two papers that made this development      %
     % possible and the two reviews that describe the various versions:     %
     %                                                                      %
     %   T. Thonhauser et al., PRL 115, 136402 (2015).                      %
     %   T. Thonhauser et al., PRB 76, 125112 (2007).                       %
     %   K. Berland et al., Rep. Prog. Phys. 78, 066501 (2015).             %
     %   D.C. Langreth et al., J. Phys.: Condens. Matter 21, 084203 (2009). %
     %                                                                      %
     %                                                                      %
     % If you are calculating the stress with vdW-DF, please also cite:     %
     %                                                                      %
     %   R. Sabatini et al., J. Phys.: Condens. Matter 24, 424209 (2012).   %
     %                                                                      %
     %%%%%%%%%%%%%%%%%%%%%%%%%%%%%%%%%%%%%%%%%%%%%%%%%%%%%%%%%%%%%%%%%%%%%%%%

     Adding external electric field

     Computed dipole along edir(3) :
        Dipole              -16.7169 Ry au,        -42.4900 Debye
        Dipole field         -0.0315 Ry au,

        Potential amp.        2.9244 Ry
        Total length         46.3494 bohr

     Starting wfcs are  308 atomic wfcs
  @ DRIVER MODE: Message from server: STATUS
  @ DRIVER MODE: Message from server: POSDATA
  @ DRIVER MODE: Reading and sharing cell
  @ DRIVER MODE: Reading and sharing positions
  @ DRIVER MODE: Received positions

     Self-consistent Calculation

     iteration #  1     ecut=    29.40 Ry     beta= 0.05
     Davidson diagonalization with overlap
     c_bands:  2 eigenvalues not converged
     c_bands:  3 eigenvalues not converged
     c_bands:  2 eigenvalues not converged
     c_bands:  4 eigenvalues not converged
     c_bands:  1 eigenvalues not converged
     c_bands:  4 eigenvalues not converged
     c_bands:  3 eigenvalues not converged
     c_bands:  5 eigenvalues not converged
     c_bands:  3 eigenvalues not converged
     ethr =  1.00E-05,  avg # of iterations = 24.8

[...]

     total energy              =   -2136.62699297 Ry
     estimated scf accuracy    <    9692.87293316 Ry

     iteration #  2     ecut=    29.40 Ry     beta= 0.05
     Davidson diagonalization with overlap
     ethr =  1.00E-02,  avg # of iterations = 32.3

[...]

     iteration # 66     ecut=    29.40 Ry     beta= 0.05
     Davidson diagonalization with overlap
     c_bands:  1 eigenvalues not converged
     ethr =  1.04E-10,  avg # of iterations = 14.4

[...]

     total energy              =   -2977.68374432 Ry
     estimated scf accuracy    <       0.00000008 Ry

     iteration # 71     ecut=    29.40 Ry     beta= 0.05
     Davidson diagonalization with overlap
     ethr =  1.89E-11,  avg # of iterations =  2.2

     negative rho (up, down):  1.439E-02 0.000E+00

     Adding external electric field

     Computed dipole along edir(3) :
        Dipole                1.0203 Ry au,          2.5932 Debye
        Dipole field          0.0019 Ry au,

        Potential amp.       -0.1785 Ry
        Total length         46.3494 bohr

     End of self-consistent calculation

          k = 0.0000 0.0000 0.0000 ( 18029 PWs)   bands (ev):

   -55.3598 -55.3225 -55.3107 -55.2930 -55.2766 -55.2405 -55.2389 -55.2040
   -55.1830 -55.1815 -55.1486 -55.1426 -55.1090 -55.0182 -54.3426 -54.3085
   -31.9261 -31.8086 -31.8037 -31.7275 -31.6760 -31.6722 -31.6721 -31.6491
   -31.5995 -31.5951 -31.5719 -31.5694 -31.5555 -31.5391 -31.5302 -31.5267
   -31.5142 -31.5071 -31.4967 -31.4792 -31.4642 -31.4634 -31.4352 -31.4250
   -31.4173 -31.4136 -31.3930 -31.3855 -31.3690 -31.3679 -31.3629 -31.3539
   -31.3418 -31.3407 -31.3321 -31.3295 -31.2966 -31.2933 -31.2710 -31.2538
   -31.2304 -31.2283 -30.7521 -30.6575 -30.6354 -30.5684 -30.4816 -30.3707
   -18.0061 -17.6471 -16.1935 -15.9329 -15.7874 -15.6588 -15.5614 -15.4330
   -15.4137 -15.2918 -15.2216 -15.1179 -15.0667 -15.0483 -15.0124 -15.0022
   -14.9791 -14.9085 -14.9024 -14.8883 -14.8644 -14.8557 -14.8095 -14.8017
   -14.7605 -14.7362 -14.7118 -14.6129 -14.5230 -14.4482 -14.3411 -13.1597
   -12.8453 -12.7278  -9.4325  -6.3274  -5.8782  -5.7449  -4.2589  -3.5320
    -3.3832  -3.3145  -3.2783  -3.2530  -3.1195  -2.9630  -2.9305  -2.8072
    -2.7892  -2.6945  -2.6449  -2.5735  -2.5570  -2.5417  -2.3954  -2.3732
    -2.3484  -2.2814  -2.2543  -2.1878  -2.1656  -2.1552  -2.1452  -2.1221
    -2.0941  -2.0516  -1.9930  -1.9336  -1.8403  -1.8152  -1.7641  -1.7352
    -1.7139  -1.6970  -1.6513  -1.6404  -1.6007  -1.5863  -1.5670  -1.5520
    -1.3892  -1.3670  -1.2647  -1.2033  -1.1042  -1.0001  -0.9645  -0.9498
    -0.8529  -0.8344  -0.7819  -0.7412  -0.7382  -0.7036  -0.5917  -0.5292
    -0.4767  -0.4132  -0.3907  -0.3503  -0.2824  -0.1998  -0.1432  -0.1293
    -0.1136  -0.0976   0.0131   0.0255   0.0772   0.1521   0.1616   0.1677
     0.2411   0.2979   0.3682   0.3928   0.4109   0.5159   0.5315   0.5639
     0.5696   0.5994   0.6202   0.6452   0.7054   0.7357   0.8189   0.9406
     1.1323   1.2217   1.2490   1.3643   1.5721   1.5845   1.6801   1.8634
     2.2565   2.3048   3.7371   3.8083   3.8830   3.8870   3.9096   3.9734
     4.2103   4.2277   4.2421   4.2457   4.2699

[...]

          k = 0.0380-0.0419 0.0000 ( 17876 PWs)   bands (ev):

[...]

          k =-0.0760-0.0000 0.0000 ( 17886 PWs)   bands (ev):

[...]

          k =-0.0760-0.0839 0.0000 ( 17948 PWs)   bands (ev):

   -55.3461 -55.3360 -55.2938 -55.2933 -55.2917 -55.2334 -55.2285 -55.2161
   -55.1870 -55.1670 -55.1641 -55.1262 -55.1256 -55.0193 -54.3256 -54.3253
   -31.7342 -31.7263 -31.7242 -31.6398 -31.6201 -31.6189 -31.6185 -31.5848
   -31.5845 -31.5732 -31.5592 -31.5580 -31.5512 -31.5314 -31.5197 -31.5062
   -31.4999 -31.4966 -31.4951 -31.4936 -31.4868 -31.4793 -31.4471 -31.4396
   -31.4365 -31.4362 -31.4221 -31.4176 -31.4136 -31.4131 -31.4071 -31.3998
   -31.3974 -31.3801 -31.3770 -31.3746 -31.3600 -31.3568 -31.3070 -31.3067
   -31.3007 -31.2342 -30.6482 -30.6479 -30.5647 -30.5644 -30.5251 -30.5249
   -17.9940 -17.6561 -15.6741 -15.5890 -15.5680 -15.4130 -15.3614 -15.3349
   -15.3239 -15.2086 -15.1661 -15.1470 -15.1324 -15.1105 -15.0724 -15.0628
   -15.0559 -14.9927 -14.9724 -14.9635 -14.9375 -14.8837 -14.8762 -14.8682
   -14.8604 -14.8105 -14.8067 -14.7670 -14.7159 -14.7124 -14.6374 -13.1659
   -12.8293 -12.8292  -9.4375  -6.3481  -5.9099  -5.6603  -4.2368  -2.9411
    -2.8471  -2.8364  -2.8298  -2.7053  -2.6264  -2.5511  -2.5288  -2.5083
    -2.4217  -2.4094  -2.3787  -2.3536  -2.3238  -2.2847  -2.2472  -2.2408
    -2.2046  -2.1960  -2.1801  -2.1635  -2.1421  -2.1271  -2.0927  -2.0819
    -2.0688  -2.0249  -1.9985  -1.9850  -1.9633  -1.9433  -1.9353  -1.9166
    -1.8424  -1.7517  -1.7269  -1.6417  -1.5737  -1.5706  -1.5649  -1.5027
    -1.4593  -1.4210  -1.3959  -1.3789  -1.2396  -1.1682  -1.1240  -1.1098
    -1.0951  -0.9643  -0.9582  -0.8822  -0.8595  -0.8531  -0.7607  -0.7153
    -0.6764  -0.6695  -0.5828  -0.5708  -0.4948  -0.3964  -0.3744  -0.3607
    -0.3156  -0.3138  -0.2763  -0.2633  -0.1669  -0.1315  -0.1100  -0.0976
    -0.0811  -0.0393   0.1114   0.1606   0.1671   0.2999   0.3320   0.4705
     0.5004   0.5646   0.6445   0.6932   0.7456   0.7784   0.8647   0.9397
     0.9429   1.0063   1.0219   1.0879   1.1001   1.3705   2.0363   2.0369
     2.1246   2.1250   3.8853   4.0003   4.0038   4.0331   4.1551   4.1786
     4.2548   4.2824   4.3216   4.3249   4.3831

     the Fermi energy is     3.8012 ev

!    total energy              =   -2977.68377524 Ry
     estimated scf accuracy    <       0.00000006 Ry
     smearing contrib. (-TS)   =      -0.03717494 Ry
     internal energy E=F+TS    =   -2977.64660030 Ry

     The total energy is F=E-TS. E is the sum of the following terms:
     one-electron contribution =  -22682.35097245 Ry
     hartree contribution      =   11438.54003931 Ry
     xc contribution           =    -496.62144626 Ry
     ewald contribution        =    8762.78381475 Ry
     electric field correction =       0.00196434 Ry

     convergence has been achieved in  71 iterations

     Forces acting on atoms (cartesian axes, Ry/au):

     atom    1 type  1   force =     0.00024646   -0.00038074    0.09323814
     atom    2 type  1   force =     0.00002036   -0.00038279   -0.17816296
     atom    3 type  2   force =     0.00005011   -0.00041835   -0.02002237
     atom    4 type  2   force =     0.00001123   -0.00190045    0.05909763
     atom    5 type  2   force =    -0.01034876   -0.00059453    0.00861779
     atom    6 type  2   force =     0.01129808    0.00009526    0.00628597
     atom    7 type  1   force =    -0.00096659    0.00198343   -0.01426366
     atom    8 type  1   force =     0.00097593   -0.00255997   -0.00599215
     atom    9 type  2   force =     0.00016795   -0.00001604    0.00010606
     atom   10 type  2   force =    -0.00230870    0.00308908    0.00262749
     atom   11 type  2   force =     0.00042396   -0.00042939   -0.00055500
     atom   12 type  2   force =     0.00003135   -0.00040831   -0.00056026
     atom   13 type  1   force =     0.00034346   -0.00027724   -0.00020508
     atom   14 type  1   force =     0.00004867   -0.00008960   -0.00006138
     atom   15 type  2   force =     0.00000074    0.00063587   -0.00002183
     atom   16 type  2   force =     0.00030660    0.00027746   -0.00011446
     atom   17 type  2   force =     0.00039238    0.00024360    0.00037235
     atom   18 type  2   force =    -0.00051985    0.00020186   -0.00009264
     atom   19 type  1   force =    -0.00013390    0.00007623    0.00032175
     atom   20 type  1   force =    -0.00008901   -0.00011464    0.00051606
     atom   21 type  2   force =     0.00012039   -0.00011045    0.10399148
     atom   22 type  2   force =     0.00017532   -0.00024283    0.00059051
     atom   23 type  2   force =    -0.07028984   -0.00019305   -0.02687215
     atom   24 type  2   force =     0.07027012    0.00025105   -0.02687247
     atom   25 type  1   force =     0.00017363   -0.00030789    0.09242660
     atom   26 type  1   force =     0.00005726   -0.00054372   -0.17849168
     atom   27 type  2   force =     0.00008234   -0.00020547   -0.01908681
     atom   28 type  2   force =     0.00006012   -0.00173118    0.05851684
     atom   29 type  2   force =    -0.01101182   -0.00114287    0.00945359
     atom   30 type  2   force =     0.01186984   -0.00069942    0.00723698
     atom   31 type  1   force =    -0.00087990    0.00646815   -0.01492502
     atom   32 type  1   force =     0.00102140    0.00219942   -0.00639347
     atom   33 type  2   force =     0.00025909    0.00009396    0.00003532
     atom   34 type  2   force =    -0.00214446   -0.00242969   -0.00030255
     atom   35 type  2   force =     0.00028406    0.00013015    0.00000556
     atom   36 type  2   force =     0.00025253    0.00003874    0.00052293
     atom   37 type  1   force =    -0.00009555    0.00003251   -0.00004266
     atom   38 type  1   force =     0.00015298   -0.00007187    0.00001036
     atom   39 type  2   force =    -0.00010317   -0.00021541    0.00044411
     atom   40 type  2   force =    -0.00014336    0.00008481    0.00007449
     atom   41 type  2   force =    -0.00044191    0.00014945    0.00026714
     atom   42 type  2   force =     0.00024702   -0.00008957   -0.00015269
     atom   43 type  1   force =     0.00039785    0.00028423   -0.00009789
     atom   44 type  1   force =    -0.00004308   -0.00023459    0.00001119
     atom   45 type  2   force =     0.00012481   -0.00011149    0.10392530
     atom   46 type  2   force =    -0.07025397   -0.00013063   -0.02681162
     atom   47 type  2   force =     0.07024791    0.00027534   -0.02687697
     atom   48 type  3   force =     0.00284792    0.00672004   -0.00943376
     atom   49 type  3   force =     0.00028076    0.00038465   -0.00160758
     atom   50 type  4   force =    -0.00052190   -0.00081034    0.00008720
     atom   51 type  5   force =    -0.00073233    0.00033563    0.00041491
     atom   52 type  5   force =     0.00044029    0.00001035    0.00038501
     atom   53 type  5   force =    -0.00006895    0.00008703   -0.00047176
     atom   54 type  5   force =    -0.00276602   -0.00645454    0.00942890
     atom   55 type  5   force =     0.00035399    0.00034874   -0.00022478
     atom   56 type  5   force =    -0.00037466   -0.00078497    0.00056575
     atom   57 type  2   force =    -0.00099607   -0.00064158    0.00079050
     atom   58 type  5   force =     0.00006015   -0.00030110   -0.00019975
     atom   59 type  5   force =     0.00113671    0.00052767   -0.00145249

     Total force =     0.366640     Total SCF correction =     0.000884
  @ DRIVER MODE: Message from server: STATUS
  @ DRIVER MODE: Message from server: GETFORCE
  @ DRIVER MODE: Returning v,forces,stress,ensemble

     Writing output data file ./calc.save/
  @ DRIVER MODE: Message from server: EXIT
  @ DRIVE MODE: Exiting

     General routines

     Parallel routines

   This run was terminated on:   6:25:54  16Sep2021

   JOB DONE.