     Program PWSCF v.6.7GPU starts on 10Sep2021 at 14:45:26

     R & G space division:  proc/nbgrp/npool/nimage =      10
     Reading input from /storage/home/hcoda1/3/ntian30/research/carbon/CxH_vib/CH3_calc/ads_slab/CH3N2H2O_e/out_0052/pw.inp
Warning: card &CELL ignored
Warning: card   CELL_DYNAMICS='IPI', ignored
Warning: card / ignored

     Current dimensions of program PWSCF are:
     Max number of different atomic species (ntypx) = 10
     Max number of k-points (npk) =  40000
     Max angular momentum in pseudopotentials (lmaxx) =  3
     Presently no symmetry can be used with electric field

     Message from routine cell_base_init:
     DEPRECATED: use true lattice parameter, not A to a.u. conversion factor

     IMPORTANT: XC functional enforced from input :
     Exchange-correlation= BEEF-VDW
                           (   1   4  43  14   2   0   0)
     Any further DFT definition will be discarded
     Please, verify this is what you really want

  @ DRIVER MODE: Connecting to
 qe_1139763_2779715.sched-torque.pace.gatech.edu0d0vn6yh_scratch
  using UNIX socket
  @ DRIVER MODE: Message from server: STATUS
  @ DRIVER MODE: Message from server: INIT
  @ DRIVER MODE: Receiving replica           0          -1
  @ DRIVER MODE: Receiving encoded integer          25
  @ DRIVER MODE:  SCF:  T  FORCE:  T  STRESS:  F  VC:  F  ENSEMBLE:  F
  @ DRIVER MODE:  SCF:  T  FORCE:  T  STRESS:  F  VC:  F  ENSEMBLE:  F

     Using Slab Decomposition

     bravais-lattice index     =            0
     lattice parameter (alat)  =       1.8897  a.u.
     unit-cell volume          =    6658.9804 (a.u.)^3
     number of atoms/cell      =           56
     number of atomic types    =            5
     number of electrons       =       403.00
     number of Kohn-Sham states=          211
     kinetic-energy cutoff     =      29.3995  Ry
     charge density cutoff     =     293.9946  Ry
     scf convergence threshold =      7.3E-08
     mixing beta               =       0.0500
     number of iterations used =            8  plain     mixing
     Exchange-correlation= BEEF-VDW
                           (   1   4  43  14   2   0   0)

     celldm(1)=   1.889726  celldm(2)=   0.000000  celldm(3)=   0.000000
     celldm(4)=   0.000000  celldm(5)=   0.000000  celldm(6)=   0.000000

     crystal axes: (cart. coord. in units of alat)
               a(1) = (   6.579727   0.000000   0.000000 )
               a(2) = (  -0.000775   5.961596   0.000000 )
               a(3) = (   0.000000   0.000000  25.155947 )

     reciprocal axes: (cart. coord. in units 2 pi/alat)
               b(1) = (  0.151982  0.000020  0.000000 )
               b(2) = (  0.000000  0.167740  0.000000 )
               b(3) = (  0.000000  0.000000  0.039752 )

     PseudoPot. # 1 for Ti read from file:
     /storage/coda1/p-amedford6/0/shared/rich_project_chbe-medford/medford-share/data/pseudos_module/espresso/nninc/pbe/van/Ti.UPF
     MD5 check sum: 8e4df49b7f0d34bbd5052bf3f5ea0213
     Pseudo is Ultrasoft, Zval = 12.0
     Generated by new atomic code, or converted to UPF format
     Using radial grid of  851 points,  6 beta functions with:
                l(1) =   0
                l(2) =   0
                l(3) =   1
                l(4) =   1
                l(5) =   2
                l(6) =   2
     Q(r) pseudized with  8 coefficients,  rinner =    1.000   1.000   1.000
                                                       1.000   1.000

     PseudoPot. # 2 for O  read from file:
     /storage/coda1/p-amedford6/0/shared/rich_project_chbe-medford/medford-share/data/pseudos_module/espresso/nninc/pbe/van/O.UPF
     MD5 check sum: 78c19812648e8988a0fe644b0f25305e
     Pseudo is Ultrasoft, Zval =  6.0
     Generated by new atomic code, or converted to UPF format
     Using radial grid of  737 points,  4 beta functions with:
                l(1) =   0
                l(2) =   0
                l(3) =   1
                l(4) =   1
     Q(r) pseudized with  8 coefficients,  rinner =    0.800   0.800   0.800

     PseudoPot. # 3 for N  read from file:
     /storage/coda1/p-amedford6/0/shared/rich_project_chbe-medford/medford-share/data/pseudos_module/espresso/nninc/pbe/van/N.UPF
     MD5 check sum: 90d10febe142ad51ac9d5be1deb811c4
     Pseudo is Ultrasoft, Zval =  5.0
     Generated by new atomic code, or converted to UPF format
     Using radial grid of  729 points,  4 beta functions with:
                l(1) =   0
                l(2) =   0
                l(3) =   1
                l(4) =   1
     Q(r) pseudized with  8 coefficients,  rinner =    0.800   0.800   0.800

     PseudoPot. # 4 for C  read from file:
     /storage/coda1/p-amedford6/0/shared/rich_project_chbe-medford/medford-share/data/pseudos_module/espresso/nninc/pbe/van/C.UPF
     MD5 check sum: 1a69bf6b8db32088f5b2163dbdb77a27
     Pseudo is Ultrasoft, Zval =  4.0
     Generated by new atomic code, or converted to UPF format
     Using radial grid of  721 points,  4 beta functions with:
                l(1) =   0
                l(2) =   0
                l(3) =   1
                l(4) =   1
     Q(r) pseudized with  8 coefficients,  rinner =    0.800   0.800   0.800

     PseudoPot. # 5 for H  read from file:
     /storage/coda1/p-amedford6/0/shared/rich_project_chbe-medford/medford-share/data/pseudos_module/espresso/nninc/pbe/van/H.UPF
     MD5 check sum: b5ee9d7bfd3a09ee7748110bda690ff7
     Pseudo is Ultrasoft, Zval =  1.0
     Generated by new atomic code, or converted to UPF format
     Using radial grid of  615 points,  1 beta functions with:
                l(1) =   0
     Q(r) pseudized with  8 coefficients,  rinner =    0.800

     atomic species   valence    mass     pseudopotential
        Ti1           12.00    47.86700     Ti( 1.00)
        O1             6.00    15.99900     O ( 1.00)
        N1             5.00    14.00700     N ( 1.00)
        C1             4.00    12.01100     C ( 1.00)
        H1             1.00     1.00800     H ( 1.00)

     No symmetry found

   Cartesian axes

     site n.     atom                  positions (alat units)
         1           Ti1 tau(   1) = (   0.0004258   2.9801865   6.0000000  )
         2           Ti1 tau(   2) = (   3.2906075   1.4906267   6.0002472  )
         3           O1  tau(   3) = (   0.0006271   0.0005054   7.9858123  )
         4           O1  tau(   4) = (   3.2906025   0.0005020   7.3038282  )
         5           O1  tau(   5) = (   4.5942328   1.4918067   9.2879030  )
         6           O1  tau(   6) = (   1.9868534   1.4903216   9.2879459  )
         7           Ti1 tau(   7) = (   3.2907910   2.8959150   9.1758416  )
         8           Ti1 tau(   8) = (   0.0015273   1.4827037   9.2680791  )
         9           O1  tau(   9) = (   3.2823942   0.0140684  11.3428430  )
        10           O1  tau(  10) = (   0.0116148   5.9584955  10.6183126  )
        11           O1  tau(  11) = (   1.2742013   1.4978990  12.6323156  )
        12           O1  tau(  12) = (   5.2614901   1.5083079  12.6129891  )
        13           Ti1 tau(  13) = (   0.0550148   2.9595524  12.6160221  )
        14           Ti1 tau(  14) = (   3.3718896   1.5084997  12.4944496  )
        15           O1  tau(  15) = (   6.5380961   0.0278828  14.6255036  )
        16           O1  tau(  16) = (   3.2758616   0.0189586  13.9121306  )
        17           O1  tau(  17) = (   4.4976875   1.5333668  16.0433440  )
        18           O1  tau(  18) = (   1.9922867   1.5271532  16.0291573  )
        19           Ti1 tau(  19) = (   3.1858679   3.0241111  15.7732818  )
        20           Ti1 tau(  20) = (   6.4842391   1.5502874  15.8011710  )
        21           O1  tau(  21) = (   3.2904802   0.0005063   4.7018136  )
        22           O1  tau(  22) = (   6.5196731   0.0665875  17.1891134  )
        23           O1  tau(  23) = (   1.3043587   1.4918075   6.0039043  )
        24           O1  tau(  24) = (   5.2767064   1.4903225   6.0039473  )
        25           Ti1 tau(  25) = (   0.0000382   5.9609847   6.0000000  )
        26           Ti1 tau(  26) = (   3.2902200   4.4714249   6.0002472  )
        27           O1  tau(  27) = (   0.0002396   2.9813036   7.9858123  )
        28           O1  tau(  28) = (   3.2902150   2.9813002   7.3038282  )
        29           O1  tau(  29) = (   4.5938453   4.4726049   9.2879030  )
        30           O1  tau(  30) = (   1.9864658   4.4711199   9.2879459  )
        31           Ti1 tau(  31) = (   3.2891106   5.8743827   9.1763621  )
        32           Ti1 tau(  32) = (   0.0006254   4.4649316   9.2693709  )
        33           O1  tau(  33) = (   3.2807012   2.9937711  11.3380227  )
        34           O1  tau(  34) = (   0.0092240   2.9805883  10.6323155  )
        35           O1  tau(  35) = (   1.2734598   4.4826339  12.6318047  )
        36           O1  tau(  36) = (   5.2665626   4.4910389  12.6093644  )
        37           Ti1 tau(  37) = (   0.0550181   5.9329888  12.5453996  )
        38           Ti1 tau(  38) = (   3.3741151   4.4737790  12.4977360  )
        39           O1  tau(  39) = (   6.5373474   2.9946220  14.6524478  )
        40           O1  tau(  40) = (   3.2677173   3.0168568  13.9399215  )
        41           O1  tau(  41) = (   4.4884636   4.5316779  16.1079578  )
        42           O1  tau(  42) = (   1.9830865   4.5332738  16.0531499  )
        43           Ti1 tau(  43) = (   3.2469912   0.0413792  15.7000251  )
        44           Ti1 tau(  44) = (   6.5198411   4.7064707  16.0702691  )
        45           O1  tau(  45) = (   3.2900926   2.9813045   4.7018136  )
        46           O1  tau(  46) = (   1.3039711   4.4726057   6.0039043  )
        47           O1  tau(  47) = (   5.2763189   4.4711207   6.0039473  )
        48           N1  tau(  48) = (   0.0943371   2.6987919  18.6315974  )
        49           N1  tau(  49) = (   6.5718678   2.9345059  17.4339123  )
        50           C1  tau(  50) = (   0.1779456   3.8407003  19.5793842  )
        51           H1  tau(  51) = (   6.4148796   4.7858965  19.1557567  )
        52           H1  tau(  52) = (   6.1971438   3.5603257  20.4715321  )
        53           H1  tau(  53) = (   1.2306852   3.9282498  19.8556806  )
        54           O1  tau(  54) = (   3.3096034   3.0730741  18.2289406  )
        55           H1  tau(  55) = (   4.0988663   3.6297178  18.3192648  )
        56           H1  tau(  56) = (   3.5789210   2.2077314  18.5501991  )

     number of k points=    10  Fermi-Dirac smearing, width (Ry)=  0.0073
                       cart. coord. in units 2pi/alat
        k(    1) = (   0.0000000   0.0000000   0.0000000), wk =   0.1250000
        k(    2) = (   0.0000000   0.0419351   0.0000000), wk =   0.2500000
        k(    3) = (   0.0000000  -0.0838702   0.0000000), wk =   0.1250000
        k(    4) = (   0.0379955   0.0000049   0.0000000), wk =   0.2500000
        k(    5) = (   0.0379955   0.0419400   0.0000000), wk =   0.2500000
        k(    6) = (   0.0379955  -0.0838652   0.0000000), wk =   0.2500000
        k(    7) = (   0.0379955  -0.0419301   0.0000000), wk =   0.2500000
        k(    8) = (  -0.0759910  -0.0000099   0.0000000), wk =   0.1250000
        k(    9) = (  -0.0759910   0.0419252   0.0000000), wk =   0.2500000
        k(   10) = (  -0.0759910  -0.0838800   0.0000000), wk =   0.1250000

     Initial potential from superposition of free atoms

     starting charge  386.99914, renormalised to  403.00000

     negative rho (up, down):  1.478E-02 0.000E+00

     %%%%%%%%%%%%%%%%%%%%%%%%%%%%%%%%%%%%%%%%%%%%%%%%%%%%%%%%%%%%%%%%%%%%%%%%
     %                                                                      %
     % You are using vdW-DF, which was implemented by the Thonhauser group. %
     % Please cite the following two papers that made this development      %
     % possible and the two reviews that describe the various versions:     %
     %                                                                      %
     %   T. Thonhauser et al., PRL 115, 136402 (2015).                      %
     %   T. Thonhauser et al., PRB 76, 125112 (2007).                       %
     %   K. Berland et al., Rep. Prog. Phys. 78, 066501 (2015).             %
     %   D.C. Langreth et al., J. Phys.: Condens. Matter 21, 084203 (2009). %
     %                                                                      %
     %                                                                      %
     % If you are calculating the stress with vdW-DF, please also cite:     %
     %                                                                      %
     %   R. Sabatini et al., J. Phys.: Condens. Matter 24, 424209 (2012).   %
     %                                                                      %
     %%%%%%%%%%%%%%%%%%%%%%%%%%%%%%%%%%%%%%%%%%%%%%%%%%%%%%%%%%%%%%%%%%%%%%%%

     Adding external electric field

     Computed dipole along edir(3) :
        Dipole              -13.2300 Ry au,        -33.6274 Debye
        Dipole field         -0.0250 Ry au,

        Potential amp.        2.3144 Ry
        Total length         46.3494 bohr

     Starting wfcs are  305 atomic wfcs
  @ DRIVER MODE: Message from server: STATUS
  @ DRIVER MODE: Message from server: POSDATA
  @ DRIVER MODE: Reading and sharing cell
  @ DRIVER MODE: Reading and sharing positions
  @ DRIVER MODE: Received positions

     Self-consistent Calculation

     iteration #  1     ecut=    29.40 Ry     beta= 0.05
     Davidson diagonalization with overlap
     c_bands:  5 eigenvalues not converged
     c_bands:  2 eigenvalues not converged
     c_bands:  5 eigenvalues not converged
     c_bands:  5 eigenvalues not converged
     c_bands:  1 eigenvalues not converged
     c_bands:  1 eigenvalues not converged
     c_bands:  1 eigenvalues not converged
     c_bands:  4 eigenvalues not converged
     c_bands:  2 eigenvalues not converged
     c_bands:  1 eigenvalues not converged
     ethr =  1.00E-05,  avg # of iterations = 28.0

[...]

     total energy              =   -2368.10878579 Ry
     estimated scf accuracy    <    6912.41764803 Ry

     iteration #  2     ecut=    29.40 Ry     beta= 0.05
     Davidson diagonalization with overlap
     ethr =  1.00E-02,  avg # of iterations = 24.1

[...]

     iteration # 46     ecut=    29.40 Ry     beta= 0.05
     Davidson diagonalization with overlap
     c_bands:  1 eigenvalues not converged
     ethr =  1.86E-07,  avg # of iterations = 13.9

[...]

     total energy              =   -2973.98630661 Ry
     estimated scf accuracy    <       0.00000012 Ry

     iteration # 63     ecut=    29.40 Ry     beta= 0.05
     Davidson diagonalization with overlap
     ethr =  3.03E-11,  avg # of iterations =  6.6

     negative rho (up, down):  1.504E-02 0.000E+00

     Adding external electric field

     Computed dipole along edir(3) :
        Dipole                0.9056 Ry au,          2.3018 Debye
        Dipole field          0.0017 Ry au,

        Potential amp.       -0.1584 Ry
        Total length         46.3494 bohr

     End of self-consistent calculation

          k = 0.0000 0.0000 0.0000 ( 18029 PWs)   bands (ev):

   -55.6036 -55.5695 -55.5679 -55.5320 -55.4993 -55.4488 -55.4392 -55.4148
   -55.4028 -55.3809 -55.3794 -55.3454 -55.0091 -54.8375 -54.5830 -54.5490
   -32.1128 -32.0863 -31.9594 -31.9432 -31.9135 -31.8965 -31.8817 -31.8692
   -31.8469 -31.8067 -31.7990 -31.7684 -31.7559 -31.7465 -31.7379 -31.7280
   -31.7082 -31.6989 -31.6963 -31.6608 -31.6567 -31.6465 -31.6333 -31.6078
   -31.6034 -31.5987 -31.5934 -31.5864 -31.5788 -31.5693 -31.5548 -31.5547
   -31.5457 -31.5323 -31.5215 -31.5093 -31.4912 -31.2861 -31.1998 -31.0980
   -31.0931 -31.0565 -30.9903 -30.9017 -30.8792 -30.8069 -30.7204 -30.6095
   -19.0956 -18.3034 -16.3182 -16.0772 -15.8750 -15.7600 -15.7193 -15.5268
   -15.4287 -15.3301 -15.2333 -15.1648 -15.1417 -15.1344 -15.1307 -15.1050
   -15.0798 -15.0685 -15.0472 -15.0306 -15.0158 -14.9561 -14.9426 -14.9335
   -14.8440 -14.7890 -14.7546 -14.7357 -14.6782 -14.6596 -14.1778 -13.0854
   -12.9689 -11.2901  -6.8871  -6.7546  -4.1973  -4.0654  -3.8027  -3.6886
    -3.5568  -3.5094  -3.4491  -3.4182  -3.2214  -3.1028  -3.0403  -2.8441
    -2.7870  -2.7593  -2.7297  -2.6589  -2.5220  -2.4718  -2.4205  -2.4141
    -2.4023  -2.3707  -2.3660  -2.3452  -2.2457  -2.2423  -2.1908  -2.1506
    -2.0813  -2.0017  -1.9829  -1.9355  -1.9165  -1.9043  -1.8762  -1.8531
    -1.8423  -1.8073  -1.7950  -1.7216  -1.6187  -1.5503  -1.5014  -1.4640
    -1.3986  -1.3853  -1.2183  -1.1548  -1.1088  -1.0716  -1.0530  -1.0325
    -0.9987  -0.9912  -0.8822  -0.7578  -0.7538  -0.6739  -0.6135  -0.5356
    -0.5279  -0.4499  -0.3925  -0.3741  -0.3617  -0.3507  -0.3218  -0.2493
    -0.1032  -0.0600  -0.0355  -0.0001   0.0291   0.0949   0.1383   0.2078
     0.2427   0.2836   0.3189   0.3429   0.3671   0.3748   0.3899   0.4020
     0.4214   0.6038   0.6638   0.6850   0.7500   0.7794   0.9224   0.9890
     1.0529   1.1596   1.3644   1.4392   1.5299   1.6313   2.0106   2.0564
     2.7717   3.5305   3.6156   3.6623   3.7043   3.7769   3.7948   3.9669
     3.9861   4.0292   4.1860

[...]

          k = 0.0380-0.0419 0.0000 ( 17876 PWs)   bands (ev):

[...]

          k =-0.0760-0.0000 0.0000 ( 17886 PWs)   bands (ev):

[...]

          k =-0.0760-0.0839 0.0000 ( 17948 PWs)   bands (ev):

   -55.5870 -55.5860 -55.5510 -55.5487 -55.4925 -55.4554 -55.4269 -55.4151
   -55.3983 -55.3969 -55.3652 -55.3598 -55.0075 -54.8389 -54.5660 -54.5659
   -31.9269 -31.9114 -31.9019 -31.9012 -31.8823 -31.8814 -31.8513 -31.8172
   -31.7947 -31.7911 -31.7821 -31.7618 -31.7590 -31.7400 -31.7185 -31.7140
   -31.7120 -31.7074 -31.7067 -31.7056 -31.7048 -31.7026 -31.6984 -31.6587
   -31.6478 -31.6346 -31.6245 -31.6108 -31.5981 -31.5975 -31.5955 -31.5881
   -31.5792 -31.5756 -31.5687 -31.5651 -31.4268 -31.2879 -31.2052 -31.1541
   -31.0991 -31.0825 -30.8920 -30.8919 -30.8032 -30.8030 -30.7637 -30.7637
   -19.0911 -18.3047 -15.7646 -15.6828 -15.5603 -15.5217 -15.4781 -15.4343
   -15.4141 -15.3212 -15.3014 -15.2920 -15.2405 -15.2264 -15.2035 -15.1599
   -15.1379 -15.1285 -15.1245 -15.0888 -15.0604 -15.0437 -15.0403 -15.0345
   -14.9721 -14.9233 -14.9212 -14.9163 -14.7896 -14.6607 -14.3564 -13.0708
   -13.0707 -11.2878  -6.8843  -6.7718  -4.1267  -3.8672  -3.7829  -3.2998
    -3.0495  -2.8903  -2.8181  -2.7279  -2.6984  -2.6911  -2.5474  -2.5150
    -2.4853  -2.4377  -2.4329  -2.4289  -2.4217  -2.4059  -2.3991  -2.3828
    -2.3313  -2.3189  -2.2944  -2.2812  -2.2737  -2.2562  -2.2343  -2.2241
    -2.2022  -2.1682  -2.1539  -2.1186  -2.1124  -2.0216  -1.8365  -1.8266
    -1.7795  -1.7462  -1.7321  -1.7069  -1.6699  -1.6564  -1.6483  -1.5967
    -1.4741  -1.4322  -1.3441  -1.2963  -1.2791  -1.2283  -1.1626  -1.1389
    -1.0693  -1.0240  -0.9874  -0.9655  -0.9425  -0.7979  -0.7856  -0.7319
    -0.7187  -0.6818  -0.6346  -0.5760  -0.5636  -0.5534  -0.5372  -0.5034
    -0.4351  -0.3658  -0.3540  -0.3258  -0.2748  -0.2583  -0.2150  -0.1275
    -0.1070  -0.0710   0.0275   0.1295   0.2211   0.3558   0.4416   0.4650
     0.5212   0.5983   0.6963   0.7060   0.7145   0.7507   0.7745   0.8349
     0.9282   0.9482   0.9752   1.0978   1.8026   1.8034   1.8760   1.8762
     2.8128   3.7918   3.8514   3.8969   3.9160   4.0086   4.0418   4.0636
     4.0662   4.1136   4.2031

     the Fermi energy is     3.5297 ev

!    total energy              =   -2973.98634723 Ry
     estimated scf accuracy    <       0.00000006 Ry
     smearing contrib. (-TS)   =      -0.02191475 Ry
     internal energy E=F+TS    =   -2973.96443249 Ry

     The total energy is F=E-TS. E is the sum of the following terms:
     one-electron contribution =  -23875.43463653 Ry
     hartree contribution      =   12032.16990588 Ry
     xc contribution           =    -494.09105363 Ry
     ewald contribution        =    9363.38980410 Ry
     electric field correction =       0.00154770 Ry

     convergence has been achieved in  63 iterations

     Forces acting on atoms (cartesian axes, Ry/au):

     atom    1 type  1   force =     0.00006224   -0.00017664    0.09643516
     atom    2 type  1   force =    -0.00015891   -0.00063962   -0.17546421
     atom    3 type  2   force =    -0.00003567    0.00001630   -0.02464843
     atom    4 type  2   force =     0.00005875   -0.00136698    0.05309327
     atom    5 type  2   force =    -0.01209033    0.00003414    0.00386006
     atom    6 type  2   force =     0.01330977    0.00071141    0.00206690
     atom    7 type  1   force =    -0.00148267    0.00064505   -0.01047683
     atom    8 type  1   force =     0.00072620    0.00971988    0.02661598
     atom    9 type  2   force =    -0.00040458    0.00008699   -0.00032717
     atom   10 type  2   force =    -0.00181032    0.00305919   -0.01772294
     atom   11 type  2   force =    -0.00014150   -0.00023745    0.00012307
     atom   12 type  2   force =    -0.00018632   -0.00029363   -0.00029680
     atom   13 type  1   force =    -0.00020682   -0.00020981   -0.00007660
     atom   14 type  1   force =    -0.00035660   -0.00019186   -0.00033803
     atom   15 type  2   force =     0.00003307   -0.00089438    0.00024380
     atom   16 type  2   force =     0.00006141    0.00015343   -0.00003739
     atom   17 type  2   force =    -0.00004436   -0.00051979    0.00019803
     atom   18 type  2   force =     0.00023462   -0.00038975    0.00035289
     atom   19 type  1   force =     0.00039723   -0.00025247   -0.00020282
     atom   20 type  1   force =     0.00030348   -0.00072582    0.00014813
     atom   21 type  2   force =     0.00008609   -0.00004706    0.10322841
     atom   22 type  2   force =     0.00053958   -0.00049282   -0.00034056
     atom   23 type  2   force =    -0.07146457   -0.00008468   -0.02774562
     atom   24 type  2   force =     0.07140422    0.00030150   -0.02774629
     atom   25 type  1   force =     0.00006855   -0.00029057    0.09591803
     atom   26 type  1   force =    -0.00025684   -0.00023500   -0.17574807
     atom   27 type  2   force =     0.00007112   -0.00008812   -0.02367153
     atom   28 type  2   force =     0.00006306   -0.00118830    0.05337291
     atom   29 type  2   force =    -0.01232371    0.00061793    0.00389964
     atom   30 type  2   force =     0.01348009    0.00110046    0.00206987
     atom   31 type  1   force =    -0.00129924    0.00372664   -0.00846085
     atom   32 type  1   force =     0.00085296   -0.01166641    0.02704751
     atom   33 type  2   force =    -0.00002147    0.00013517   -0.00010804
     atom   34 type  2   force =    -0.00128346    0.00169571   -0.02363456
     atom   35 type  2   force =    -0.00022798   -0.00003677    0.00004624
     atom   36 type  2   force =     0.00003505   -0.00002812    0.00018680
     atom   37 type  1   force =     0.00000856   -0.00018331    0.00016933
     atom   38 type  1   force =    -0.00055974   -0.00028574    0.00055216
     atom   39 type  2   force =     0.00021867   -0.00059988    0.00050514
     atom   40 type  2   force =    -0.00002365   -0.00009500    0.00020717
     atom   41 type  2   force =     0.00021412   -0.00054277   -0.00035089
     atom   42 type  2   force =     0.00015895   -0.00037826   -0.00047015
     atom   43 type  1   force =     0.00074943   -0.00036595    0.00027556
     atom   44 type  1   force =    -0.00003632   -0.00015627   -0.00084388
     atom   45 type  2   force =     0.00009154   -0.00005702    0.10321903
     atom   46 type  2   force =    -0.07146078   -0.00007884   -0.02775126
     atom   47 type  2   force =     0.07140978    0.00035380   -0.02776336
     atom   48 type  3   force =    -0.00046529   -0.00072365    0.00116838
     atom   49 type  3   force =     0.00020095    0.00067087   -0.00049250
     atom   50 type  4   force =    -0.00047908    0.00138048   -0.00040119
     atom   51 type  5   force =     0.00138739   -0.00071729    0.00026303
     atom   52 type  5   force =     0.00025209    0.00006672   -0.00037352
     atom   53 type  5   force =    -0.00003559   -0.00010660    0.00042357
     atom   54 type  2   force =    -0.00409244    0.01494030   -0.00542345
     atom   55 type  5   force =    -0.00014472    0.00124088   -0.00014059
     atom   56 type  5   force =     0.00461397   -0.01631026    0.00536746

     Total force =     0.368618     Total SCF correction =     0.000539
  @ DRIVER MODE: Message from server: STATUS
  @ DRIVER MODE: Message from server: GETFORCE
  @ DRIVER MODE: Returning v,forces,stress,ensemble

     Writing output data file ./calc.save/
  @ DRIVER MODE: Message from server: EXIT
  @ DRIVE MODE: Exiting

     General routines

     Parallel routines

   This run was terminated on:  15: 3: 4  10Sep2021

   JOB DONE.