     Program PWSCF v.6.7GPU starts on 23Sep2021 at  3:10:25

     R & G space division:  proc/nbgrp/npool/nimage =       8
     Reading input from /storage/home/hcoda1/3/ntian30/research/carbon/CxH_vib/H2O_calc/ads_slab/CH2OHO_c/out_0013/pw.inp
Warning: card &CELL ignored
Warning: card   CELL_DYNAMICS='IPI', ignored
Warning: card / ignored

     Current dimensions of program PWSCF are:
     Max number of different atomic species (ntypx) = 10
     Max number of k-points (npk) =  40000
     Max angular momentum in pseudopotentials (lmaxx) =  3
     Presently no symmetry can be used with electric field

     Message from routine cell_base_init:
     DEPRECATED: use true lattice parameter, not A to a.u. conversion factor

     IMPORTANT: XC functional enforced from input :
     Exchange-correlation= BEEF-VDW
                           (   1   4  43  14   2   0   0)
     Any further DFT definition will be discarded
     Please, verify this is what you really want

  @ DRIVER MODE: Connecting to
 qe_1139763_2941011.sched-torque.pace.gatech.edulhr8hlog_scratch
  using UNIX socket
  @ DRIVER MODE: Message from server: STATUS
  @ DRIVER MODE: Message from server: INIT
  @ DRIVER MODE: Receiving replica           0          -1
  @ DRIVER MODE: Receiving encoded integer          25
  @ DRIVER MODE:  SCF:  T  FORCE:  T  STRESS:  F  VC:  F  ENSEMBLE:  F
  @ DRIVER MODE:  SCF:  T  FORCE:  T  STRESS:  F  VC:  F  ENSEMBLE:  F

     Using Slab Decomposition

     bravais-lattice index     =            0
     lattice parameter (alat)  =       1.8897  a.u.
     unit-cell volume          =    6658.9804 (a.u.)^3
     number of atoms/cell      =           53
     number of atomic types    =            4
     number of electrons       =       397.00
     number of Kohn-Sham states=          208
     kinetic-energy cutoff     =      29.3995  Ry
     charge density cutoff     =     293.9946  Ry
     scf convergence threshold =      7.3E-08
     mixing beta               =       0.0500
     number of iterations used =            8  plain     mixing
     Exchange-correlation= BEEF-VDW
                           (   1   4  43  14   2   0   0)

     celldm(1)=   1.889726  celldm(2)=   0.000000  celldm(3)=   0.000000
     celldm(4)=   0.000000  celldm(5)=   0.000000  celldm(6)=   0.000000

     crystal axes: (cart. coord. in units of alat)
               a(1) = (   6.579727   0.000000   0.000000 )
               a(2) = (  -0.000775   5.961596   0.000000 )
               a(3) = (   0.000000   0.000000  25.155947 )

     reciprocal axes: (cart. coord. in units 2 pi/alat)
               b(1) = (  0.151982  0.000020  0.000000 )
               b(2) = (  0.000000  0.167740  0.000000 )
               b(3) = (  0.000000  0.000000  0.039752 )

     PseudoPot. # 1 for O  read from file:
     /storage/coda1/p-amedford6/0/shared/rich_project_chbe-medford/medford-share/data/pseudos_module/espresso/nninc/pbe/van/O.UPF
     MD5 check sum: 78c19812648e8988a0fe644b0f25305e
     Pseudo is Ultrasoft, Zval =  6.0
     Generated by new atomic code, or converted to UPF format
     Using radial grid of  737 points,  4 beta functions with:
                l(1) =   0
                l(2) =   0
                l(3) =   1
                l(4) =   1
     Q(r) pseudized with  8 coefficients,  rinner =    0.800   0.800   0.800

     PseudoPot. # 2 for Ti read from file:
     /storage/coda1/p-amedford6/0/shared/rich_project_chbe-medford/medford-share/data/pseudos_module/espresso/nninc/pbe/van/Ti.UPF
     MD5 check sum: 8e4df49b7f0d34bbd5052bf3f5ea0213
     Pseudo is Ultrasoft, Zval = 12.0
     Generated by new atomic code, or converted to UPF format
     Using radial grid of  851 points,  6 beta functions with:
                l(1) =   0
                l(2) =   0
                l(3) =   1
                l(4) =   1
                l(5) =   2
                l(6) =   2
     Q(r) pseudized with  8 coefficients,  rinner =    1.000   1.000   1.000
                                                       1.000   1.000

     PseudoPot. # 3 for C  read from file:
     /storage/coda1/p-amedford6/0/shared/rich_project_chbe-medford/medford-share/data/pseudos_module/espresso/nninc/pbe/van/C.UPF
     MD5 check sum: 1a69bf6b8db32088f5b2163dbdb77a27
     Pseudo is Ultrasoft, Zval =  4.0
     Generated by new atomic code, or converted to UPF format
     Using radial grid of  721 points,  4 beta functions with:
                l(1) =   0
                l(2) =   0
                l(3) =   1
                l(4) =   1
     Q(r) pseudized with  8 coefficients,  rinner =    0.800   0.800   0.800

     PseudoPot. # 4 for H  read from file:
     /storage/coda1/p-amedford6/0/shared/rich_project_chbe-medford/medford-share/data/pseudos_module/espresso/nninc/pbe/van/H.UPF
     MD5 check sum: b5ee9d7bfd3a09ee7748110bda690ff7
     Pseudo is Ultrasoft, Zval =  1.0
     Generated by new atomic code, or converted to UPF format
     Using radial grid of  615 points,  1 beta functions with:
                l(1) =   0
     Q(r) pseudized with  8 coefficients,  rinner =    0.800

     atomic species   valence    mass     pseudopotential
        O1             6.00    15.99900     O ( 1.00)
        Ti1           12.00    47.86700     Ti( 1.00)
        C1             4.00    12.01100     C ( 1.00)
        H1             1.00     1.00800     H ( 1.00)

     No symmetry found

   Cartesian axes

     site n.     atom                  positions (alat units)
         1           O1  tau(   1) = (   3.2904802   0.0005063   4.7018136  )
         2           O1  tau(   2) = (   3.2900926   2.9813045   4.7018136  )
         3           Ti1 tau(   3) = (   0.0004258   2.9801865   6.0000000  )
         4           Ti1 tau(   4) = (   0.0000382   5.9609847   6.0000000  )
         5           Ti1 tau(   5) = (   3.2906075   1.4906267   6.0002472  )
         6           Ti1 tau(   6) = (   3.2902200   4.4714249   6.0002472  )
         7           O1  tau(   7) = (   1.3043587   1.4918075   6.0039043  )
         8           O1  tau(   8) = (   1.3039711   4.4726057   6.0039043  )
         9           O1  tau(   9) = (   5.2767064   1.4903225   6.0039473  )
        10           O1  tau(  10) = (   5.2763189   4.4711207   6.0039473  )
        11           O1  tau(  11) = (   3.2906025   0.0005020   7.3038282  )
        12           O1  tau(  12) = (   3.2902150   2.9813002   7.3038282  )
        13           O1  tau(  13) = (   0.0006271   0.0005054   7.9858123  )
        14           O1  tau(  14) = (   0.0002396   2.9813036   7.9858123  )
        15           Ti1 tau(  15) = (   3.3202697   0.0919879   9.1698383  )
        16           Ti1 tau(  16) = (   3.3215697   3.0759731   9.1987478  )
        17           Ti1 tau(  17) = (   0.0419684   4.5271873   9.2680259  )
        18           Ti1 tau(  18) = (   0.0391189   1.6041453   9.3419098  )
        19           O1  tau(  19) = (   4.5942328   1.4918067   9.2879030  )
        20           O1  tau(  20) = (   4.5938453   4.4726049   9.2879030  )
        21           O1  tau(  21) = (   1.9868534   1.4903216   9.2879459  )
        22           O1  tau(  22) = (   1.9864658   4.4711199   9.2879459  )
        23           O1  tau(  23) = (   0.0125722   0.0097687  10.5830051  )
        24           O1  tau(  24) = (   0.0081120   2.9918398  10.5664780  )
        25           O1  tau(  25) = (   3.3077729   2.9680546  11.3050536  )
        26           O1  tau(  26) = (   3.3059260   0.0232323  11.3367354  )
        27           Ti1 tau(  27) = (   0.0233359   0.0627999  12.4784840  )
        28           Ti1 tau(  28) = (   3.3058864   4.6637881  12.6801991  )
        29           Ti1 tau(  29) = (   3.3037148   1.5793570  12.4293313  )
        30           Ti1 tau(  30) = (   0.0089448   3.0481173  12.7472709  )
        31           O1  tau(  31) = (   1.2933882   4.4692258  12.6303221  )
        32           O1  tau(  32) = (   1.2985301   1.4993897  12.6236677  )
        33           O1  tau(  33) = (   5.3274268   4.4793405  12.6275207  )
        34           O1  tau(  34) = (   5.3265499   1.4915365  12.6220616  )
        35           O1  tau(  35) = (   3.3295878   2.9786622  13.8932268  )
        36           O1  tau(  36) = (   3.3104420   5.9098017  13.9586718  )
        37           O1  tau(  37) = (   0.0385923   0.0024916  14.6531765  )
        38           O1  tau(  38) = (   0.0086518   2.9873893  14.7004014  )
        39           Ti1 tau(  39) = (   3.3201234   2.9526136  15.6695435  )
        40           Ti1 tau(  40) = (   3.4185286   5.9334276  16.2343674  )
        41           Ti1 tau(  41) = (   0.1049196   4.5923083  15.9423708  )
        42           Ti1 tau(  42) = (   0.0892020   1.3980244  15.8930203  )
        43           O1  tau(  43) = (   4.5900789   4.4270775  16.0984088  )
        44           O1  tau(  44) = (   4.5919070   1.5192920  16.0669747  )
        45           O1  tau(  45) = (   2.0372030   1.5514537  16.0349210  )
        46           O1  tau(  46) = (   2.0392294   4.4021701  16.0428288  )
        47           O1  tau(  47) = (   0.0638787   0.0130652  17.1658208  )
        48           O1  tau(  48) = (   6.5756481   2.9829514  17.4361268  )
        49           C1  tau(  49) = (   6.2652767   2.9703434  18.6584371  )
        50           H1  tau(  50) = (   6.1392679   3.9148029  19.1865895  )
        51           H1  tau(  51) = (   6.0998186   2.0156765  19.1535163  )
        52           O1  tau(  52) = (   3.1909063   0.0039016  18.0657888  )
        53           H1  tau(  53) = (   2.2823347   0.1153277  18.3895531  )

     number of k points=    10  Fermi-Dirac smearing, width (Ry)=  0.0073
                       cart. coord. in units 2pi/alat
        k(    1) = (   0.0000000   0.0000000   0.0000000), wk =   0.1250000
        k(    2) = (   0.0000000   0.0419351   0.0000000), wk =   0.2500000
        k(    3) = (   0.0000000  -0.0838702   0.0000000), wk =   0.1250000
        k(    4) = (   0.0379955   0.0000049   0.0000000), wk =   0.2500000
        k(    5) = (   0.0379955   0.0419400   0.0000000), wk =   0.2500000
        k(    6) = (   0.0379955  -0.0838652   0.0000000), wk =   0.2500000
        k(    7) = (   0.0379955  -0.0419301   0.0000000), wk =   0.2500000
        k(    8) = (  -0.0759910  -0.0000099   0.0000000), wk =   0.1250000
        k(    9) = (  -0.0759910   0.0419252   0.0000000), wk =   0.2500000
        k(   10) = (  -0.0759910  -0.0838800   0.0000000), wk =   0.1250000

     Initial potential from superposition of free atoms

     starting charge  380.99918, renormalised to  397.00000

     negative rho (up, down):  1.768E-02 0.000E+00

     %%%%%%%%%%%%%%%%%%%%%%%%%%%%%%%%%%%%%%%%%%%%%%%%%%%%%%%%%%%%%%%%%%%%%%%%
     %                                                                      %
     % You are using vdW-DF, which was implemented by the Thonhauser group. %
     % Please cite the following two papers that made this development      %
     % possible and the two reviews that describe the various versions:     %
     %                                                                      %
     %   T. Thonhauser et al., PRL 115, 136402 (2015).                      %
     %   T. Thonhauser et al., PRB 76, 125112 (2007).                       %
     %   K. Berland et al., Rep. Prog. Phys. 78, 066501 (2015).             %
     %   D.C. Langreth et al., J. Phys.: Condens. Matter 21, 084203 (2009). %
     %                                                                      %
     %                                                                      %
     % If you are calculating the stress with vdW-DF, please also cite:     %
     %                                                                      %
     %   R. Sabatini et al., J. Phys.: Condens. Matter 24, 424209 (2012).   %
     %                                                                      %
     %%%%%%%%%%%%%%%%%%%%%%%%%%%%%%%%%%%%%%%%%%%%%%%%%%%%%%%%%%%%%%%%%%%%%%%%

     Adding external electric field

     Computed dipole along edir(3) :
        Dipole               -8.4002 Ry au,        -21.3511 Debye
        Dipole field         -0.0159 Ry au,

        Potential amp.        1.4695 Ry
        Total length         46.3494 bohr

     Starting wfcs are  299 atomic wfcs
  @ DRIVER MODE: Message from server: STATUS
  @ DRIVER MODE: Message from server: POSDATA
  @ DRIVER MODE: Reading and sharing cell
  @ DRIVER MODE: Reading and sharing positions
  @ DRIVER MODE: Received positions

     Self-consistent Calculation

     iteration #  1     ecut=    29.40 Ry     beta= 0.05
     Davidson diagonalization with overlap
     c_bands:  1 eigenvalues not converged
     c_bands:  1 eigenvalues not converged
     c_bands:  1 eigenvalues not converged
     c_bands:  1 eigenvalues not converged
     ethr =  1.00E-05,  avg # of iterations = 18.2

[...]

     total energy              =   -2610.75313532 Ry
     estimated scf accuracy    <    3908.87744247 Ry

     iteration #  2     ecut=    29.40 Ry     beta= 0.05
     Davidson diagonalization with overlap
     ethr =  1.00E-02,  avg # of iterations = 23.5

[...]

     iteration # 42     ecut=    29.40 Ry     beta= 0.05
     Davidson diagonalization with overlap
     c_bands:  1 eigenvalues not converged
     c_bands:  1 eigenvalues not converged
     ethr =  5.01E-07,  avg # of iterations = 11.6

[...]

     total energy              =   -2963.78477909 Ry
     estimated scf accuracy    <       0.00000010 Ry

     iteration # 63     ecut=    29.40 Ry     beta= 0.05
     Davidson diagonalization with overlap
     ethr =  2.47E-11,  avg # of iterations =  9.7

     negative rho (up, down):  1.717E-02 0.000E+00

     Adding external electric field

     Computed dipole along edir(3) :
        Dipole                0.8847 Ry au,          2.2488 Debye
        Dipole field          0.0017 Ry au,

        Potential amp.       -0.1548 Ry
        Total length         46.3494 bohr

     End of self-consistent calculation

          k = 0.0000 0.0000 0.0000 ( 18029 PWs)   bands (ev):

   -55.9292 -55.8880 -55.7865 -55.7085 -55.6745 -55.6679 -55.6570 -55.6021
   -55.5654 -55.5448 -55.5226 -55.4864 -55.4657 -55.3740 -54.7735 -54.7395
   -32.3813 -32.2487 -32.2231 -32.1869 -32.1856 -32.1363 -32.1249 -32.0878
   -32.0684 -32.0151 -32.0122 -32.0044 -32.0005 -31.9932 -31.9743 -31.9573
   -31.9407 -31.9296 -31.8876 -31.8840 -31.8706 -31.8544 -31.8503 -31.8379
   -31.8100 -31.8064 -31.7781 -31.7715 -31.7691 -31.7592 -31.7472 -31.7415
   -31.7359 -31.7245 -31.7010 -31.6881 -31.6827 -31.6578 -31.6386 -31.6209
   -31.5801 -31.5788 -31.1758 -31.1002 -31.0769 -30.9930 -30.9071 -30.7956
   -20.2070 -16.5713 -16.4247 -16.2530 -16.0626 -15.9683 -15.9065 -15.6923
   -15.6378 -15.5396 -15.4183 -15.3834 -15.3393 -15.3124 -15.2946 -15.2804
   -15.2636 -15.2447 -15.2116 -15.1903 -15.1845 -15.1408 -15.0721 -15.0259
   -15.0178 -14.9779 -14.9190 -14.8772 -14.8399 -14.7999 -14.6232 -13.2745
   -13.1607  -9.4660  -5.7746  -5.7265  -4.1621  -3.7942  -3.7673  -3.7372
    -3.6514  -3.6135  -3.5088  -3.3441  -3.1627  -3.0345  -2.9453  -2.9270
    -2.8883  -2.7755  -2.7246  -2.6929  -2.6491  -2.6202  -2.6017  -2.5598
    -2.5371  -2.4967  -2.4640  -2.4355  -2.3445  -2.3374  -2.2770  -2.2162
    -2.1834  -2.1746  -2.1693  -2.1459  -2.1108  -2.0563  -2.0208  -1.9862
    -1.9487  -1.8308  -1.8135  -1.7978  -1.7254  -1.4837  -1.3533  -1.3134
    -1.2594  -1.2171  -1.1934  -1.1689  -1.1634  -1.1445  -1.1120  -1.0619
    -0.9594  -0.9007  -0.8309  -0.8251  -0.8084  -0.7457  -0.6659  -0.5950
    -0.5568  -0.5264  -0.5026  -0.4276  -0.4268  -0.3531  -0.3225  -0.2509
    -0.1365  -0.0885  -0.0650  -0.0467  -0.0340   0.0197   0.0661   0.1340
     0.1535   0.1696   0.1981   0.2777   0.2874   0.3102   0.3285   0.4250
     0.4890   0.4974   0.5662   0.6577   0.6905   0.7736   0.9016   0.9776
     1.2239   1.2483   1.3335   1.4638   1.8098   1.8538   3.2862   3.3570
     3.3943   3.4952   3.5779   3.5975   3.6758   3.7355   3.8230   3.8668

[...]

          k = 0.0380-0.0419 0.0000 ( 17876 PWs)   bands (ev):

[...]

          k =-0.0760-0.0000 0.0000 ( 17886 PWs)   bands (ev):

[...]

          k =-0.0760-0.0839 0.0000 ( 17948 PWs)   bands (ev):

   -55.9203 -55.8968 -55.7855 -55.6952 -55.6876 -55.6654 -55.6508 -55.6082
   -55.5662 -55.5469 -55.5112 -55.4979 -55.4625 -55.3770 -54.7570 -54.7559
   -32.2172 -32.2064 -32.1866 -32.1805 -32.1588 -32.0590 -32.0470 -32.0452
   -32.0301 -32.0181 -32.0109 -32.0037 -32.0012 -31.9562 -31.9502 -31.9231
   -31.9063 -31.9041 -31.8980 -31.8846 -31.8820 -31.8763 -31.8737 -31.8672
   -31.8571 -31.8435 -31.8210 -31.8117 -31.8035 -31.8009 -31.7733 -31.7631
   -31.7511 -31.7305 -31.7269 -31.7253 -31.7215 -31.7197 -31.6812 -31.6612
   -31.6234 -31.5826 -31.0903 -31.0892 -30.9902 -30.9885 -30.9504 -30.9490
   -20.2012 -16.5376 -15.9360 -15.8814 -15.7313 -15.7047 -15.6607 -15.6064
   -15.5480 -15.5063 -15.4963 -15.4605 -15.4414 -15.4168 -15.3953 -15.3673
   -15.3417 -15.2952 -15.2876 -15.2408 -15.2314 -15.2117 -15.1857 -15.1535
   -15.0998 -15.0865 -15.0673 -15.0351 -15.0138 -14.9252 -14.7599 -13.2642
   -13.2622  -9.4679  -5.7609  -5.7126  -4.1258  -3.7882  -3.1724  -3.1001
    -2.9548  -2.8768  -2.8105  -2.7890  -2.7730  -2.7422  -2.6769  -2.6562
    -2.6016  -2.5968  -2.5884  -2.5781  -2.5642  -2.5212  -2.4922  -2.4768
    -2.4701  -2.4517  -2.4237  -2.4097  -2.3960  -2.3842  -2.3741  -2.3675
    -2.3153  -2.2524  -2.1721  -2.1241  -2.1054  -1.9815  -1.9637  -1.9037
    -1.8908  -1.8835  -1.8521  -1.8482  -1.7756  -1.7208  -1.5669  -1.5505
    -1.5109  -1.4492  -1.4165  -1.3304  -1.3147  -1.2780  -1.2320  -1.2202
    -1.1970  -1.1763  -1.0785  -0.9992  -0.9579  -0.9185  -0.8060  -0.7900
    -0.7748  -0.7108  -0.6890  -0.6797  -0.6715  -0.6071  -0.5453  -0.4972
    -0.4792  -0.4426  -0.4222  -0.3743  -0.3159  -0.2377  -0.1670  -0.0969
    -0.0664   0.0408   0.1179   0.1551   0.2692   0.3258   0.3554   0.3836
     0.4522   0.5078   0.5258   0.6099   0.6805   0.7001   0.7581   0.7912
     0.8304   0.8652   1.6201   1.6329   1.6646   1.6753   3.2495   3.7765
     3.7864   3.8000   3.8189   3.8437   3.8669   3.9530   4.0025   4.0064

     the Fermi energy is     3.2264 ev

!    total energy              =   -2963.78482292 Ry
     estimated scf accuracy    <       0.00000004 Ry
     smearing contrib. (-TS)   =      -0.01873644 Ry
     internal energy E=F+TS    =   -2963.76608648 Ry

     The total energy is F=E-TS. E is the sum of the following terms:
     one-electron contribution =  -24352.09181590 Ry
     hartree contribution      =   12266.16068303 Ry
     xc contribution           =    -489.27381118 Ry
     ewald contribution        =    9611.43738042 Ry
     electric field correction =       0.00147716 Ry

     convergence has been achieved in  63 iterations

     Forces acting on atoms (cartesian axes, Ry/au):

     atom    1 type  1   force =    -0.00006807    0.00012915    0.10167509
     atom    2 type  1   force =    -0.00006780    0.00015867    0.10135883
     atom    3 type  2   force =    -0.00028709   -0.00136850    0.10432586
     atom    4 type  2   force =    -0.00023430    0.00134871    0.11680255
     atom    5 type  2   force =    -0.00033383    0.00599115   -0.16904656
     atom    6 type  2   force =    -0.00007409   -0.00499310   -0.16911776
     atom    7 type  1   force =    -0.07475508    0.00067737   -0.03018912
     atom    8 type  1   force =    -0.07429249   -0.00133040   -0.03019176
     atom    9 type  1   force =     0.07442945    0.00121611   -0.03023581
     atom   10 type  1   force =     0.07410801   -0.00091387   -0.03025578
     atom   11 type  1   force =     0.00083471    0.00106410    0.04727437
     atom   12 type  1   force =     0.00077810    0.00082581    0.04927401
     atom   13 type  1   force =     0.00026554   -0.00562793   -0.03769760
     atom   14 type  1   force =     0.00053986    0.00416510   -0.03208644
     atom   15 type  2   force =    -0.00043919    0.00077975   -0.00016409
     atom   16 type  2   force =    -0.00038697   -0.00081956   -0.00017246
     atom   17 type  2   force =     0.00030482   -0.00003600    0.00052013
     atom   18 type  2   force =     0.00026371    0.00014147    0.00105745
     atom   19 type  1   force =    -0.00989985   -0.00202655    0.00042023
     atom   20 type  1   force =    -0.00988469    0.00493216    0.00133491
     atom   21 type  1   force =     0.01190279   -0.00463476    0.00142644
     atom   22 type  1   force =     0.01107822    0.00175232    0.00190841
     atom   23 type  1   force =    -0.00025068    0.00003159    0.00022627
     atom   24 type  1   force =    -0.00026997    0.00003230   -0.00036883
     atom   25 type  1   force =    -0.00036663   -0.00041169   -0.00037656
     atom   26 type  1   force =    -0.00021395   -0.00006368   -0.00005672
     atom   27 type  2   force =    -0.00032856   -0.00022408   -0.00004870
     atom   28 type  2   force =     0.00016549   -0.00021775    0.00053194
     atom   29 type  2   force =     0.00034138   -0.00042898   -0.00076853
     atom   30 type  2   force =    -0.00016307    0.00030139    0.00011693
     atom   31 type  1   force =     0.00001737    0.00057498    0.00026377
     atom   32 type  1   force =     0.00039157    0.00017863   -0.00004507
     atom   33 type  1   force =    -0.00031752    0.00031877    0.00062705
     atom   34 type  1   force =    -0.00088036    0.00053460    0.00014880
     atom   35 type  1   force =    -0.00046052   -0.00045862   -0.00080411
     atom   36 type  1   force =    -0.00019368   -0.00020350   -0.00002952
     atom   37 type  1   force =    -0.00014544   -0.00037007    0.00035995
     atom   38 type  1   force =     0.00040137    0.00029996    0.00012687
     atom   39 type  2   force =    -0.00001894    0.00025446    0.00064486
     atom   40 type  2   force =    -0.00006966   -0.00039573    0.00029665
     atom   41 type  2   force =    -0.00021173    0.00024061    0.00033741
     atom   42 type  2   force =    -0.00023339   -0.00025456    0.00003960
     atom   43 type  1   force =     0.00021524   -0.00006755   -0.00021268
     atom   44 type  1   force =    -0.00042745   -0.00002104   -0.00028418
     atom   45 type  1   force =     0.00080560   -0.00002947   -0.00018745
     atom   46 type  1   force =    -0.00037696   -0.00006479   -0.00023319
     atom   47 type  1   force =     0.00026649   -0.00058905    0.00025642
     atom   48 type  1   force =     0.00005168    0.00054088    0.00056796
     atom   49 type  3   force =    -0.00172156    0.00083933    0.00046835
     atom   50 type  4   force =     0.00007727   -0.00078494   -0.00071376
     atom   51 type  4   force =     0.00002795   -0.00062410    0.00047129
     atom   52 type  1   force =    -0.00074579    0.00027750    0.00123128
     atom   53 type  4   force =     0.00085269   -0.00064662   -0.00080700

     Total force =     0.368628     Total SCF correction =     0.000455
  @ DRIVER MODE: Message from server: STATUS
  @ DRIVER MODE: Message from server: GETFORCE
  @ DRIVER MODE: Returning v,forces,stress,ensemble

     Writing output data file ./calc.save/
  @ DRIVER MODE: Message from server: EXIT
  @ DRIVE MODE: Exiting

     General routines

     Parallel routines

   This run was terminated on:   3:33: 7  23Sep2021

   JOB DONE.