     Program PWSCF v.6.7GPU starts on 23Sep2021 at 22:36:47

     R & G space division:  proc/nbgrp/npool/nimage =       8
     Reading input from /storage/home/hcoda1/3/ntian30/research/carbon/CxH_vib/H2O_calc/ads_slab/CH2N2HO_b/out_0030/pw.inp
Warning: card &CELL ignored
Warning: card   CELL_DYNAMICS='IPI', ignored
Warning: card / ignored

     Current dimensions of program PWSCF are:
     Max number of different atomic species (ntypx) = 10
     Max number of k-points (npk) =  40000
     Max angular momentum in pseudopotentials (lmaxx) =  3
     Presently no symmetry can be used with electric field

     Message from routine cell_base_init:
     DEPRECATED: use true lattice parameter, not A to a.u. conversion factor

     IMPORTANT: XC functional enforced from input :
     Exchange-correlation= BEEF-VDW
                           (   1   4  43  14   2   0   0)
     Any further DFT definition will be discarded
     Please, verify this is what you really want

  @ DRIVER MODE: Connecting to
 qe_1139763_2947312.sched-torque.pace.gatech.eduq5z8nxsh_scratch
  using UNIX socket
  @ DRIVER MODE: Message from server: STATUS
  @ DRIVER MODE: Message from server: INIT
  @ DRIVER MODE: Receiving replica           0          -1
  @ DRIVER MODE: Receiving encoded integer          25
  @ DRIVER MODE:  SCF:  T  FORCE:  T  STRESS:  F  VC:  F  ENSEMBLE:  F
  @ DRIVER MODE:  SCF:  T  FORCE:  T  STRESS:  F  VC:  F  ENSEMBLE:  F

     Using Slab Decomposition

     bravais-lattice index     =            0
     lattice parameter (alat)  =       1.8897  a.u.
     unit-cell volume          =    6658.9804 (a.u.)^3
     number of atoms/cell      =           54
     number of atomic types    =            5
     number of electrons       =       401.00
     number of Kohn-Sham states=          210
     kinetic-energy cutoff     =      29.3995  Ry
     charge density cutoff     =     293.9946  Ry
     scf convergence threshold =      7.3E-08
     mixing beta               =       0.0500
     number of iterations used =            8  plain     mixing
     Exchange-correlation= BEEF-VDW
                           (   1   4  43  14   2   0   0)

     celldm(1)=   1.889726  celldm(2)=   0.000000  celldm(3)=   0.000000
     celldm(4)=   0.000000  celldm(5)=   0.000000  celldm(6)=   0.000000

     crystal axes: (cart. coord. in units of alat)
               a(1) = (   6.579727   0.000000   0.000000 )
               a(2) = (  -0.000775   5.961596   0.000000 )
               a(3) = (   0.000000   0.000000  25.155947 )

     reciprocal axes: (cart. coord. in units 2 pi/alat)
               b(1) = (  0.151982  0.000020  0.000000 )
               b(2) = (  0.000000  0.167740  0.000000 )
               b(3) = (  0.000000  0.000000  0.039752 )

     PseudoPot. # 1 for Ti read from file:
     /storage/coda1/p-amedford6/0/shared/rich_project_chbe-medford/medford-share/data/pseudos_module/espresso/nninc/pbe/van/Ti.UPF
     MD5 check sum: 8e4df49b7f0d34bbd5052bf3f5ea0213
     Pseudo is Ultrasoft, Zval = 12.0
     Generated by new atomic code, or converted to UPF format
     Using radial grid of  851 points,  6 beta functions with:
                l(1) =   0
                l(2) =   0
                l(3) =   1
                l(4) =   1
                l(5) =   2
                l(6) =   2
     Q(r) pseudized with  8 coefficients,  rinner =    1.000   1.000   1.000
                                                       1.000   1.000

     PseudoPot. # 2 for O  read from file:
     /storage/coda1/p-amedford6/0/shared/rich_project_chbe-medford/medford-share/data/pseudos_module/espresso/nninc/pbe/van/O.UPF
     MD5 check sum: 78c19812648e8988a0fe644b0f25305e
     Pseudo is Ultrasoft, Zval =  6.0
     Generated by new atomic code, or converted to UPF format
     Using radial grid of  737 points,  4 beta functions with:
                l(1) =   0
                l(2) =   0
                l(3) =   1
                l(4) =   1
     Q(r) pseudized with  8 coefficients,  rinner =    0.800   0.800   0.800

     PseudoPot. # 3 for N  read from file:
     /storage/coda1/p-amedford6/0/shared/rich_project_chbe-medford/medford-share/data/pseudos_module/espresso/nninc/pbe/van/N.UPF
     MD5 check sum: 90d10febe142ad51ac9d5be1deb811c4
     Pseudo is Ultrasoft, Zval =  5.0
     Generated by new atomic code, or converted to UPF format
     Using radial grid of  729 points,  4 beta functions with:
                l(1) =   0
                l(2) =   0
                l(3) =   1
                l(4) =   1
     Q(r) pseudized with  8 coefficients,  rinner =    0.800   0.800   0.800

     PseudoPot. # 4 for C  read from file:
     /storage/coda1/p-amedford6/0/shared/rich_project_chbe-medford/medford-share/data/pseudos_module/espresso/nninc/pbe/van/C.UPF
     MD5 check sum: 1a69bf6b8db32088f5b2163dbdb77a27
     Pseudo is Ultrasoft, Zval =  4.0
     Generated by new atomic code, or converted to UPF format
     Using radial grid of  721 points,  4 beta functions with:
                l(1) =   0
                l(2) =   0
                l(3) =   1
                l(4) =   1
     Q(r) pseudized with  8 coefficients,  rinner =    0.800   0.800   0.800

     PseudoPot. # 5 for H  read from file:
     /storage/coda1/p-amedford6/0/shared/rich_project_chbe-medford/medford-share/data/pseudos_module/espresso/nninc/pbe/van/H.UPF
     MD5 check sum: b5ee9d7bfd3a09ee7748110bda690ff7
     Pseudo is Ultrasoft, Zval =  1.0
     Generated by new atomic code, or converted to UPF format
     Using radial grid of  615 points,  1 beta functions with:
                l(1) =   0
     Q(r) pseudized with  8 coefficients,  rinner =    0.800

     atomic species   valence    mass     pseudopotential
        Ti1           12.00    47.86700     Ti( 1.00)
        O1             6.00    15.99900     O ( 1.00)
        N1             5.00    14.00700     N ( 1.00)
        C1             4.00    12.01100     C ( 1.00)
        H1             1.00     1.00800     H ( 1.00)

     No symmetry found

   Cartesian axes

     site n.     atom                  positions (alat units)
         1           Ti1 tau(   1) = (   0.0004258   2.9801865   6.0000000  )
         2           Ti1 tau(   2) = (   3.2906075   1.4906267   6.0002472  )
         3           O1  tau(   3) = (   0.0006271   0.0005054   7.9858123  )
         4           O1  tau(   4) = (   3.2906025   0.0005020   7.3038282  )
         5           O1  tau(   5) = (   4.5942328   1.4918067   9.2879030  )
         6           O1  tau(   6) = (   1.9868534   1.4903216   9.2879459  )
         7           Ti1 tau(   7) = (   3.2907910   2.8959150   9.1758416  )
         8           Ti1 tau(   8) = (   0.0015273   1.4827037   9.2680791  )
         9           O1  tau(   9) = (   3.2935892   5.9488104  11.3374186  )
        10           O1  tau(  10) = (   0.0116148   5.9584955  10.6183126  )
        11           O1  tau(  11) = (   1.2908913   1.5070562  12.6495475  )
        12           O1  tau(  12) = (   5.3136790   1.4931969  12.6373367  )
        13           Ti1 tau(  13) = (   0.0127878   2.8868139  12.6015941  )
        14           Ti1 tau(  14) = (   3.2987545   1.3040885  12.7026746  )
        15           O1  tau(  15) = (   0.0175227   0.0240941  14.6538407  )
        16           O1  tau(  16) = (   3.3064676   0.0741613  13.9771881  )
        17           O1  tau(  17) = (   4.5827780   1.5498142  16.1449436  )
        18           O1  tau(  18) = (   2.0366442   1.5898792  16.0867183  )
        19           Ti1 tau(  19) = (   3.3102262   3.0030951  15.6784192  )
        20           Ti1 tau(  20) = (   0.0574396   1.3488835  16.0050117  )
        21           O1  tau(  21) = (   3.2904802   0.0005063   4.7018136  )
        22           O1  tau(  22) = (   0.0721820   0.0083530  17.1768217  )
        23           O1  tau(  23) = (   1.3043587   1.4918075   6.0039043  )
        24           O1  tau(  24) = (   5.2767064   1.4903225   6.0039473  )
        25           Ti1 tau(  25) = (   0.0000382   5.9609847   6.0000000  )
        26           Ti1 tau(  26) = (   3.2902200   4.4714249   6.0002472  )
        27           O1  tau(  27) = (   0.0002396   2.9813036   7.9858123  )
        28           O1  tau(  28) = (   3.2902150   2.9813002   7.3038282  )
        29           O1  tau(  29) = (   4.5938453   4.4726049   9.2879030  )
        30           O1  tau(  30) = (   1.9864658   4.4711199   9.2879459  )
        31           Ti1 tau(  31) = (   3.2891106   5.8743827   9.1763621  )
        32           Ti1 tau(  32) = (   0.0006254   4.4649316   9.2693709  )
        33           O1  tau(  33) = (   3.2934580   3.0155445  11.2926531  )
        34           O1  tau(  34) = (   0.0092240   2.9805883  10.6323155  )
        35           O1  tau(  35) = (   1.2931599   4.4792858  12.6478595  )
        36           O1  tau(  36) = (   5.3056662   4.4876152  12.6363886  )
        37           Ti1 tau(  37) = (   6.5746511   5.8741161  12.5153022  )
        38           Ti1 tau(  38) = (   3.2863760   4.3878630  12.4273393  )
        39           O1  tau(  39) = (   6.5684735   3.0099032  14.7382625  )
        40           O1  tau(  40) = (   3.3273571   2.9915841  13.8999870  )
        41           O1  tau(  41) = (   4.5754576   4.4629145  16.1269992  )
        42           O1  tau(  42) = (   2.0375947   4.4358961  16.0236521  )
        43           Ti1 tau(  43) = (   3.3857405   0.0156461  16.2930207  )
        44           Ti1 tau(  44) = (   0.0840152   4.5257857  15.8004899  )
        45           O1  tau(  45) = (   3.2900926   2.9813045   4.7018136  )
        46           O1  tau(  46) = (   1.3039711   4.4726057   6.0039043  )
        47           O1  tau(  47) = (   5.2763189   4.4711207   6.0039473  )
        48           N1  tau(  48) = (   6.4876325   3.2951735  18.6921505  )
        49           N1  tau(  49) = (   0.0139976   3.0420413  17.5569154  )
        50           C1  tau(  50) = (   6.3059459   3.6199554  19.9036174  )
        51           H1  tau(  51) = (   5.2963100   3.8231348  20.2372398  )
        52           H1  tau(  52) = (   0.5840524   3.7151184  20.5647593  )
        53           O1  tau(  53) = (   3.1058724   5.9363815  18.1230642  )
        54           H1  tau(  54) = (   2.1709728   0.0855973  18.3648350  )

     number of k points=    10  Fermi-Dirac smearing, width (Ry)=  0.0073
                       cart. coord. in units 2pi/alat
        k(    1) = (   0.0000000   0.0000000   0.0000000), wk =   0.1250000
        k(    2) = (   0.0000000   0.0419351   0.0000000), wk =   0.2500000
        k(    3) = (   0.0000000  -0.0838702   0.0000000), wk =   0.1250000
        k(    4) = (   0.0379955   0.0000049   0.0000000), wk =   0.2500000
        k(    5) = (   0.0379955   0.0419400   0.0000000), wk =   0.2500000
        k(    6) = (   0.0379955  -0.0838652   0.0000000), wk =   0.2500000
        k(    7) = (   0.0379955  -0.0419301   0.0000000), wk =   0.2500000
        k(    8) = (  -0.0759910  -0.0000099   0.0000000), wk =   0.1250000
        k(    9) = (  -0.0759910   0.0419252   0.0000000), wk =   0.2500000
        k(   10) = (  -0.0759910  -0.0838800   0.0000000), wk =   0.1250000

     Initial potential from superposition of free atoms

     starting charge  384.99916, renormalised to  401.00000

     negative rho (up, down):  1.406E-02 0.000E+00

     %%%%%%%%%%%%%%%%%%%%%%%%%%%%%%%%%%%%%%%%%%%%%%%%%%%%%%%%%%%%%%%%%%%%%%%%
     %                                                                      %
     % You are using vdW-DF, which was implemented by the Thonhauser group. %
     % Please cite the following two papers that made this development      %
     % possible and the two reviews that describe the various versions:     %
     %                                                                      %
     %   T. Thonhauser et al., PRL 115, 136402 (2015).                      %
     %   T. Thonhauser et al., PRB 76, 125112 (2007).                       %
     %   K. Berland et al., Rep. Prog. Phys. 78, 066501 (2015).             %
     %   D.C. Langreth et al., J. Phys.: Condens. Matter 21, 084203 (2009). %
     %                                                                      %
     %                                                                      %
     % If you are calculating the stress with vdW-DF, please also cite:     %
     %                                                                      %
     %   R. Sabatini et al., J. Phys.: Condens. Matter 24, 424209 (2012).   %
     %                                                                      %
     %%%%%%%%%%%%%%%%%%%%%%%%%%%%%%%%%%%%%%%%%%%%%%%%%%%%%%%%%%%%%%%%%%%%%%%%

     Adding external electric field

     Computed dipole along edir(3) :
        Dipole              -11.8213 Ry au,        -30.0469 Debye
        Dipole field         -0.0223 Ry au,

        Potential amp.        2.0680 Ry
        Total length         46.3494 bohr

     Starting wfcs are  303 atomic wfcs
  @ DRIVER MODE: Message from server: STATUS
  @ DRIVER MODE: Message from server: POSDATA
  @ DRIVER MODE: Reading and sharing cell
  @ DRIVER MODE: Reading and sharing positions
  @ DRIVER MODE: Received positions

     Self-consistent Calculation

     iteration #  1     ecut=    29.40 Ry     beta= 0.05
     Davidson diagonalization with overlap
     c_bands:  3 eigenvalues not converged
     c_bands:  4 eigenvalues not converged
     c_bands:  1 eigenvalues not converged
     c_bands:  4 eigenvalues not converged
     c_bands:  4 eigenvalues not converged
     c_bands:  1 eigenvalues not converged
     c_bands:  2 eigenvalues not converged
     ethr =  1.00E-05,  avg # of iterations = 22.9

[...]

     total energy              =   -2411.72993506 Ry
     estimated scf accuracy    <    6295.08548921 Ry

     iteration #  2     ecut=    29.40 Ry     beta= 0.05
     Davidson diagonalization with overlap
     ethr =  1.00E-02,  avg # of iterations = 22.0

[...]

     iteration # 57     ecut=    29.40 Ry     beta= 0.05
     Davidson diagonalization with overlap
     c_bands:  1 eigenvalues not converged
     ethr =  1.60E-06,  avg # of iterations = 17.0

[...]

     total energy              =   -2971.49156273 Ry
     estimated scf accuracy    <       0.00000014 Ry

     iteration # 81     ecut=    29.40 Ry     beta= 0.05
     Davidson diagonalization with overlap
     ethr =  3.55E-11,  avg # of iterations =  6.1

     negative rho (up, down):  1.458E-02 0.000E+00

     Adding external electric field

     Computed dipole along edir(3) :
        Dipole                1.0643 Ry au,          2.7051 Debye
        Dipole field          0.0020 Ry au,

        Potential amp.       -0.1862 Ry
        Total length         46.3494 bohr

     End of self-consistent calculation

          k = 0.0000 0.0000 0.0000 ( 18029 PWs)   bands (ev):

   -55.6924 -55.6584 -55.4769 -55.4734 -55.4431 -55.3339 -55.3161 -55.2820
   -55.2808 -55.2249 -55.1792 -55.0942 -55.0863 -54.9801 -54.6002 -54.5662
   -32.1662 -31.9876 -31.9857 -31.9296 -31.8451 -31.8172 -31.8114 -31.7914
   -31.7888 -31.7551 -31.7508 -31.7470 -31.7136 -31.6962 -31.6815 -31.6508
   -31.6470 -31.6116 -31.5846 -31.5781 -31.5753 -31.5516 -31.5424 -31.5386
   -31.4943 -31.4865 -31.4815 -31.4703 -31.4574 -31.4432 -31.4405 -31.4245
   -31.4237 -31.3676 -31.3634 -31.3606 -31.2934 -31.2815 -31.2575 -31.2295
   -31.2043 -31.1909 -31.0032 -30.9246 -30.9017 -30.8211 -30.7352 -30.6233
   -20.7398 -16.2519 -16.1720 -15.9664 -15.7892 -15.6373 -15.5851 -15.4453
   -15.3746 -15.2740 -15.1943 -15.0950 -15.0748 -15.0341 -14.9978 -14.9959
   -14.9669 -14.9354 -14.9353 -14.9115 -14.8955 -14.8474 -14.7883 -14.7703
   -14.7259 -14.6982 -14.6451 -14.6350 -14.6184 -14.5154 -14.2470 -14.2319
   -13.0980 -12.9830  -7.3948  -6.0705  -5.6748  -5.0424  -3.7608  -3.5803
    -3.5056  -3.3561  -3.2777  -3.1996  -3.0606  -2.9856  -2.9086  -2.7479
    -2.6625  -2.6351  -2.5840  -2.5284  -2.4631  -2.4367  -2.3956  -2.3727
    -2.2931  -2.2520  -2.2297  -2.2082  -2.1541  -2.1253  -2.0893  -2.0044
    -1.9764  -1.9412  -1.8675  -1.8580  -1.8334  -1.8238  -1.7826  -1.7640
    -1.7512  -1.7310  -1.5957  -1.5879  -1.5094  -1.4704  -1.3237  -1.2011
    -1.1355  -1.0668  -1.0516  -0.9697  -0.9332  -0.8529  -0.8333  -0.8041
    -0.7663  -0.7003  -0.6354  -0.6134  -0.5674  -0.5313  -0.3961  -0.3736
    -0.3263  -0.3210  -0.2994  -0.2334  -0.1645  -0.0840  -0.0706  -0.0054
     0.0148   0.0971   0.1792   0.1862   0.2368   0.2594   0.3139   0.3364
     0.3554   0.3887   0.4187   0.4874   0.5504   0.5982   0.6034   0.6366
     0.7040   0.7712   0.8114   0.8446   0.9951   1.0247   1.0407   1.1286
     1.1394   1.2474   1.4047   1.4260   1.6301   1.6322   1.9861   2.0286
     3.4542   3.5843   3.6181   3.6917   3.7777   3.9064   3.9146   4.0421
     4.1607   4.1665

[...]

          k = 0.0380-0.0419 0.0000 ( 17876 PWs)   bands (ev):

[...]

          k =-0.0760-0.0000 0.0000 ( 17886 PWs)   bands (ev):

[...]

          k =-0.0760-0.0839 0.0000 ( 17948 PWs)   bands (ev):

   -55.6759 -55.6747 -55.4726 -55.4612 -55.4586 -55.3276 -55.3024 -55.2943
   -55.2883 -55.2255 -55.1757 -55.0977 -55.0837 -54.9826 -54.5838 -54.5826
   -31.9822 -31.9814 -31.9719 -31.9710 -31.7965 -31.7951 -31.7826 -31.7770
   -31.7411 -31.7207 -31.6956 -31.6866 -31.6853 -31.6684 -31.6541 -31.6497
   -31.6312 -31.6175 -31.6168 -31.6107 -31.5938 -31.5520 -31.5471 -31.5246
   -31.5235 -31.5175 -31.5136 -31.5130 -31.5048 -31.4866 -31.4646 -31.4556
   -31.4286 -31.3878 -31.3743 -31.3528 -31.3396 -31.3256 -31.2968 -31.2856
   -31.2358 -31.1945 -30.9149 -30.9140 -30.8172 -30.8158 -30.7787 -30.7778
   -20.7387 -16.2259 -15.6173 -15.5503 -15.5289 -15.5195 -15.4058 -15.3732
   -15.2410 -15.2399 -15.2168 -15.1580 -15.1474 -15.1168 -15.1074 -15.0825
   -15.0499 -15.0254 -15.0024 -14.9721 -14.9618 -14.9183 -14.8919 -14.8881
   -14.8747 -14.8253 -14.7389 -14.6533 -14.6336 -14.5755 -14.4919 -14.3661
   -13.0855 -13.0849  -7.3954  -6.0741  -5.6776  -5.0199  -3.7340  -3.0948
    -2.8965  -2.7483  -2.7228  -2.5944  -2.5753  -2.4815  -2.4734  -2.4299
    -2.4163  -2.3763  -2.3495  -2.3324  -2.2901  -2.2725  -2.2574  -2.2528
    -2.2348  -2.2043  -2.1959  -2.1917  -2.1827  -2.1523  -2.1240  -2.1101
    -2.0934  -2.0477  -2.0202  -1.9200  -1.8165  -1.7913  -1.7181  -1.7141
    -1.7117  -1.6993  -1.6768  -1.6527  -1.5679  -1.4779  -1.4401  -1.3837
    -1.2091  -1.1950  -1.1727  -1.1507  -1.0943  -1.0453  -1.0175  -0.9658
    -0.9541  -0.9295  -0.8556  -0.7934  -0.7209  -0.7006  -0.6316  -0.5837
    -0.5663  -0.4753  -0.4618  -0.4290  -0.3887  -0.3743  -0.3448  -0.2918
    -0.2765  -0.2578  -0.2283  -0.1897  -0.1549   0.0141   0.1487   0.2125
     0.2294   0.2662   0.3201   0.3865   0.4101   0.5932   0.6057   0.6100
     0.6497   0.7077   0.7336   0.7510   0.8459   0.9580   0.9844   1.0212
     1.0479   1.0673   1.1487   1.2074   1.7970   1.8052   1.8481   1.8488
     3.4557   3.9912   4.0102   4.0116   4.0126   4.1078   4.1320   4.1403
     4.2052   4.2629

     the Fermi energy is     3.4484 ev

!    total energy              =   -2971.49156986 Ry
     estimated scf accuracy    <       0.00000005 Ry
     smearing contrib. (-TS)   =      -0.01886403 Ry
     internal energy E=F+TS    =   -2971.47270583 Ry

     The total energy is F=E-TS. E is the sum of the following terms:
     one-electron contribution =  -23617.84081058 Ry
     hartree contribution      =   11902.76953866 Ry
     xc contribution           =    -492.36313149 Ry
     ewald contribution        =    9235.95956011 Ry
     electric field correction =       0.00213748 Ry

     convergence has been achieved in  81 iterations

     Forces acting on atoms (cartesian axes, Ry/au):

     atom    1 type  1   force =     0.00001763   -0.00039497    0.09764562
     atom    2 type  1   force =    -0.00004080    0.00021980   -0.17213070
     atom    3 type  2   force =     0.00005108   -0.00005128   -0.02537466
     atom    4 type  2   force =     0.00001542   -0.00144644    0.04760458
     atom    5 type  2   force =    -0.00616623   -0.00240061   -0.00085422
     atom    6 type  2   force =     0.00778754   -0.00181892   -0.00151875
     atom    7 type  1   force =    -0.00008860   -0.00483895    0.01891083
     atom    8 type  1   force =     0.00022289    0.01221433    0.02702852
     atom    9 type  2   force =    -0.00010474   -0.00016421   -0.00013881
     atom   10 type  2   force =    -0.00111827    0.00132091   -0.02503628
     atom   11 type  2   force =     0.00014238   -0.00003148    0.00006413
     atom   12 type  2   force =     0.00006100   -0.00003737   -0.00000974
     atom   13 type  1   force =     0.00034790   -0.00021895   -0.00009835
     atom   14 type  1   force =     0.00005134   -0.00013968   -0.00012552
     atom   15 type  2   force =    -0.00030342   -0.00018039   -0.00033081
     atom   16 type  2   force =    -0.00003234   -0.00011737   -0.00050803
     atom   17 type  2   force =    -0.00014312   -0.00006854   -0.00007329
     atom   18 type  2   force =     0.00003155   -0.00017998   -0.00008275
     atom   19 type  1   force =    -0.00017359   -0.00000753   -0.00035859
     atom   20 type  1   force =    -0.00019327   -0.00017171    0.00025178
     atom   21 type  2   force =     0.00005621    0.00008561    0.10225300
     atom   22 type  2   force =     0.00008871    0.00006526   -0.00025620
     atom   23 type  2   force =    -0.07354394   -0.00016065   -0.02811474
     atom   24 type  2   force =     0.07345958    0.00028333   -0.02818796
     atom   25 type  1   force =     0.00013780   -0.00033612    0.09744938
     atom   26 type  1   force =    -0.00003845   -0.00130327   -0.17226839
     atom   27 type  2   force =     0.00009465   -0.00030474   -0.02401229
     atom   28 type  2   force =     0.00004135    0.00031254    0.04322843
     atom   29 type  2   force =    -0.00505730    0.00403468   -0.00277918
     atom   30 type  2   force =     0.00656646    0.00442460   -0.00333454
     atom   31 type  1   force =     0.00001140    0.00579847    0.00694248
     atom   32 type  1   force =     0.00029149   -0.01518880    0.02661431
     atom   33 type  2   force =     0.00038178   -0.00005060    0.00007585
     atom   34 type  2   force =    -0.00138541    0.00100136   -0.02677423
     atom   35 type  2   force =     0.00037606    0.00005677    0.00003267
     atom   36 type  2   force =    -0.00028585   -0.00005690   -0.00008568
     atom   37 type  1   force =     0.00010002   -0.00053776   -0.00004974
     atom   38 type  1   force =     0.00024210    0.00012961    0.00014219
     atom   39 type  2   force =    -0.00012939   -0.00016721   -0.00013667
     atom   40 type  2   force =     0.00005786    0.00002552   -0.00017918
     atom   41 type  2   force =    -0.00015992    0.00008480   -0.00020731
     atom   42 type  2   force =    -0.00026614   -0.00009416   -0.00001618
     atom   43 type  1   force =    -0.00010904    0.00020766   -0.00056608
     atom   44 type  1   force =    -0.00022693    0.00035205    0.00022767
     atom   45 type  2   force =     0.00004877   -0.00007972    0.10205015
     atom   46 type  2   force =    -0.07358180   -0.00007667   -0.02815006
     atom   47 type  2   force =     0.07348606    0.00036210   -0.02819769
     atom   48 type  3   force =     0.00001686    0.00062225    0.00208961
     atom   49 type  3   force =    -0.00002468   -0.00035683   -0.00078705
     atom   50 type  4   force =     0.00449230    0.00044559    0.00472563
     atom   51 type  5   force =    -0.00029295   -0.00009209   -0.00016021
     atom   52 type  5   force =    -0.00545437   -0.00102470   -0.00590842
     atom   53 type  2   force =     0.00039804    0.00071603   -0.00033092
     atom   54 type  5   force =    -0.00015565   -0.00066469   -0.00019360

     Total force =     0.365160     Total SCF correction =     0.000572
  @ DRIVER MODE: Message from server: STATUS
  @ DRIVER MODE: Message from server: GETFORCE
  @ DRIVER MODE: Returning v,forces,stress,ensemble

     Writing output data file ./calc.save/
  @ DRIVER MODE: Message from server: EXIT
  @ DRIVE MODE: Exiting

     General routines

     Parallel routines

   This run was terminated on:  23: 3:41  23Sep2021

   JOB DONE.