     Program PWSCF v.6.7GPU starts on 10Sep2021 at 21:50: 5

     R & G space division:  proc/nbgrp/npool/nimage =      10
     Reading input from /storage/home/hcoda1/3/ntian30/research/carbon/CxH_vib/CH2_calc/ads_slab/CH2NHNH2_a/out_0012/pw.inp
Warning: card &CELL ignored
Warning: card   CELL_DYNAMICS='IPI', ignored
Warning: card / ignored

     Current dimensions of program PWSCF are:
     Max number of different atomic species (ntypx) = 10
     Max number of k-points (npk) =  40000
     Max angular momentum in pseudopotentials (lmaxx) =  3
     Presently no symmetry can be used with electric field

     Message from routine cell_base_init:
     DEPRECATED: use true lattice parameter, not A to a.u. conversion factor

     IMPORTANT: XC functional enforced from input :
     Exchange-correlation= BEEF-VDW
                           (   1   4  43  14   2   0   0)
     Any further DFT definition will be discarded
     Please, verify this is what you really want

  @ DRIVER MODE: Connecting to
 qe_1139763_2792044.sched-torque.pace.gatech.eduwu5a9d7d_scratch
  using UNIX socket
  @ DRIVER MODE: Message from server: STATUS
  @ DRIVER MODE: Message from server: INIT
  @ DRIVER MODE: Receiving replica           0          -1
  @ DRIVER MODE: Receiving encoded integer          25
  @ DRIVER MODE:  SCF:  T  FORCE:  T  STRESS:  F  VC:  F  ENSEMBLE:  F
  @ DRIVER MODE:  SCF:  T  FORCE:  T  STRESS:  F  VC:  F  ENSEMBLE:  F

     Using Slab Decomposition

     bravais-lattice index     =            0
     lattice parameter (alat)  =       1.8897  a.u.
     unit-cell volume          =    6658.9804 (a.u.)^3
     number of atoms/cell      =           55
     number of atomic types    =            5
     number of electrons       =       397.00
     number of Kohn-Sham states=          208
     kinetic-energy cutoff     =      29.3995  Ry
     charge density cutoff     =     293.9946  Ry
     scf convergence threshold =      7.3E-08
     mixing beta               =       0.0500
     number of iterations used =            8  plain     mixing
     Exchange-correlation= BEEF-VDW
                           (   1   4  43  14   2   0   0)

     celldm(1)=   1.889726  celldm(2)=   0.000000  celldm(3)=   0.000000
     celldm(4)=   0.000000  celldm(5)=   0.000000  celldm(6)=   0.000000

     crystal axes: (cart. coord. in units of alat)
               a(1) = (   6.579727   0.000000   0.000000 )
               a(2) = (  -0.000775   5.961596   0.000000 )
               a(3) = (   0.000000   0.000000  25.155947 )

     reciprocal axes: (cart. coord. in units 2 pi/alat)
               b(1) = (  0.151982  0.000020  0.000000 )
               b(2) = (  0.000000  0.167740  0.000000 )
               b(3) = (  0.000000  0.000000  0.039752 )

     PseudoPot. # 1 for Ti read from file:
     /storage/coda1/p-amedford6/0/shared/rich_project_chbe-medford/medford-share/data/pseudos_module/espresso/nninc/pbe/van/Ti.UPF
     MD5 check sum: 8e4df49b7f0d34bbd5052bf3f5ea0213
     Pseudo is Ultrasoft, Zval = 12.0
     Generated by new atomic code, or converted to UPF format
     Using radial grid of  851 points,  6 beta functions with:
                l(1) =   0
                l(2) =   0
                l(3) =   1
                l(4) =   1
                l(5) =   2
                l(6) =   2
     Q(r) pseudized with  8 coefficients,  rinner =    1.000   1.000   1.000
                                                       1.000   1.000

     PseudoPot. # 2 for O  read from file:
     /storage/coda1/p-amedford6/0/shared/rich_project_chbe-medford/medford-share/data/pseudos_module/espresso/nninc/pbe/van/O.UPF
     MD5 check sum: 78c19812648e8988a0fe644b0f25305e
     Pseudo is Ultrasoft, Zval =  6.0
     Generated by new atomic code, or converted to UPF format
     Using radial grid of  737 points,  4 beta functions with:
                l(1) =   0
                l(2) =   0
                l(3) =   1
                l(4) =   1
     Q(r) pseudized with  8 coefficients,  rinner =    0.800   0.800   0.800

     PseudoPot. # 3 for N  read from file:
     /storage/coda1/p-amedford6/0/shared/rich_project_chbe-medford/medford-share/data/pseudos_module/espresso/nninc/pbe/van/N.UPF
     MD5 check sum: 90d10febe142ad51ac9d5be1deb811c4
     Pseudo is Ultrasoft, Zval =  5.0
     Generated by new atomic code, or converted to UPF format
     Using radial grid of  729 points,  4 beta functions with:
                l(1) =   0
                l(2) =   0
                l(3) =   1
                l(4) =   1
     Q(r) pseudized with  8 coefficients,  rinner =    0.800   0.800   0.800

     PseudoPot. # 4 for C  read from file:
     /storage/coda1/p-amedford6/0/shared/rich_project_chbe-medford/medford-share/data/pseudos_module/espresso/nninc/pbe/van/C.UPF
     MD5 check sum: 1a69bf6b8db32088f5b2163dbdb77a27
     Pseudo is Ultrasoft, Zval =  4.0
     Generated by new atomic code, or converted to UPF format
     Using radial grid of  721 points,  4 beta functions with:
                l(1) =   0
                l(2) =   0
                l(3) =   1
                l(4) =   1
     Q(r) pseudized with  8 coefficients,  rinner =    0.800   0.800   0.800

     PseudoPot. # 5 for H  read from file:
     /storage/coda1/p-amedford6/0/shared/rich_project_chbe-medford/medford-share/data/pseudos_module/espresso/nninc/pbe/van/H.UPF
     MD5 check sum: b5ee9d7bfd3a09ee7748110bda690ff7
     Pseudo is Ultrasoft, Zval =  1.0
     Generated by new atomic code, or converted to UPF format
     Using radial grid of  615 points,  1 beta functions with:
                l(1) =   0
     Q(r) pseudized with  8 coefficients,  rinner =    0.800

     atomic species   valence    mass     pseudopotential
        Ti1           12.00    47.86700     Ti( 1.00)
        O1             6.00    15.99900     O ( 1.00)
        N1             5.00    14.00700     N ( 1.00)
        C1             4.00    12.01100     C ( 1.00)
        H1             1.00     1.00800     H ( 1.00)

     No symmetry found

   Cartesian axes

     site n.     atom                  positions (alat units)
         1           Ti1 tau(   1) = (   0.0004258   2.9801865   6.0000000  )
         2           Ti1 tau(   2) = (   3.2906075   1.4906267   6.0002472  )
         3           O1  tau(   3) = (   0.0006271   0.0005054   7.9858123  )
         4           O1  tau(   4) = (   3.2906025   0.0005020   7.3038282  )
         5           O1  tau(   5) = (   4.5942328   1.4918067   9.2879030  )
         6           O1  tau(   6) = (   1.9868534   1.4903216   9.2879459  )
         7           Ti1 tau(   7) = (   3.2907910   2.8959150   9.1758416  )
         8           Ti1 tau(   8) = (   0.0015273   1.4827037   9.2680791  )
         9           O1  tau(   9) = (   3.2904964   5.9585769  11.3857690  )
        10           O1  tau(  10) = (   0.0116148   5.9584955  10.6183126  )
        11           O1  tau(  11) = (   1.2878431   1.4867815  12.6991744  )
        12           O1  tau(  12) = (   5.2968392   1.4897239  12.6840540  )
        13           Ti1 tau(  13) = (   0.0031652   2.9724310  12.5021289  )
        14           Ti1 tau(  14) = (   3.2974598   1.4750309  12.5411678  )
        15           O1  tau(  15) = (   6.5490940   5.8844369  14.7025010  )
        16           O1  tau(  16) = (   3.3056738   5.9474069  14.0077327  )
        17           O1  tau(  17) = (   4.5358307   1.5199601  16.1809847  )
        18           O1  tau(  18) = (   2.0145668   1.5037208  16.1256758  )
        19           Ti1 tau(  19) = (   3.2722398   2.9952086  15.7861162  )
        20           Ti1 tau(  20) = (   6.5630583   1.3046800  15.8709962  )
        21           O1  tau(  21) = (   3.2904802   0.0005063   4.7018136  )
        22           O1  tau(  22) = (   0.0019326   0.1554656  17.2922311  )
        23           O1  tau(  23) = (   1.3043587   1.4918075   6.0039043  )
        24           O1  tau(  24) = (   5.2767064   1.4903225   6.0039473  )
        25           Ti1 tau(  25) = (   0.0000382   5.9609847   6.0000000  )
        26           Ti1 tau(  26) = (   3.2902200   4.4714249   6.0002472  )
        27           O1  tau(  27) = (   0.0002396   2.9813036   7.9858123  )
        28           O1  tau(  28) = (   3.2902150   2.9813002   7.3038282  )
        29           O1  tau(  29) = (   4.5938453   4.4726049   9.2879030  )
        30           O1  tau(  30) = (   1.9864658   4.4711199   9.2879459  )
        31           Ti1 tau(  31) = (   3.2891106   5.8743827   9.1763621  )
        32           Ti1 tau(  32) = (   0.0006254   4.4649316   9.2693709  )
        33           O1  tau(  33) = (   3.2902589   2.9648534  11.3782866  )
        34           O1  tau(  34) = (   0.0092240   2.9805883  10.6323155  )
        35           O1  tau(  35) = (   1.2907939   4.4579819  12.6664495  )
        36           O1  tau(  36) = (   5.2949113   4.4550998  12.6520156  )
        37           Ti1 tau(  37) = (   0.0082621   5.9437129  12.5015890  )
        38           Ti1 tau(  38) = (   3.2989848   4.4491302  12.5337562  )
        39           O1  tau(  39) = (   6.5545586   3.0159292  14.9830317  )
        40           O1  tau(  40) = (   3.2960925   2.9977268  13.9872472  )
        41           O1  tau(  41) = (   4.5245867   4.4695491  16.2648171  )
        42           O1  tau(  42) = (   2.0004542   4.4779941  16.2115700  )
        43           Ti1 tau(  43) = (   3.2998562   0.0139781  15.8031611  )
        44           Ti1 tau(  44) = (   0.0298651   4.5190837  16.0363964  )
        45           O1  tau(  45) = (   3.2900926   2.9813045   4.7018136  )
        46           O1  tau(  46) = (   1.3039711   4.4726057   6.0039043  )
        47           O1  tau(  47) = (   5.2763189   4.4711207   6.0039473  )
        48           N1  tau(  48) = (   0.7490466   2.5008218  18.8353846  )
        49           N1  tau(  49) = (   6.4369825   3.4131575  18.1851453  )
        50           C1  tau(  50) = (   1.9829018   2.9174465  19.1941100  )
        51           H1  tau(  51) = (   2.1359794   3.9544348  19.4490303  )
        52           H1  tau(  52) = (   2.6935556   2.1521737  19.4548401  )
        53           H1  tau(  53) = (   0.6355624   1.5475814  18.4636284  )
        54           H1  tau(  54) = (   6.4936903   4.3158724  18.6511896  )
        55           H1  tau(  55) = (   5.4890587   3.0624770  18.3097170  )

     number of k points=    10  Fermi-Dirac smearing, width (Ry)=  0.0073
                       cart. coord. in units 2pi/alat
        k(    1) = (   0.0000000   0.0000000   0.0000000), wk =   0.1250000
        k(    2) = (   0.0000000   0.0419351   0.0000000), wk =   0.2500000
        k(    3) = (   0.0000000  -0.0838702   0.0000000), wk =   0.1250000
        k(    4) = (   0.0379955   0.0000049   0.0000000), wk =   0.2500000
        k(    5) = (   0.0379955   0.0419400   0.0000000), wk =   0.2500000
        k(    6) = (   0.0379955  -0.0838652   0.0000000), wk =   0.2500000
        k(    7) = (   0.0379955  -0.0419301   0.0000000), wk =   0.2500000
        k(    8) = (  -0.0759910  -0.0000099   0.0000000), wk =   0.1250000
        k(    9) = (  -0.0759910   0.0419252   0.0000000), wk =   0.2500000
        k(   10) = (  -0.0759910  -0.0838800   0.0000000), wk =   0.1250000

     Initial potential from superposition of free atoms

     starting charge  380.99914, renormalised to  397.00000

     negative rho (up, down):  1.606E-02 0.000E+00

     %%%%%%%%%%%%%%%%%%%%%%%%%%%%%%%%%%%%%%%%%%%%%%%%%%%%%%%%%%%%%%%%%%%%%%%%
     %                                                                      %
     % You are using vdW-DF, which was implemented by the Thonhauser group. %
     % Please cite the following two papers that made this development      %
     % possible and the two reviews that describe the various versions:     %
     %                                                                      %
     %   T. Thonhauser et al., PRL 115, 136402 (2015).                      %
     %   T. Thonhauser et al., PRB 76, 125112 (2007).                       %
     %   K. Berland et al., Rep. Prog. Phys. 78, 066501 (2015).             %
     %   D.C. Langreth et al., J. Phys.: Condens. Matter 21, 084203 (2009). %
     %                                                                      %
     %                                                                      %
     % If you are calculating the stress with vdW-DF, please also cite:     %
     %                                                                      %
     %   R. Sabatini et al., J. Phys.: Condens. Matter 24, 424209 (2012).   %
     %                                                                      %
     %%%%%%%%%%%%%%%%%%%%%%%%%%%%%%%%%%%%%%%%%%%%%%%%%%%%%%%%%%%%%%%%%%%%%%%%

     Adding external electric field

     Computed dipole along edir(3) :
        Dipole              -10.6809 Ry au,        -27.1482 Debye
        Dipole field         -0.0202 Ry au,

        Potential amp.        1.8685 Ry
        Total length         46.3494 bohr

     Starting wfcs are  301 atomic wfcs
  @ DRIVER MODE: Message from server: STATUS
  @ DRIVER MODE: Message from server: POSDATA
  @ DRIVER MODE: Reading and sharing cell
  @ DRIVER MODE: Reading and sharing positions
  @ DRIVER MODE: Received positions

     Self-consistent Calculation

     iteration #  1     ecut=    29.40 Ry     beta= 0.05
     Davidson diagonalization with overlap
     c_bands:  2 eigenvalues not converged
     c_bands:  3 eigenvalues not converged
     c_bands:  1 eigenvalues not converged
     c_bands:  4 eigenvalues not converged
     c_bands:  4 eigenvalues not converged
     c_bands:  4 eigenvalues not converged
     c_bands:  1 eigenvalues not converged
     c_bands:  2 eigenvalues not converged
     c_bands:  2 eigenvalues not converged
     ethr =  1.00E-05,  avg # of iterations = 20.0

[...]

     total energy              =   -2465.27601706 Ry
     estimated scf accuracy    <    5331.82659381 Ry

     iteration #  2     ecut=    29.40 Ry     beta= 0.05
     Davidson diagonalization with overlap
     ethr =  1.00E-02,  avg # of iterations = 22.8

[...]

     iteration # 92     ecut=    29.40 Ry     beta= 0.05
     Davidson diagonalization with overlap
     ethr =  4.80E-11,  avg # of iterations =  1.3

[...]

     total energy              =   -2941.51053817 Ry
     estimated scf accuracy    <       0.00000009 Ry

     iteration # 95     ecut=    29.40 Ry     beta= 0.05
     Davidson diagonalization with overlap
     c_bands:  1 eigenvalues not converged
     c_bands:  1 eigenvalues not converged
     ethr =  2.15E-11,  avg # of iterations = 14.8

     negative rho (up, down):  1.514E-02 0.000E+00

     Adding external electric field

     Computed dipole along edir(3) :
        Dipole                1.2074 Ry au,          3.0689 Debye
        Dipole field          0.0023 Ry au,

        Potential amp.       -0.2112 Ry
        Total length         46.3494 bohr

     End of self-consistent calculation

          k = 0.0000 0.0000 0.0000 ( 18029 PWs)   bands (ev):

   -55.3800 -55.3430 -55.3343 -55.3001 -55.2615 -55.2556 -55.2269 -55.2086
   -55.1857 -55.1827 -55.1742 -55.1646 -55.1309 -55.0308 -54.3669 -54.3328
   -31.9428 -31.8276 -31.7771 -31.7489 -31.6976 -31.6874 -31.6816 -31.6711
   -31.6229 -31.6147 -31.5921 -31.5789 -31.5699 -31.5455 -31.5391 -31.5322
   -31.5197 -31.5037 -31.5028 -31.4870 -31.4861 -31.4506 -31.4489 -31.4389
   -31.4388 -31.4109 -31.3925 -31.3919 -31.3914 -31.3863 -31.3717 -31.3635
   -31.3625 -31.3571 -31.3564 -31.3538 -31.3218 -31.2977 -31.2924 -31.2760
   -31.2458 -31.2014 -30.7765 -30.6818 -30.6598 -30.5928 -30.5060 -30.3951
   -18.9442 -16.2128 -15.9595 -15.8127 -15.7055 -15.5866 -15.4787 -15.4234
   -15.3170 -15.2454 -15.1339 -15.0829 -15.0670 -15.0352 -15.0250 -15.0133
   -14.9327 -14.9264 -14.9088 -14.8855 -14.8799 -14.8378 -14.8263 -14.7852
   -14.7604 -14.7569 -14.6332 -14.5471 -14.4724 -14.3359 -14.3145 -12.8700
   -12.7525  -9.8845  -7.5053  -6.3079  -5.0065  -4.0219  -3.6107  -3.5451
    -3.4058  -3.2982  -3.2768  -3.2455  -3.1405  -2.9601  -2.8236  -2.7922
    -2.6739  -2.5931  -2.5799  -2.5493  -2.4249  -2.3872  -2.3495  -2.2847
    -2.2545  -2.1913  -2.1725  -2.1620  -2.1428  -2.1205  -2.0936  -1.9955
    -1.9537  -1.8581  -1.8187  -1.7846  -1.7436  -1.7263  -1.7068  -1.6752
    -1.6651  -1.6110  -1.5989  -1.5834  -1.5348  -1.4167  -1.2958  -1.2624
    -1.1753  -1.0254  -0.9886  -0.9683  -0.9117  -0.8759  -0.8553  -0.8252
    -0.7624  -0.7233  -0.6628  -0.6055  -0.5404  -0.4952  -0.4454  -0.4073
    -0.3755  -0.2915  -0.2079  -0.1654  -0.1523  -0.1349  -0.0365   0.0004
     0.0537   0.1317   0.1332   0.1457   0.1876   0.2704   0.3477   0.3642
     0.3880   0.4939   0.4984   0.5413   0.5440   0.5639   0.5985   0.6317
     0.6833   0.7104   0.7974   0.8936   1.1185   1.2201   1.2248   1.5480
     1.5591   1.6554   1.8384   2.2320   2.2805   3.7120   3.7824   3.8048
     3.8598   3.8628   3.9330   3.9493   4.1948   4.2203   4.2209   4.2398

[...]

          k = 0.0380-0.0419 0.0000 ( 17876 PWs)   bands (ev):

[...]

          k =-0.0760-0.0000 0.0000 ( 17886 PWs)   bands (ev):

[...]

          k =-0.0760-0.0839 0.0000 ( 17948 PWs)   bands (ev):

   -55.3659 -55.3569 -55.3174 -55.3169 -55.2512 -55.2463 -55.2420 -55.1928
   -55.1895 -55.1874 -55.1829 -55.1482 -55.1475 -55.0329 -54.3499 -54.3497
   -31.7519 -31.7429 -31.6860 -31.6597 -31.6427 -31.6425 -31.6246 -31.6082
   -31.6080 -31.5915 -31.5836 -31.5754 -31.5601 -31.5281 -31.5258 -31.5215
   -31.5209 -31.5198 -31.5083 -31.5041 -31.4754 -31.4626 -31.4585 -31.4492
   -31.4439 -31.4395 -31.4371 -31.4367 -31.4338 -31.4253 -31.4225 -31.4061
   -31.4054 -31.4019 -31.3825 -31.3811 -31.3805 -31.3728 -31.3287 -31.3279
   -31.2953 -31.2475 -30.6725 -30.6723 -30.5890 -30.5888 -30.5494 -30.5494
   -18.9382 -15.7662 -15.5953 -15.5763 -15.4316 -15.3954 -15.3530 -15.3420
   -15.2488 -15.2139 -15.1873 -15.1559 -15.1352 -15.0993 -15.0853 -15.0699
   -15.0114 -14.9889 -14.9833 -14.9634 -14.9041 -14.8997 -14.8921 -14.8892
   -14.8344 -14.8313 -14.8254 -14.7405 -14.7376 -14.6333 -14.2567 -12.8539
   -12.8539  -9.8542  -7.4661  -6.3047  -5.1030  -3.9669  -3.6375  -2.8527
    -2.8474  -2.8330  -2.6477  -2.5652  -2.5423  -2.5378  -2.4474  -2.4093
    -2.3652  -2.3619  -2.3097  -2.3028  -2.2756  -2.2344  -2.2228  -2.2029
    -2.1842  -2.1760  -2.1405  -2.1162  -2.1063  -2.0771  -2.0462  -2.0312
    -2.0219  -2.0003  -1.9699  -1.9502  -1.9386  -1.8878  -1.7730  -1.7577
    -1.6638  -1.5953  -1.5910  -1.5177  -1.4936  -1.4528  -1.4439  -1.4188
    -1.3743  -1.1962  -1.1643  -1.1322  -1.1246  -1.0388  -0.9868  -0.9167
    -0.9106  -0.8842  -0.8523  -0.7562  -0.7190  -0.6998  -0.6242  -0.6007
    -0.5329  -0.4884  -0.4270  -0.3964  -0.3416  -0.3397  -0.3040  -0.2910
    -0.2649  -0.2024  -0.1558  -0.1215  -0.1091  -0.0778   0.1194   0.1291
     0.1436   0.2516   0.2981   0.4445   0.4594   0.5224   0.6285   0.6542
     0.7253   0.7501   0.9060   0.9186   0.9313   0.9870   0.9950   1.0650
     1.0744   2.0114   2.0119   2.1003   2.1006   3.6803   3.8978   3.9696
     3.9850   4.0178   4.1417   4.2111   4.2296   4.2979   4.3006   4.3300

     the Fermi energy is     3.7779 ev

!    total energy              =   -2941.51054026 Ry
     estimated scf accuracy    <       0.00000005 Ry
     smearing contrib. (-TS)   =      -0.04445526 Ry
     internal energy E=F+TS    =   -2941.46608499 Ry

     The total energy is F=E-TS. E is the sum of the following terms:
     one-electron contribution =  -23631.37727030 Ry
     hartree contribution      =   11907.98817857 Ry
     xc contribution           =    -486.89329647 Ry
     ewald contribution        =    9268.81355211 Ry
     electric field correction =       0.00275110 Ry

     convergence has been achieved in  95 iterations

     Forces acting on atoms (cartesian axes, Ry/au):

     atom    1 type  1   force =     0.00013846   -0.00019251    0.09302072
     atom    2 type  1   force =    -0.00008821   -0.00044918   -0.17840674
     atom    3 type  2   force =     0.00004660   -0.00037197   -0.02005571
     atom    4 type  2   force =    -0.00000970   -0.00201756    0.05932033
     atom    5 type  2   force =    -0.01030811   -0.00098682    0.00817709
     atom    6 type  2   force =     0.01173874   -0.00038705    0.00731724
     atom    7 type  1   force =    -0.00038695    0.00239518   -0.01419749
     atom    8 type  1   force =     0.00023874   -0.00123205   -0.00619795
     atom    9 type  2   force =    -0.00023223    0.00021759    0.00013575
     atom   10 type  2   force =    -0.00162379    0.00148239    0.00164459
     atom   11 type  2   force =    -0.00006426   -0.00015753    0.00011942
     atom   12 type  2   force =    -0.00015907   -0.00016201    0.00001194
     atom   13 type  1   force =     0.00007348   -0.00027574   -0.00002130
     atom   14 type  1   force =     0.00017843    0.00019458    0.00026433
     atom   15 type  2   force =    -0.00004393    0.00000119   -0.00018612
     atom   16 type  2   force =     0.00017731   -0.00021899    0.00018078
     atom   17 type  2   force =     0.00012377    0.00005437    0.00055244
     atom   18 type  2   force =    -0.00034708   -0.00002486   -0.00007719
     atom   19 type  1   force =    -0.00015667   -0.00009937    0.00006966
     atom   20 type  1   force =    -0.00010737   -0.00008531   -0.00013528
     atom   21 type  2   force =     0.00005926   -0.00008482    0.10399887
     atom   22 type  2   force =     0.00011053   -0.00030274    0.00010262
     atom   23 type  2   force =    -0.07031255   -0.00017628   -0.02686234
     atom   24 type  2   force =     0.07019870    0.00027193   -0.02688778
     atom   25 type  1   force =    -0.00001073   -0.00013836    0.09257946
     atom   26 type  1   force =    -0.00006449   -0.00039512   -0.17857578
     atom   27 type  2   force =     0.00009525   -0.00030040   -0.01914450
     atom   28 type  2   force =     0.00003925   -0.00178805    0.05866353
     atom   29 type  2   force =    -0.01080431   -0.00126663    0.00872273
     atom   30 type  2   force =     0.01215918   -0.00086567    0.00782467
     atom   31 type  1   force =    -0.00028608    0.00613651   -0.01443364
     atom   32 type  1   force =     0.00028695    0.00071852   -0.00650540
     atom   33 type  2   force =    -0.00022654   -0.00025203   -0.00000114
     atom   34 type  2   force =    -0.00093483   -0.00222889   -0.00014391
     atom   35 type  2   force =    -0.00041943    0.00023001    0.00016347
     atom   36 type  2   force =     0.00012766    0.00018868   -0.00026012
     atom   37 type  1   force =     0.00017950   -0.00001431   -0.00002969
     atom   38 type  1   force =     0.00032540    0.00019498    0.00007157
     atom   39 type  2   force =    -0.00026294    0.00004537    0.00000924
     atom   40 type  2   force =    -0.00008941   -0.00015903   -0.00002475
     atom   41 type  2   force =     0.00018199    0.00021349    0.00020448
     atom   42 type  2   force =    -0.00036409    0.00005304    0.00013291
     atom   43 type  1   force =     0.00040809    0.00000116    0.00010976
     atom   44 type  1   force =    -0.00003247    0.00026713   -0.00010774
     atom   45 type  2   force =     0.00004446   -0.00008654    0.10398246
     atom   46 type  2   force =    -0.07029221   -0.00010321   -0.02681972
     atom   47 type  2   force =     0.07016892    0.00031351   -0.02685495
     atom   48 type  3   force =     0.00287563   -0.00046449    0.00196809
     atom   49 type  3   force =    -0.00029768   -0.00433613   -0.00871155
     atom   50 type  4   force =    -0.00057988    0.00002702   -0.00072254
     atom   51 type  5   force =     0.00042184   -0.00103445    0.00005241
     atom   52 type  5   force =     0.00025305    0.00047606    0.00018548
     atom   53 type  5   force =    -0.00085265    0.00151755   -0.00003337
     atom   54 type  5   force =     0.00056387    0.00646268    0.00463926
     atom   55 type  5   force =    -0.00185737   -0.00080482    0.00117138

     Total force =     0.366651     Total SCF correction =     0.000664
  @ DRIVER MODE: Message from server: STATUS
  @ DRIVER MODE: Message from server: GETFORCE
  @ DRIVER MODE: Returning v,forces,stress,ensemble

     Writing output data file ./calc.save/
  @ DRIVER MODE: Message from server: EXIT
  @ DRIVE MODE: Exiting

     General routines

     Parallel routines

   This run was terminated on:  22:16: 4  10Sep2021

   JOB DONE.