     Program PWSCF v.6.7GPU starts on 21Sep2021 at  9:29:10

     R & G space division:  proc/nbgrp/npool/nimage =      10
     Reading input from /storage/home/hcoda1/3/ntian30/research/carbon/CxH_vib/CH3_calc/ads_slab/CH3OHN2_a/out_0001/pw.inp
Warning: card &CELL ignored
Warning: card   CELL_DYNAMICS='IPI', ignored
Warning: card / ignored

     Current dimensions of program PWSCF are:
     Max number of different atomic species (ntypx) = 10
     Max number of k-points (npk) =  40000
     Max angular momentum in pseudopotentials (lmaxx) =  3
     Presently no symmetry can be used with electric field

     Message from routine cell_base_init:
     DEPRECATED: use true lattice parameter, not A to a.u. conversion factor

     IMPORTANT: XC functional enforced from input :
     Exchange-correlation= BEEF-VDW
                           (   1   4  43  14   2   0   0)
     Any further DFT definition will be discarded
     Please, verify this is what you really want

  @ DRIVER MODE: Connecting to
 qe_1139763_2920907.sched-torque.pace.gatech.eduycvuo6si_scratch
  using UNIX socket
  @ DRIVER MODE: Message from server: STATUS
  @ DRIVER MODE: Message from server: INIT
  @ DRIVER MODE: Receiving replica           0          -1
  @ DRIVER MODE: Receiving encoded integer          25
  @ DRIVER MODE:  SCF:  T  FORCE:  T  STRESS:  F  VC:  F  ENSEMBLE:  F
  @ DRIVER MODE:  SCF:  T  FORCE:  T  STRESS:  F  VC:  F  ENSEMBLE:  F

     Using Slab Decomposition

     bravais-lattice index     =            0
     lattice parameter (alat)  =       1.8897  a.u.
     unit-cell volume          =    6658.9804 (a.u.)^3
     number of atoms/cell      =           55
     number of atomic types    =            5
     number of electrons       =       402.00
     number of Kohn-Sham states=          211
     kinetic-energy cutoff     =      29.3995  Ry
     charge density cutoff     =     293.9946  Ry
     scf convergence threshold =      7.3E-08
     mixing beta               =       0.0500
     number of iterations used =            8  plain     mixing
     Exchange-correlation= BEEF-VDW
                           (   1   4  43  14   2   0   0)

     celldm(1)=   1.889726  celldm(2)=   0.000000  celldm(3)=   0.000000
     celldm(4)=   0.000000  celldm(5)=   0.000000  celldm(6)=   0.000000

     crystal axes: (cart. coord. in units of alat)
               a(1) = (   6.579727   0.000000   0.000000 )
               a(2) = (  -0.000775   5.961596   0.000000 )
               a(3) = (   0.000000   0.000000  25.155947 )

     reciprocal axes: (cart. coord. in units 2 pi/alat)
               b(1) = (  0.151982  0.000020  0.000000 )
               b(2) = (  0.000000  0.167740  0.000000 )
               b(3) = (  0.000000  0.000000  0.039752 )

     PseudoPot. # 1 for Ti read from file:
     /storage/coda1/p-amedford6/0/shared/rich_project_chbe-medford/medford-share/data/pseudos_module/espresso/nninc/pbe/van/Ti.UPF
     MD5 check sum: 8e4df49b7f0d34bbd5052bf3f5ea0213
     Pseudo is Ultrasoft, Zval = 12.0
     Generated by new atomic code, or converted to UPF format
     Using radial grid of  851 points,  6 beta functions with:
                l(1) =   0
                l(2) =   0
                l(3) =   1
                l(4) =   1
                l(5) =   2
                l(6) =   2
     Q(r) pseudized with  8 coefficients,  rinner =    1.000   1.000   1.000
                                                       1.000   1.000

     PseudoPot. # 2 for O  read from file:
     /storage/coda1/p-amedford6/0/shared/rich_project_chbe-medford/medford-share/data/pseudos_module/espresso/nninc/pbe/van/O.UPF
     MD5 check sum: 78c19812648e8988a0fe644b0f25305e
     Pseudo is Ultrasoft, Zval =  6.0
     Generated by new atomic code, or converted to UPF format
     Using radial grid of  737 points,  4 beta functions with:
                l(1) =   0
                l(2) =   0
                l(3) =   1
                l(4) =   1
     Q(r) pseudized with  8 coefficients,  rinner =    0.800   0.800   0.800

     PseudoPot. # 3 for C  read from file:
     /storage/coda1/p-amedford6/0/shared/rich_project_chbe-medford/medford-share/data/pseudos_module/espresso/nninc/pbe/van/C.UPF
     MD5 check sum: 1a69bf6b8db32088f5b2163dbdb77a27
     Pseudo is Ultrasoft, Zval =  4.0
     Generated by new atomic code, or converted to UPF format
     Using radial grid of  721 points,  4 beta functions with:
                l(1) =   0
                l(2) =   0
                l(3) =   1
                l(4) =   1
     Q(r) pseudized with  8 coefficients,  rinner =    0.800   0.800   0.800

     PseudoPot. # 4 for H  read from file:
     /storage/coda1/p-amedford6/0/shared/rich_project_chbe-medford/medford-share/data/pseudos_module/espresso/nninc/pbe/van/H.UPF
     MD5 check sum: b5ee9d7bfd3a09ee7748110bda690ff7
     Pseudo is Ultrasoft, Zval =  1.0
     Generated by new atomic code, or converted to UPF format
     Using radial grid of  615 points,  1 beta functions with:
                l(1) =   0
     Q(r) pseudized with  8 coefficients,  rinner =    0.800

     PseudoPot. # 5 for N  read from file:
     /storage/coda1/p-amedford6/0/shared/rich_project_chbe-medford/medford-share/data/pseudos_module/espresso/nninc/pbe/van/N.UPF
     MD5 check sum: 90d10febe142ad51ac9d5be1deb811c4
     Pseudo is Ultrasoft, Zval =  5.0
     Generated by new atomic code, or converted to UPF format
     Using radial grid of  729 points,  4 beta functions with:
                l(1) =   0
                l(2) =   0
                l(3) =   1
                l(4) =   1
     Q(r) pseudized with  8 coefficients,  rinner =    0.800   0.800   0.800

     atomic species   valence    mass     pseudopotential
        Ti1           12.00    47.86700     Ti( 1.00)
        O1             6.00    15.99900     O ( 1.00)
        C1             4.00    12.01100     C ( 1.00)
        H1             1.00     1.00800     H ( 1.00)
        N1             5.00    14.00700     N ( 1.00)

     No symmetry found

   Cartesian axes

     site n.     atom                  positions (alat units)
         1           Ti1 tau(   1) = (   0.0004258   2.9801865   6.0000000  )
         2           Ti1 tau(   2) = (   3.2906075   1.4906267   6.0002472  )
         3           O1  tau(   3) = (   0.0006271   0.0005054   7.9858123  )
         4           O1  tau(   4) = (   3.2906025   0.0005020   7.3038282  )
         5           O1  tau(   5) = (   4.5942328   1.4918067   9.2879030  )
         6           O1  tau(   6) = (   1.9868534   1.4903216   9.2879459  )
         7           Ti1 tau(   7) = (   3.3211404   3.0081938   9.1556858  )
         8           Ti1 tau(   8) = (   0.0375071   1.5080972   9.2716578  )
         9           O1  tau(   9) = (   3.3277925   5.9557797  11.3694302  )
        10           O1  tau(  10) = (   0.0078976   5.9611837  10.6081260  )
        11           O1  tau(  11) = (   1.3277664   1.4864252  12.6397593  )
        12           O1  tau(  12) = (   5.3262284   1.4857564  12.6680137  )
        13           Ti1 tau(  13) = (   0.0382198   2.9867085  12.5465535  )
        14           Ti1 tau(  14) = (   3.3284736   1.4838689  12.5095855  )
        15           O1  tau(  15) = (   0.0698013   5.9529072  14.6863034  )
        16           O1  tau(  16) = (   3.3155098   5.9507563  14.0021001  )
        17           O1  tau(  17) = (   4.6216333   1.4999481  16.1676996  )
        18           O1  tau(  18) = (   2.1028183   1.5030586  16.1896030  )
        19           Ti1 tau(  19) = (   3.3604961   2.9604831  15.7299238  )
        20           Ti1 tau(  20) = (   0.0595664   1.3265798  16.0016092  )
        21           O1  tau(  21) = (   3.2904802   0.0005063   4.7018136  )
        22           O1  tau(  22) = (   0.0623262   5.9524117  17.2155155  )
        23           O1  tau(  23) = (   1.3043587   1.4918075   6.0039043  )
        24           O1  tau(  24) = (   5.2767064   1.4903225   6.0039473  )
        25           Ti1 tau(  25) = (   0.0000382   5.9609847   6.0000000  )
        26           Ti1 tau(  26) = (   3.2902200   4.4714249   6.0002472  )
        27           O1  tau(  27) = (   0.0002396   2.9813036   7.9858123  )
        28           O1  tau(  28) = (   3.2902150   2.9813002   7.3038282  )
        29           O1  tau(  29) = (   4.5938453   4.4726049   9.2879030  )
        30           O1  tau(  30) = (   1.9864658   4.4711199   9.2879459  )
        31           Ti1 tau(  31) = (   3.3196244   0.0273134   9.1542523  )
        32           Ti1 tau(  32) = (   0.0371349   4.4750001   9.2683202  )
        33           O1  tau(  33) = (   3.3269250   2.9737845  11.3614682  )
        34           O1  tau(  34) = (   0.0102569   2.9799478  10.6284786  )
        35           O1  tau(  35) = (   1.3273985   4.4664108  12.6387590  )
        36           O1  tau(  36) = (   5.3255394   4.4666731  12.6678084  )
        37           Ti1 tau(  37) = (   0.0353421   0.0100523  12.4855181  )
        38           Ti1 tau(  38) = (   3.3275229   4.4611679  12.5089648  )
        39           O1  tau(  39) = (   0.0781084   2.9831843  14.8552695  )
        40           O1  tau(  40) = (   3.3245390   2.9730906  13.9466850  )
        41           O1  tau(  41) = (   4.6258727   4.4416536  16.1518815  )
        42           O1  tau(  42) = (   2.1073368   4.4232626  16.2242367  )
        43           Ti1 tau(  43) = (   3.3327466   5.9477500  15.7934189  )
        44           Ti1 tau(  44) = (   0.0181599   4.5343900  15.8803951  )
        45           O1  tau(  45) = (   3.2900926   2.9813045   4.7018136  )
        46           O1  tau(  46) = (   1.3039711   4.4726057   6.0039043  )
        47           O1  tau(  47) = (   5.2763189   4.4711207   6.0039473  )
        48           C1  tau(  48) = (   6.0591997   3.0849333  18.9377027  )
        49           O1  tau(  49) = (   0.2130057   3.0153153  17.6823395  )
        50           H1  tau(  50) = (   5.0329807   2.8589369  18.7109091  )
        51           H1  tau(  51) = (   1.1577086   3.2067366  17.8266184  )
        52           H1  tau(  52) = (   6.4674937   2.3371334  19.6221514  )
        53           H1  tau(  53) = (   6.1550233   4.0909394  19.3455689  )
        54           N1  tau(  54) = (   5.8673014   3.1443680  22.9807165  )
        55           N1  tau(  55) = (   5.1182427   3.2281067  22.1722476  )

     number of k points=    10  Fermi-Dirac smearing, width (Ry)=  0.0073
                       cart. coord. in units 2pi/alat
        k(    1) = (   0.0000000   0.0000000   0.0000000), wk =   0.1250000
        k(    2) = (   0.0000000   0.0419351   0.0000000), wk =   0.2500000
        k(    3) = (   0.0000000  -0.0838702   0.0000000), wk =   0.1250000
        k(    4) = (   0.0379955   0.0000049   0.0000000), wk =   0.2500000
        k(    5) = (   0.0379955   0.0419400   0.0000000), wk =   0.2500000
        k(    6) = (   0.0379955  -0.0838652   0.0000000), wk =   0.2500000
        k(    7) = (   0.0379955  -0.0419301   0.0000000), wk =   0.2500000
        k(    8) = (  -0.0759910  -0.0000099   0.0000000), wk =   0.1250000
        k(    9) = (  -0.0759910   0.0419252   0.0000000), wk =   0.2500000
[...]
     atom   26 type  1   force =    -0.00027865   -0.00022769   -0.18345512
     atom   27 type  2   force =     0.00042212    0.00018351   -0.02186557
     atom   28 type  2   force =     0.00096840    0.00039042    0.04996840
     atom   29 type  2   force =    -0.01319935    0.00022469    0.00391067
     atom   30 type  2   force =     0.01627459   -0.00018649    0.00560254
     atom   31 type  1   force =    -0.00093716   -0.00013379    0.00006008
     atom   32 type  1   force =     0.00041391   -0.00006361   -0.00004236
     atom   33 type  2   force =    -0.00009472    0.00001077   -0.00004664
     atom   34 type  2   force =    -0.00016120   -0.00003200    0.00012777
     atom   35 type  2   force =    -0.00040962    0.00003432    0.00033671
     atom   36 type  2   force =    -0.00018574    0.00005125   -0.00004051
     atom   37 type  1   force =     0.00029540   -0.00074170    0.00020045
     atom   38 type  1   force =    -0.00048438    0.00036498   -0.00003267
     atom   39 type  2   force =    -0.00040650   -0.00014048    0.00006882
     atom   40 type  2   force =    -0.00012470   -0.00008534    0.00011316
     atom   41 type  2   force =    -0.00054475   -0.00020293    0.00011955
     atom   42 type  2   force =    -0.00011030   -0.00013481   -0.00029543
     atom   43 type  1   force =     0.00018629   -0.00040493    0.00016625
     atom   44 type  1   force =    -0.00021663   -0.00054792   -0.00014091
     atom   45 type  2   force =    -0.00004835    0.00012967    0.10492681
     atom   46 type  2   force =    -0.06783136   -0.00052311   -0.02684121
     atom   47 type  2   force =     0.06761137   -0.00006022   -0.02691525
     atom   48 type  3   force =     0.02123191    0.00064703    0.00288739
     atom   49 type  2   force =    -0.00429937   -0.00030999    0.00034839
     atom   50 type  4   force =    -0.01141785   -0.00234598   -0.00313304
     atom   51 type  4   force =    -0.00051889   -0.00027595    0.00155889
     atom   52 type  4   force =    -0.00347346    0.00243818   -0.00262985
     atom   53 type  4   force =    -0.00241850   -0.00095262   -0.00073140
     atom   54 type  5   force =    -0.00025472   -0.00005458    0.00008638
     atom   55 type  5   force =    -0.00033126   -0.00008830    0.00032583

     Total force =     0.369182     Total SCF correction =     0.000583
  @ DRIVER MODE: Message from server: STATUS
  @ DRIVER MODE: Message from server: GETFORCE
  @ DRIVER MODE: Returning v,forces,stress,ensemble

     Writing output data file ./calc.save/
  @ DRIVER MODE: Message from server: EXIT
  @ DRIVE MODE: Exiting

     General routines

     Parallel routines

   This run was terminated on:   9:47:52  21Sep2021

   JOB DONE.

     Program PWSCF v.6.7GPU starts on 21Sep2021 at 12:10:23

     R & G space division:  proc/nbgrp/npool/nimage =      10
     Reading input from /storage/home/hcoda1/3/ntian30/research/carbon/CxH_vib/CH3_calc/ads_slab/CH3OHN2_a/out_0001/pw.inp
Warning: card &CELL ignored
Warning: card   CELL_DYNAMICS='IPI', ignored
Warning: card / ignored

     Current dimensions of program PWSCF are:
     Max number of different atomic species (ntypx) = 10
     Max number of k-points (npk) =  40000
     Max angular momentum in pseudopotentials (lmaxx) =  3
     Presently no symmetry can be used with electric field

     Message from routine cell_base_init:
     DEPRECATED: use true lattice parameter, not A to a.u. conversion factor

     IMPORTANT: XC functional enforced from input :
     Exchange-correlation= BEEF-VDW
                           (   1   4  43  14   2   0   0)
     Any further DFT definition will be discarded
     Please, verify this is what you really want

  @ DRIVER MODE: Connecting to
 qe_1139763_2922196.sched-torque.pace.gatech.eduogjaxqof_scratch
  using UNIX socket
  @ DRIVER MODE: Message from server: STATUS
  @ DRIVER MODE: Message from server: INIT
  @ DRIVER MODE: Receiving replica           0          -1
  @ DRIVER MODE: Receiving encoded integer          25
  @ DRIVER MODE:  SCF:  T  FORCE:  T  STRESS:  F  VC:  F  ENSEMBLE:  F
  @ DRIVER MODE:  SCF:  T  FORCE:  T  STRESS:  F  VC:  F  ENSEMBLE:  F

     Using Slab Decomposition

     bravais-lattice index     =            0
     lattice parameter (alat)  =       1.8897  a.u.
     unit-cell volume          =    6658.9804 (a.u.)^3
     number of atoms/cell      =           55
     number of atomic types    =            5
     number of electrons       =       402.00
     number of Kohn-Sham states=          211
     kinetic-energy cutoff     =      29.3995  Ry
     charge density cutoff     =     293.9946  Ry
     scf convergence threshold =      7.3E-08
     mixing beta               =       0.0500
     number of iterations used =            8  plain     mixing
     Exchange-correlation= BEEF-VDW
                           (   1   4  43  14   2   0   0)

     celldm(1)=   1.889726  celldm(2)=   0.000000  celldm(3)=   0.000000
     celldm(4)=   0.000000  celldm(5)=   0.000000  celldm(6)=   0.000000

     crystal axes: (cart. coord. in units of alat)
               a(1) = (   6.579727   0.000000   0.000000 )
               a(2) = (  -0.000775   5.961596   0.000000 )
               a(3) = (   0.000000   0.000000  25.155947 )

     reciprocal axes: (cart. coord. in units 2 pi/alat)
               b(1) = (  0.151982  0.000020  0.000000 )
               b(2) = (  0.000000  0.167740  0.000000 )
               b(3) = (  0.000000  0.000000  0.039752 )

     PseudoPot. # 1 for Ti read from file:
     /storage/coda1/p-amedford6/0/shared/rich_project_chbe-medford/medford-share/data/pseudos_module/espresso/nninc/pbe/van/Ti.UPF
     MD5 check sum: 8e4df49b7f0d34bbd5052bf3f5ea0213
     Pseudo is Ultrasoft, Zval = 12.0
     Generated by new atomic code, or converted to UPF format
     Using radial grid of  851 points,  6 beta functions with:
                l(1) =   0
                l(2) =   0
                l(3) =   1
                l(4) =   1
                l(5) =   2
                l(6) =   2
     Q(r) pseudized with  8 coefficients,  rinner =    1.000   1.000   1.000
                                                       1.000   1.000

     PseudoPot. # 2 for O  read from file:
     /storage/coda1/p-amedford6/0/shared/rich_project_chbe-medford/medford-share/data/pseudos_module/espresso/nninc/pbe/van/O.UPF
     MD5 check sum: 78c19812648e8988a0fe644b0f25305e
     Pseudo is Ultrasoft, Zval =  6.0
     Generated by new atomic code, or converted to UPF format
     Using radial grid of  737 points,  4 beta functions with:
                l(1) =   0
                l(2) =   0
                l(3) =   1
                l(4) =   1
     Q(r) pseudized with  8 coefficients,  rinner =    0.800   0.800   0.800

     PseudoPot. # 3 for C  read from file:
     /storage/coda1/p-amedford6/0/shared/rich_project_chbe-medford/medford-share/data/pseudos_module/espresso/nninc/pbe/van/C.UPF
     MD5 check sum: 1a69bf6b8db32088f5b2163dbdb77a27
     Pseudo is Ultrasoft, Zval =  4.0
     Generated by new atomic code, or converted to UPF format
     Using radial grid of  721 points,  4 beta functions with:
                l(1) =   0
                l(2) =   0
                l(3) =   1
                l(4) =   1
     Q(r) pseudized with  8 coefficients,  rinner =    0.800   0.800   0.800

     PseudoPot. # 4 for H  read from file:
     /storage/coda1/p-amedford6/0/shared/rich_project_chbe-medford/medford-share/data/pseudos_module/espresso/nninc/pbe/van/H.UPF
     MD5 check sum: b5ee9d7bfd3a09ee7748110bda690ff7
     Pseudo is Ultrasoft, Zval =  1.0
     Generated by new atomic code, or converted to UPF format
     Using radial grid of  615 points,  1 beta functions with:
                l(1) =   0
     Q(r) pseudized with  8 coefficients,  rinner =    0.800

     PseudoPot. # 5 for N  read from file:
     /storage/coda1/p-amedford6/0/shared/rich_project_chbe-medford/medford-share/data/pseudos_module/espresso/nninc/pbe/van/N.UPF
     MD5 check sum: 90d10febe142ad51ac9d5be1deb811c4
     Pseudo is Ultrasoft, Zval =  5.0
     Generated by new atomic code, or converted to UPF format
     Using radial grid of  729 points,  4 beta functions with:
                l(1) =   0
                l(2) =   0
                l(3) =   1
                l(4) =   1
     Q(r) pseudized with  8 coefficients,  rinner =    0.800   0.800   0.800

     atomic species   valence    mass     pseudopotential
        Ti1           12.00    47.86700     Ti( 1.00)
        O1             6.00    15.99900     O ( 1.00)
        C1             4.00    12.01100     C ( 1.00)
        H1             1.00     1.00800     H ( 1.00)
        N1             5.00    14.00700     N ( 1.00)

     No symmetry found

   Cartesian axes

     site n.     atom                  positions (alat units)
         1           Ti1 tau(   1) = (   0.0004258   2.9801865   6.0000000  )
         2           Ti1 tau(   2) = (   3.2906075   1.4906267   6.0002472  )
         3           O1  tau(   3) = (   0.0006271   0.0005054   7.9858123  )
         4           O1  tau(   4) = (   3.2906025   0.0005020   7.3038282  )
         5           O1  tau(   5) = (   4.5942328   1.4918067   9.2879030  )
         6           O1  tau(   6) = (   1.9868534   1.4903216   9.2879459  )
         7           Ti1 tau(   7) = (   3.3211404   3.0081938   9.1556858  )
         8           Ti1 tau(   8) = (   0.0375071   1.5080972   9.2716578  )
         9           O1  tau(   9) = (   3.3277925   5.9557797  11.3694302  )
        10           O1  tau(  10) = (   0.0078976   5.9611837  10.6081260  )
        11           O1  tau(  11) = (   1.3277664   1.4864252  12.6397593  )
        12           O1  tau(  12) = (   5.3262284   1.4857564  12.6680137  )
        13           Ti1 tau(  13) = (   0.0382198   2.9867085  12.5465535  )
        14           Ti1 tau(  14) = (   3.3284736   1.4838689  12.5095855  )
        15           O1  tau(  15) = (   0.0698013   5.9529072  14.6863034  )
        16           O1  tau(  16) = (   3.3155098   5.9507563  14.0021001  )
        17           O1  tau(  17) = (   4.6216333   1.4999481  16.1676996  )
        18           O1  tau(  18) = (   2.1028183   1.5030586  16.1896030  )
        19           Ti1 tau(  19) = (   3.3604961   2.9604831  15.7299238  )
        20           Ti1 tau(  20) = (   0.0595664   1.3265798  16.0016092  )
        21           O1  tau(  21) = (   3.2904802   0.0005063   4.7018136  )
        22           O1  tau(  22) = (   0.0623262   5.9524117  17.2155155  )
        23           O1  tau(  23) = (   1.3043587   1.4918075   6.0039043  )
        24           O1  tau(  24) = (   5.2767064   1.4903225   6.0039473  )
        25           Ti1 tau(  25) = (   0.0000382   5.9609847   6.0000000  )
        26           Ti1 tau(  26) = (   3.2902200   4.4714249   6.0002472  )
        27           O1  tau(  27) = (   0.0002396   2.9813036   7.9858123  )
        28           O1  tau(  28) = (   3.2902150   2.9813002   7.3038282  )
        29           O1  tau(  29) = (   4.5938453   4.4726049   9.2879030  )
        30           O1  tau(  30) = (   1.9864658   4.4711199   9.2879459  )
        31           Ti1 tau(  31) = (   3.3196244   0.0273134   9.1542523  )
        32           Ti1 tau(  32) = (   0.0371349   4.4750001   9.2683202  )
        33           O1  tau(  33) = (   3.3269250   2.9737845  11.3614682  )
        34           O1  tau(  34) = (   0.0102569   2.9799478  10.6284786  )
        35           O1  tau(  35) = (   1.3273985   4.4664108  12.6387590  )
        36           O1  tau(  36) = (   5.3255394   4.4666731  12.6678084  )
        37           Ti1 tau(  37) = (   0.0353421   0.0100523  12.4855181  )
        38           Ti1 tau(  38) = (   3.3275229   4.4611679  12.5089648  )
        39           O1  tau(  39) = (   0.0781084   2.9831843  14.8552695  )
        40           O1  tau(  40) = (   3.3245390   2.9730906  13.9466850  )
        41           O1  tau(  41) = (   4.6258727   4.4416536  16.1518815  )
        42           O1  tau(  42) = (   2.1073368   4.4232626  16.2242367  )
        43           Ti1 tau(  43) = (   3.3327466   5.9477500  15.7934189  )
        44           Ti1 tau(  44) = (   0.0181599   4.5343900  15.8803951  )
        45           O1  tau(  45) = (   3.2900926   2.9813045   4.7018136  )
        46           O1  tau(  46) = (   1.3039711   4.4726057   6.0039043  )
        47           O1  tau(  47) = (   5.2763189   4.4711207   6.0039473  )
        48           C1  tau(  48) = (   6.0691997   3.0849333  18.9377027  )
        49           O1  tau(  49) = (   0.2130057   3.0053153  17.6823395  )
        50           H1  tau(  50) = (   5.0329807   2.8589369  18.7109091  )
        51           H1  tau(  51) = (   1.1577086   3.2067366  17.8266184  )
        52           H1  tau(  52) = (   6.4674937   2.3371334  19.6221514  )
        53           H1  tau(  53) = (   6.1550233   4.0909394  19.3455689  )
        54           N1  tau(  54) = (   5.8673014   3.1443680  22.9807165  )
        55           N1  tau(  55) = (   5.1182427   3.2281067  22.1722476  )

     number of k points=    10  Fermi-Dirac smearing, width (Ry)=  0.0073
                       cart. coord. in units 2pi/alat
        k(    1) = (   0.0000000   0.0000000   0.0000000), wk =   0.1250000
        k(    2) = (   0.0000000   0.0419351   0.0000000), wk =   0.2500000
        k(    3) = (   0.0000000  -0.0838702   0.0000000), wk =   0.1250000
        k(    4) = (   0.0379955   0.0000049   0.0000000), wk =   0.2500000
        k(    5) = (   0.0379955   0.0419400   0.0000000), wk =   0.2500000
        k(    6) = (   0.0379955  -0.0838652   0.0000000), wk =   0.2500000
        k(    7) = (   0.0379955  -0.0419301   0.0000000), wk =   0.2500000
        k(    8) = (  -0.0759910  -0.0000099   0.0000000), wk =   0.1250000
        k(    9) = (  -0.0759910   0.0419252   0.0000000), wk =   0.2500000
        k(   10) = (  -0.0759910  -0.0838800   0.0000000), wk =   0.1250000

     Initial potential from superposition of free atoms

     starting charge  385.99915, renormalised to  402.00000

[...]

     %%%%%%%%%%%%%%%%%%%%%%%%%%%%%%%%%%%%%%%%%%%%%%%%%%%%%%%%%%%%%%%%%%%%%%%%
     %                                                                      %
     % You are using vdW-DF, which was implemented by the Thonhauser group. %
     % Please cite the following two papers that made this development      %
     % possible and the two reviews that describe the various versions:     %
     %                                                                      %
     %   T. Thonhauser et al., PRL 115, 136402 (2015).                      %
     %   T. Thonhauser et al., PRB 76, 125112 (2007).                       %
     %   K. Berland et al., Rep. Prog. Phys. 78, 066501 (2015).             %
     %   D.C. Langreth et al., J. Phys.: Condens. Matter 21, 084203 (2009). %
     %                                                                      %
     %                                                                      %
     % If you are calculating the stress with vdW-DF, please also cite:     %
     %                                                                      %
     %   R. Sabatini et al., J. Phys.: Condens. Matter 24, 424209 (2012).   %
     %                                                                      %
     %%%%%%%%%%%%%%%%%%%%%%%%%%%%%%%%%%%%%%%%%%%%%%%%%%%%%%%%%%%%%%%%%%%%%%%%

[...]

     Starting wfcs are  304 atomic wfcs
  @ DRIVER MODE: Message from server: STATUS
  @ DRIVER MODE: Message from server: POSDATA
  @ DRIVER MODE: Reading and sharing cell
  @ DRIVER MODE: Reading and sharing positions
  @ DRIVER MODE: Received positions

     Self-consistent Calculation

[...]

     iteration # 67     ecut=    29.40 Ry     beta= 0.05
     Davidson diagonalization with overlap
     c_bands:  4 eigenvalues not converged
     ethr =  5.54E-09,  avg # of iterations = 12.6

[...]

     iteration # 69     ecut=    29.40 Ry     beta= 0.05
     Davidson diagonalization with overlap
     ethr =  5.54E-09,  avg # of iterations = 10.5

     negative rho (up, down):  1.099E-02 0.000E+00

     Adding external electric field

     Computed dipole along edir(3) :
        Dipole                1.2278 Ry au,          3.1208 Debye
        Dipole field          0.0023 Ry au,

        Potential amp.       -0.2148 Ry
        Total length         46.3494 bohr

     total energy              =   -2972.82596331 Ry
     estimated scf accuracy    <       0.00000310 Ry

     iteration # 70     ecut=    29.40 Ry     beta= 0.05
     Davidson diagonalization with overlap
     c_bands:  2 eigenvalues not converged
     c_bands:  1 eigenvalues not converged
     c_bands:  1 eigenvalues not converged