     Program PWSCF v.6.7GPU starts on 16Sep2021 at  1:22:13

     R & G space division:  proc/nbgrp/npool/nimage =      10
     Reading input from /storage/home/hcoda1/3/ntian30/research/carbon/CxH_vib/H2O_calc/ads_slab/CHNH2O_a/out_0030/pw.inp
Warning: card &CELL ignored
Warning: card   CELL_DYNAMICS='IPI', ignored
Warning: card / ignored

     Current dimensions of program PWSCF are:
     Max number of different atomic species (ntypx) = 10
     Max number of k-points (npk) =  40000
     Max angular momentum in pseudopotentials (lmaxx) =  3
     Presently no symmetry can be used with electric field

     Message from routine cell_base_init:
     DEPRECATED: use true lattice parameter, not A to a.u. conversion factor

     IMPORTANT: XC functional enforced from input :
     Exchange-correlation= BEEF-VDW
                           (   1   4  43  14   2   0   0)
     Any further DFT definition will be discarded
     Please, verify this is what you really want

  @ DRIVER MODE: Connecting to
 qe_1139763_2852627.sched-torque.pace.gatech.edu1xyv9fg6_scratch
  using UNIX socket
  @ DRIVER MODE: Message from server: STATUS
  @ DRIVER MODE: Message from server: INIT
  @ DRIVER MODE: Receiving replica           0          -1
  @ DRIVER MODE: Receiving encoded integer          25
  @ DRIVER MODE:  SCF:  T  FORCE:  T  STRESS:  F  VC:  F  ENSEMBLE:  F
  @ DRIVER MODE:  SCF:  T  FORCE:  T  STRESS:  F  VC:  F  ENSEMBLE:  F

     Using Slab Decomposition

     bravais-lattice index     =            0
     lattice parameter (alat)  =       1.8897  a.u.
     unit-cell volume          =    6658.9804 (a.u.)^3
     number of atoms/cell      =           53
     number of atomic types    =            5
     number of electrons       =       396.00
     number of Kohn-Sham states=          208
     kinetic-energy cutoff     =      29.3995  Ry
     charge density cutoff     =     293.9946  Ry
     scf convergence threshold =      7.3E-08
     mixing beta               =       0.0500
     number of iterations used =            8  plain     mixing
     Exchange-correlation= BEEF-VDW
                           (   1   4  43  14   2   0   0)

     celldm(1)=   1.889726  celldm(2)=   0.000000  celldm(3)=   0.000000
     celldm(4)=   0.000000  celldm(5)=   0.000000  celldm(6)=   0.000000

     crystal axes: (cart. coord. in units of alat)
               a(1) = (   6.579727   0.000000   0.000000 )
               a(2) = (  -0.000775   5.961596   0.000000 )
               a(3) = (   0.000000   0.000000  25.155947 )

     reciprocal axes: (cart. coord. in units 2 pi/alat)
               b(1) = (  0.151982  0.000020  0.000000 )
               b(2) = (  0.000000  0.167740  0.000000 )
               b(3) = (  0.000000  0.000000  0.039752 )

     PseudoPot. # 1 for Ti read from file:
     /storage/coda1/p-amedford6/0/shared/rich_project_chbe-medford/medford-share/data/pseudos_module/espresso/nninc/pbe/van/Ti.UPF
     MD5 check sum: 8e4df49b7f0d34bbd5052bf3f5ea0213
     Pseudo is Ultrasoft, Zval = 12.0
     Generated by new atomic code, or converted to UPF format
     Using radial grid of  851 points,  6 beta functions with:
                l(1) =   0
                l(2) =   0
                l(3) =   1
                l(4) =   1
                l(5) =   2
                l(6) =   2
     Q(r) pseudized with  8 coefficients,  rinner =    1.000   1.000   1.000
                                                       1.000   1.000

     PseudoPot. # 2 for O  read from file:
     /storage/coda1/p-amedford6/0/shared/rich_project_chbe-medford/medford-share/data/pseudos_module/espresso/nninc/pbe/van/O.UPF
     MD5 check sum: 78c19812648e8988a0fe644b0f25305e
     Pseudo is Ultrasoft, Zval =  6.0
     Generated by new atomic code, or converted to UPF format
     Using radial grid of  737 points,  4 beta functions with:
                l(1) =   0
                l(2) =   0
                l(3) =   1
                l(4) =   1
     Q(r) pseudized with  8 coefficients,  rinner =    0.800   0.800   0.800

     PseudoPot. # 3 for N  read from file:
     /storage/coda1/p-amedford6/0/shared/rich_project_chbe-medford/medford-share/data/pseudos_module/espresso/nninc/pbe/van/N.UPF
     MD5 check sum: 90d10febe142ad51ac9d5be1deb811c4
     Pseudo is Ultrasoft, Zval =  5.0
     Generated by new atomic code, or converted to UPF format
     Using radial grid of  729 points,  4 beta functions with:
                l(1) =   0
                l(2) =   0
                l(3) =   1
                l(4) =   1
     Q(r) pseudized with  8 coefficients,  rinner =    0.800   0.800   0.800

     PseudoPot. # 4 for C  read from file:
     /storage/coda1/p-amedford6/0/shared/rich_project_chbe-medford/medford-share/data/pseudos_module/espresso/nninc/pbe/van/C.UPF
     MD5 check sum: 1a69bf6b8db32088f5b2163dbdb77a27
     Pseudo is Ultrasoft, Zval =  4.0
     Generated by new atomic code, or converted to UPF format
     Using radial grid of  721 points,  4 beta functions with:
                l(1) =   0
                l(2) =   0
                l(3) =   1
                l(4) =   1
     Q(r) pseudized with  8 coefficients,  rinner =    0.800   0.800   0.800

     PseudoPot. # 5 for H  read from file:
     /storage/coda1/p-amedford6/0/shared/rich_project_chbe-medford/medford-share/data/pseudos_module/espresso/nninc/pbe/van/H.UPF
     MD5 check sum: b5ee9d7bfd3a09ee7748110bda690ff7
     Pseudo is Ultrasoft, Zval =  1.0
     Generated by new atomic code, or converted to UPF format
     Using radial grid of  615 points,  1 beta functions with:
                l(1) =   0
     Q(r) pseudized with  8 coefficients,  rinner =    0.800

     atomic species   valence    mass     pseudopotential
        Ti1           12.00    47.86700     Ti( 1.00)
        O1             6.00    15.99900     O ( 1.00)
        N1             5.00    14.00700     N ( 1.00)
        C1             4.00    12.01100     C ( 1.00)
        H1             1.00     1.00800     H ( 1.00)

     No symmetry found

   Cartesian axes

     site n.     atom                  positions (alat units)
         1           Ti1 tau(   1) = (   0.0004258   2.9801865   6.0000000  )
         2           Ti1 tau(   2) = (   3.2906075   1.4906267   6.0002472  )
         3           O1  tau(   3) = (   0.0006271   0.0005054   7.9858123  )
         4           O1  tau(   4) = (   3.2906025   0.0005020   7.3038282  )
         5           O1  tau(   5) = (   4.5942328   1.4918067   9.2879030  )
         6           O1  tau(   6) = (   1.9868534   1.4903216   9.2879459  )
         7           Ti1 tau(   7) = (   3.2907910   2.8959150   9.1758416  )
         8           Ti1 tau(   8) = (   0.0015273   1.4827037   9.2680791  )
         9           O1  tau(   9) = (   3.3001320   0.0223556  11.3750156  )
        10           O1  tau(  10) = (   0.0116148   5.9584955  10.6183126  )
        11           O1  tau(  11) = (   1.2984793   1.5070296  12.6822906  )
        12           O1  tau(  12) = (   5.3053048   1.5066133  12.6782214  )
        13           Ti1 tau(  13) = (   0.0240538   2.9928608  12.5236668  )
        14           Ti1 tau(  14) = (   3.3205759   1.5163330  12.5292614  )
        15           O1  tau(  15) = (   0.0116174   5.9170763  14.6754219  )
        16           O1  tau(  16) = (   3.3074613   5.9602333  14.0123823  )
        17           O1  tau(  17) = (   4.5729729   1.5428591  16.1031931  )
        18           O1  tau(  18) = (   2.0357456   1.5455963  16.0959954  )
        19           Ti1 tau(  19) = (   3.3038618   3.0179751  15.7376193  )
        20           Ti1 tau(  20) = (   0.0182819   1.3639466  15.8252938  )
        21           O1  tau(  21) = (   3.2904802   0.0005063   4.7018136  )
        22           O1  tau(  22) = (   0.0233993   0.1148627  17.2261141  )
        23           O1  tau(  23) = (   1.3043587   1.4918075   6.0039043  )
        24           O1  tau(  24) = (   5.2767064   1.4903225   6.0039473  )
        25           Ti1 tau(  25) = (   0.0000382   5.9609847   6.0000000  )
        26           Ti1 tau(  26) = (   3.2902200   4.4714249   6.0002472  )
        27           O1  tau(  27) = (   0.0002396   2.9813036   7.9858123  )
        28           O1  tau(  28) = (   3.2902150   2.9813002   7.3038282  )
        29           O1  tau(  29) = (   4.5938453   4.4726049   9.2879030  )
        30           O1  tau(  30) = (   1.9864658   4.4711199   9.2879459  )
        31           Ti1 tau(  31) = (   3.2891106   5.8743827   9.1763621  )
        32           Ti1 tau(  32) = (   0.0006254   4.4649316   9.2693709  )
        33           O1  tau(  33) = (   3.3008157   2.9919736  11.3713264  )
        34           O1  tau(  34) = (   0.0092240   2.9805883  10.6323155  )
        35           O1  tau(  35) = (   1.3007438   4.4795902  12.6508594  )
        36           O1  tau(  36) = (   5.3032704   4.4808111  12.6474791  )
        37           Ti1 tau(  37) = (   0.0257871   0.0021926  12.5000826  )
        38           Ti1 tau(  38) = (   3.3207303   4.5031034  12.5344522  )
        39           O1  tau(  39) = (   0.0087802   3.0322157  14.9253570  )
        40           O1  tau(  40) = (   3.3068524   3.0154938  13.9499554  )
        41           O1  tau(  41) = (   4.5633958   4.4699756  16.2119971  )
        42           O1  tau(  42) = (   2.0378630   4.4655417  16.1963084  )
        43           Ti1 tau(  43) = (   3.3121544   0.0541299  15.8353365  )
        44           Ti1 tau(  44) = (   0.0163097   4.5868159  16.0488687  )
        45           O1  tau(  45) = (   3.2900926   2.9813045   4.7018136  )
        46           O1  tau(  46) = (   1.3039711   4.4726057   6.0039043  )
        47           O1  tau(  47) = (   5.2763189   4.4711207   6.0039473  )
        48           N1  tau(  48) = (   0.0062226   3.2377968  17.9635855  )
        49           C1  tau(  49) = (   6.5597590   2.5083335  18.8557918  )
        50           H1  tau(  50) = (   6.5336154   1.7992569  19.6484373  )
        51           O1  tau(  51) = (   3.2480284   5.9531242  18.4006015  )
        52           H1  tau(  52) = (   3.9795166   5.3132839  18.3996481  )
        53           H1  tau(  53) = (   2.4340588   5.4237150  18.3412978  )

     number of k points=    10  Fermi-Dirac smearing, width (Ry)=  0.0073
                       cart. coord. in units 2pi/alat
        k(    1) = (   0.0000000   0.0000000   0.0000000), wk =   0.1250000
        k(    2) = (   0.0000000   0.0419351   0.0000000), wk =   0.2500000
        k(    3) = (   0.0000000  -0.0838702   0.0000000), wk =   0.1250000
        k(    4) = (   0.0379955   0.0000049   0.0000000), wk =   0.2500000
        k(    5) = (   0.0379955   0.0419400   0.0000000), wk =   0.2500000
        k(    6) = (   0.0379955  -0.0838652   0.0000000), wk =   0.2500000
        k(    7) = (   0.0379955  -0.0419301   0.0000000), wk =   0.2500000
        k(    8) = (  -0.0759910  -0.0000099   0.0000000), wk =   0.1250000
        k(    9) = (  -0.0759910   0.0419252   0.0000000), wk =   0.2500000
        k(   10) = (  -0.0759910  -0.0838800   0.0000000), wk =   0.1250000

     Initial potential from superposition of free atoms

     starting charge  379.99917, renormalised to  396.00000

     negative rho (up, down):  1.669E-02 0.000E+00

     %%%%%%%%%%%%%%%%%%%%%%%%%%%%%%%%%%%%%%%%%%%%%%%%%%%%%%%%%%%%%%%%%%%%%%%%
     %                                                                      %
     % You are using vdW-DF, which was implemented by the Thonhauser group. %
     % Please cite the following two papers that made this development      %
     % possible and the two reviews that describe the various versions:     %
     %                                                                      %
     %   T. Thonhauser et al., PRL 115, 136402 (2015).                      %
     %   T. Thonhauser et al., PRB 76, 125112 (2007).                       %
     %   K. Berland et al., Rep. Prog. Phys. 78, 066501 (2015).             %
     %   D.C. Langreth et al., J. Phys.: Condens. Matter 21, 084203 (2009). %
     %                                                                      %
     %                                                                      %
     % If you are calculating the stress with vdW-DF, please also cite:     %
     %                                                                      %
     %   R. Sabatini et al., J. Phys.: Condens. Matter 24, 424209 (2012).   %
     %                                                                      %
     %%%%%%%%%%%%%%%%%%%%%%%%%%%%%%%%%%%%%%%%%%%%%%%%%%%%%%%%%%%%%%%%%%%%%%%%

     Adding external electric field

     Computed dipole along edir(3) :
        Dipole               -9.4946 Ry au,        -24.1328 Debye
        Dipole field         -0.0179 Ry au,

        Potential amp.        1.6609 Ry
        Total length         46.3494 bohr

     Starting wfcs are  299 atomic wfcs
  @ DRIVER MODE: Message from server: STATUS
  @ DRIVER MODE: Message from server: POSDATA
  @ DRIVER MODE: Reading and sharing cell
  @ DRIVER MODE: Reading and sharing positions
  @ DRIVER MODE: Received positions

     Self-consistent Calculation

     iteration #  1     ecut=    29.40 Ry     beta= 0.05
     Davidson diagonalization with overlap
     c_bands:  1 eigenvalues not converged
     c_bands:  1 eigenvalues not converged
     c_bands:  2 eigenvalues not converged
     c_bands:  3 eigenvalues not converged
     c_bands:  3 eigenvalues not converged
     c_bands:  2 eigenvalues not converged
     c_bands:  3 eigenvalues not converged
     c_bands:  1 eigenvalues not converged
     c_bands:  2 eigenvalues not converged
     c_bands:  2 eigenvalues not converged
     ethr =  1.00E-05,  avg # of iterations = 20.0

[...]

     total energy              =   -2563.41346575 Ry
     estimated scf accuracy    <    4341.74595247 Ry

     iteration #  2     ecut=    29.40 Ry     beta= 0.05
     Davidson diagonalization with overlap
     ethr =  1.00E-02,  avg # of iterations = 23.6

[...]

     iteration # 64     ecut=    29.40 Ry     beta= 0.05
     Davidson diagonalization with overlap
     c_bands:  1 eigenvalues not converged
     ethr =  1.21E-10,  avg # of iterations = 13.2

[...]

     total energy              =   -2951.44742018 Ry
     estimated scf accuracy    <       0.00000015 Ry

     iteration # 67     ecut=    29.40 Ry     beta= 0.05
     Davidson diagonalization with overlap
     ethr =  3.68E-11,  avg # of iterations = 10.3

     negative rho (up, down):  1.628E-02 0.000E+00

     Adding external electric field

     Computed dipole along edir(3) :
        Dipole                1.4849 Ry au,          3.7743 Debye
        Dipole field          0.0028 Ry au,

        Potential amp.       -0.2598 Ry
        Total length         46.3494 bohr

     End of self-consistent calculation

          k = 0.0000 0.0000 0.0000 ( 18029 PWs)   bands (ev):

   -55.3136 -55.2777 -55.2767 -55.2426 -55.2243 -55.1916 -55.1544 -55.1360
   -55.1157 -55.1052 -55.1013 -55.0908 -55.0716 -55.0047 -54.3015 -54.2674
   -31.8733 -31.7683 -31.7082 -31.6805 -31.6325 -31.6248 -31.6101 -31.6093
   -31.5658 -31.5309 -31.5244 -31.5211 -31.4986 -31.4854 -31.4614 -31.4585
   -31.4541 -31.4520 -31.4348 -31.4287 -31.4002 -31.3898 -31.3835 -31.3716
   -31.3654 -31.3367 -31.3352 -31.3339 -31.3226 -31.3210 -31.3194 -31.3023
   -31.2944 -31.2883 -31.2843 -31.2607 -31.2496 -31.2384 -31.2333 -31.2153
   -31.2140 -31.1220 -30.7105 -30.6169 -30.5948 -30.5270 -30.4402 -30.3293
   -18.9203 -17.3399 -16.1192 -15.8645 -15.7113 -15.6107 -15.5121 -15.3704
   -15.3163 -15.2066 -15.1410 -15.0004 -14.9630 -14.9450 -14.9271 -14.9253
   -14.8803 -14.8532 -14.8471 -14.8137 -14.8113 -14.7850 -14.7491 -14.7400
   -14.7097 -14.6940 -14.6466 -14.5390 -14.4698 -14.4068 -14.1102 -12.8036
   -12.6863  -8.9834  -6.6516  -4.6231  -3.4644  -3.4311  -3.3247  -3.2192
    -3.2117  -3.1874  -3.1678  -3.0584  -3.0244  -2.7752  -2.7166  -2.6581
    -2.5689  -2.4965  -2.4856  -2.4455  -2.3175  -2.2750  -2.2344  -2.1671
    -2.1484  -2.1220  -2.0978  -2.0887  -2.0291  -2.0224  -1.9991  -1.8821
    -1.8412  -1.7738  -1.7238  -1.7072  -1.6542  -1.6330  -1.6022  -1.6013
    -1.5964  -1.5514  -1.5494  -1.4957  -1.4838  -1.3782  -1.3371  -1.1488
    -1.0541  -0.9969  -0.9521  -0.8850  -0.8708  -0.7972  -0.7570  -0.7020
    -0.7000  -0.6430  -0.5226  -0.4319  -0.4112  -0.3815  -0.2959  -0.2595
    -0.1971  -0.1815  -0.0937  -0.0807  -0.0743  -0.0665   0.0624   0.1114
     0.1924   0.1980   0.2474   0.2677   0.3457   0.3605   0.4311   0.4691
     0.5250   0.5689   0.6251   0.6333   0.6586   0.6787   0.6956   0.7853
     0.7987   0.8263   0.9003   1.0372   1.2278   1.2981   1.3203   1.6291
     1.6499   1.7216   1.9065   2.2973   2.3453   3.7803   3.8592   3.9215
     3.9310   3.9434   4.0162   4.2628   4.2800   4.2810   4.2963   4.3237

[...]

          k = 0.0380-0.0419 0.0000 ( 17876 PWs)   bands (ev):

[...]

          k =-0.0760-0.0000 0.0000 ( 17886 PWs)   bands (ev):

[...]

          k =-0.0760-0.0839 0.0000 ( 17948 PWs)   bands (ev):

   -55.2971 -55.2940 -55.2597 -55.2595 -55.2220 -55.1802 -55.1657 -55.1208
   -55.1160 -55.1127 -55.0930 -55.0888 -55.0882 -55.0075 -54.2845 -54.2843
   -31.6821 -31.6742 -31.6307 -31.5835 -31.5834 -31.5690 -31.5609 -31.5511
   -31.5510 -31.5244 -31.5138 -31.5114 -31.5017 -31.4696 -31.4532 -31.4488
   -31.4445 -31.4420 -31.4403 -31.4340 -31.4291 -31.3960 -31.3935 -31.3930
   -31.3793 -31.3791 -31.3766 -31.3722 -31.3600 -31.3533 -31.3468 -31.3404
   -31.3341 -31.3295 -31.3179 -31.3162 -31.3094 -31.2767 -31.2687 -31.2682
   -31.2217 -31.2133 -30.6076 -30.6074 -30.5231 -30.5230 -30.4836 -30.4836
   -18.9194 -17.3351 -15.6551 -15.5504 -15.4408 -15.3209 -15.3128 -15.2561
   -15.2084 -15.1281 -15.0864 -15.0743 -15.0535 -15.0395 -15.0088 -15.0040
   -14.9843 -14.9101 -14.8993 -14.8890 -14.8658 -14.8244 -14.8137 -14.8110
   -14.7938 -14.7684 -14.7642 -14.6694 -14.6665 -14.5712 -14.4463 -12.7878
   -12.7877  -8.9813  -6.6448  -4.6100  -3.3328  -3.2552  -2.9302  -2.8175
    -2.7729  -2.6820  -2.5322  -2.5026  -2.4318  -2.4257  -2.3586  -2.3065
    -2.2922  -2.2730  -2.1898  -2.1731  -2.1626  -2.1503  -2.1375  -2.1094
    -2.0863  -2.0387  -2.0353  -2.0341  -2.0248  -2.0043  -1.9682  -1.9487
    -1.9091  -1.9002  -1.8791  -1.8328  -1.7899  -1.7721  -1.7550  -1.6497
    -1.6232  -1.5169  -1.5121  -1.4122  -1.4075  -1.3804  -1.3552  -1.3456
    -1.2773  -1.2103  -1.0585  -1.0489  -1.0162  -0.9392  -0.9262  -0.8691
    -0.8625  -0.7775  -0.7609  -0.7320  -0.6372  -0.6070  -0.5038  -0.4897
    -0.4815  -0.3449  -0.3407  -0.2842  -0.2728  -0.2700  -0.2015  -0.1956
    -0.1894  -0.1084  -0.0741  -0.0471  -0.0360   0.0176   0.2060   0.2330
     0.2632   0.3859   0.4336   0.5742   0.6676   0.6724   0.7431   0.8056
     0.8243   0.8846   0.9816   0.9950   1.0519   1.0817   1.1301   1.1450
     1.1551   2.0787   2.0798   2.1652   2.1653   3.8963   3.9955   4.0632
     4.1136   4.1267   4.2163   4.3013   4.3301   4.3625   4.3647   4.4402

     the Fermi energy is     3.8380 ev

!    total energy              =   -2951.44744952 Ry
     estimated scf accuracy    <       0.00000006 Ry
     smearing contrib. (-TS)   =      -0.03730823 Ry
     internal energy E=F+TS    =   -2951.41014129 Ry

     The total energy is F=E-TS. E is the sum of the following terms:
     one-electron contribution =  -24060.54846620 Ry
     hartree contribution      =   12123.35924176 Ry
     xc contribution           =    -487.22825602 Ry
     ewald contribution        =    9473.00317811 Ry
     electric field correction =       0.00416106 Ry

     convergence has been achieved in  67 iterations

     Forces acting on atoms (cartesian axes, Ry/au):

     atom    1 type  1   force =    -0.00003786   -0.00025977    0.09362310
     atom    2 type  1   force =    -0.00016285   -0.00044822   -0.17786048
     atom    3 type  2   force =     0.00002734   -0.00025535   -0.02074687
     atom    4 type  2   force =    -0.00003121   -0.00179463    0.05844067
     atom    5 type  2   force =    -0.01030069   -0.00058205    0.00697747
     atom    6 type  2   force =     0.01196518    0.00005280    0.00668973
     atom    7 type  1   force =    -0.00013443    0.00221903   -0.01162741
     atom    8 type  1   force =    -0.00006772    0.00225779   -0.00162728
     atom    9 type  2   force =     0.00007320    0.00060835    0.00061328
     atom   10 type  2   force =    -0.00107314    0.00322046   -0.00396507
     atom   11 type  2   force =     0.00036098   -0.00031583   -0.00031010
     atom   12 type  2   force =    -0.00039828   -0.00031921   -0.00018415
     atom   13 type  1   force =     0.00000380    0.00014563    0.00025942
     atom   14 type  1   force =    -0.00000067   -0.00046829    0.00044444
     atom   15 type  2   force =    -0.00024011   -0.00066285    0.00064920
     atom   16 type  2   force =    -0.00002492    0.00044716    0.00021793
     atom   17 type  2   force =     0.00001768   -0.00023863   -0.00026011
     atom   18 type  2   force =     0.00019254   -0.00032531   -0.00042041
     atom   19 type  1   force =    -0.00031220   -0.00109255   -0.00017748
     atom   20 type  1   force =     0.00009845   -0.00000239   -0.00086080
     atom   21 type  2   force =    -0.00001366   -0.00011416    0.10393091
     atom   22 type  2   force =     0.00001605    0.00054476   -0.00041398
     atom   23 type  2   force =    -0.07056620   -0.00021842   -0.02696724
     atom   24 type  2   force =     0.07035862    0.00021511   -0.02701967
     atom   25 type  1   force =    -0.00001327   -0.00027550    0.09316575
     atom   26 type  1   force =    -0.00018856   -0.00052842   -0.17813605
     atom   27 type  2   force =     0.00007115   -0.00021896   -0.01968293
     atom   28 type  2   force =     0.00001584   -0.00156337    0.05764638
     atom   29 type  2   force =    -0.01084090   -0.00007329    0.00741423
     atom   30 type  2   force =     0.01236755    0.00026438    0.00709374
     atom   31 type  1   force =    -0.00009592    0.00573198   -0.01416101
     atom   32 type  1   force =    -0.00008704   -0.00267011   -0.00141266
     atom   33 type  2   force =     0.00010902   -0.00052062    0.00033871
     atom   34 type  2   force =    -0.00048282   -0.00029762   -0.00101746
     atom   35 type  2   force =    -0.00033706   -0.00017431   -0.00032848
     atom   36 type  2   force =     0.00033967   -0.00029806   -0.00012280
     atom   37 type  1   force =     0.00010994   -0.00043120    0.00059048
     atom   38 type  1   force =    -0.00002142   -0.00060560   -0.00026279
     atom   39 type  2   force =     0.00003142    0.00012397    0.00019093
     atom   40 type  2   force =    -0.00008345   -0.00014787   -0.00006237
     atom   41 type  2   force =     0.00004611    0.00005403    0.00020266
     atom   42 type  2   force =     0.00017089    0.00023697    0.00043142
     atom   43 type  1   force =    -0.00020570    0.00041676   -0.00020359
     atom   44 type  1   force =     0.00018923    0.00039120   -0.00040727
     atom   45 type  2   force =    -0.00002264   -0.00015384    0.10390710
     atom   46 type  2   force =    -0.07054826   -0.00015550   -0.02695931
     atom   47 type  2   force =     0.07035261    0.00027842   -0.02701514
     atom   48 type  3   force =    -0.00003447   -0.00094906    0.00072002
     atom   49 type  4   force =    -0.00009760    0.00027439   -0.00021407
     atom   50 type  5   force =    -0.00006291   -0.00123503   -0.00019868
     atom   51 type  2   force =     0.00020245    0.00069484   -0.00035288
     atom   52 type  5   force =    -0.00015641   -0.00051929   -0.00059761
     atom   53 type  5   force =    -0.00047739   -0.00026271    0.00002856

     Total force =     0.365917     Total SCF correction =     0.000518
  @ DRIVER MODE: Message from server: STATUS
  @ DRIVER MODE: Message from server: GETFORCE
  @ DRIVER MODE: Returning v,forces,stress,ensemble

     Writing output data file ./calc.save/
  @ DRIVER MODE: Message from server: EXIT
  @ DRIVE MODE: Exiting

     General routines

     Parallel routines

   This run was terminated on:   1:39:32  16Sep2021

   JOB DONE.