     Program PWSCF v.6.7GPU starts on  3Aug2021 at  0:17:26

     R & G space division:  proc/nbgrp/npool/nimage =      16
     Reading input from /storage/home/hcoda1/3/ntian30/research/carbon/02Aug_vib_paired/ads_slab/CH3NHHH_a/out_0039/pw.inp
Warning: card &CELL ignored
Warning: card   CELL_DYNAMICS='IPI', ignored
Warning: card / ignored

     Current dimensions of program PWSCF are:
     Max number of different atomic species (ntypx) = 10
     Max number of k-points (npk) =  40000
     Max angular momentum in pseudopotentials (lmaxx) =  3
     Presently no symmetry can be used with electric field

     Message from routine cell_base_init:
     DEPRECATED: use true lattice parameter, not A to a.u. conversion factor

     IMPORTANT: XC functional enforced from input :
     Exchange-correlation= BEEF-VDW
                           (   1   4  43  14   2   0   0)
     Any further DFT definition will be discarded
     Please, verify this is what you really want

  @ DRIVER MODE: Connecting to
 qe_1139763_2482537.sched-torque.pace.gatech.eduhyv9pipn_scratch
  using UNIX socket
  @ DRIVER MODE: Message from server: STATUS
  @ DRIVER MODE: Message from server: INIT
  @ DRIVER MODE: Receiving replica           0          -1
  @ DRIVER MODE: Receiving encoded integer          25
  @ DRIVER MODE:  SCF:  T  FORCE:  T  STRESS:  F  VC:  F  ENSEMBLE:  F
  @ DRIVER MODE:  SCF:  T  FORCE:  T  STRESS:  F  VC:  F  ENSEMBLE:  F

     Using Slab Decomposition

     bravais-lattice index     =            0
     lattice parameter (alat)  =       1.8897  a.u.
     unit-cell volume          =    6658.9804 (a.u.)^3
     number of atoms/cell      =           55
     number of atomic types    =            5
     number of electrons       =       393.00
     number of Kohn-Sham states=          206
     kinetic-energy cutoff     =      29.3995  Ry
     charge density cutoff     =     293.9946  Ry
     scf convergence threshold =      7.3E-08
     mixing beta               =       0.0500
     number of iterations used =            8  plain     mixing
     Exchange-correlation= BEEF-VDW
                           (   1   4  43  14   2   0   0)

     celldm(1)=   1.889726  celldm(2)=   0.000000  celldm(3)=   0.000000
     celldm(4)=   0.000000  celldm(5)=   0.000000  celldm(6)=   0.000000

     crystal axes: (cart. coord. in units of alat)
               a(1) = (   6.579727   0.000000   0.000000 )
               a(2) = (  -0.000775   5.961596   0.000000 )
               a(3) = (   0.000000   0.000000  25.155947 )

     reciprocal axes: (cart. coord. in units 2 pi/alat)
               b(1) = (  0.151982  0.000020  0.000000 )
               b(2) = (  0.000000  0.167740  0.000000 )
               b(3) = (  0.000000  0.000000  0.039752 )

     PseudoPot. # 1 for Ti read from file:
     /storage/coda1/p-amedford6/0/shared/rich_project_chbe-medford/medford-share/data/pseudos_module/espresso/nninc/pbe/van/Ti.UPF
     MD5 check sum: 8e4df49b7f0d34bbd5052bf3f5ea0213
     Pseudo is Ultrasoft, Zval = 12.0
     Generated by new atomic code, or converted to UPF format
     Using radial grid of  851 points,  6 beta functions with:
                l(1) =   0
                l(2) =   0
                l(3) =   1
                l(4) =   1
                l(5) =   2
                l(6) =   2
     Q(r) pseudized with  8 coefficients,  rinner =    1.000   1.000   1.000
                                                       1.000   1.000

     PseudoPot. # 2 for O  read from file:
     /storage/coda1/p-amedford6/0/shared/rich_project_chbe-medford/medford-share/data/pseudos_module/espresso/nninc/pbe/van/O.UPF
     MD5 check sum: 78c19812648e8988a0fe644b0f25305e
     Pseudo is Ultrasoft, Zval =  6.0
     Generated by new atomic code, or converted to UPF format
     Using radial grid of  737 points,  4 beta functions with:
                l(1) =   0
                l(2) =   0
                l(3) =   1
                l(4) =   1
     Q(r) pseudized with  8 coefficients,  rinner =    0.800   0.800   0.800

     PseudoPot. # 3 for N  read from file:
     /storage/coda1/p-amedford6/0/shared/rich_project_chbe-medford/medford-share/data/pseudos_module/espresso/nninc/pbe/van/N.UPF
     MD5 check sum: 90d10febe142ad51ac9d5be1deb811c4
     Pseudo is Ultrasoft, Zval =  5.0
     Generated by new atomic code, or converted to UPF format
     Using radial grid of  729 points,  4 beta functions with:
                l(1) =   0
                l(2) =   0
                l(3) =   1
                l(4) =   1
     Q(r) pseudized with  8 coefficients,  rinner =    0.800   0.800   0.800

     PseudoPot. # 4 for C  read from file:
     /storage/coda1/p-amedford6/0/shared/rich_project_chbe-medford/medford-share/data/pseudos_module/espresso/nninc/pbe/van/C.UPF
     MD5 check sum: 1a69bf6b8db32088f5b2163dbdb77a27
     Pseudo is Ultrasoft, Zval =  4.0
     Generated by new atomic code, or converted to UPF format
     Using radial grid of  721 points,  4 beta functions with:
                l(1) =   0
                l(2) =   0
                l(3) =   1
                l(4) =   1
     Q(r) pseudized with  8 coefficients,  rinner =    0.800   0.800   0.800

     PseudoPot. # 5 for H  read from file:
     /storage/coda1/p-amedford6/0/shared/rich_project_chbe-medford/medford-share/data/pseudos_module/espresso/nninc/pbe/van/H.UPF
     MD5 check sum: b5ee9d7bfd3a09ee7748110bda690ff7
     Pseudo is Ultrasoft, Zval =  1.0
     Generated by new atomic code, or converted to UPF format
     Using radial grid of  615 points,  1 beta functions with:
                l(1) =   0
     Q(r) pseudized with  8 coefficients,  rinner =    0.800

     atomic species   valence    mass     pseudopotential
        Ti1           12.00    47.86700     Ti( 1.00)
        O1             6.00    15.99900     O ( 1.00)
        N1             5.00    14.00700     N ( 1.00)
        C1             4.00    12.01100     C ( 1.00)
        H1             1.00     1.00800     H ( 1.00)

     No symmetry found

   Cartesian axes

     site n.     atom                  positions (alat units)
         1           Ti1 tau(   1) = (   0.0004258   2.9801865   6.0000000  )
         2           Ti1 tau(   2) = (   3.2906075   1.4906267   6.0002472  )
         3           O1  tau(   3) = (   0.0006271   0.0005054   7.9858123  )
         4           O1  tau(   4) = (   3.2906025   0.0005020   7.3038282  )
         5           O1  tau(   5) = (   4.5942328   1.4918067   9.2879030  )
         6           O1  tau(   6) = (   1.9868534   1.4903216   9.2879459  )
         7           Ti1 tau(   7) = (   3.2907910   2.8959150   9.1758416  )
         8           Ti1 tau(   8) = (   0.0015273   1.4827037   9.2680791  )
         9           O1  tau(   9) = (   3.2636084   5.9406443  11.4082010  )
        10           O1  tau(  10) = (   0.0116148   5.9584955  10.6183126  )
        11           O1  tau(  11) = (   1.2642105   1.4849797  12.6947803  )
        12           O1  tau(  12) = (   5.2691575   1.4821021  12.6650678  )
        13           Ti1 tau(  13) = (   6.5574234   2.9640577  12.4921542  )
        14           Ti1 tau(  14) = (   3.2619390   1.4709553  12.5527290  )
        15           O1  tau(  15) = (   6.5247406   5.9594380  14.6832748  )
        16           O1  tau(  16) = (   3.2695906   5.9428997  14.0562986  )
        17           O1  tau(  17) = (   4.5175969   1.4707097  16.2986306  )
        18           O1  tau(  18) = (   1.9406912   1.4777946  16.2473769  )
        19           Ti1 tau(  19) = (   3.2491105   2.9422209  15.8109686  )
        20           Ti1 tau(  20) = (   6.5361480   1.3378720  15.9626387  )
        21           O1  tau(  21) = (   3.2904802   0.0005063   4.7018136  )
        22           O1  tau(  22) = (   6.5280740   5.8897732  17.4332532  )
        23           O1  tau(  23) = (   1.3043587   1.4918075   6.0039043  )
        24           O1  tau(  24) = (   5.2767064   1.4903225   6.0039473  )
        25           Ti1 tau(  25) = (   0.0000382   5.9609847   6.0000000  )
        26           Ti1 tau(  26) = (   3.2902200   4.4714249   6.0002472  )
        27           O1  tau(  27) = (   0.0002396   2.9813036   7.9858123  )
        28           O1  tau(  28) = (   3.2902150   2.9813002   7.3038282  )
        29           O1  tau(  29) = (   4.5938453   4.4726049   9.2879030  )
        30           O1  tau(  30) = (   1.9864658   4.4711199   9.2879459  )
        31           Ti1 tau(  31) = (   3.2891106   5.8743827   9.1763621  )
        32           Ti1 tau(  32) = (   0.0006254   4.4649316   9.2693709  )
        33           O1  tau(  33) = (   3.2649920   2.9642658  11.3997388  )
        34           O1  tau(  34) = (   0.0092240   2.9805883  10.6323155  )
        35           O1  tau(  35) = (   1.2634527   4.4478426  12.7061968  )
        36           O1  tau(  36) = (   5.2693862   4.4495813  12.6755241  )
        37           Ti1 tau(  37) = (   6.5522441   5.9483113  12.5008436  )
        38           Ti1 tau(  38) = (   3.2626494   4.4468850  12.5575576  )
        39           O1  tau(  39) = (   6.4970557   2.9363996  15.0046851  )
        40           O1  tau(  40) = (   3.2722650   2.9529576  14.0194401  )
        41           O1  tau(  41) = (   4.5170401   4.4205294  16.2730734  )
        42           O1  tau(  42) = (   1.9466746   4.4191161  16.2235312  )
        43           Ti1 tau(  43) = (   3.2419262   5.9323414  15.8513663  )
        44           Ti1 tau(  44) = (   6.5549466   4.5556212  15.8889459  )
        45           O1  tau(  45) = (   3.2900926   2.9813045   4.7018136  )
        46           O1  tau(  46) = (   1.3039711   4.4726057   6.0039043  )
        47           O1  tau(  47) = (   5.2763189   4.4711207   6.0039473  )
        48           N1  tau(  48) = (   4.8657738   4.5798987  19.4796958  )
        49           C1  tau(  49) = (   5.7271871   3.4329544  19.8049648  )
        50           H1  tau(  50) = (   6.3241292   3.1721029  18.9298488  )
        51           H1  tau(  51) = (   6.4229137   3.7195585  20.5942015  )
        52           H1  tau(  52) = (   5.1874390   2.5328885  20.1195193  )
        53           H1  tau(  53) = (   5.9066942   5.7389963  18.1772939  )
        54           H1  tau(  54) = (   4.2103208   4.3166459  18.7469397  )
        55           H1  tau(  55) = (   4.3187305   4.8545830  20.2870342  )

     number of k points=    10  Fermi-Dirac smearing, width (Ry)=  0.0073
                       cart. coord. in units 2pi/alat
        k(    1) = (   0.0000000   0.0000000   0.0000000), wk =   0.1250000
        k(    2) = (   0.0000000   0.0419351   0.0000000), wk =   0.2500000
        k(    3) = (   0.0000000  -0.0838702   0.0000000), wk =   0.1250000
        k(    4) = (   0.0379955   0.0000049   0.0000000), wk =   0.2500000
        k(    5) = (   0.0379955   0.0419400   0.0000000), wk =   0.2500000
        k(    6) = (   0.0379955  -0.0838652   0.0000000), wk =   0.2500000
        k(    7) = (   0.0379955  -0.0419301   0.0000000), wk =   0.2500000
        k(    8) = (  -0.0759910  -0.0000099   0.0000000), wk =   0.1250000
        k(    9) = (  -0.0759910   0.0419252   0.0000000), wk =   0.2500000
        k(   10) = (  -0.0759910  -0.0838800   0.0000000), wk =   0.1250000

     Initial potential from superposition of free atoms

     starting charge  376.99914, renormalised to  393.00000

     negative rho (up, down):  1.330E-02 0.000E+00

     %%%%%%%%%%%%%%%%%%%%%%%%%%%%%%%%%%%%%%%%%%%%%%%%%%%%%%%%%%%%%%%%%%%%%%%%
     %                                                                      %
     % You are using vdW-DF, which was implemented by the Thonhauser group. %
     % Please cite the following two papers that made this development      %
     % possible and the two reviews that describe the various versions:     %
     %                                                                      %
     %   T. Thonhauser et al., PRL 115, 136402 (2015).                      %
     %   T. Thonhauser et al., PRB 76, 125112 (2007).                       %
     %   K. Berland et al., Rep. Prog. Phys. 78, 066501 (2015).             %
     %   D.C. Langreth et al., J. Phys.: Condens. Matter 21, 084203 (2009). %
     %                                                                      %
     %                                                                      %
     % If you are calculating the stress with vdW-DF, please also cite:     %
     %                                                                      %
     %   R. Sabatini et al., J. Phys.: Condens. Matter 24, 424209 (2012).   %
     %                                                                      %
     %%%%%%%%%%%%%%%%%%%%%%%%%%%%%%%%%%%%%%%%%%%%%%%%%%%%%%%%%%%%%%%%%%%%%%%%

     Adding external electric field

     Computed dipole along edir(3) :
        Dipole               -9.4918 Ry au,        -24.1257 Debye
        Dipole field         -0.0179 Ry au,

        Potential amp.        1.6604 Ry
        Total length         46.3494 bohr

     Starting wfcs are  298 atomic wfcs
  @ DRIVER MODE: Message from server: STATUS
  @ DRIVER MODE: Message from server: POSDATA
  @ DRIVER MODE: Reading and sharing cell
  @ DRIVER MODE: Reading and sharing positions
  @ DRIVER MODE: Received positions

     Self-consistent Calculation

     iteration #  1     ecut=    29.40 Ry     beta= 0.05
     Davidson diagonalization with overlap
     c_bands:  2 eigenvalues not converged
     c_bands:  1 eigenvalues not converged
     c_bands:  2 eigenvalues not converged
     c_bands:  3 eigenvalues not converged
     c_bands:  3 eigenvalues not converged
     c_bands:  1 eigenvalues not converged
     ethr =  1.00E-05,  avg # of iterations = 18.9

[...]

     total energy              =   -2620.45222554 Ry
     estimated scf accuracy    <    3390.29442842 Ry

[...]

     iteration #  3     ecut=    29.40 Ry     beta= 0.05
     Davidson diagonalization with overlap
     ethr =  1.00E-02,  avg # of iterations = 14.9

[...]

     iteration # 63     ecut=    29.40 Ry     beta= 0.05
     Davidson diagonalization with overlap
     ethr =  1.59E-10,  avg # of iterations =  6.7

[...]

     total energy              =   -2922.77378326 Ry
     estimated scf accuracy    <       0.00000016 Ry

     iteration # 65     ecut=    29.40 Ry     beta= 0.05
     Davidson diagonalization with overlap
     c_bands:  1 eigenvalues not converged
     ethr =  4.07E-11,  avg # of iterations = 10.9

     negative rho (up, down):  1.444E-02 0.000E+00

     Adding external electric field

     Computed dipole along edir(3) :
        Dipole                1.4057 Ry au,          3.5728 Debye
        Dipole field          0.0027 Ry au,

        Potential amp.       -0.2459 Ry
        Total length         46.3494 bohr

     End of self-consistent calculation

          k = 0.0000 0.0000 0.0000 ( 18029 PWs)   bands (ev):

   -55.3074 -55.2715 -55.2556 -55.2215 -55.1713 -55.1473 -55.1462 -55.1369
   -55.1129 -55.0828 -55.0718 -55.0489 -55.0301 -54.9720 -54.2990 -54.2649
   -31.8743 -31.7499 -31.6877 -31.6597 -31.6352 -31.6143 -31.5899 -31.5492
   -31.5450 -31.5437 -31.5146 -31.5034 -31.4996 -31.4749 -31.4644 -31.4594
   -31.4460 -31.4361 -31.4085 -31.4001 -31.3958 -31.3797 -31.3712 -31.3539
   -31.3515 -31.3138 -31.3128 -31.3036 -31.3014 -31.2884 -31.2835 -31.2815
   -31.2748 -31.2740 -31.2590 -31.2559 -31.2236 -31.2102 -31.1991 -31.1935
   -31.1806 -31.1057 -30.7094 -30.6128 -30.5909 -30.5252 -30.4384 -30.3279
   -16.8230 -16.1463 -15.8900 -15.7692 -15.6601 -15.5907 -15.5194 -15.4404
   -15.3565 -15.2560 -15.1945 -15.0895 -15.0549 -15.0152 -15.0005 -14.9815
   -14.9546 -14.8745 -14.8636 -14.8530 -14.8274 -14.8089 -14.7807 -14.7720
   -14.7652 -14.7258 -14.6885 -14.5763 -14.4858 -14.4002 -12.8024 -12.6847
   -10.0060  -5.8571  -4.7420  -4.4203  -3.5161  -3.4732  -3.3422  -3.2371
    -3.2035  -3.1955  -3.0746  -2.8916  -2.7965  -2.7694  -2.6890  -2.6283
    -2.5324  -2.5287  -2.4885  -2.3881  -2.3504  -2.3237  -2.2404  -2.2136
    -2.1675  -2.1164  -2.1062  -2.1030  -2.0825  -2.0420  -2.0033  -1.8844
    -1.7997  -1.7778  -1.7042  -1.6879  -1.6818  -1.6536  -1.6106  -1.5914
    -1.5422  -1.5251  -1.4844  -1.4157  -1.3545  -1.2722  -1.2352  -1.1983
    -0.9923  -0.9633  -0.9129  -0.9104  -0.8819  -0.8136  -0.7841  -0.7544
    -0.6883  -0.6860  -0.6575  -0.5513  -0.5085  -0.3875  -0.3170  -0.2375
    -0.1157  -0.1025  -0.0786  -0.0291  -0.0055   0.0542   0.1141   0.1509
     0.1903   0.2030   0.2903   0.3197   0.3957   0.4101   0.4467   0.5124
     0.5284   0.5546   0.5700   0.5847   0.6190   0.6348   0.6691   0.7357
     0.7678   0.8692   0.9180   1.2017   1.2872   1.5961   1.6195   1.7230
     1.9043   2.3014   2.3506   3.7870   3.8481   3.8887   3.9313   3.9350
     4.0167   4.1471   4.2901   4.2996   4.3108   4.3177

[...]

          k = 0.0380-0.0419 0.0000 ( 17876 PWs)   bands (ev):

[...]

          k =-0.0760-0.0000 0.0000 ( 17886 PWs)   bands (ev):

[...]

          k =-0.0760-0.0839 0.0000 ( 17948 PWs)   bands (ev):

   -55.2908 -55.2879 -55.2389 -55.2381 -55.1545 -55.1537 -55.1422 -55.1321
   -55.1278 -55.0755 -55.0672 -55.0646 -55.0230 -54.9790 -54.2820 -54.2818
   -31.6821 -31.6770 -31.5868 -31.5813 -31.5652 -31.5647 -31.5556 -31.5294
   -31.5286 -31.5080 -31.5031 -31.5013 -31.4880 -31.4619 -31.4570 -31.4558
   -31.4299 -31.4294 -31.4229 -31.4020 -31.3795 -31.3773 -31.3673 -31.3632
   -31.3628 -31.3584 -31.3576 -31.3490 -31.3474 -31.3414 -31.3375 -31.3222
   -31.3193 -31.3067 -31.3036 -31.2924 -31.2638 -31.2468 -31.2448 -31.2421
   -31.2251 -31.1721 -30.6035 -30.6035 -30.5219 -30.5217 -30.4819 -30.4818
   -16.7615 -15.8192 -15.5918 -15.5389 -15.4981 -15.4035 -15.3297 -15.2987
   -15.2886 -15.2755 -15.1494 -15.1213 -15.1118 -15.0837 -15.0519 -15.0274
   -15.0235 -14.9886 -14.9315 -14.9254 -14.9175 -14.9093 -14.8456 -14.8374
   -14.8336 -14.8268 -14.7612 -14.7588 -14.6768 -14.6749 -12.7861 -12.7861
   -10.0157  -5.8574  -4.8693  -4.4020  -3.5278  -2.8227  -2.7951  -2.7430
    -2.7056  -2.6119  -2.5263  -2.4989  -2.4624  -2.4047  -2.3525  -2.3052
    -2.3030  -2.2673  -2.2478  -2.2289  -2.1852  -2.1636  -2.1411  -2.1229
    -2.1082  -2.0545  -2.0516  -2.0425  -2.0182  -1.9840  -1.9666  -1.9534
    -1.9370  -1.9187  -1.8932  -1.8739  -1.7310  -1.7101  -1.6695  -1.5524
    -1.5344  -1.5309  -1.4979  -1.4541  -1.4294  -1.4218  -1.3478  -1.3407
    -1.3081  -1.1510  -1.0788  -1.0770  -1.0539  -1.0298  -0.9347  -0.8832
    -0.8427  -0.7929  -0.7171  -0.6858  -0.6670  -0.5945  -0.5677  -0.4761
    -0.3868  -0.3599  -0.3517  -0.2742  -0.2727  -0.2394  -0.2263  -0.1573
    -0.0970  -0.0455  -0.0415  -0.0374   0.0912   0.1283   0.2084   0.3225
     0.4029   0.4114   0.4618   0.5228   0.5999   0.6510   0.6653   0.7896
     0.7915   0.9779   0.9812   1.0295   1.0446   1.1250   1.1301   2.0771
     2.0778   2.1702   2.1705   3.7623   3.9455   3.9996   4.0725   4.0979
     4.1958   4.2808   4.3145   4.3448   4.3668   4.3727

     the Fermi energy is     3.8555 ev

!    total energy              =   -2922.77380932 Ry
     estimated scf accuracy    <       0.00000006 Ry
     smearing contrib. (-TS)   =      -0.04551841 Ry
     internal energy E=F+TS    =   -2922.72829091 Ry

     The total energy is F=E-TS. E is the sum of the following terms:
     one-electron contribution =  -23201.64242076 Ry
     hartree contribution      =   11691.10998731 Ry
     xc contribution           =    -482.54632184 Ry
     ewald contribution        =    9070.34673568 Ry
     electric field correction =       0.00372870 Ry

     convergence has been achieved in  65 iterations

     Forces acting on atoms (cartesian axes, Ry/au):

     atom    1 type  1   force =     0.00016446   -0.00007771    0.09303447
     atom    2 type  1   force =    -0.00000557   -0.00014283   -0.17879885
     atom    3 type  2   force =     0.00002082   -0.00029834   -0.02021884
     atom    4 type  2   force =    -0.00000307   -0.00223849    0.06097276
     atom    5 type  2   force =    -0.01150460   -0.00128130    0.01054410
     atom    6 type  2   force =     0.01241526   -0.00058643    0.00810579
     atom    7 type  1   force =    -0.00124572    0.00346299   -0.01488445
     atom    8 type  1   force =     0.00123161   -0.00358960   -0.00845057
     atom    9 type  2   force =     0.00001512   -0.00004919   -0.00023907
     atom   10 type  2   force =    -0.00281449   -0.00047877    0.00154469
     atom   11 type  2   force =     0.00010004   -0.00023922   -0.00030171
     atom   12 type  2   force =     0.00002528    0.00008283   -0.00010845
     atom   13 type  1   force =    -0.00019111   -0.00031082   -0.00062741
     atom   14 type  1   force =    -0.00003408   -0.00004057    0.00020276
     atom   15 type  2   force =    -0.00011626   -0.00024049   -0.00010527
     atom   16 type  2   force =     0.00032439    0.00035134   -0.00010666
     atom   17 type  2   force =     0.00078174    0.00031595   -0.00025108
     atom   18 type  2   force =     0.00009535   -0.00026293   -0.00006093
     atom   19 type  1   force =     0.00025754    0.00046286   -0.00045271
     atom   20 type  1   force =     0.00011574    0.00004754    0.00048438
     atom   21 type  2   force =     0.00012509   -0.00002807    0.10424518
     atom   22 type  2   force =    -0.00050248    0.00017731    0.00019252
     atom   23 type  2   force =    -0.06990129   -0.00010934   -0.02677960
     atom   24 type  2   force =     0.06987208    0.00034708   -0.02678225
     atom   25 type  1   force =     0.00019615   -0.00021137    0.09232053
     atom   26 type  1   force =    -0.00007621   -0.00036933   -0.17899350
     atom   27 type  2   force =     0.00004028   -0.00025684   -0.01895043
     atom   28 type  2   force =     0.00006558   -0.00192895    0.06021658
     atom   29 type  2   force =    -0.01169226   -0.00162134    0.01033753
     atom   30 type  2   force =     0.01247798   -0.00120394    0.00786887
     atom   31 type  1   force =    -0.00101149    0.00608822   -0.01577192
     atom   32 type  1   force =     0.00116696    0.00334224   -0.00863007
     atom   33 type  2   force =     0.00003154    0.00020219   -0.00023042
     atom   34 type  2   force =    -0.00240837   -0.00053661    0.00059084
     atom   35 type  2   force =    -0.00001525    0.00000150    0.00004418
     atom   36 type  2   force =     0.00005778   -0.00007233    0.00035939
     atom   37 type  1   force =     0.00036050   -0.00003491   -0.00005371
     atom   38 type  1   force =    -0.00035052   -0.00029992    0.00045268
     atom   39 type  2   force =     0.00036852   -0.00015147    0.00064266
     atom   40 type  2   force =     0.00025104   -0.00017484    0.00004090
     atom   41 type  2   force =     0.00005516    0.00029681   -0.00045710
     atom   42 type  2   force =     0.00050000    0.00020587   -0.00020831
     atom   43 type  1   force =     0.00027632   -0.00021541   -0.00027732
     atom   44 type  1   force =     0.00014398   -0.00126570    0.00060056
     atom   45 type  2   force =     0.00011933   -0.00005912    0.10419144
     atom   46 type  2   force =    -0.06991396   -0.00005575   -0.02677166
     atom   47 type  2   force =     0.06990429    0.00034863   -0.02679181
     atom   48 type  3   force =    -0.00093664   -0.00220666   -0.00521490
     atom   49 type  4   force =     0.00145352    0.00130934    0.00042613
     atom   50 type  5   force =     0.00005262    0.00008762   -0.00010377
     atom   51 type  5   force =    -0.00053622   -0.00045475    0.00028327
     atom   52 type  5   force =    -0.00015869   -0.00029243    0.00030701
     atom   53 type  5   force =     0.00003788    0.00068127   -0.00107358
     atom   54 type  5   force =     0.00132525    0.00285354    0.00253887
     atom   55 type  5   force =    -0.00101091    0.00072065    0.00114826

     Total force =     0.367628     Total SCF correction =     0.000574
  @ DRIVER MODE: Message from server: STATUS
  @ DRIVER MODE: Message from server: GETFORCE
  @ DRIVER MODE: Returning v,forces,stress,ensemble

     Writing output data file ./calc.save/
  @ DRIVER MODE: Message from server: EXIT
  @ DRIVE MODE: Exiting

     General routines

     Parallel routines

   This run was terminated on:   0:31: 9   3Aug2021

   JOB DONE.