     Program PWSCF v.6.7GPU starts on 18Oct2021 at 14:56:57

     R & G space division:  proc/nbgrp/npool/nimage =       8
     Reading input from /storage/home/hcoda1/3/ntian30/research/carbon/CxH_vib/Thiel_calc/ads_slab/H3N_perslab/out_0007/pw.inp
Warning: card &CELL ignored
Warning: card   CELL_DYNAMICS='IPI', ignored
Warning: card / ignored

     Current dimensions of program PWSCF are:
     Max number of different atomic species (ntypx) = 10
     Max number of k-points (npk) =  40000
     Max angular momentum in pseudopotentials (lmaxx) =  3
     Presently no symmetry can be used with electric field

     Message from routine cell_base_init:
     DEPRECATED: use true lattice parameter, not A to a.u. conversion factor

     IMPORTANT: XC functional enforced from input :
     Exchange-correlation= BEEF-VDW
                           (   1   4  43  14   2   0   0)
     Any further DFT definition will be discarded
     Please, verify this is what you really want

  @ DRIVER MODE: Connecting to
 qe_1139763_3255141.sched-torque.pace.gatech.edurcx59ox0_scratch
  using UNIX socket
  @ DRIVER MODE: Message from server: STATUS
  @ DRIVER MODE: Message from server: INIT
  @ DRIVER MODE: Receiving replica           0          -1
  @ DRIVER MODE: Receiving encoded integer          25
  @ DRIVER MODE:  SCF:  T  FORCE:  T  STRESS:  F  VC:  F  ENSEMBLE:  F
  @ DRIVER MODE:  SCF:  T  FORCE:  T  STRESS:  F  VC:  F  ENSEMBLE:  F

     Using Slab Decomposition

     bravais-lattice index     =            0
     lattice parameter (alat)  =       1.8897  a.u.
     unit-cell volume          =    9988.4706 (a.u.)^3
     number of atoms/cell      =           57
     number of atomic types    =            4
     number of electrons       =       434.00
     number of Kohn-Sham states=          227
     kinetic-energy cutoff     =      29.3995  Ry
     charge density cutoff     =     293.9946  Ry
     scf convergence threshold =      7.3E-08
     mixing beta               =       0.0500
     number of iterations used =            8  plain     mixing
     Exchange-correlation= BEEF-VDW
                           (   1   4  43  14   2   0   0)

     celldm(1)=   1.889726  celldm(2)=   0.000000  celldm(3)=   0.000000
     celldm(4)=   0.000000  celldm(5)=   0.000000  celldm(6)=   0.000000

     crystal axes: (cart. coord. in units of alat)
               a(1) = (   6.579727   0.000000   0.000000 )
               a(2) = (  -0.001163   8.942395   0.000000 )
               a(3) = (   0.000000   0.000000  25.155947 )

     reciprocal axes: (cart. coord. in units 2 pi/alat)
               b(1) = (  0.151982  0.000020  0.000000 )
               b(2) = (  0.000000  0.111827  0.000000 )
               b(3) = (  0.000000  0.000000  0.039752 )

     PseudoPot. # 1 for O  read from file:
     /storage/coda1/p-amedford6/0/shared/rich_project_chbe-medford/medford-share/data/pseudos_module/espresso/nninc/pbe/van/O.UPF
     MD5 check sum: 78c19812648e8988a0fe644b0f25305e
     Pseudo is Ultrasoft, Zval =  6.0
     Generated by new atomic code, or converted to UPF format
     Using radial grid of  737 points,  4 beta functions with:
                l(1) =   0
                l(2) =   0
                l(3) =   1
                l(4) =   1
     Q(r) pseudized with  8 coefficients,  rinner =    0.800   0.800   0.800

     PseudoPot. # 2 for Ti read from file:
     /storage/coda1/p-amedford6/0/shared/rich_project_chbe-medford/medford-share/data/pseudos_module/espresso/nninc/pbe/van/Ti.UPF
     MD5 check sum: 8e4df49b7f0d34bbd5052bf3f5ea0213
     Pseudo is Ultrasoft, Zval = 12.0
     Generated by new atomic code, or converted to UPF format
     Using radial grid of  851 points,  6 beta functions with:
                l(1) =   0
                l(2) =   0
                l(3) =   1
                l(4) =   1
                l(5) =   2
                l(6) =   2
     Q(r) pseudized with  8 coefficients,  rinner =    1.000   1.000   1.000
                                                       1.000   1.000

     PseudoPot. # 3 for N  read from file:
     /storage/coda1/p-amedford6/0/shared/rich_project_chbe-medford/medford-share/data/pseudos_module/espresso/nninc/pbe/van/N.UPF
     MD5 check sum: 90d10febe142ad51ac9d5be1deb811c4
     Pseudo is Ultrasoft, Zval =  5.0
     Generated by new atomic code, or converted to UPF format
     Using radial grid of  729 points,  4 beta functions with:
                l(1) =   0
                l(2) =   0
                l(3) =   1
                l(4) =   1
     Q(r) pseudized with  8 coefficients,  rinner =    0.800   0.800   0.800

     PseudoPot. # 4 for H  read from file:
     /storage/coda1/p-amedford6/0/shared/rich_project_chbe-medford/medford-share/data/pseudos_module/espresso/nninc/pbe/van/H.UPF
     MD5 check sum: b5ee9d7bfd3a09ee7748110bda690ff7
     Pseudo is Ultrasoft, Zval =  1.0
     Generated by new atomic code, or converted to UPF format
     Using radial grid of  615 points,  1 beta functions with:
                l(1) =   0
     Q(r) pseudized with  8 coefficients,  rinner =    0.800

     atomic species   valence    mass     pseudopotential
        O1             6.00    15.99900     O ( 1.00)
        Ti1           12.00    47.86700     Ti( 1.00)
        N1             5.00    14.00700     N ( 1.00)
        H1             1.00     1.00800     H ( 1.00)

     No symmetry found

   Cartesian axes

     site n.     atom                  positions (alat units)
         1           O1  tau(   1) = (   0.0007354   0.0005023  10.5931620  )
         2           O1  tau(   2) = (   3.2892737   8.9266665  13.9077113  )
         3           O1  tau(   3) = (   0.0003737   0.0634608  17.2091987  )
         4           O1  tau(   4) = (   0.0006271   0.0005054   7.9858123  )
         5           O1  tau(   5) = (   3.2894549   8.9236348  11.1922400  )
         6           O1  tau(   6) = (   0.0007594   0.0424130  14.5914122  )
         7           O1  tau(   7) = (   1.9868534   1.4903216   9.2879459  )
         8           O1  tau(   8) = (   5.2335215   1.6100056  12.5826540  )
         9           O1  tau(   9) = (   2.0120305   1.5790738  16.0735584  )
        10           Ti1 tau(  10) = (   0.0007404   1.4906270   9.2895810  )
        11           Ti1 tau(  11) = (   3.2904007   1.3515224  12.5049090  )
        12           Ti1 tau(  12) = (   0.0008134   1.3014534  15.8121839  )
        13           O1  tau(  13) = (   4.5942328   1.4918067   9.2879030  )
        14           O1  tau(  14) = (   1.3469525   1.6100319  12.5826758  )
        15           O1  tau(  15) = (   4.5681566   1.5786403  16.0735304  )
        16           Ti1 tau(  16) = (   3.2902859   2.9801868   9.2893338  )
        17           Ti1 tau(  17) = (   0.0004417   2.8262804  12.4730395  )
        18           Ti1 tau(  18) = (   3.2905157   2.9388596  15.7158142  )
        19           O1  tau(  19) = (   0.0003479   2.9813005  10.5931620  )
        20           O1  tau(  20) = (   3.2902015   2.9695883  13.9046685  )
        21           O1  tau(  21) = (   0.0002396   2.9813036   7.9858123  )
        22           O1  tau(  22) = (   3.2902718   2.9641339  11.1914307  )
        23           O1  tau(  23) = (  -0.0000899   3.0294973  14.7210216  )
        24           O1  tau(  24) = (   1.9864658   4.4711199   9.2879459  )
        25           O1  tau(  25) = (   5.2357187   4.5858611  12.5822034  )
        26           O1  tau(  26) = (   2.0270018   4.4833747  16.1008177  )
        27           Ti1 tau(  27) = (   0.0003529   4.4714252   9.2895810  )
        28           Ti1 tau(  28) = (   3.2904530   4.3245040  12.5108242  )
        29           Ti1 tau(  29) = (   0.0003810   4.5948835  15.7280669  )
        30           O1  tau(  30) = (   4.5938453   4.4726049   9.2879030  )
        31           O1  tau(  31) = (   1.3445752   4.5857260  12.5820564  )
        32           O1  tau(  32) = (   4.5522270   4.4834529  16.1006533  )
        33           Ti1 tau(  33) = (   3.2898983   5.9609850   9.2893338  )
        34           Ti1 tau(  34) = (   0.0007043   5.8101956  12.4536477  )
        35           Ti1 tau(  35) = (   3.2895928   5.9233606  15.7233983  )
        36           O1  tau(  36) = (  -0.0000397   5.9620987  10.5931620  )
        37           O1  tau(  37) = (   3.2897410   5.9500339  13.9181164  )
        38           O1  tau(  38) = (  -0.0004871   5.9201338  17.2318970  )
        39           O1  tau(  39) = (  -0.0001480   5.9621018   7.9858123  )
        40           O1  tau(  40) = (   3.2899950   5.9414595  11.1912600  )
        41           O1  tau(  41) = (   0.0000049   5.9985156  14.6402937  )
        42           O1  tau(  42) = (   1.9860782   7.4519181   9.2879459  )
        43           O1  tau(  43) = (   5.2353497   7.5549275  12.5688660  )
        44           O1  tau(  44) = (   2.0314850   7.4951575  16.0543809  )
        45           Ti1 tau(  45) = (  -0.0000347   7.4522234   9.2895810  )
        46           Ti1 tau(  46) = (   3.2900928   7.3055020  12.5043323  )
        47           Ti1 tau(  47) = (  -0.0004111   7.4010535  16.2820301  )
        48           O1  tau(  48) = (   4.5934577   7.4534031   9.2879030  )
        49           O1  tau(  49) = (   1.3438456   7.5546912  12.5687420  )
        50           O1  tau(  50) = (   4.5473438   7.4951267  16.0540408  )
        51           Ti1 tau(  51) = (   3.2895107   8.9417832   9.2893338  )
        52           Ti1 tau(  52) = (   0.0000527   8.7739242  12.4740011  )
        53           Ti1 tau(  53) = (   3.2894619   8.8771818  15.7086625  )
        54           N1  tau(  54) = (   6.5792827   2.9851808  17.9254469  )
        55           H1  tau(  55) = (   6.5691554   2.0483488  18.3259764  )
        56           H1  tau(  56) = (   5.7637502   3.4703839  18.2861980  )
        57           H1  tau(  57) = (   0.8147632   3.4704782  18.2867735  )

     number of k points=    10  Fermi-Dirac smearing, width (Ry)=  0.0073
                       cart. coord. in units 2pi/alat
        k(    1) = (   0.0000000   0.0000000   0.0000000), wk =   0.1250000
        k(    2) = (   0.0000000   0.0279567   0.0000000), wk =   0.2500000
        k(    3) = (   0.0000000  -0.0559134   0.0000000), wk =   0.1250000
        k(    4) = (   0.0379955   0.0000049   0.0000000), wk =   0.2500000
        k(    5) = (   0.0379955   0.0279617   0.0000000), wk =   0.2500000
        k(    6) = (   0.0379955  -0.0559085   0.0000000), wk =   0.2500000
        k(    7) = (   0.0379955  -0.0279518   0.0000000), wk =   0.2500000
        k(    8) = (  -0.0759910  -0.0000099   0.0000000), wk =   0.1250000
        k(    9) = (  -0.0759910   0.0279468   0.0000000), wk =   0.2500000
        k(   10) = (  -0.0759910  -0.0559233   0.0000000), wk =   0.1250000

     Initial potential from superposition of free atoms

     starting charge  415.99912, renormalised to  434.00000

     negative rho (up, down):  3.931E-02 0.000E+00

     %%%%%%%%%%%%%%%%%%%%%%%%%%%%%%%%%%%%%%%%%%%%%%%%%%%%%%%%%%%%%%%%%%%%%%%%
     %                                                                      %
     % You are using vdW-DF, which was implemented by the Thonhauser group. %
     % Please cite the following two papers that made this development      %
     % possible and the two reviews that describe the various versions:     %
     %                                                                      %
     %   T. Thonhauser et al., PRL 115, 136402 (2015).                      %
     %   T. Thonhauser et al., PRB 76, 125112 (2007).                       %
     %   K. Berland et al., Rep. Prog. Phys. 78, 066501 (2015).             %
     %   D.C. Langreth et al., J. Phys.: Condens. Matter 21, 084203 (2009). %
     %                                                                      %
     %                                                                      %
     % If you are calculating the stress with vdW-DF, please also cite:     %
     %                                                                      %
     %   R. Sabatini et al., J. Phys.: Condens. Matter 24, 424209 (2012).   %
     %                                                                      %
     %%%%%%%%%%%%%%%%%%%%%%%%%%%%%%%%%%%%%%%%%%%%%%%%%%%%%%%%%%%%%%%%%%%%%%%%

     Adding external electric field

     Computed dipole along edir(3) :
        Dipole               -2.8168 Ry au,         -7.1597 Debye
        Dipole field         -0.0035 Ry au,

        Potential amp.        0.3285 Ry
        Total length         46.3494 bohr

     Starting wfcs are  327 atomic wfcs
  @ DRIVER MODE: Message from server: STATUS
  @ DRIVER MODE: Message from server: POSDATA
  @ DRIVER MODE: Reading and sharing cell
  @ DRIVER MODE: Reading and sharing positions
  @ DRIVER MODE: Received positions

     Self-consistent Calculation

     iteration #  1     ecut=    29.40 Ry     beta= 0.05
     Davidson diagonalization with overlap
     c_bands:  2 eigenvalues not converged
     c_bands:  2 eigenvalues not converged
     c_bands:  2 eigenvalues not converged
     c_bands:  2 eigenvalues not converged
     c_bands:  5 eigenvalues not converged
     c_bands:  2 eigenvalues not converged
     c_bands:  1 eigenvalues not converged
     c_bands:  1 eigenvalues not converged
     c_bands:  2 eigenvalues not converged
     ethr =  1.00E-05,  avg # of iterations = 20.0

[...]

     total energy              =   -3273.63644948 Ry
     estimated scf accuracy    <      14.14235113 Ry

     iteration #  2     ecut=    29.40 Ry     beta= 0.05
     Davidson diagonalization with overlap
     ethr =  3.26E-03,  avg # of iterations =  1.0

[...]

     iteration # 49     ecut=    29.40 Ry     beta= 0.05
     Davidson diagonalization with overlap
     c_bands:  1 eigenvalues not converged
     ethr =  4.95E-09,  avg # of iterations = 15.8

[...]

     total energy              =   -3272.09279736 Ry
     estimated scf accuracy    <       0.00000012 Ry

     iteration # 62     ecut=    29.40 Ry     beta= 0.05
     Davidson diagonalization with overlap
     ethr =  2.86E-11,  avg # of iterations =  9.6

     negative rho (up, down):  3.697E-02 0.000E+00

     Adding external electric field

     Computed dipole along edir(3) :
        Dipole                1.2578 Ry au,          3.1971 Debye
        Dipole field          0.0016 Ry au,

        Potential amp.       -0.1467 Ry
        Total length         46.3494 bohr

     End of self-consistent calculation

          k = 0.0000 0.0000 0.0000 ( 26871 PWs)   bands (ev):

   -58.0023 -57.9999 -57.9773 -57.9768 -57.9763 -57.8736 -57.8240 -57.7994
   -57.7980 -57.7759 -57.7555 -57.7332 -57.6256 -57.5614 -57.4321 -57.0009
   -56.9778 -56.9700 -34.4040 -34.3815 -34.3810 -34.3710 -34.3672 -34.3356
   -34.3177 -34.3147 -34.3023 -34.2709 -34.2439 -34.2301 -34.2188 -34.1952
   -34.1947 -34.1848 -34.1694 -34.1584 -34.1264 -34.1226 -34.0989 -34.0985
   -34.0932 -34.0862 -34.0785 -34.0476 -34.0326 -34.0301 -34.0233 -34.0033
   -34.0001 -33.9923 -33.9812 -33.9795 -33.9759 -33.9701 -33.9468 -33.9399
   -33.9186 -33.8649 -33.8328 -33.7732 -33.7100 -33.7070 -33.6124 -33.3174
   -33.3160 -33.3077 -33.3022 -33.2951 -33.2259 -33.1649 -33.1563 -33.0250
   -18.8518 -18.4286 -18.2688 -18.2497 -18.2287 -18.2026 -18.0941 -18.0885
   -17.8491 -17.8180 -17.7890 -17.7818 -17.7193 -17.6815 -17.6726 -17.6619
   -17.6336 -17.6288 -17.6201 -17.5729 -17.5277 -17.4842 -17.4599 -17.4390
   -17.4227 -17.4208 -17.3927 -17.3333 -17.3135 -17.2571 -17.1157 -16.9539
   -16.8488 -15.4670 -15.4111 -15.4069  -7.5739  -7.4450  -6.1789  -5.9198
    -5.9074  -5.8290  -5.4566  -5.4458  -5.3560  -5.3500  -5.3345  -5.2657
    -5.2539  -5.2442  -5.2255  -5.1955  -5.1341  -5.1142  -5.0821  -4.9478
    -4.9459  -4.9187  -4.9012  -4.8446  -4.8064  -4.8012  -4.7778  -4.7572
    -4.7274  -4.6739  -4.6586  -4.6217  -4.6142  -4.5054  -4.4411  -4.3118
    -4.2949  -4.2907  -4.2716  -4.2244  -4.1863  -4.1592  -4.1315  -4.0794
    -4.0471  -3.9892  -3.9561  -3.9138  -3.8126  -3.7464  -3.7227  -3.6622
    -3.5669  -3.5292  -3.4200  -3.3973  -3.3320  -3.3153  -3.2518  -3.2381
    -3.1670  -3.1545  -3.1133  -3.0928  -3.0358  -2.9847  -2.9672  -2.9291
    -2.8862  -2.7703  -2.7581  -2.7497  -2.7269  -2.6932  -2.6686  -2.6383
    -2.6284  -2.5887  -2.5350  -2.4870  -2.4606  -2.4182  -2.4088  -2.3579
    -2.3087  -2.2992  -2.2249  -2.2046  -2.1814  -2.1586  -2.0700  -2.0152
    -1.8561  -1.8266  -1.8211  -1.7851  -1.7405  -1.6904  -1.6433  -1.4724
    -1.2333  -1.0311  -0.7441  -0.7036  -0.7023  -0.4447  -0.4389  -0.3124
     0.9724   1.2305   1.2638   1.4466   1.4511   1.5402   1.5889   1.5891
     1.6549   1.6855   1.7419

[...]

          k = 0.0380-0.0280 0.0000 ( 26873 PWs)   bands (ev):

[...]

          k =-0.0760-0.0000 0.0000 ( 26902 PWs)   bands (ev):

[...]

          k =-0.0760-0.0559 0.0000 ( 26868 PWs)   bands (ev):

   -57.9989 -57.9939 -57.9934 -57.9784 -57.9681 -57.8734 -57.8163 -57.8143
   -57.7903 -57.7727 -57.7609 -57.7312 -57.6255 -57.5616 -57.4320 -56.9952
   -56.9886 -56.9648 -34.4747 -34.4453 -34.3869 -34.3782 -34.3341 -34.3329
   -34.3284 -34.3277 -34.2788 -34.2417 -34.2060 -34.1904 -34.1900 -34.1737
   -34.1655 -34.1431 -34.1430 -34.1355 -34.1320 -34.1234 -34.1187 -34.0855
   -34.0752 -34.0706 -34.0676 -34.0616 -34.0551 -34.0389 -34.0309 -34.0265
   -34.0204 -34.0123 -34.0118 -33.9941 -33.9893 -33.9746 -33.9621 -33.9465
   -33.9172 -33.8373 -33.8199 -33.7772 -33.7109 -33.7082 -33.6425 -33.4036
   -33.3183 -33.3124 -33.2897 -33.2083 -33.2002 -33.1390 -33.1256 -33.1180
   -18.5334 -18.5176 -18.2092 -18.1237 -18.1079 -18.0836 -18.0706 -18.0208
   -17.9394 -17.8816 -17.8770 -17.8187 -17.7799 -17.7697 -17.7336 -17.7268
   -17.7104 -17.6992 -17.6679 -17.6390 -17.6373 -17.5376 -17.4535 -17.4213
   -17.4072 -17.3720 -17.3590 -17.3514 -17.2967 -17.2360 -17.1496 -17.0633
   -16.7442 -15.4670 -15.4619 -15.3466  -7.5826  -7.4593  -5.7890  -5.7789
    -5.7685  -5.7030  -5.3811  -5.3029  -5.2711  -5.2567  -5.1724  -5.1658
    -5.1640  -5.1503  -5.1472  -5.1239  -5.0955  -5.0827  -5.0297  -5.0206
    -5.0179  -4.9542  -4.9139  -4.9049  -4.8859  -4.8601  -4.7455  -4.7383
    -4.6341  -4.6052  -4.5455  -4.5112  -4.4989  -4.4687  -4.3923  -4.3878
    -4.3513  -4.3165  -4.1615  -4.1524  -4.1374  -4.1316  -4.0598  -4.0004
    -3.9747  -3.9418  -3.7096  -3.6512  -3.6413  -3.6312  -3.6177  -3.6101
    -3.5911  -3.5539  -3.5206  -3.4843  -3.4617  -3.4410  -3.4385  -3.3448
    -3.3062  -3.2655  -3.1639  -3.1420  -3.1337  -3.1050  -3.1005  -3.0751
    -3.0698  -3.0502  -3.0333  -2.9547  -2.9194  -2.9012  -2.8495  -2.7814
    -2.7643  -2.7605  -2.5878  -2.5369  -2.5269  -2.5072  -2.4729  -2.3797
    -2.3780  -2.2421  -2.2155  -2.1715  -2.0998  -2.0702  -2.0213  -2.0026
    -1.9893  -1.9687  -1.7773  -1.7599  -1.6859  -1.6269  -1.5757  -1.5546
    -1.5448  -1.3287  -0.9169  -0.6344  -0.6159  -0.5969  -0.4451  -0.4425
     1.1476   1.2045   1.2188   1.3211   1.3249   1.3375   1.3939   1.4536
     1.4840   1.5636   1.7078

     the Fermi energy is     1.0779 ev

!    total energy              =   -3272.09283235 Ry
     estimated scf accuracy    <       0.00000006 Ry
     smearing contrib. (-TS)   =      -0.03207535 Ry
     internal energy E=F+TS    =   -3272.06075700 Ry

     The total energy is F=E-TS. E is the sum of the following terms:
     one-electron contribution =  -34296.39332260 Ry
     hartree contribution      =   17208.18566772 Ry
     xc contribution           =    -536.11484765 Ry
     ewald contribution        =   14352.25975504 Ry
     electric field correction =       0.00199048 Ry

     convergence has been achieved in  62 iterations

     Forces acting on atoms (cartesian axes, Ry/au):

     atom    1 type  1   force =     0.00003267    0.00589048    0.05804242
     atom    2 type  1   force =    -0.00001356    0.00195288   -0.00322638
     atom    3 type  1   force =    -0.00005636   -0.00331101   -0.00030865
     atom    4 type  1   force =     0.00005281   -0.00049626    0.10640598
     atom    5 type  1   force =    -0.00002238   -0.00000008    0.00972235
     atom    6 type  1   force =     0.00000808   -0.00101610    0.00081209
     atom    7 type  1   force =     0.06847148   -0.00032364   -0.02941421
     atom    8 type  1   force =     0.00472346   -0.02818965    0.00237047
     atom    9 type  1   force =     0.01007695   -0.02079521    0.00041217
     atom   10 type  2   force =    -0.00006595   -0.00346844   -0.18018785
     atom   11 type  2   force =     0.00008538    0.01996256   -0.00726709
     atom   12 type  2   force =     0.00006951    0.02101708   -0.00321014
     atom   13 type  1   force =    -0.06856758   -0.00077500   -0.02939085
     atom   14 type  1   force =    -0.00464313   -0.02829857    0.00237864
     atom   15 type  1   force =    -0.00999015   -0.02077721    0.00051579
     atom   16 type  2   force =     0.00013692   -0.00169294    0.06500208
     atom   17 type  2   force =    -0.00016286    0.03518494    0.00378258
     atom   18 type  2   force =    -0.00006065    0.00996127   -0.00294909
     atom   19 type  1   force =     0.00001425    0.00479314    0.06363942
     atom   20 type  1   force =    -0.00000926    0.00174704   -0.00595949
     atom   21 type  1   force =     0.00005478    0.00136042    0.10697887
     atom   22 type  1   force =    -0.00001725   -0.00017999    0.00917929
     atom   23 type  1   force =     0.00001443   -0.00450759    0.00170824
     atom   24 type  1   force =     0.06774887   -0.00034331   -0.02933267
     atom   25 type  1   force =     0.00461672   -0.02913925    0.00293582
     atom   26 type  1   force =     0.00808391    0.00324277   -0.00406660
     atom   27 type  2   force =    -0.00008450   -0.00409742   -0.18530203
     atom   28 type  2   force =     0.00008934    0.02021949   -0.00749752
     atom   29 type  2   force =    -0.00009898   -0.00029916    0.01346042
     atom   30 type  1   force =    -0.06784013   -0.00080104   -0.02931061
     atom   31 type  1   force =    -0.00455470   -0.02922032    0.00295528
     atom   32 type  1   force =    -0.00808786    0.00326197   -0.00407373
     atom   33 type  2   force =     0.00011105   -0.00147617    0.06546855
     atom   34 type  2   force =    -0.00015017    0.03610208    0.00377673
     atom   35 type  2   force =     0.00000943   -0.00247068    0.00358277
     atom   36 type  1   force =     0.00003813    0.00368071    0.05586318
     atom   37 type  1   force =    -0.00001975   -0.00000530   -0.00177293
     atom   38 type  1   force =     0.00001929   -0.00323182   -0.00051076
     atom   39 type  1   force =     0.00005304   -0.00022647    0.10721193
     atom   40 type  1   force =    -0.00002259    0.00004776    0.00943981
     atom   41 type  1   force =     0.00001039    0.00222521    0.00079984
     atom   42 type  1   force =     0.06796539   -0.00084760   -0.02927304
     atom   43 type  1   force =     0.00401934   -0.02908434    0.00270895
     atom   44 type  1   force =     0.01153147   -0.01067655    0.00421157
     atom   45 type  2   force =    -0.00009067    0.00395709   -0.18333162
     atom   46 type  2   force =     0.00007135    0.02027068   -0.00794341
     atom   47 type  2   force =     0.00000328    0.00998333   -0.01342542
     atom   48 type  1   force =    -0.06806281   -0.00129475   -0.02925387
     atom   49 type  1   force =    -0.00392217   -0.02917487    0.00271291
     atom   50 type  1   force =    -0.01152702   -0.01068100    0.00422304
     atom   51 type  2   force =     0.00011415   -0.00124079    0.06590272
     atom   52 type  2   force =    -0.00014804    0.03607771    0.00354102
     atom   53 type  2   force =    -0.00003292    0.02504315    0.00685473
     atom   54 type  3   force =    -0.00225291    0.00050055    0.00003002
     atom   55 type  4   force =     0.00217285    0.00022984   -0.00003963
     atom   56 type  4   force =    -0.00024135    0.00188970   -0.00034912
     atom   57 type  4   force =     0.00034695   -0.00045931    0.00076702

     Total force =     0.453332     Total SCF correction =     0.000938
  @ DRIVER MODE: Message from server: STATUS
  @ DRIVER MODE: Message from server: GETFORCE
  @ DRIVER MODE: Returning v,forces,stress,ensemble

     Writing output data file ./calc.save/
  @ DRIVER MODE: Message from server: EXIT
  @ DRIVE MODE: Exiting

     General routines

     Parallel routines

   This run was terminated on:  15:27:29  18Oct2021

   JOB DONE.