     Program PWSCF v.6.7GPU starts on  2Aug2021 at 21:53:36

     R & G space division:  proc/nbgrp/npool/nimage =      16
     Reading input from /storage/home/hcoda1/3/ntian30/research/carbon/02Aug_vib_paired/ads_slab/CH3NNH3_a/out_0035/pw.inp
Warning: card &CELL ignored
Warning: card   CELL_DYNAMICS='IPI', ignored
Warning: card / ignored

     Current dimensions of program PWSCF are:
     Max number of different atomic species (ntypx) = 10
     Max number of k-points (npk) =  40000
     Max angular momentum in pseudopotentials (lmaxx) =  3
     Presently no symmetry can be used with electric field

     Message from routine cell_base_init:
     DEPRECATED: use true lattice parameter, not A to a.u. conversion factor

     IMPORTANT: XC functional enforced from input :
     Exchange-correlation= BEEF-VDW
                           (   1   4  43  14   2   0   0)
     Any further DFT definition will be discarded
     Please, verify this is what you really want

  @ DRIVER MODE: Connecting to
 qe_1139763_2482544.sched-torque.pace.gatech.eduwcfyxyor_scratch
  using UNIX socket
  @ DRIVER MODE: Message from server: STATUS
  @ DRIVER MODE: Message from server: INIT
  @ DRIVER MODE: Receiving replica           0          -1
  @ DRIVER MODE: Receiving encoded integer          25
  @ DRIVER MODE:  SCF:  T  FORCE:  T  STRESS:  F  VC:  F  ENSEMBLE:  F
  @ DRIVER MODE:  SCF:  T  FORCE:  T  STRESS:  F  VC:  F  ENSEMBLE:  F

     Using Slab Decomposition

     bravais-lattice index     =            0
     lattice parameter (alat)  =       1.8897  a.u.
     unit-cell volume          =    6658.9804 (a.u.)^3
     number of atoms/cell      =           56
     number of atomic types    =            5
     number of electrons       =       398.00
     number of Kohn-Sham states=          209
     kinetic-energy cutoff     =      29.3995  Ry
     charge density cutoff     =     293.9946  Ry
     scf convergence threshold =      7.3E-08
     mixing beta               =       0.0500
     number of iterations used =            8  plain     mixing
     Exchange-correlation= BEEF-VDW
                           (   1   4  43  14   2   0   0)

     celldm(1)=   1.889726  celldm(2)=   0.000000  celldm(3)=   0.000000
     celldm(4)=   0.000000  celldm(5)=   0.000000  celldm(6)=   0.000000

     crystal axes: (cart. coord. in units of alat)
               a(1) = (   6.579727   0.000000   0.000000 )
               a(2) = (  -0.000775   5.961596   0.000000 )
               a(3) = (   0.000000   0.000000  25.155947 )

     reciprocal axes: (cart. coord. in units 2 pi/alat)
               b(1) = (  0.151982  0.000020  0.000000 )
               b(2) = (  0.000000  0.167740  0.000000 )
               b(3) = (  0.000000  0.000000  0.039752 )

     PseudoPot. # 1 for Ti read from file:
     /storage/coda1/p-amedford6/0/shared/rich_project_chbe-medford/medford-share/data/pseudos_module/espresso/nninc/pbe/van/Ti.UPF
     MD5 check sum: 8e4df49b7f0d34bbd5052bf3f5ea0213
     Pseudo is Ultrasoft, Zval = 12.0
     Generated by new atomic code, or converted to UPF format
     Using radial grid of  851 points,  6 beta functions with:
                l(1) =   0
                l(2) =   0
                l(3) =   1
                l(4) =   1
                l(5) =   2
                l(6) =   2
     Q(r) pseudized with  8 coefficients,  rinner =    1.000   1.000   1.000
                                                       1.000   1.000

     PseudoPot. # 2 for O  read from file:
     /storage/coda1/p-amedford6/0/shared/rich_project_chbe-medford/medford-share/data/pseudos_module/espresso/nninc/pbe/van/O.UPF
     MD5 check sum: 78c19812648e8988a0fe644b0f25305e
     Pseudo is Ultrasoft, Zval =  6.0
     Generated by new atomic code, or converted to UPF format
     Using radial grid of  737 points,  4 beta functions with:
                l(1) =   0
                l(2) =   0
                l(3) =   1
                l(4) =   1
     Q(r) pseudized with  8 coefficients,  rinner =    0.800   0.800   0.800

     PseudoPot. # 3 for N  read from file:
     /storage/coda1/p-amedford6/0/shared/rich_project_chbe-medford/medford-share/data/pseudos_module/espresso/nninc/pbe/van/N.UPF
     MD5 check sum: 90d10febe142ad51ac9d5be1deb811c4
     Pseudo is Ultrasoft, Zval =  5.0
     Generated by new atomic code, or converted to UPF format
     Using radial grid of  729 points,  4 beta functions with:
                l(1) =   0
                l(2) =   0
                l(3) =   1
                l(4) =   1
     Q(r) pseudized with  8 coefficients,  rinner =    0.800   0.800   0.800

     PseudoPot. # 4 for C  read from file:
     /storage/coda1/p-amedford6/0/shared/rich_project_chbe-medford/medford-share/data/pseudos_module/espresso/nninc/pbe/van/C.UPF
     MD5 check sum: 1a69bf6b8db32088f5b2163dbdb77a27
     Pseudo is Ultrasoft, Zval =  4.0
     Generated by new atomic code, or converted to UPF format
     Using radial grid of  721 points,  4 beta functions with:
                l(1) =   0
                l(2) =   0
                l(3) =   1
                l(4) =   1
     Q(r) pseudized with  8 coefficients,  rinner =    0.800   0.800   0.800

     PseudoPot. # 5 for H  read from file:
     /storage/coda1/p-amedford6/0/shared/rich_project_chbe-medford/medford-share/data/pseudos_module/espresso/nninc/pbe/van/H.UPF
     MD5 check sum: b5ee9d7bfd3a09ee7748110bda690ff7
     Pseudo is Ultrasoft, Zval =  1.0
     Generated by new atomic code, or converted to UPF format
     Using radial grid of  615 points,  1 beta functions with:
                l(1) =   0
     Q(r) pseudized with  8 coefficients,  rinner =    0.800

     atomic species   valence    mass     pseudopotential
        Ti1           12.00    47.86700     Ti( 1.00)
        O1             6.00    15.99900     O ( 1.00)
        N1             5.00    14.00700     N ( 1.00)
        C1             4.00    12.01100     C ( 1.00)
        H1             1.00     1.00800     H ( 1.00)

     No symmetry found

   Cartesian axes

     site n.     atom                  positions (alat units)
         1           Ti1 tau(   1) = (   0.0004258   2.9801865   6.0000000  )
         2           Ti1 tau(   2) = (   3.2906075   1.4906267   6.0002472  )
         3           O1  tau(   3) = (   0.0006271   0.0005054   7.9858123  )
         4           O1  tau(   4) = (   3.2906025   0.0005020   7.3038282  )
         5           O1  tau(   5) = (   4.5942328   1.4918067   9.2879030  )
         6           O1  tau(   6) = (   1.9868534   1.4903216   9.2879459  )
         7           Ti1 tau(   7) = (   3.2907910   2.8959150   9.1758416  )
         8           Ti1 tau(   8) = (   0.0015273   1.4827037   9.2680791  )
         9           O1  tau(   9) = (   3.2727297   5.9424138  11.2974721  )
        10           O1  tau(  10) = (   0.0116148   5.9584955  10.6183126  )
        11           O1  tau(  11) = (   1.3027692   1.4721713  12.6242268  )
        12           O1  tau(  12) = (   5.2784376   1.4723552  12.6258992  )
        13           Ti1 tau(  13) = (   6.4570204   2.9507206  12.7630554  )
        14           Ti1 tau(  14) = (   3.1467966   1.4649636  12.4688949  )
        15           O1  tau(  15) = (   6.5600513   5.9133837  14.5918744  )
        16           O1  tau(  16) = (   3.2766225   5.9390981  13.8789110  )
        17           O1  tau(  17) = (   4.4915826   1.4834571  16.0540230  )
        18           O1  tau(  18) = (   2.0416982   1.4849982  16.0411193  )
        19           Ti1 tau(  19) = (   3.2679172   2.9642910  15.6858091  )
        20           Ti1 tau(  20) = (   6.5495220   1.5641796  16.1095294  )
        21           O1  tau(  21) = (   3.2904802   0.0005063   4.7018136  )
        22           O1  tau(  22) = (   6.5606002   0.0080969  17.2010096  )
        23           O1  tau(  23) = (   1.3043587   1.4918075   6.0039043  )
        24           O1  tau(  24) = (   5.2767064   1.4903225   6.0039473  )
        25           Ti1 tau(  25) = (   0.0000382   5.9609847   6.0000000  )
        26           Ti1 tau(  26) = (   3.2902200   4.4714249   6.0002472  )
        27           O1  tau(  27) = (   0.0002396   2.9813036   7.9858123  )
        28           O1  tau(  28) = (   3.2902150   2.9813002   7.3038282  )
        29           O1  tau(  29) = (   4.5938453   4.4726049   9.2879030  )
        30           O1  tau(  30) = (   1.9864658   4.4711199   9.2879459  )
        31           Ti1 tau(  31) = (   3.2891106   5.8743827   9.1763621  )
        32           Ti1 tau(  32) = (   0.0006254   4.4649316   9.2693709  )
        33           O1  tau(  33) = (   3.2718307   2.9587034  11.2961003  )
        34           O1  tau(  34) = (   0.0092240   2.9805883  10.6323155  )
        35           O1  tau(  35) = (   1.3028232   4.4416136  12.6207192  )
        36           O1  tau(  36) = (   5.2777600   4.4366566  12.6238879  )
        37           Ti1 tau(  37) = (   6.4830488   5.9304874  12.7660964  )
        38           Ti1 tau(  38) = (   3.1463657   4.4448748  12.4639736  )
        39           O1  tau(  39) = (   6.5417323   2.9404903  14.6589984  )
        40           O1  tau(  40) = (   3.2789452   2.9619718  13.8791424  )
        41           O1  tau(  41) = (   4.4971312   4.4676043  16.0556370  )
        42           O1  tau(  42) = (   2.0400509   4.4648231  16.0515753  )
        43           Ti1 tau(  43) = (   3.2598176   5.9476019  15.6881950  )
        44           Ti1 tau(  44) = (   6.5485469   4.5424454  16.1156095  )
        45           O1  tau(  45) = (   3.2900926   2.9813045   4.7018136  )
        46           O1  tau(  46) = (   1.3039711   4.4726057   6.0039043  )
        47           O1  tau(  47) = (   5.2763189   4.4711207   6.0039473  )
        48           N1  tau(  48) = (   0.0016189   2.9795595  17.3279962  )
        49           C1  tau(  49) = (   0.1681806   3.0735589  18.7581663  )
        50           H1  tau(  50) = (   6.0068595   3.7517258  19.1994632  )
        51           H1  tau(  51) = (   0.0766375   2.0971904  19.2409400  )
        52           H1  tau(  52) = (   1.1565538   3.4901639  19.0026035  )
        53           N1  tau(  53) = (   4.7601180   1.8141088  21.6514004  )
        54           H1  tau(  54) = (   4.4666586   2.7830198  21.5980365  )
        55           H1  tau(  55) = (   4.1231612   1.2775871  21.0809158  )
        56           H1  tau(  56) = (   4.6015807   1.5257772  22.6208530  )

     number of k points=    10  Fermi-Dirac smearing, width (Ry)=  0.0073
                       cart. coord. in units 2pi/alat
        k(    1) = (   0.0000000   0.0000000   0.0000000), wk =   0.1250000
        k(    2) = (   0.0000000   0.0419351   0.0000000), wk =   0.2500000
        k(    3) = (   0.0000000  -0.0838702   0.0000000), wk =   0.1250000
        k(    4) = (   0.0379955   0.0000049   0.0000000), wk =   0.2500000
        k(    5) = (   0.0379955   0.0419400   0.0000000), wk =   0.2500000
        k(    6) = (   0.0379955  -0.0838652   0.0000000), wk =   0.2500000
        k(    7) = (   0.0379955  -0.0419301   0.0000000), wk =   0.2500000
        k(    8) = (  -0.0759910  -0.0000099   0.0000000), wk =   0.1250000
        k(    9) = (  -0.0759910   0.0419252   0.0000000), wk =   0.2500000
        k(   10) = (  -0.0759910  -0.0838800   0.0000000), wk =   0.1250000

     Initial potential from superposition of free atoms

     starting charge  381.99914, renormalised to  398.00000

     negative rho (up, down):  9.485E-03 0.000E+00

     %%%%%%%%%%%%%%%%%%%%%%%%%%%%%%%%%%%%%%%%%%%%%%%%%%%%%%%%%%%%%%%%%%%%%%%%
     %                                                                      %
     % You are using vdW-DF, which was implemented by the Thonhauser group. %
     % Please cite the following two papers that made this development      %
     % possible and the two reviews that describe the various versions:     %
     %                                                                      %
     %   T. Thonhauser et al., PRL 115, 136402 (2015).                      %
     %   T. Thonhauser et al., PRB 76, 125112 (2007).                       %
     %   K. Berland et al., Rep. Prog. Phys. 78, 066501 (2015).             %
     %   D.C. Langreth et al., J. Phys.: Condens. Matter 21, 084203 (2009). %
     %                                                                      %
     %                                                                      %
     % If you are calculating the stress with vdW-DF, please also cite:     %
     %                                                                      %
     %   R. Sabatini et al., J. Phys.: Condens. Matter 24, 424209 (2012).   %
     %                                                                      %
     %%%%%%%%%%%%%%%%%%%%%%%%%%%%%%%%%%%%%%%%%%%%%%%%%%%%%%%%%%%%%%%%%%%%%%%%

     Adding external electric field

     Computed dipole along edir(3) :
        Dipole              -11.3678 Ry au,        -28.8939 Debye
        Dipole field         -0.0215 Ry au,

        Potential amp.        1.9886 Ry
        Total length         46.3494 bohr

     Starting wfcs are  302 atomic wfcs
  @ DRIVER MODE: Message from server: STATUS
  @ DRIVER MODE: Message from server: POSDATA
  @ DRIVER MODE: Reading and sharing cell
  @ DRIVER MODE: Reading and sharing positions
  @ DRIVER MODE: Received positions

     Self-consistent Calculation

     iteration #  1     ecut=    29.40 Ry     beta= 0.05
     Davidson diagonalization with overlap
     c_bands:  1 eigenvalues not converged
     c_bands:  1 eigenvalues not converged
     c_bands:  2 eigenvalues not converged
     c_bands:  1 eigenvalues not converged
     c_bands:  1 eigenvalues not converged
     c_bands:  1 eigenvalues not converged
     c_bands:  1 eigenvalues not converged
     c_bands:  2 eigenvalues not converged
     c_bands:  2 eigenvalues not converged
     ethr =  1.00E-05,  avg # of iterations = 19.6

[...]

     total energy              =   -2520.81530712 Ry
     estimated scf accuracy    <    4705.83625891 Ry

     iteration #  2     ecut=    29.40 Ry     beta= 0.05
     Davidson diagonalization with overlap
     ethr =  1.00E-02,  avg # of iterations = 21.9

[...]

     iteration # 42     ecut=    29.40 Ry     beta= 0.05
     Davidson diagonalization with overlap
     c_bands:  1 eigenvalues not converged
     c_bands:  1 eigenvalues not converged
     ethr =  8.84E-07,  avg # of iterations = 11.2

[...]

     total energy              =   -2942.90656011 Ry
     estimated scf accuracy    <       0.00000010 Ry

     iteration # 72     ecut=    29.40 Ry     beta= 0.05
     Davidson diagonalization with overlap
     ethr =  2.18E-11,  avg # of iterations =  1.7

     negative rho (up, down):  1.095E-02 0.000E+00

     Adding external electric field

     Computed dipole along edir(3) :
        Dipole                0.4588 Ry au,          1.1663 Debye
        Dipole field          0.0009 Ry au,

        Potential amp.       -0.0803 Ry
        Total length         46.3494 bohr

     End of self-consistent calculation

          k = 0.0000 0.0000 0.0000 ( 18029 PWs)   bands (ev):

   -56.6106 -56.5770 -55.7300 -55.7214 -55.6946 -55.6890 -55.5846 -55.5488
   -55.3673 -55.3321 -55.2751 -55.2692 -55.2412 -55.1672 -54.7300 -54.6165
   -33.0385 -32.8851 -32.8570 -32.7867 -32.6957 -32.6645 -32.2046 -32.1939
   -32.1275 -32.0163 -31.9713 -31.9432 -31.9292 -31.9045 -31.8718 -31.8692
   -31.8653 -31.8585 -31.8354 -31.8320 -31.8206 -31.7928 -31.7675 -31.7539
   -31.7407 -31.7207 -31.7124 -31.6891 -31.6675 -31.6136 -31.5988 -31.5895
   -31.5114 -31.5062 -31.4861 -31.4447 -31.4341 -31.4026 -31.3959 -31.3717
   -31.3503 -31.2917 -31.2314 -30.9710 -30.9585 -30.8761 -30.8365 -30.7456
   -16.7747 -16.3404 -16.1106 -15.9732 -15.9056 -15.8513 -15.8059 -15.6849
   -15.6120 -15.6055 -15.5651 -15.5347 -15.4641 -15.3234 -15.2252 -15.1718
   -15.1275 -15.0065 -14.9464 -14.9137 -14.9089 -14.8746 -14.8549 -14.6590
   -14.6345 -14.5319 -14.5221 -14.3964 -14.1741 -13.7738 -13.7232 -13.6638
   -12.7940  -7.4902  -4.3404  -3.8356  -3.8310  -3.7240  -3.5981  -3.5111
    -3.4037  -3.3907  -3.3096  -3.1914  -3.1454  -3.0977  -2.9818  -2.9817
    -2.8323  -2.7922  -2.7863  -2.7825  -2.7373  -2.6741  -2.6583  -2.6194
    -2.6138  -2.6045  -2.4539  -2.3538  -2.2865  -2.2651  -2.2547  -2.2189
    -2.1407  -2.1207  -2.1059  -2.1023  -2.0018  -1.8531  -1.8515  -1.8205
    -1.7770  -1.7751  -1.7373  -1.7226  -1.5872  -1.5135  -1.4106  -1.3933
    -1.3548  -1.2906  -1.2842  -1.1862  -1.1119  -1.0493  -1.0237  -0.9147
    -0.8723  -0.8498  -0.7600  -0.6981  -0.6584  -0.6408  -0.6240  -0.5202
    -0.5001  -0.4892  -0.4044  -0.3926  -0.3354  -0.2539  -0.2343  -0.2282
    -0.1400  -0.1348  -0.0426  -0.0008   0.0410   0.0860   0.1818   0.2001
     0.3030   0.3385   0.3599   0.4796   0.4927   0.5555   0.6228   0.6904
     0.7216   0.7462   0.7755   0.7972   0.8704   0.9853   0.9903   1.0919
     1.1313   1.2992   1.3381   1.3660   1.6259   1.6518   2.3229   2.6641
     2.8240   3.1225   3.3133   3.4244   3.6394   3.6546   3.6598   3.8371
     3.8833

[...]

          k = 0.0380-0.0419 0.0000 ( 17876 PWs)   bands (ev):

[...]

          k =-0.0760-0.0000 0.0000 ( 17886 PWs)   bands (ev):

[...]

          k =-0.0760-0.0839 0.0000 ( 17948 PWs)   bands (ev):

   -56.5939 -56.5935 -55.7140 -55.7088 -55.7063 -55.7056 -55.5693 -55.5639
   -55.3524 -55.3468 -55.2662 -55.2581 -55.2580 -55.1701 -54.7272 -54.6193
   -32.8710 -32.8707 -32.8554 -32.8552 -32.7398 -32.7395 -32.0342 -32.0316
   -32.0182 -32.0121 -31.9620 -31.9608 -31.9187 -31.9171 -31.9158 -31.9149
   -31.9039 -31.9012 -31.8998 -31.8975 -31.8214 -31.8169 -31.7706 -31.7652
   -31.7038 -31.6966 -31.6355 -31.6288 -31.6025 -31.6024 -31.5957 -31.5515
   -31.5494 -31.5218 -31.4868 -31.4837 -31.4836 -31.4446 -31.4445 -31.4399
   -31.4129 -31.3737 -31.1103 -30.9908 -30.9581 -30.9263 -30.8390 -30.8042
   -16.1229 -16.1209 -16.0888 -16.0885 -15.8187 -15.8150 -15.7709 -15.7691
   -15.5964 -15.5905 -15.3839 -15.3737 -15.3678 -15.3637 -15.2396 -15.2308
   -15.1674 -15.1565 -15.0673 -15.0639 -15.0010 -14.9948 -14.9569 -14.9371
   -14.6206 -14.6130 -14.4854 -14.4767 -14.3241 -13.7672 -13.7672 -13.7224
   -12.8105  -7.4802  -3.8414  -3.7283  -3.2225  -3.2219  -3.1565  -3.1552
    -3.0343  -3.0296  -2.9529  -2.9524  -2.8532  -2.8489  -2.7528  -2.7093
    -2.7071  -2.7044  -2.6915  -2.6486  -2.5535  -2.5531  -2.5384  -2.5233
    -2.4677  -2.4656  -2.4511  -2.3787  -2.3651  -2.3292  -2.2899  -2.1833
    -2.1697  -2.1532  -2.1273  -2.0672  -2.0526  -2.0413  -1.9937  -1.9693
    -1.8914  -1.8248  -1.7836  -1.6638  -1.6603  -1.6505  -1.6384  -1.4833
    -1.4474  -1.4162  -1.4065  -1.4004  -1.3560  -1.2580  -1.2500  -1.1156
    -1.1130  -1.0433  -0.9614  -0.9382  -0.9160  -0.7817  -0.7414  -0.7005
    -0.6955  -0.6705  -0.6447  -0.6252  -0.5976  -0.4461  -0.4268  -0.3925
    -0.3617  -0.3536  -0.3124  -0.2441  -0.1644  -0.0835  -0.0823  -0.0160
     0.0362   0.0980   0.1860   0.1984   0.2024   0.4852   0.5654   0.6526
     0.7317   0.7955   0.8613   0.8860   0.9465   0.9856   1.1256   1.1285
     1.1472   1.1476   1.2076   1.2159   1.3490   1.6477   2.2095   3.2371
     3.2374   3.3045   3.3050   3.6287   3.6342   3.7431   3.7522   3.8626
     3.8680

     the Fermi energy is     2.5021 ev

!    total energy              =   -2942.90657695 Ry
     estimated scf accuracy    <       0.00000006 Ry
     smearing contrib. (-TS)   =      -0.00477656 Ry
     internal energy E=F+TS    =   -2942.90180039 Ry

     The total energy is F=E-TS. E is the sum of the following terms:
     one-electron contribution =  -23226.56092687 Ry
     hartree contribution      =   11703.58619101 Ry
     xc contribution           =    -487.46624437 Ry
     ewald contribution        =    9067.53878252 Ry
     electric field correction =       0.00039731 Ry

     convergence has been achieved in  72 iterations

     Forces acting on atoms (cartesian axes, Ry/au):

     atom    1 type  1   force =     0.00001218   -0.00043867    0.12429649
     atom    2 type  1   force =    -0.00004730   -0.00054476   -0.16063960
     atom    3 type  2   force =     0.00016491   -0.00029991   -0.06836886
     atom    4 type  2   force =    -0.00005179   -0.00038707    0.02751686
     atom    5 type  2   force =    -0.01678329    0.00112589   -0.00833149
     atom    6 type  2   force =     0.01783346    0.00162490   -0.01022263
     atom    7 type  1   force =     0.00039519   -0.00408041    0.02179081
     atom    8 type  1   force =     0.00020114   -0.00220087    0.11167877
     atom    9 type  2   force =     0.00010302    0.00018712   -0.00031252
     atom   10 type  2   force =    -0.00319602    0.00010922   -0.07305822
     atom   11 type  2   force =    -0.00034484    0.00033230   -0.00006538
     atom   12 type  2   force =     0.00014418    0.00045428   -0.00002567
     atom   13 type  1   force =     0.00013497   -0.00024603   -0.00001298
     atom   14 type  1   force =    -0.00016168    0.00004794   -0.00033363
     atom   15 type  2   force =    -0.00004687   -0.00023808    0.00019296
     atom   16 type  2   force =     0.00032563    0.00076759    0.00002193
     atom   17 type  2   force =     0.00019359    0.00030823   -0.00028463
     atom   18 type  2   force =    -0.00020228    0.00021069    0.00010660
     atom   19 type  1   force =     0.00049724   -0.00008332   -0.00023420
     atom   20 type  1   force =     0.00025339   -0.00035955   -0.00049374
     atom   21 type  2   force =     0.00010246    0.00008103    0.09969145
     atom   22 type  2   force =     0.00008343    0.00095204    0.00046462
     atom   23 type  2   force =    -0.07914568    0.00008499   -0.03244559
     atom   24 type  2   force =     0.07905323    0.00051391   -0.03243911
     atom   25 type  1   force =     0.00001559   -0.00041799    0.12383317
     atom   26 type  1   force =    -0.00003653   -0.00042070   -0.16077080
     atom   27 type  2   force =     0.00028866   -0.00046858   -0.06735874
     atom   28 type  2   force =    -0.00005498   -0.00020374    0.02725324
     atom   29 type  2   force =    -0.01731323    0.00073853   -0.00825825
     atom   30 type  2   force =     0.01828230    0.00113550   -0.01009371
     atom   31 type  1   force =     0.00033746   -0.00099555    0.02125944
     atom   32 type  1   force =     0.00021625   -0.00027721    0.11223495
     atom   33 type  2   force =     0.00011988    0.00051222   -0.00008007
     atom   34 type  2   force =    -0.00294424   -0.00065492   -0.07291398
     atom   35 type  2   force =    -0.00025035    0.00027119   -0.00009165
     atom   36 type  2   force =     0.00010184    0.00013522   -0.00002893
     atom   37 type  1   force =     0.00014283   -0.00015155    0.00025963
     atom   38 type  1   force =     0.00006088    0.00005597    0.00030504
     atom   39 type  2   force =     0.00021368    0.00037300   -0.00015161
     atom   40 type  2   force =     0.00009795    0.00034477    0.00015886
     atom   41 type  2   force =    -0.00016259    0.00033449    0.00015833
     atom   42 type  2   force =    -0.00002595    0.00060314   -0.00002113
     atom   43 type  1   force =     0.00059419    0.00053208    0.00048114
     atom   44 type  1   force =     0.00015534    0.00030629   -0.00040322
     atom   45 type  2   force =     0.00010214    0.00005010    0.09970963
     atom   46 type  2   force =    -0.07915790    0.00012919   -0.03244591
     atom   47 type  2   force =     0.07905814    0.00056167   -0.03242956
     atom   48 type  3   force =     0.00043595    0.00031669   -0.00025382
     atom   49 type  4   force =     0.00074433   -0.00039583    0.00175918
     atom   50 type  5   force =     0.00056004   -0.00038157   -0.00037374
     atom   51 type  5   force =    -0.00023540    0.00038494   -0.00012873
     atom   52 type  5   force =    -0.00069626   -0.00058373    0.00022625
     atom   53 type  3   force =     0.00532426   -0.00045634    0.02242732
     atom   54 type  5   force =    -0.00103361    0.00170633   -0.00294935
     atom   55 type  5   force =    -0.00625460   -0.00356012   -0.00580239
     atom   56 type  5   force =     0.00179569    0.00255511   -0.01400283

     Total force =     0.425902     Total SCF correction =     0.000797
  @ DRIVER MODE: Message from server: STATUS
  @ DRIVER MODE: Message from server: GETFORCE
  @ DRIVER MODE: Returning v,forces,stress,ensemble

     Writing output data file ./calc.save/
  @ DRIVER MODE: Message from server: EXIT
  @ DRIVE MODE: Exiting

     General routines

     Parallel routines

   This run was terminated on:  22: 9:12   2Aug2021

   JOB DONE.