     Program PWSCF v.6.7GPU starts on 16Jul2021 at 14:20:45

     R & G space division:  proc/nbgrp/npool/nimage =      16
     Reading input from /storage/home/hcoda1/3/ntian30/research/carbon/15Jul_vib/ads_slab/CH3NNHH_a/out_0033/pw.inp
Warning: card &CELL ignored
Warning: card   CELL_DYNAMICS='IPI', ignored
Warning: card / ignored

     Current dimensions of program PWSCF are:
     Max number of different atomic species (ntypx) = 10
     Max number of k-points (npk) =  40000
     Max angular momentum in pseudopotentials (lmaxx) =  3
     Presently no symmetry can be used with electric field

     Message from routine cell_base_init:
     DEPRECATED: use true lattice parameter, not A to a.u. conversion factor

     IMPORTANT: XC functional enforced from input :
     Exchange-correlation= BEEF-VDW
                           (   1   4  43  14   2   0   0)
     Any further DFT definition will be discarded
     Please, verify this is what you really want

  @ DRIVER MODE: Connecting to
 qe_1139763_2351651.sched-torque.pace.gatech.eduv41pbofo_scratch
  using UNIX socket
  @ DRIVER MODE: Message from server: STATUS
  @ DRIVER MODE: Message from server: INIT
  @ DRIVER MODE: Receiving replica           0          -1
  @ DRIVER MODE: Receiving encoded integer          25
  @ DRIVER MODE:  SCF:  T  FORCE:  T  STRESS:  F  VC:  F  ENSEMBLE:  F
  @ DRIVER MODE:  SCF:  T  FORCE:  T  STRESS:  F  VC:  F  ENSEMBLE:  F

     Using Slab Decomposition

     bravais-lattice index     =            0
     lattice parameter (alat)  =       1.8897  a.u.
     unit-cell volume          =    6658.9804 (a.u.)^3
     number of atoms/cell      =           55
     number of atomic types    =            5
     number of electrons       =       397.00
     number of Kohn-Sham states=          208
     kinetic-energy cutoff     =      29.3995  Ry
     charge density cutoff     =     293.9946  Ry
     scf convergence threshold =      7.3E-08
     mixing beta               =       0.0500
     number of iterations used =            8  plain     mixing
     Exchange-correlation= BEEF-VDW
                           (   1   4  43  14   2   0   0)

     celldm(1)=   1.889726  celldm(2)=   0.000000  celldm(3)=   0.000000
     celldm(4)=   0.000000  celldm(5)=   0.000000  celldm(6)=   0.000000

     crystal axes: (cart. coord. in units of alat)
               a(1) = (   6.579727   0.000000   0.000000 )
               a(2) = (  -0.000775   5.961596   0.000000 )
               a(3) = (   0.000000   0.000000  25.155947 )

     reciprocal axes: (cart. coord. in units 2 pi/alat)
               b(1) = (  0.151982  0.000020  0.000000 )
               b(2) = (  0.000000  0.167740  0.000000 )
               b(3) = (  0.000000  0.000000  0.039752 )

     PseudoPot. # 1 for Ti read from file:
     /storage/coda1/p-amedford6/0/shared/rich_project_chbe-medford/medford-share/data/pseudos_module/espresso/nninc/pbe/van/Ti.UPF
     MD5 check sum: 8e4df49b7f0d34bbd5052bf3f5ea0213
     Pseudo is Ultrasoft, Zval = 12.0
     Generated by new atomic code, or converted to UPF format
     Using radial grid of  851 points,  6 beta functions with:
                l(1) =   0
                l(2) =   0
                l(3) =   1
                l(4) =   1
                l(5) =   2
                l(6) =   2
     Q(r) pseudized with  8 coefficients,  rinner =    1.000   1.000   1.000
                                                       1.000   1.000

     PseudoPot. # 2 for O  read from file:
     /storage/coda1/p-amedford6/0/shared/rich_project_chbe-medford/medford-share/data/pseudos_module/espresso/nninc/pbe/van/O.UPF
     MD5 check sum: 78c19812648e8988a0fe644b0f25305e
     Pseudo is Ultrasoft, Zval =  6.0
     Generated by new atomic code, or converted to UPF format
     Using radial grid of  737 points,  4 beta functions with:
                l(1) =   0
                l(2) =   0
                l(3) =   1
                l(4) =   1
     Q(r) pseudized with  8 coefficients,  rinner =    0.800   0.800   0.800

     PseudoPot. # 3 for N  read from file:
     /storage/coda1/p-amedford6/0/shared/rich_project_chbe-medford/medford-share/data/pseudos_module/espresso/nninc/pbe/van/N.UPF
     MD5 check sum: 90d10febe142ad51ac9d5be1deb811c4
     Pseudo is Ultrasoft, Zval =  5.0
     Generated by new atomic code, or converted to UPF format
     Using radial grid of  729 points,  4 beta functions with:
                l(1) =   0
                l(2) =   0
                l(3) =   1
                l(4) =   1
     Q(r) pseudized with  8 coefficients,  rinner =    0.800   0.800   0.800

     PseudoPot. # 4 for C  read from file:
     /storage/coda1/p-amedford6/0/shared/rich_project_chbe-medford/medford-share/data/pseudos_module/espresso/nninc/pbe/van/C.UPF
     MD5 check sum: 1a69bf6b8db32088f5b2163dbdb77a27
     Pseudo is Ultrasoft, Zval =  4.0
     Generated by new atomic code, or converted to UPF format
     Using radial grid of  721 points,  4 beta functions with:
                l(1) =   0
                l(2) =   0
                l(3) =   1
                l(4) =   1
     Q(r) pseudized with  8 coefficients,  rinner =    0.800   0.800   0.800

     PseudoPot. # 5 for H  read from file:
     /storage/coda1/p-amedford6/0/shared/rich_project_chbe-medford/medford-share/data/pseudos_module/espresso/nninc/pbe/van/H.UPF
     MD5 check sum: b5ee9d7bfd3a09ee7748110bda690ff7
     Pseudo is Ultrasoft, Zval =  1.0
     Generated by new atomic code, or converted to UPF format
     Using radial grid of  615 points,  1 beta functions with:
                l(1) =   0
     Q(r) pseudized with  8 coefficients,  rinner =    0.800

     atomic species   valence    mass     pseudopotential
        Ti1           12.00    47.86700     Ti( 1.00)
        O1             6.00    15.99900     O ( 1.00)
        N1             5.00    14.00700     N ( 1.00)
        C1             4.00    12.01100     C ( 1.00)
        H1             1.00     1.00800     H ( 1.00)

     Starting magnetic structure
     atomic species   magnetization
        Ti1          0.000
        O1           0.000
        N1           0.000
        C1           0.025
        H1           0.000

     No symmetry found

   Cartesian axes

     site n.     atom                  positions (alat units)
         1           Ti1 tau(   1) = (   0.0004258   2.9801865   6.0000000  )
         2           Ti1 tau(   2) = (   3.2906075   1.4906267   6.0002472  )
         3           O1  tau(   3) = (   0.0006271   0.0005054   7.9858123  )
         4           O1  tau(   4) = (   3.2906025   0.0005020   7.3038282  )
         5           O1  tau(   5) = (   4.5942328   1.4918067   9.2879030  )
         6           O1  tau(   6) = (   1.9868534   1.4903216   9.2879459  )
         7           Ti1 tau(   7) = (   3.2907910   2.8959150   9.1758416  )
         8           Ti1 tau(   8) = (   0.0015273   1.4827037   9.2680791  )
         9           O1  tau(   9) = (   3.3020592   5.9599881  11.3075072  )
        10           O1  tau(  10) = (   0.0116148   5.9584955  10.6183126  )
        11           O1  tau(  11) = (   1.3218652   1.4872367  12.6142461  )
        12           O1  tau(  12) = (   5.3149618   1.4866655  12.6283206  )
        13           Ti1 tau(  13) = (   6.5343381   3.0098038  12.6530281  )
        14           Ti1 tau(  14) = (   3.2132235   1.4912063  12.4551521  )
        15           O1  tau(  15) = (   0.0515422   5.9562953  14.6829507  )
        16           O1  tau(  16) = (   3.3088797   0.0214154  13.8770011  )
        17           O1  tau(  17) = (   4.5726725   1.5412406  16.1224456  )
        18           O1  tau(  18) = (   2.0900022   1.5114086  15.9969863  )
        19           Ti1 tau(  19) = (   3.3311046   3.0200058  15.6476981  )
        20           Ti1 tau(  20) = (   0.0790784   1.4105808  15.8036947  )
        21           O1  tau(  21) = (   3.2904802   0.0005063   4.7018136  )
        22           O1  tau(  22) = (   0.0613336   0.0214447  17.2555488  )
        23           O1  tau(  23) = (   1.3043587   1.4918075   6.0039043  )
        24           O1  tau(  24) = (   5.2767064   1.4903225   6.0039473  )
        25           Ti1 tau(  25) = (   0.0000382   5.9609847   6.0000000  )
        26           Ti1 tau(  26) = (   3.2902200   4.4714249   6.0002472  )
        27           O1  tau(  27) = (   0.0002396   2.9813036   7.9858123  )
        28           O1  tau(  28) = (   3.2902150   2.9813002   7.3038282  )
        29           O1  tau(  29) = (   4.5938453   4.4726049   9.2879030  )
        30           O1  tau(  30) = (   1.9864658   4.4711199   9.2879459  )
        31           Ti1 tau(  31) = (   3.2891106   5.8743827   9.1763621  )
        32           Ti1 tau(  32) = (   0.0006254   4.4649316   9.2693709  )
        33           O1  tau(  33) = (   3.3026341   2.9893090  11.3092672  )
        34           O1  tau(  34) = (   0.0092240   2.9805883  10.6323155  )
        35           O1  tau(  35) = (   1.3182942   4.4670451  12.6271195  )
        36           O1  tau(  36) = (   5.3124783   4.4780259  12.6376329  )
        37           Ti1 tau(  37) = (   6.5365500   0.0194685  12.5464133  )
        38           Ti1 tau(  38) = (   3.2155898   4.4753301  12.4613306  )
        39           O1  tau(  39) = (   0.0167368   2.9407051  14.7244952  )
        40           O1  tau(  40) = (   3.3149560   2.9822459  13.8616979  )
        41           O1  tau(  41) = (   4.5706274   4.5128733  15.9228735  )
        42           O1  tau(  42) = (   2.1262058   4.4922812  16.0793225  )
        43           Ti1 tau(  43) = (   3.3222298   0.0210159  15.6751784  )
        44           Ti1 tau(  44) = (   6.5499002   4.5104744  16.2959303  )
        45           O1  tau(  45) = (   3.2900926   2.9813045   4.7018136  )
        46           O1  tau(  46) = (   1.3039711   4.4726057   6.0039043  )
        47           O1  tau(  47) = (   5.2763189   4.4711207   6.0039473  )
        48           N1  tau(  48) = (   0.3735289   2.9861087  17.6038306  )
        49           C1  tau(  49) = (   1.3580301   2.7301661  18.6431808  )
        50           H1  tau(  50) = (   1.5128655   3.6233449  19.2641712  )
        51           H1  tau(  51) = (   1.0354786   1.8978442  19.2795547  )
        52           H1  tau(  52) = (   2.3065860   2.4473273  18.1987077  )
        53           N1  tau(  53) = (   5.7326324   3.4496218  18.1373629  )
        54           H1  tau(  54) = (   5.8436824   4.0267099  18.9748678  )
        55           H1  tau(  55) = (   5.0375616   2.7244768  18.2555579  )

     number of k points=    10  Fermi-Dirac smearing, width (Ry)=  0.0073
                       cart. coord. in units 2pi/alat
        k(    1) = (   0.0000000   0.0000000   0.0000000), wk =   0.0625000
        k(    2) = (   0.0000000   0.0419351   0.0000000), wk =   0.1250000
        k(    3) = (   0.0000000  -0.0838702   0.0000000), wk =   0.0625000
        k(    4) = (   0.0379955   0.0000049   0.0000000), wk =   0.1250000
        k(    5) = (   0.0379955   0.0419400   0.0000000), wk =   0.1250000
        k(    6) = (   0.0379955  -0.0838652   0.0000000), wk =   0.1250000
[...]
     %                                                                      %
     % You are using vdW-DF, which was implemented by the Thonhauser group. %
     % Please cite the following two papers that made this development      %
     % possible and the two reviews that describe the various versions:     %
     %                                                                      %
     %   T. Thonhauser et al., PRL 115, 136402 (2015).                      %
     %   T. Thonhauser et al., PRB 76, 125112 (2007).                       %
     %   K. Berland et al., Rep. Prog. Phys. 78, 066501 (2015).             %
     %   D.C. Langreth et al., J. Phys.: Condens. Matter 21, 084203 (2009). %
     %                                                                      %
     %                                                                      %
     % If you are calculating the stress with vdW-DF, please also cite:     %
     %                                                                      %
     %   R. Sabatini et al., J. Phys.: Condens. Matter 24, 424209 (2012).   %
     %                                                                      %
     %%%%%%%%%%%%%%%%%%%%%%%%%%%%%%%%%%%%%%%%%%%%%%%%%%%%%%%%%%%%%%%%%%%%%%%%

     Adding external electric field

     Computed dipole along edir(3) :
        Dipole               -9.2582 Ry au,        -23.5319 Debye
        Dipole field         -0.0175 Ry au,

        Potential amp.        1.6196 Ry
        Total length         46.3494 bohr

[...]

     Starting wfcs are  301 atomic wfcs
  @ DRIVER MODE: Message from server: STATUS
  @ DRIVER MODE: Message from server: POSDATA
  @ DRIVER MODE: Reading and sharing cell
  @ DRIVER MODE: Reading and sharing positions
  @ DRIVER MODE: Received positions

     Self-consistent Calculation

     iteration #  1     ecut=    29.40 Ry     beta= 0.05
     Davidson diagonalization with overlap
     c_bands:  1 eigenvalues not converged
     c_bands:  2 eigenvalues not converged
     c_bands:  1 eigenvalues not converged
     c_bands:  2 eigenvalues not converged
     c_bands:  2 eigenvalues not converged
     c_bands:  2 eigenvalues not converged
     c_bands:  2 eigenvalues not converged
     c_bands:  1 eigenvalues not converged
     c_bands:  4 eigenvalues not converged
     c_bands:  1 eigenvalues not converged
     c_bands:  2 eigenvalues not converged
     c_bands:  1 eigenvalues not converged
     c_bands:  2 eigenvalues not converged
     c_bands:  2 eigenvalues not converged
     c_bands:  2 eigenvalues not converged
     c_bands:  2 eigenvalues not converged
     c_bands:  1 eigenvalues not converged
     c_bands:  4 eigenvalues not converged
     ethr =  1.00E-05,  avg # of iterations = 19.8

[...]

     total energy              =   -2525.29755472 Ry
     estimated scf accuracy    <    4616.14708160 Ry

     total magnetization       =     0.00 Bohr mag/cell
     absolute magnetization    =     0.03 Bohr mag/cell

     iteration #  2     ecut=    29.40 Ry     beta= 0.05
     Davidson diagonalization with overlap
     ethr =  1.00E-02,  avg # of iterations = 23.5

[...]

     iteration # 66     ecut=    29.40 Ry     beta= 0.05
     Davidson diagonalization with overlap
     ethr =  3.11E-11,  avg # of iterations =  4.0

[...]

     total energy              =   -2941.63790691 Ry
     estimated scf accuracy    <       0.00000010 Ry

[...]

     iteration # 68     ecut=    29.40 Ry     beta= 0.05
     Davidson diagonalization with overlap
     c_bands:  1 eigenvalues not converged
     ethr =  2.63E-11,  avg # of iterations = 11.2

     negative rho (up, down):  8.396E-03 8.395E-03

[...]

     Adding external electric field

     Computed dipole along edir(3) :
        Dipole                1.1465 Ry au,          2.9140 Debye
        Dipole field          0.0022 Ry au,

        Potential amp.       -0.2006 Ry
        Total length         46.3494 bohr

     Magnetic moment per site  (integrated on atomic sphere of radius R)
     atom   1 (R=0.726)  charge=  7.9408  magn= -0.0065
     atom   2 (R=0.726)  charge=  7.9243  magn= -0.0006
     atom   3 (R=0.726)  charge=  4.9318  magn=  0.0006
     atom   4 (R=0.726)  charge=  4.9681  magn=  0.0002
     atom   5 (R=0.726)  charge=  4.9368  magn=  0.0001
     atom   6 (R=0.726)  charge=  4.9376  magn=  0.0001
     atom   7 (R=0.726)  charge=  7.9229  magn= -0.0003
     atom   8 (R=0.726)  charge=  7.9151  magn= -0.0021
     atom   9 (R=0.726)  charge=  4.9562  magn=  0.0001
     atom  10 (R=0.726)  charge=  4.9311  magn=  0.0002
     atom  11 (R=0.726)  charge=  4.9388  magn=  0.0001
     atom  12 (R=0.726)  charge=  4.9369  magn=  0.0002
     atom  13 (R=0.726)  charge=  7.9088  magn= -0.0006
     atom  14 (R=0.726)  charge=  7.9274  magn= -0.0003
     atom  15 (R=0.726)  charge=  4.9165  magn=  0.0001
     atom  16 (R=0.726)  charge=  4.9542  magn=  0.0000
     atom  17 (R=0.726)  charge=  4.9068  magn=  0.0000
     atom  18 (R=0.726)  charge=  4.9387  magn=  0.0000
     atom  19 (R=0.726)  charge=  7.9527  magn= -0.0001
     atom  20 (R=0.726)  charge=  7.9410  magn= -0.0001
     atom  21 (R=0.726)  charge=  4.8212  magn=  0.0007
     atom  22 (R=0.726)  charge=  4.9007  magn=  0.0001
     atom  23 (R=0.726)  charge=  4.9281  magn=  0.0008
     atom  24 (R=0.726)  charge=  4.9282  magn=  0.0008
     atom  25 (R=0.726)  charge=  7.9408  magn= -0.0065
     atom  26 (R=0.726)  charge=  7.9244  magn= -0.0006
     atom  27 (R=0.726)  charge=  4.9305  magn=  0.0006
     atom  28 (R=0.726)  charge=  4.9683  magn=  0.0001
     atom  29 (R=0.726)  charge=  4.9375  magn=  0.0001
     atom  30 (R=0.726)  charge=  4.9383  magn=  0.0001
     atom  31 (R=0.726)  charge=  7.9236  magn= -0.0003
     atom  32 (R=0.726)  charge=  7.9153  magn= -0.0021
     atom  33 (R=0.726)  charge=  4.9540  magn=  0.0001
     atom  34 (R=0.726)  charge=  4.9049  magn=  0.0002
     atom  35 (R=0.726)  charge=  4.9378  magn=  0.0001
     atom  36 (R=0.726)  charge=  4.9369  magn=  0.0002
     atom  37 (R=0.726)  charge=  7.9159  magn= -0.0007
     atom  38 (R=0.726)  charge=  7.9271  magn= -0.0003
     atom  39 (R=0.726)  charge=  4.9089  magn=  0.0001
     atom  40 (R=0.726)  charge=  4.9620  magn=  0.0000
     atom  41 (R=0.726)  charge=  4.9464  magn=  0.0000
     atom  42 (R=0.726)  charge=  4.9157  magn=  0.0000
     atom  43 (R=0.726)  charge=  7.9491  magn= -0.0001
     atom  44 (R=0.726)  charge=  7.9599  magn= -0.0000
     atom  45 (R=0.726)  charge=  4.8212  magn=  0.0008
     atom  46 (R=0.726)  charge=  4.9281  magn=  0.0008
     atom  47 (R=0.726)  charge=  4.9282  magn=  0.0008
     atom  48 (R=0.417)  charge=  1.2964  magn= -0.0000
     atom  49 (R=0.448)  charge=  0.8406  magn=  0.0000
     atom  50 (R=0.417)  charge=  0.4361  magn= -0.0000
     atom  51 (R=0.417)  charge=  0.4351  magn= -0.0000
     atom  52 (R=0.417)  charge=  0.4431  magn= -0.0000
     atom  53 (R=0.417)  charge=  1.3190  magn=  0.0000
     atom  54 (R=0.417)  charge=  0.4430  magn= -0.0000
     atom  55 (R=0.417)  charge=  0.4497  magn=  0.0000

     End of self-consistent calculation

 ------ SPIN UP ------------

          k = 0.0000 0.0000 0.0000 ( 18029 PWs)   bands (ev):

   -55.5752 -55.5661 -55.5374 -55.5320 -55.4613 -55.4244 -55.4240 -55.3888
   -55.3700 -55.3359 -55.3279 -55.2941 -55.0321 -54.8762 -54.5384 -54.5044
   -32.1374 -32.0507 -31.9593 -31.8929 -31.8888 -31.8704 -31.8577 -31.8203
   -31.8068 -31.8063 -31.7853 -31.7599 -31.7555 -31.7271 -31.7171 -31.7165
   -31.6726 -31.6610 -31.6590 -31.6490 -31.6482 -31.6220 -31.6136 -31.5965
   -31.5711 -31.5685 -31.5664 -31.5580 -31.5576 -31.5315 -31.5068 -31.5039
   -31.4958 -31.4930 -31.4821 -31.4732 -31.4413 -31.3064 -31.2570 -31.1560
   -31.1286 -31.0370 -30.9447 -30.8579 -30.8354 -30.7617 -30.6752 -30.5640
   -17.6053 -16.3630 -16.0504 -15.8360 -15.7275 -15.7240 -15.6396 -15.4184
   -15.2968 -15.2825 -15.1673 -15.1635 -15.1042 -15.0622 -15.0548 -15.0477
   -15.0151 -15.0039 -14.9862 -14.9501 -14.9173 -14.8991 -14.8759 -14.7740
   -14.7072 -14.7015 -14.6830 -14.6186 -14.5710 -14.2114 -13.0421 -12.9259
   -12.5349  -9.2085  -6.3627  -5.0936  -4.1967  -3.7412  -3.5516  -3.4751
    -3.4396  -3.3714  -3.3518  -3.1820  -3.1742  -2.7954  -2.7760  -2.7580
    -2.7368  -2.7333  -2.4643  -2.4116  -2.3964  -2.3931  -2.3753  -2.3583
    -2.3372  -2.3268  -2.2996  -2.2883  -2.1548  -2.1116  -2.0328  -2.0064
    -1.9910  -1.8799  -1.8543  -1.8344  -1.8228  -1.8092  -1.7799  -1.7733
    -1.7514  -1.6427  -1.5339  -1.4550  -1.4148  -1.3625  -1.3442  -1.1648
    -1.1113  -1.0529  -1.0289  -1.0034  -0.9895  -0.9559  -0.8807  -0.8527
    -0.7145  -0.6751  -0.6218  -0.5958  -0.5670  -0.5087  -0.4770  -0.4473
    -0.3514  -0.3393  -0.3284  -0.3157  -0.2596  -0.0674  -0.0191  -0.0004
     0.0144   0.1139   0.1533   0.1818   0.2116   0.2686   0.2970   0.3617
     0.3904   0.4104   0.4212   0.4498   0.4665   0.5990   0.6260   0.6536
     0.7159   0.7693   0.8448   0.9587   1.0403   1.0964   1.1984   1.4157
     1.4828   1.5678   1.6766   1.7128   2.0520   2.0974   3.5673   3.6609
     3.6940   3.7081   3.8140   3.8661   4.0154   4.0245   4.0642   4.0942

[...]

          k =-0.0760-0.0000 0.0000 ( 17886 PWs)   bands (ev):

[...]

 ------ SPIN DOWN ----------

[...]

          k = 0.0380-0.0419 0.0000 ( 17876 PWs)   bands (ev):

[...]

          k =-0.0760-0.0839 0.0000 ( 17948 PWs)   bands (ev):

   -55.5624 -55.5618 -55.5606 -55.5516 -55.4515 -55.4368 -55.4104 -55.4029
   -55.3584 -55.3550 -55.3136 -55.3099 -55.0310 -54.8776 -54.5229 -54.5228
   -31.9436 -31.9331 -31.8717 -31.8709 -31.8572 -31.8562 -31.8454 -31.8289
   -31.8040 -31.7901 -31.7695 -31.7498 -31.7246 -31.7140 -31.7082 -31.6829
   -31.6824 -31.6824 -31.6810 -31.6708 -31.6679 -31.6546 -31.6511 -31.6488
   -31.6283 -31.6144 -31.6043 -31.6036 -31.5551 -31.5530 -31.5464 -31.5440
   -31.5375 -31.5339 -31.5285 -31.5266 -31.4124 -31.3179 -31.2590 -31.2175
   -31.1343 -31.0484 -30.8497 -30.8496 -30.7589 -30.7587 -30.7200 -30.7199
   -17.5935 -15.8227 -15.7827 -15.5277 -15.5188 -15.5161 -15.4762 -15.3524
   -15.3037 -15.2778 -15.2667 -15.2482 -15.2394 -15.1384 -15.1243 -15.1081
   -15.0977 -15.0711 -15.0279 -15.0228 -15.0139 -15.0043 -14.9928 -14.9262
   -14.8741 -14.8702 -14.7561 -14.6645 -14.5241 -14.4364 -13.0259 -13.0254
   -12.5545  -9.1683  -6.3230  -5.1234  -4.1288  -3.4222  -3.1234  -3.0758
    -2.7879  -2.7684  -2.7533  -2.6397  -2.5203  -2.5111  -2.4852  -2.4634
    -2.4291  -2.4162  -2.4059  -2.3979  -2.3801  -2.3621  -2.3512  -2.3113
    -2.2428  -2.2347  -2.2265  -2.2183  -2.2017  -2.1781  -2.1673  -2.1403
    -2.1156  -2.0807  -2.0215  -1.9908  -1.8410  -1.7973  -1.7369  -1.6973
    -1.6888  -1.6597  -1.6264  -1.6189  -1.5081  -1.4945  -1.4587  -1.3285
    -1.2683  -1.2599  -1.2281  -1.1406  -1.1019  -0.9732  -0.9602  -0.9231
    -0.8675  -0.8589  -0.8234  -0.7841  -0.7333  -0.6807  -0.6360  -0.6149
    -0.5975  -0.5253  -0.5248  -0.4769  -0.4216  -0.3513  -0.3283  -0.3208
    -0.2880  -0.2448  -0.1974  -0.1342  -0.0583  -0.0362  -0.0243   0.0749
     0.1480   0.3683   0.4140   0.5123   0.5328   0.5623   0.6202   0.6706
     0.7388   0.7543   0.7820   0.8560   0.8782   0.9698   0.9813   0.9983
     1.1760   1.6500   1.8495   1.8505   1.9185   1.9192   3.8557   3.8719
     3.8960   3.9199   4.0783   4.0820   4.0956   4.0986   4.2191   4.2528

     the Fermi energy is     3.5623 ev

!    total energy              =   -2941.63793085 Ry
     estimated scf accuracy    <       0.00000006 Ry
     smearing contrib. (-TS)   =      -0.02171162 Ry
     internal energy E=F+TS    =   -2941.61621924 Ry

     The total energy is F=E-TS. E is the sum of the following terms:
     one-electron contribution =  -24388.09106473 Ry
     hartree contribution      =   12285.98695988 Ry
     xc contribution           =    -486.94453193 Ry
     ewald contribution        =    9647.42993712 Ry
     electric field correction =       0.00248042 Ry

     total magnetization       =    -0.03 Bohr mag/cell
     absolute magnetization    =     0.04 Bohr mag/cell

     convergence has been achieved in  68 iterations

     Forces acting on atoms (cartesian axes, Ry/au):

     atom    1 type  1   force =    -0.00001219   -0.00019882    0.09686157
     atom    2 type  1   force =     0.00009438   -0.00069273   -0.17459614
     atom    3 type  2   force =     0.00018218   -0.00006278   -0.02513573
     atom    4 type  2   force =     0.00000828   -0.00125165    0.05116389
     atom    5 type  2   force =    -0.01125776   -0.00080296    0.00227448
     atom    6 type  2   force =     0.01310223   -0.00035344    0.00271704
     atom    7 type  1   force =     0.00100259    0.00022006   -0.01339159
     atom    8 type  1   force =    -0.00010198    0.01532815    0.02825936
     atom    9 type  2   force =    -0.00007037   -0.00001732    0.00008724
     atom   10 type  2   force =    -0.00234062    0.00080315   -0.01058493
     atom   11 type  2   force =     0.00035103    0.00005304   -0.00000977
     atom   12 type  2   force =    -0.00043018   -0.00006922    0.00025938
     atom   13 type  1   force =     0.00014782   -0.00019770   -0.00006751
     atom   14 type  1   force =     0.00010174   -0.00023888    0.00004231
     atom   15 type  2   force =    -0.00000444    0.00011536   -0.00007479
     atom   16 type  2   force =    -0.00019805    0.00002465   -0.00019789
     atom   17 type  2   force =    -0.00013400    0.00001130   -0.00014545
     atom   18 type  2   force =    -0.00011185   -0.00002263   -0.00023195
     atom   19 type  1   force =    -0.00033730    0.00015243    0.00008078
     atom   20 type  1   force =     0.00015105   -0.00037812    0.00010116
     atom   21 type  2   force =     0.00003988   -0.00009543    0.10297242
     atom   22 type  2   force =    -0.00030573   -0.00001749    0.00064842
     atom   23 type  2   force =    -0.07180470   -0.00021270   -0.02778935
     atom   24 type  2   force =     0.07176333    0.00024171   -0.02785098
     atom   25 type  1   force =     0.00002746   -0.00026234    0.09647258
     atom   26 type  1   force =     0.00000227   -0.00030689   -0.17486137
     atom   27 type  2   force =     0.00019319   -0.00025524   -0.02399419
     atom   28 type  2   force =     0.00005501   -0.00100579    0.05143495
     atom   29 type  2   force =    -0.01128610    0.00078580    0.00168784
     atom   30 type  2   force =     0.01298022    0.00111353    0.00208665
     atom   31 type  1   force =     0.00103344    0.00257348   -0.01541493
     atom   32 type  1   force =     0.00005416   -0.01663513    0.02914635
     atom   33 type  2   force =     0.00011825    0.00002736   -0.00012371
     atom   34 type  2   force =    -0.00271170    0.00093420   -0.01868616
     atom   35 type  2   force =     0.00017603   -0.00007451   -0.00008701
     atom   36 type  2   force =    -0.00037875   -0.00007298    0.00013532
     atom   37 type  1   force =    -0.00010440   -0.00019635    0.00014968
     atom   38 type  1   force =     0.00007652    0.00008771   -0.00005942
     atom   39 type  2   force =    -0.00004547    0.00042361    0.00001151
     atom   40 type  2   force =    -0.00037918    0.00015035   -0.00013351
     atom   41 type  2   force =     0.00018365    0.00004175    0.00007554
     atom   42 type  2   force =    -0.00003794    0.00018458    0.00003424
     atom   43 type  1   force =     0.00015254    0.00008272   -0.00008302
     atom   44 type  1   force =    -0.00038108   -0.00090885   -0.00026995
     atom   45 type  2   force =     0.00005613   -0.00011032    0.10297635
     atom   46 type  2   force =    -0.07182879   -0.00015881   -0.02780959
     atom   47 type  2   force =     0.07177034    0.00022517   -0.02785531
     atom   48 type  3   force =     0.00034259   -0.00257204   -0.00046719
     atom   49 type  4   force =     0.00069543   -0.00059481   -0.00009623
     atom   50 type  5   force =    -0.00044717    0.00018929    0.00014514
     atom   51 type  5   force =    -0.00045876    0.00001473   -0.00034061
     atom   52 type  5   force =     0.00084349   -0.00019511    0.00017815
     atom   53 type  3   force =     0.00764301    0.01834908    0.00677277
     atom   54 type  5   force =    -0.00148051   -0.00521487   -0.00580673
     atom   55 type  5   force =    -0.00669923   -0.00895730   -0.00061010

     Total force =     0.368055     Total SCF correction =     0.000604
  @ DRIVER MODE: Message from server: STATUS
  @ DRIVER MODE: Message from server: GETFORCE
  @ DRIVER MODE: Returning v,forces,stress,ensemble

     Writing output data file ./calc.save/
  @ DRIVER MODE: Message from server: EXIT
  @ DRIVE MODE: Exiting

     General routines

     Parallel routines

   This run was terminated on:  14:52:49  16Jul2021

   JOB DONE.