     Program PWSCF v.6.7GPU starts on 15Sep2021 at 23: 6: 7

     R & G space division:  proc/nbgrp/npool/nimage =      10
     Reading input from /storage/home/hcoda1/3/ntian30/research/carbon/CxH_vib/H2O_calc/ads_slab/CHN2H2O_c/out_0024/pw.inp
Warning: card &CELL ignored
Warning: card   CELL_DYNAMICS='IPI', ignored
Warning: card / ignored

     Current dimensions of program PWSCF are:
     Max number of different atomic species (ntypx) = 10
     Max number of k-points (npk) =  40000
     Max angular momentum in pseudopotentials (lmaxx) =  3
     Presently no symmetry can be used with electric field

     Message from routine cell_base_init:
     DEPRECATED: use true lattice parameter, not A to a.u. conversion factor

     IMPORTANT: XC functional enforced from input :
     Exchange-correlation= BEEF-VDW
                           (   1   4  43  14   2   0   0)
     Any further DFT definition will be discarded
     Please, verify this is what you really want

  @ DRIVER MODE: Connecting to
 qe_1139763_2852625.sched-torque.pace.gatech.edul7z_bx75_scratch
  using UNIX socket
  @ DRIVER MODE: Message from server: STATUS
  @ DRIVER MODE: Message from server: INIT
  @ DRIVER MODE: Receiving replica           0          -1
  @ DRIVER MODE: Receiving encoded integer          25
  @ DRIVER MODE:  SCF:  T  FORCE:  T  STRESS:  F  VC:  F  ENSEMBLE:  F
  @ DRIVER MODE:  SCF:  T  FORCE:  T  STRESS:  F  VC:  F  ENSEMBLE:  F

     Using Slab Decomposition

     bravais-lattice index     =            0
     lattice parameter (alat)  =       1.8897  a.u.
     unit-cell volume          =    6658.9804 (a.u.)^3
     number of atoms/cell      =           54
     number of atomic types    =            5
     number of electrons       =       401.00
     number of Kohn-Sham states=          210
     kinetic-energy cutoff     =      29.3995  Ry
     charge density cutoff     =     293.9946  Ry
     scf convergence threshold =      7.3E-08
     mixing beta               =       0.0500
     number of iterations used =            8  plain     mixing
     Exchange-correlation= BEEF-VDW
                           (   1   4  43  14   2   0   0)

     celldm(1)=   1.889726  celldm(2)=   0.000000  celldm(3)=   0.000000
     celldm(4)=   0.000000  celldm(5)=   0.000000  celldm(6)=   0.000000

     crystal axes: (cart. coord. in units of alat)
               a(1) = (   6.579727   0.000000   0.000000 )
               a(2) = (  -0.000775   5.961596   0.000000 )
               a(3) = (   0.000000   0.000000  25.155947 )

     reciprocal axes: (cart. coord. in units 2 pi/alat)
               b(1) = (  0.151982  0.000020  0.000000 )
               b(2) = (  0.000000  0.167740  0.000000 )
               b(3) = (  0.000000  0.000000  0.039752 )

     PseudoPot. # 1 for Ti read from file:
     /storage/coda1/p-amedford6/0/shared/rich_project_chbe-medford/medford-share/data/pseudos_module/espresso/nninc/pbe/van/Ti.UPF
     MD5 check sum: 8e4df49b7f0d34bbd5052bf3f5ea0213
     Pseudo is Ultrasoft, Zval = 12.0
     Generated by new atomic code, or converted to UPF format
     Using radial grid of  851 points,  6 beta functions with:
                l(1) =   0
                l(2) =   0
                l(3) =   1
                l(4) =   1
                l(5) =   2
                l(6) =   2
     Q(r) pseudized with  8 coefficients,  rinner =    1.000   1.000   1.000
                                                       1.000   1.000

     PseudoPot. # 2 for O  read from file:
     /storage/coda1/p-amedford6/0/shared/rich_project_chbe-medford/medford-share/data/pseudos_module/espresso/nninc/pbe/van/O.UPF
     MD5 check sum: 78c19812648e8988a0fe644b0f25305e
     Pseudo is Ultrasoft, Zval =  6.0
     Generated by new atomic code, or converted to UPF format
     Using radial grid of  737 points,  4 beta functions with:
                l(1) =   0
                l(2) =   0
                l(3) =   1
                l(4) =   1
     Q(r) pseudized with  8 coefficients,  rinner =    0.800   0.800   0.800

     PseudoPot. # 3 for C  read from file:
     /storage/coda1/p-amedford6/0/shared/rich_project_chbe-medford/medford-share/data/pseudos_module/espresso/nninc/pbe/van/C.UPF
     MD5 check sum: 1a69bf6b8db32088f5b2163dbdb77a27
     Pseudo is Ultrasoft, Zval =  4.0
     Generated by new atomic code, or converted to UPF format
     Using radial grid of  721 points,  4 beta functions with:
                l(1) =   0
                l(2) =   0
                l(3) =   1
                l(4) =   1
     Q(r) pseudized with  8 coefficients,  rinner =    0.800   0.800   0.800

     PseudoPot. # 4 for H  read from file:
     /storage/coda1/p-amedford6/0/shared/rich_project_chbe-medford/medford-share/data/pseudos_module/espresso/nninc/pbe/van/H.UPF
     MD5 check sum: b5ee9d7bfd3a09ee7748110bda690ff7
     Pseudo is Ultrasoft, Zval =  1.0
     Generated by new atomic code, or converted to UPF format
     Using radial grid of  615 points,  1 beta functions with:
                l(1) =   0
     Q(r) pseudized with  8 coefficients,  rinner =    0.800

     PseudoPot. # 5 for N  read from file:
     /storage/coda1/p-amedford6/0/shared/rich_project_chbe-medford/medford-share/data/pseudos_module/espresso/nninc/pbe/van/N.UPF
     MD5 check sum: 90d10febe142ad51ac9d5be1deb811c4
     Pseudo is Ultrasoft, Zval =  5.0
     Generated by new atomic code, or converted to UPF format
     Using radial grid of  729 points,  4 beta functions with:
                l(1) =   0
                l(2) =   0
                l(3) =   1
                l(4) =   1
     Q(r) pseudized with  8 coefficients,  rinner =    0.800   0.800   0.800

     atomic species   valence    mass     pseudopotential
        Ti1           12.00    47.86700     Ti( 1.00)
        O1             6.00    15.99900     O ( 1.00)
        C1             4.00    12.01100     C ( 1.00)
        H1             1.00     1.00800     H ( 1.00)
        N1             5.00    14.00700     N ( 1.00)

     No symmetry found

   Cartesian axes

     site n.     atom                  positions (alat units)
         1           Ti1 tau(   1) = (   0.0004258   2.9801865   6.0000000  )
         2           Ti1 tau(   2) = (   3.2906075   1.4906267   6.0002472  )
         3           O1  tau(   3) = (   0.0006271   0.0005054   7.9858123  )
         4           O1  tau(   4) = (   3.2906025   0.0005020   7.3038282  )
         5           O1  tau(   5) = (   4.5942328   1.4918067   9.2879030  )
         6           O1  tau(   6) = (   1.9868534   1.4903216   9.2879459  )
         7           Ti1 tau(   7) = (   3.2907910   2.8959150   9.1758416  )
         8           Ti1 tau(   8) = (   0.0015273   1.4827037   9.2680791  )
         9           O1  tau(   9) = (   3.2982821   5.9591942  11.3418950  )
        10           O1  tau(  10) = (   0.0116148   5.9584955  10.6183126  )
        11           O1  tau(  11) = (   1.2990089   1.4837789  12.6285733  )
        12           O1  tau(  12) = (   5.2904647   1.4888503  12.6163117  )
        13           Ti1 tau(  13) = (   0.0603338   2.9457994  12.6026339  )
        14           Ti1 tau(  14) = (   3.3706290   1.4705258  12.5092779  )
        15           O1  tau(  15) = (   6.5788109   0.0160518  14.6499261  )
        16           O1  tau(  16) = (   3.3158691   0.0087694  13.9605792  )
        17           O1  tau(  17) = (   4.5613999   1.5213109  16.0555727  )
        18           O1  tau(  18) = (   2.0390476   1.5587733  16.0026688  )
        19           Ti1 tau(  19) = (   3.2958454   3.0042652  15.6812246  )
        20           Ti1 tau(  20) = (   0.0477533   1.5223793  15.8108347  )
        21           O1  tau(  21) = (   3.2904802   0.0005063   4.7018136  )
        22           O1  tau(  22) = (   0.0778492   0.0082781  17.2116806  )
        23           O1  tau(  23) = (   1.3043587   1.4918075   6.0039043  )
        24           O1  tau(  24) = (   5.2767064   1.4903225   6.0039473  )
        25           Ti1 tau(  25) = (   0.0000382   5.9609847   6.0000000  )
        26           Ti1 tau(  26) = (   3.2902200   4.4714249   6.0002472  )
        27           O1  tau(  27) = (   0.0002396   2.9813036   7.9858123  )
        28           O1  tau(  28) = (   3.2902150   2.9813002   7.3038282  )
        29           O1  tau(  29) = (   4.5938453   4.4726049   9.2879030  )
        30           O1  tau(  30) = (   1.9864658   4.4711199   9.2879459  )
        31           Ti1 tau(  31) = (   3.2891106   5.8743827   9.1763621  )
        32           Ti1 tau(  32) = (   0.0006254   4.4649316   9.2693709  )
        33           O1  tau(  33) = (   3.3003553   2.9806904  11.3444413  )
        34           O1  tau(  34) = (   0.0092240   2.9805883  10.6323155  )
        35           O1  tau(  35) = (   1.2971990   4.4717445  12.6361083  )
        36           O1  tau(  36) = (   5.2938362   4.4783115  12.6231241  )
        37           Ti1 tau(  37) = (   0.0537182   5.9220384  12.5388396  )
        38           Ti1 tau(  38) = (   3.3696634   4.4695314  12.5002334  )
        39           O1  tau(  39) = (   0.0023790   2.9538485  14.6690360  )
        40           O1  tau(  40) = (   3.3142834   2.9899978  13.8932647  )
        41           O1  tau(  41) = (   4.5682027   4.4688565  16.0600133  )
        42           O1  tau(  42) = (   2.0418658   4.4415600  16.0251682  )
        43           Ti1 tau(  43) = (   3.3511655   0.0130708  15.8150828  )
        44           Ti1 tau(  44) = (   0.0311020   4.6533438  16.0685068  )
        45           O1  tau(  45) = (   3.2900926   2.9813045   4.7018136  )
        46           O1  tau(  46) = (   1.3039711   4.4726057   6.0039043  )
        47           O1  tau(  47) = (   5.2763189   4.4711207   6.0039473  )
        48           C1  tau(  48) = (   0.0453995   2.9433715  17.6444507  )
        49           H1  tau(  49) = (   0.9770157   2.9292850  18.2072415  )
        50           N1  tau(  50) = (   5.5932985   2.7872967  18.4085793  )
        51           N1  tau(  51) = (   4.6087457   2.6299947  18.9812495  )
        52           O1  tau(  52) = (   3.0556172   5.9408547  18.1262901  )
        53           H1  tau(  53) = (   3.4776725   0.7204629  18.5958315  )
        54           H1  tau(  54) = (   2.0935776   0.0631959  18.2589326  )

     number of k points=    10  Fermi-Dirac smearing, width (Ry)=  0.0073
                       cart. coord. in units 2pi/alat
        k(    1) = (   0.0000000   0.0000000   0.0000000), wk =   0.1250000
        k(    2) = (   0.0000000   0.0419351   0.0000000), wk =   0.2500000
        k(    3) = (   0.0000000  -0.0838702   0.0000000), wk =   0.1250000
        k(    4) = (   0.0379955   0.0000049   0.0000000), wk =   0.2500000
        k(    5) = (   0.0379955   0.0419400   0.0000000), wk =   0.2500000
        k(    6) = (   0.0379955  -0.0838652   0.0000000), wk =   0.2500000
        k(    7) = (   0.0379955  -0.0419301   0.0000000), wk =   0.2500000
        k(    8) = (  -0.0759910  -0.0000099   0.0000000), wk =   0.1250000
        k(    9) = (  -0.0759910   0.0419252   0.0000000), wk =   0.2500000
        k(   10) = (  -0.0759910  -0.0838800   0.0000000), wk =   0.1250000

     Initial potential from superposition of free atoms

     starting charge  384.99916, renormalised to  401.00000

     negative rho (up, down):  1.774E-02 0.000E+00

     %%%%%%%%%%%%%%%%%%%%%%%%%%%%%%%%%%%%%%%%%%%%%%%%%%%%%%%%%%%%%%%%%%%%%%%%
     %                                                                      %
     % You are using vdW-DF, which was implemented by the Thonhauser group. %
     % Please cite the following two papers that made this development      %
     % possible and the two reviews that describe the various versions:     %
     %                                                                      %
     %   T. Thonhauser et al., PRL 115, 136402 (2015).                      %
     %   T. Thonhauser et al., PRB 76, 125112 (2007).                       %
     %   K. Berland et al., Rep. Prog. Phys. 78, 066501 (2015).             %
     %   D.C. Langreth et al., J. Phys.: Condens. Matter 21, 084203 (2009). %
     %                                                                      %
     %                                                                      %
     % If you are calculating the stress with vdW-DF, please also cite:     %
     %                                                                      %
     %   R. Sabatini et al., J. Phys.: Condens. Matter 24, 424209 (2012).   %
     %                                                                      %
     %%%%%%%%%%%%%%%%%%%%%%%%%%%%%%%%%%%%%%%%%%%%%%%%%%%%%%%%%%%%%%%%%%%%%%%%

     Adding external electric field

     Computed dipole along edir(3) :
        Dipole              -11.6023 Ry au,        -29.4901 Debye
        Dipole field         -0.0219 Ry au,

        Potential amp.        2.0296 Ry
        Total length         46.3494 bohr

     Starting wfcs are  303 atomic wfcs
  @ DRIVER MODE: Message from server: STATUS
  @ DRIVER MODE: Message from server: POSDATA
  @ DRIVER MODE: Reading and sharing cell
  @ DRIVER MODE: Reading and sharing positions
  @ DRIVER MODE: Received positions

     Self-consistent Calculation

     iteration #  1     ecut=    29.40 Ry     beta= 0.05
     Davidson diagonalization with overlap
     c_bands:  3 eigenvalues not converged
     c_bands:  2 eigenvalues not converged
     c_bands:  3 eigenvalues not converged
     c_bands:  3 eigenvalues not converged
     c_bands:  5 eigenvalues not converged
     c_bands:  2 eigenvalues not converged
     c_bands:  3 eigenvalues not converged
     c_bands:  1 eigenvalues not converged
     c_bands:  5 eigenvalues not converged
     ethr =  1.00E-05,  avg # of iterations = 23.5

[...]

     total energy              =   -2415.46648063 Ry
     estimated scf accuracy    <    6267.03711977 Ry

     iteration #  2     ecut=    29.40 Ry     beta= 0.05
     Davidson diagonalization with overlap
     ethr =  1.00E-02,  avg # of iterations = 30.6

[...]

     iteration # 57     ecut=    29.40 Ry     beta= 0.05
     Davidson diagonalization with overlap
     c_bands:  1 eigenvalues not converged
     c_bands:  1 eigenvalues not converged
     c_bands:  1 eigenvalues not converged
     c_bands:  1 eigenvalues not converged
     ethr =  1.28E-06,  avg # of iterations = 13.7

[...]

     total energy              =   -2971.50205688 Ry
     estimated scf accuracy    <       0.00000018 Ry

     iteration # 78     ecut=    29.40 Ry     beta= 0.05
     Davidson diagonalization with overlap
     ethr =  4.52E-11,  avg # of iterations =  8.2

     negative rho (up, down):  1.756E-02 0.000E+00

     Adding external electric field

     Computed dipole along edir(3) :
        Dipole                0.5705 Ry au,          1.4500 Debye
        Dipole field          0.0011 Ry au,

        Potential amp.       -0.0998 Ry
        Total length         46.3494 bohr

     End of self-consistent calculation

          k = 0.0000 0.0000 0.0000 ( 18029 PWs)   bands (ev):

   -55.8847 -55.8506 -55.8504 -55.8449 -55.8139 -55.7281 -55.6987 -55.6907
   -55.6650 -55.6646 -55.6551 -55.6311 -55.4179 -55.2263 -54.8663 -54.8322
   -32.3931 -32.3681 -32.2506 -32.2233 -32.1975 -32.1771 -32.1548 -32.1484
   -32.1284 -32.0762 -32.0710 -32.0688 -32.0370 -32.0307 -32.0256 -31.9999
   -31.9899 -31.9823 -31.9755 -31.9477 -31.9419 -31.9246 -31.9037 -31.8923
   -31.8895 -31.8779 -31.8774 -31.8633 -31.8572 -31.8520 -31.8407 -31.8379
   -31.8331 -31.8286 -31.8181 -31.8062 -31.7769 -31.6663 -31.6330 -31.4862
   -31.4709 -31.4394 -31.2734 -31.1848 -31.1624 -31.0902 -31.0037 -30.8926
   -20.4131 -18.7830 -16.5874 -16.3571 -16.1330 -16.0422 -15.9974 -15.7871
   -15.6780 -15.6223 -15.4987 -15.4362 -15.4265 -15.4192 -15.3979 -15.3880
   -15.3315 -15.3214 -15.3087 -15.3032 -15.2754 -15.2388 -15.2227 -15.2214
   -15.1501 -15.0465 -15.0255 -15.0028 -15.0004 -14.9423 -14.5022 -13.6006
   -13.3681 -13.2516  -6.6216  -5.8333  -4.6753  -4.4445  -3.9611  -3.8273
    -3.7916  -3.7526  -3.7195  -3.5244  -3.4809  -3.3787  -3.2293  -3.1343
    -3.0651  -3.0302  -2.9759  -2.8989  -2.8307  -2.7678  -2.7325  -2.6903
    -2.6810  -2.6452  -2.6389  -2.6207  -2.5997  -2.5010  -2.4645  -2.4170
    -2.3523  -2.2506  -2.2302  -2.1984  -2.1927  -2.1577  -2.1500  -2.1287
    -2.1115  -2.1019  -2.0265  -1.9305  -1.8811  -1.7887  -1.6763  -1.5396
    -1.5349  -1.4912  -1.3637  -1.3504  -1.3202  -1.2938  -1.2782  -1.2331
    -1.1468  -1.0905  -1.0444  -0.9808  -0.9077  -0.8185  -0.7761  -0.7248
    -0.6605  -0.6438  -0.6359  -0.6170  -0.5794  -0.4712  -0.4489  -0.3713
    -0.3693  -0.2837  -0.2526  -0.1921  -0.1617  -0.1235  -0.0848  -0.0114
     0.0091   0.0343   0.0521   0.0791   0.0879   0.1295   0.1623   0.1667
     0.3622   0.3880   0.4470   0.4567   0.5174   0.6380   0.6560   0.7707
     0.8876   1.0834   1.1565   1.2493   1.3482   1.7277   1.7735   1.7786
     3.2386   3.3364   3.3750   3.3838   3.4713   3.4830   3.6998   3.7457
     3.7534   3.8082

[...]

          k = 0.0380-0.0419 0.0000 ( 17876 PWs)   bands (ev):

[...]

          k =-0.0760-0.0000 0.0000 ( 17886 PWs)   bands (ev):

[...]

          k =-0.0760-0.0839 0.0000 ( 17948 PWs)   bands (ev):

   -55.8680 -55.8672 -55.8438 -55.8350 -55.8286 -55.7168 -55.7021 -55.6820
   -55.6808 -55.6565 -55.6499 -55.6463 -55.4166 -55.2276 -54.8493 -54.8490
   -32.2101 -32.1878 -32.1836 -32.1831 -32.1629 -32.1621 -32.1346 -32.1075
   -32.0950 -32.0677 -32.0598 -32.0549 -32.0414 -32.0110 -32.0030 -31.9963
   -31.9889 -31.9883 -31.9876 -31.9863 -31.9846 -31.9825 -31.9633 -31.9304
   -31.9182 -31.9134 -31.9055 -31.8840 -31.8833 -31.8799 -31.8727 -31.8652
   -31.8614 -31.8575 -31.8549 -31.8524 -31.7902 -31.6696 -31.6263 -31.5432
   -31.4886 -31.4625 -31.1752 -31.1750 -31.0863 -31.0860 -31.0470 -31.0469
   -20.4124 -18.7822 -16.0481 -15.9318 -15.8502 -15.8093 -15.7414 -15.7058
   -15.6582 -15.5940 -15.5637 -15.5604 -15.5057 -15.4897 -15.4490 -15.4349
   -15.4104 -15.4040 -15.3883 -15.3399 -15.3279 -15.3195 -15.3108 -15.3072
   -15.2671 -15.2323 -15.2068 -15.2024 -15.0968 -14.9664 -14.6768 -13.6093
   -13.3535 -13.3533  -6.6194  -5.8276  -4.6346  -4.4176  -3.6182  -3.3314
    -3.3209  -3.1082  -3.0505  -2.9955  -2.9874  -2.9447  -2.8220  -2.7942
    -2.7460  -2.7374  -2.6985  -2.6932  -2.6885  -2.6687  -2.6354  -2.6158
    -2.6105  -2.5596  -2.5538  -2.5469  -2.5292  -2.5188  -2.5112  -2.4866
    -2.4595  -2.4439  -2.4270  -2.3974  -2.3132  -2.2837  -2.1170  -2.0757
    -2.0277  -2.0193  -1.9884  -1.9676  -1.9556  -1.9344  -1.8909  -1.7334
    -1.6555  -1.5879  -1.5775  -1.5677  -1.4930  -1.4765  -1.3651  -1.3278
    -1.2952  -1.2604  -1.1860  -1.1084  -1.1001  -1.0782  -0.9743  -0.9668
    -0.9326  -0.8892  -0.8507  -0.8396  -0.8310  -0.7531  -0.6974  -0.6257
    -0.6195  -0.5953  -0.5822  -0.5558  -0.5308  -0.4363  -0.3698  -0.3131
    -0.2796  -0.1920  -0.1626   0.0595   0.0838   0.1917   0.2049   0.2727
     0.3141   0.4227   0.4309   0.4787   0.5018   0.5275   0.5889   0.6549
     0.6647   0.6916   0.8096   1.5196   1.5209   1.5932   1.5935   1.6931
     3.5575   3.5894   3.6220   3.6318   3.7416   3.7622   3.7823   3.7849
     3.9002   3.9207

     the Fermi energy is     3.2464 ev

!    total energy              =   -2971.50207084 Ry
     estimated scf accuracy    <       0.00000005 Ry
     smearing contrib. (-TS)   =      -0.02121618 Ry
     internal energy E=F+TS    =   -2971.48085466 Ry

     The total energy is F=E-TS. E is the sum of the following terms:
     one-electron contribution =  -24211.30773955 Ry
     hartree contribution      =   12196.28517738 Ry
     xc contribution           =    -492.38511003 Ry
     ewald contribution        =    9535.92620343 Ry
     electric field correction =       0.00061411 Ry

     convergence has been achieved in  78 iterations

     Forces acting on atoms (cartesian axes, Ry/au):

     atom    1 type  1   force =     0.00018749   -0.00029002    0.09589536
     atom    2 type  1   force =    -0.00004528   -0.00048367   -0.17570750
     atom    3 type  2   force =     0.00007181   -0.00014509   -0.02405232
     atom    4 type  2   force =     0.00005921   -0.00155874    0.05356919
     atom    5 type  2   force =    -0.01128506   -0.00085109    0.00336880
     atom    6 type  2   force =     0.01315704   -0.00018509    0.00285906
     atom    7 type  1   force =    -0.00059966    0.00052618   -0.00607297
     atom    8 type  1   force =     0.00022314    0.00882884    0.02325316
     atom    9 type  2   force =    -0.00020920    0.00013709   -0.00009013
     atom   10 type  2   force =    -0.00059781    0.00120273   -0.01587541
     atom   11 type  2   force =    -0.00019013    0.00014092   -0.00002767
     atom   12 type  2   force =    -0.00017951   -0.00007914   -0.00015815
     atom   13 type  1   force =    -0.00000964    0.00057993    0.00014123
     atom   14 type  1   force =    -0.00005619    0.00002791   -0.00000865
     atom   15 type  2   force =    -0.00023234   -0.00009264    0.00000057
     atom   16 type  2   force =    -0.00022893    0.00024215   -0.00013297
     atom   17 type  2   force =    -0.00031515   -0.00001987    0.00008239
     atom   18 type  2   force =    -0.00052964    0.00023635   -0.00006372
     atom   19 type  1   force =    -0.00002284   -0.00034909   -0.00006552
     atom   20 type  1   force =    -0.00030022   -0.00057584   -0.00007236
     atom   21 type  2   force =     0.00006329   -0.00004452    0.10326804
     atom   22 type  2   force =     0.00023125    0.00013241   -0.00033983
     atom   23 type  2   force =    -0.07141914   -0.00012049   -0.02767891
     atom   24 type  2   force =     0.07140158    0.00030484   -0.02770837
     atom   25 type  1   force =     0.00003375   -0.00023768    0.09566486
     atom   26 type  1   force =    -0.00014659   -0.00035634   -0.17586309
     atom   27 type  2   force =     0.00010297   -0.00019831   -0.02305541
     atom   28 type  2   force =     0.00012453   -0.00121830    0.05308325
     atom   29 type  2   force =    -0.01153595    0.00062333    0.00328311
     atom   30 type  2   force =     0.01327604    0.00093369    0.00278502
     atom   31 type  1   force =    -0.00047220    0.00377727   -0.01065705
     atom   32 type  1   force =     0.00007569   -0.01103279    0.02364681
     atom   33 type  2   force =     0.00011070   -0.00003379    0.00003375
     atom   34 type  2   force =     0.00007950    0.00062108   -0.02080987
     atom   35 type  2   force =    -0.00019547   -0.00023193    0.00001260
     atom   36 type  2   force =    -0.00037483    0.00001105   -0.00008200
     atom   37 type  1   force =     0.00032659   -0.00053200   -0.00010468
     atom   38 type  1   force =     0.00000859   -0.00000367   -0.00018876
     atom   39 type  2   force =    -0.00034857   -0.00000538    0.00006510
     atom   40 type  2   force =     0.00002935   -0.00015633   -0.00030932
     atom   41 type  2   force =    -0.00031977   -0.00018142   -0.00009492
     atom   42 type  2   force =     0.00001297   -0.00006352   -0.00005797
     atom   43 type  1   force =     0.00032095   -0.00043312    0.00006486
     atom   44 type  1   force =    -0.00026478   -0.00013042    0.00011359
     atom   45 type  2   force =     0.00006322   -0.00008459    0.10326019
     atom   46 type  2   force =    -0.07142901   -0.00010484   -0.02770076
     atom   47 type  2   force =     0.07142749    0.00033170   -0.02772867
     atom   48 type  3   force =    -0.00191659   -0.00012211    0.00088501
     atom   49 type  4   force =     0.00033501    0.00015736    0.00029829
     atom   50 type  5   force =    -0.01438071   -0.00193743    0.01063244
     atom   51 type  5   force =     0.01601128    0.00287950   -0.01125453
     atom   52 type  2   force =    -0.00066961   -0.00003080   -0.00036654
     atom   53 type  4   force =     0.00031455    0.00009269    0.00063975
     atom   54 type  4   force =     0.00022680    0.00010304   -0.00057840

     Total force =     0.367801     Total SCF correction =     0.000604
  @ DRIVER MODE: Message from server: STATUS
  @ DRIVER MODE: Message from server: GETFORCE
  @ DRIVER MODE: Returning v,forces,stress,ensemble

     Writing output data file ./calc.save/
  @ DRIVER MODE: Message from server: EXIT
  @ DRIVE MODE: Exiting

     General routines

     Parallel routines

   This run was terminated on:  23:27: 2  15Sep2021

   JOB DONE.