     Program PWSCF v.6.7GPU starts on 12Oct2021 at 13:20:57

     R & G space division:  proc/nbgrp/npool/nimage =       8
     Reading input from /storage/home/hcoda1/3/ntian30/research/carbon/ACS_vib/ads_slab/N2/out_0012/pw.inp
Warning: card &CELL ignored
Warning: card   CELL_DYNAMICS='IPI', ignored
Warning: card / ignored

     Current dimensions of program PWSCF are:
     Max number of different atomic species (ntypx) = 10
     Max number of k-points (npk) =  40000
     Max angular momentum in pseudopotentials (lmaxx) =  3
     Presently no symmetry can be used with electric field

     Message from routine cell_base_init:
     DEPRECATED: use true lattice parameter, not A to a.u. conversion factor

     IMPORTANT: XC functional enforced from input :
     Exchange-correlation= BEEF-VDW
                           (   1   4  43  14   2   0   0)
     Any further DFT definition will be discarded
     Please, verify this is what you really want

  @ DRIVER MODE: Connecting to
 qe_1139763_3181313.sched-torque.pace.gatech.edu1iohqtb6_scratch
  using UNIX socket
  @ DRIVER MODE: Message from server: STATUS
  @ DRIVER MODE: Message from server: INIT
  @ DRIVER MODE: Receiving replica           0          -1
  @ DRIVER MODE: Receiving encoded integer          25
  @ DRIVER MODE:  SCF:  T  FORCE:  T  STRESS:  F  VC:  F  ENSEMBLE:  F
  @ DRIVER MODE:  SCF:  T  FORCE:  T  STRESS:  F  VC:  F  ENSEMBLE:  F

     Using Slab Decomposition

     bravais-lattice index     =            0
     lattice parameter (alat)  =       1.8897  a.u.
     unit-cell volume          =    6658.9804 (a.u.)^3
     number of atoms/cell      =           49
     number of atomic types    =            3
     number of electrons       =       388.00
     number of Kohn-Sham states=          204
     kinetic-energy cutoff     =      29.3995  Ry
     charge density cutoff     =     293.9946  Ry
     scf convergence threshold =      7.3E-08
     mixing beta               =       0.0500
     number of iterations used =            8  plain     mixing
     Exchange-correlation= BEEF-VDW
                           (   1   4  43  14   2   0   0)

     celldm(1)=   1.889726  celldm(2)=   0.000000  celldm(3)=   0.000000
     celldm(4)=   0.000000  celldm(5)=   0.000000  celldm(6)=   0.000000

     crystal axes: (cart. coord. in units of alat)
               a(1) = (   6.579727   0.000000   0.000000 )
               a(2) = (  -0.000775   5.961596   0.000000 )
               a(3) = (   0.000000   0.000000  25.155947 )

     reciprocal axes: (cart. coord. in units 2 pi/alat)
               b(1) = (  0.151982  0.000020  0.000000 )
               b(2) = (  0.000000  0.167740  0.000000 )
               b(3) = (  0.000000  0.000000  0.039752 )

     PseudoPot. # 1 for Ti read from file:
     /storage/coda1/p-amedford6/0/shared/rich_project_chbe-medford/medford-share/data/pseudos_module/espresso/nninc/pbe/van/Ti.UPF
     MD5 check sum: 8e4df49b7f0d34bbd5052bf3f5ea0213
     Pseudo is Ultrasoft, Zval = 12.0
     Generated by new atomic code, or converted to UPF format
     Using radial grid of  851 points,  6 beta functions with:
                l(1) =   0
                l(2) =   0
                l(3) =   1
                l(4) =   1
                l(5) =   2
                l(6) =   2
     Q(r) pseudized with  8 coefficients,  rinner =    1.000   1.000   1.000
                                                       1.000   1.000

     PseudoPot. # 2 for O  read from file:
     /storage/coda1/p-amedford6/0/shared/rich_project_chbe-medford/medford-share/data/pseudos_module/espresso/nninc/pbe/van/O.UPF
     MD5 check sum: 78c19812648e8988a0fe644b0f25305e
     Pseudo is Ultrasoft, Zval =  6.0
     Generated by new atomic code, or converted to UPF format
     Using radial grid of  737 points,  4 beta functions with:
                l(1) =   0
                l(2) =   0
                l(3) =   1
                l(4) =   1
     Q(r) pseudized with  8 coefficients,  rinner =    0.800   0.800   0.800

     PseudoPot. # 3 for N  read from file:
     /storage/coda1/p-amedford6/0/shared/rich_project_chbe-medford/medford-share/data/pseudos_module/espresso/nninc/pbe/van/N.UPF
     MD5 check sum: 90d10febe142ad51ac9d5be1deb811c4
     Pseudo is Ultrasoft, Zval =  5.0
     Generated by new atomic code, or converted to UPF format
     Using radial grid of  729 points,  4 beta functions with:
                l(1) =   0
                l(2) =   0
                l(3) =   1
                l(4) =   1
     Q(r) pseudized with  8 coefficients,  rinner =    0.800   0.800   0.800

     atomic species   valence    mass     pseudopotential
        Ti1           12.00    47.86700     Ti( 1.00)
        O1             6.00    15.99900     O ( 1.00)
        N1             5.00    14.00700     N ( 1.00)

     No symmetry found

   Cartesian axes

     site n.     atom                  positions (alat units)
         1           Ti1 tau(   1) = (   0.0004258   2.9801865   6.0000000  )
         2           Ti1 tau(   2) = (   3.2906075   1.4906267   6.0002472  )
         3           O1  tau(   3) = (   0.0006271   0.0005054   7.9858123  )
         4           O1  tau(   4) = (   3.2906025   0.0005020   7.3038282  )
         5           O1  tau(   5) = (   4.5942328   1.4918067   9.2879030  )
         6           O1  tau(   6) = (   1.9868534   1.4903216   9.2879459  )
         7           Ti1 tau(   7) = (   3.2908115   2.9770768   9.1558106  )
         8           Ti1 tau(   8) = (   0.0014744   1.4899521   9.2574773  )
         9           O1  tau(   9) = (   3.2881910   5.9516080  11.3945402  )
        10           O1  tau(  10) = (  -0.0003163   5.9583821  10.6097302  )
        11           O1  tau(  11) = (   1.2852796   1.4845524  12.6702349  )
        12           O1  tau(  12) = (   5.2939406   1.4843235  12.6686536  )
        13           Ti1 tau(  13) = (   6.5787960   2.9666663  12.5005329  )
        14           Ti1 tau(  14) = (   3.2867911   1.4810929  12.5380613  )
        15           O1  tau(  15) = (   6.5784438   5.9555467  14.6881035  )
        16           O1  tau(  16) = (   3.2900815   5.9490801  14.0192640  )
        17           O1  tau(  17) = (   4.5550846   1.4910540  16.1905095  )
        18           O1  tau(  18) = (   2.0267255   1.4911840  16.1885357  )
        19           Ti1 tau(  19) = (   3.2920947   2.9632608  15.7783766  )
        20           Ti1 tau(  20) = (   0.0012713   1.3437142  15.9485351  )
        21           O1  tau(  21) = (   3.2904802   0.0005063   4.7018136  )
        22           O1  tau(  22) = (   0.0010154   5.9436293  17.2207844  )
        23           O1  tau(  23) = (   1.3043587   1.4918075   6.0039043  )
        24           O1  tau(  24) = (   5.2767064   1.4903225   6.0039473  )
        25           Ti1 tau(  25) = (   0.0000382   5.9609847   6.0000000  )
        26           Ti1 tau(  26) = (   3.2902200   4.4714249   6.0002472  )
        27           O1  tau(  27) = (   0.0002396   2.9813036   7.9858123  )
        28           O1  tau(  28) = (   3.2902150   2.9813002   7.3038282  )
        29           O1  tau(  29) = (   4.5938453   4.4726049   9.2879030  )
        30           O1  tau(  30) = (   1.9864658   4.4711199   9.2879459  )
        31           Ti1 tau(  31) = (   3.2904075   5.9576890   9.1543145  )
        32           Ti1 tau(  32) = (   0.0010733   4.4688904   9.2576998  )
        33           O1  tau(  33) = (   3.2885442   2.9721716  11.3880939  )
        34           O1  tau(  34) = (   0.0004144   2.9779705  10.6294865  )
        35           O1  tau(  35) = (   1.2846651   4.4573380  12.6727508  )
        36           O1  tau(  36) = (   5.2936233   4.4572296  12.6712295  )
        37           Ti1 tau(  37) = (   6.5756527   5.9477167  12.4782878  )
        38           Ti1 tau(  38) = (   3.2865705   4.4596354  12.5399379  )
        39           O1  tau(  39) = (   6.5788522   2.9667014  14.9890502  )
        40           O1  tau(  40) = (   3.2903707   2.9673551  13.9858356  )
        41           O1  tau(  41) = (   4.5543970   4.4428783  16.1860255  )
        42           O1  tau(  42) = (   2.0267162   4.4429101  16.1842223  )
        43           Ti1 tau(  43) = (   3.2900514   5.9435888  15.8195923  )
        44           Ti1 tau(  44) = (   0.0007397   4.6011056  15.9424949  )
        45           O1  tau(  45) = (   3.2900926   2.9813045   4.7018136  )
        46           O1  tau(  46) = (   1.3039711   4.4726057   6.0039043  )
        47           O1  tau(  47) = (   5.2763189   4.4711207   6.0039473  )
        48           N1  tau(  48) = (   0.1199037   2.9187272  19.5607373  )
        49           N1  tau(  49) = (   0.0588536   2.9354595  18.4691164  )

     number of k points=    10  Fermi-Dirac smearing, width (Ry)=  0.0073
                       cart. coord. in units 2pi/alat
        k(    1) = (   0.0000000   0.0000000   0.0000000), wk =   0.1250000
        k(    2) = (   0.0000000   0.0419351   0.0000000), wk =   0.2500000
        k(    3) = (   0.0000000  -0.0838702   0.0000000), wk =   0.1250000
        k(    4) = (   0.0379955   0.0000049   0.0000000), wk =   0.2500000
        k(    5) = (   0.0379955   0.0419400   0.0000000), wk =   0.2500000
        k(    6) = (   0.0379955  -0.0838652   0.0000000), wk =   0.2500000
        k(    7) = (   0.0379955  -0.0419301   0.0000000), wk =   0.2500000
        k(    8) = (  -0.0759910  -0.0000099   0.0000000), wk =   0.1250000
        k(    9) = (  -0.0759910   0.0419252   0.0000000), wk =   0.2500000
        k(   10) = (  -0.0759910  -0.0838800   0.0000000), wk =   0.1250000

     Initial potential from superposition of free atoms

     starting charge  371.99923, renormalised to  388.00000

     negative rho (up, down):  1.868E-02 0.000E+00

     %%%%%%%%%%%%%%%%%%%%%%%%%%%%%%%%%%%%%%%%%%%%%%%%%%%%%%%%%%%%%%%%%%%%%%%%
     %                                                                      %
     % You are using vdW-DF, which was implemented by the Thonhauser group. %
     % Please cite the following two papers that made this development      %
     % possible and the two reviews that describe the various versions:     %
     %                                                                      %
     %   T. Thonhauser et al., PRL 115, 136402 (2015).                      %
     %   T. Thonhauser et al., PRB 76, 125112 (2007).                       %
     %   K. Berland et al., Rep. Prog. Phys. 78, 066501 (2015).             %
     %   D.C. Langreth et al., J. Phys.: Condens. Matter 21, 084203 (2009). %
     %                                                                      %
     %                                                                      %
     % If you are calculating the stress with vdW-DF, please also cite:     %
     %                                                                      %
     %   R. Sabatini et al., J. Phys.: Condens. Matter 24, 424209 (2012).   %
     %                                                                      %
     %%%%%%%%%%%%%%%%%%%%%%%%%%%%%%%%%%%%%%%%%%%%%%%%%%%%%%%%%%%%%%%%%%%%%%%%

     Adding external electric field

     Computed dipole along edir(3) :
        Dipole               -5.4571 Ry au,        -13.8707 Debye
        Dipole field         -0.0103 Ry au,

        Potential amp.        0.9546 Ry
        Total length         46.3494 bohr

     Starting wfcs are  292 atomic wfcs
  @ DRIVER MODE: Message from server: STATUS
  @ DRIVER MODE: Message from server: POSDATA
  @ DRIVER MODE: Reading and sharing cell
  @ DRIVER MODE: Reading and sharing positions
  @ DRIVER MODE: Received positions

     Self-consistent Calculation

     iteration #  1     ecut=    29.40 Ry     beta= 0.05
     Davidson diagonalization with overlap
     c_bands:  4 eigenvalues not converged
     c_bands:  2 eigenvalues not converged
     c_bands:  2 eigenvalues not converged
     c_bands:  1 eigenvalues not converged
     c_bands:  3 eigenvalues not converged
     c_bands:  2 eigenvalues not converged
     c_bands:  4 eigenvalues not converged
     c_bands:  1 eigenvalues not converged
     ethr =  1.00E-05,  avg # of iterations = 21.4

[...]

     total energy              =   -2822.39117407 Ry
     estimated scf accuracy    <    1129.33877586 Ry

     iteration #  2     ecut=    29.40 Ry     beta= 0.05
     Davidson diagonalization with overlap
     ethr =  1.00E-02,  avg # of iterations = 16.8

[...]

     iteration # 79     ecut=    29.40 Ry     beta= 0.05
     Davidson diagonalization with overlap
     c_bands:  2 eigenvalues not converged
     c_bands:  1 eigenvalues not converged
     c_bands:  1 eigenvalues not converged
     ethr =  2.01E-11,  avg # of iterations = 18.9

[...]

     total energy              =   -2924.04832463 Ry
     estimated scf accuracy    <       0.00000017 Ry

     iteration # 80     ecut=    29.40 Ry     beta= 0.05
     Davidson diagonalization with overlap
     ethr =  2.01E-11,  avg # of iterations = 11.5

     negative rho (up, down):  1.842E-02 0.000E+00

     Adding external electric field

     Computed dipole along edir(3) :
        Dipole                0.7023 Ry au,          1.7850 Debye
        Dipole field          0.0013 Ry au,

        Potential amp.       -0.1229 Ry
        Total length         46.3494 bohr

     End of self-consistent calculation

          k = 0.0000 0.0000 0.0000 ( 18029 PWs)   bands (ev):

   -55.9019 -55.8660 -55.8560 -55.8218 -55.7851 -55.7746 -55.7400 -55.7397
   -55.7308 -55.7058 -55.7036 -55.6824 -55.6690 -55.6485 -54.9666 -54.9325
   -32.4659 -32.4154 -32.3572 -32.2601 -32.2128 -32.2098 -32.2076 -32.1955
   -32.1462 -32.1348 -32.1089 -32.1027 -32.1010 -32.0741 -32.0707 -32.0520
   -32.0380 -32.0373 -32.0308 -32.0166 -32.0079 -32.0072 -32.0014 -31.9995
   -31.9776 -31.9712 -31.9537 -31.9116 -31.9052 -31.8995 -31.8914 -31.8861
   -31.8785 -31.8778 -31.8748 -31.8688 -31.8601 -31.8373 -31.8262 -31.8151
   -31.7971 -31.7467 -31.3794 -31.2750 -31.2537 -31.1955 -31.1091 -30.9982
   -21.9871 -16.7333 -16.5004 -16.3629 -16.2350 -16.1284 -16.0197 -15.9205
   -15.8537 -15.7820 -15.6289 -15.5963 -15.5658 -15.5307 -15.5096 -15.5050
   -15.4955 -15.4588 -15.4371 -15.4128 -15.4113 -15.3947 -15.3809 -15.3481
   -15.2945 -15.2140 -15.1343 -15.0641 -15.0058 -14.6794 -13.4675 -13.3478
    -7.1935  -5.0527  -5.0473  -4.0697  -4.0239  -3.9153  -3.8376  -3.8243
    -3.7338  -3.6681  -3.4637  -3.3894  -3.3505  -3.2001  -3.1570  -3.1002
    -3.0499  -2.9618  -2.8973  -2.8896  -2.8000  -2.7774  -2.7756  -2.7652
    -2.6762  -2.6641  -2.6292  -2.6203  -2.5944  -2.4983  -2.3745  -2.3391
    -2.2839  -2.2829  -2.2615  -2.2470  -2.2220  -2.1828  -2.1595  -2.1503
    -2.0995  -2.0880  -1.9459  -1.8021  -1.7676  -1.6911  -1.6071  -1.5127
    -1.4630  -1.4229  -1.3640  -1.3573  -1.3104  -1.2841  -1.2468  -1.1627
    -1.0737  -1.0318  -0.9366  -0.9196  -0.8492  -0.8116  -0.7572  -0.6971
    -0.6950  -0.6552  -0.5607  -0.5256  -0.4080  -0.3991  -0.3844  -0.3645
    -0.3025  -0.2476  -0.1419  -0.1139  -0.1123  -0.1018   0.0053   0.0339
     0.0357   0.0488   0.0604   0.1235   0.1912   0.2328   0.2754   0.4224
     0.6473   0.6488   0.7090   0.9437   1.0213   1.0594   1.2166   1.6456
     1.6996   3.1934   3.2601   3.2909   3.3238   3.3579   3.4005   3.6894
     3.7052   3.7317   3.7465   3.7684

[...]

          k = 0.0380-0.0419 0.0000 ( 17876 PWs)   bands (ev):

[...]

          k =-0.0760-0.0000 0.0000 ( 17886 PWs)   bands (ev):

[...]

          k =-0.0760-0.0839 0.0000 ( 17948 PWs)   bands (ev):

   -55.8840 -55.8836 -55.8396 -55.8381 -55.7812 -55.7603 -55.7539 -55.7244
   -55.7240 -55.7215 -55.7072 -55.6755 -55.6656 -55.6654 -54.9495 -54.9494
   -32.3406 -32.2700 -32.2691 -32.1759 -32.1727 -32.1711 -32.1557 -32.1325
   -32.1303 -32.1022 -32.1006 -32.0983 -32.0912 -32.0489 -32.0430 -32.0415
   -32.0387 -32.0372 -32.0294 -32.0222 -32.0218 -32.0118 -31.9996 -31.9866
   -31.9818 -31.9816 -31.9793 -31.9775 -31.9577 -31.9566 -31.9538 -31.9461
   -31.9199 -31.9183 -31.9050 -31.8944 -31.8941 -31.8894 -31.8770 -31.8520
   -31.8506 -31.8476 -31.2662 -31.2662 -31.1921 -31.1919 -31.1523 -31.1523
   -21.9869 -16.4120 -16.1033 -16.0631 -15.9485 -15.9434 -15.8624 -15.8469
   -15.7410 -15.6955 -15.6856 -15.6844 -15.6244 -15.6213 -15.6015 -15.5908
   -15.5162 -15.5050 -15.4810 -15.4776 -15.4203 -15.4161 -15.4146 -15.4104
   -15.3728 -15.3723 -15.3366 -15.3334 -15.2166 -15.0505 -13.4487 -13.4486
    -7.1978  -5.0493  -5.0491  -3.9927  -3.4412  -3.3758  -3.3215  -3.1703
    -3.0938  -3.0821  -3.0362  -3.0072  -2.9332  -2.8979  -2.8976  -2.8149
    -2.8053  -2.8005  -2.7988  -2.7321  -2.7178  -2.6877  -2.6725  -2.6211
    -2.6196  -2.5970  -2.5933  -2.5780  -2.5690  -2.5504  -2.5441  -2.5145
    -2.4851  -2.4312  -2.4243  -2.2825  -2.2723  -2.2169  -2.1411  -2.1381
    -2.0563  -2.0414  -2.0054  -1.9736  -1.9095  -1.8943  -1.7253  -1.7031
    -1.6995  -1.6396  -1.5537  -1.5286  -1.4821  -1.4618  -1.4100  -1.3574
    -1.2525  -1.2263  -1.2058  -1.0993  -1.0913  -1.0273  -0.9410  -0.9001
    -0.8978  -0.8930  -0.8705  -0.8496  -0.8477  -0.7459  -0.6949  -0.6474
    -0.6364  -0.6243  -0.4242  -0.3673  -0.3403  -0.2333  -0.1918   0.0054
     0.0129   0.0386   0.1557   0.1562   0.1629   0.2224   0.3494   0.3546
     0.4228   0.4656   0.4939   0.5176   0.5199   1.4085   1.4095   1.5168
     1.5172   3.3540   3.4366   3.4524   3.5098   3.6391   3.6522   3.7018
     3.7400   3.7486   3.7492   3.8350

     the Fermi energy is     3.2578 ev

!    total energy              =   -2924.04832987 Ry
     estimated scf accuracy    <       0.00000002 Ry
     smearing contrib. (-TS)   =      -0.03675250 Ry
     internal energy E=F+TS    =   -2924.01157736 Ry

     The total energy is F=E-TS. E is the sum of the following terms:
     one-electron contribution =  -24115.05769995 Ry
     hartree contribution      =   12139.97038038 Ry
     xc contribution           =    -479.19997307 Ry
     ewald contribution        =    9530.27478459 Ry
     electric field correction =       0.00093068 Ry

     convergence has been achieved in  80 iterations

     Forces acting on atoms (cartesian axes, Ry/au):

     atom    1 type  1   force =     0.00005524    0.00004539    0.09029025
     atom    2 type  1   force =    -0.00002968    0.00039274   -0.18447376
     atom    3 type  2   force =     0.00007505   -0.00045967   -0.02388727
     atom    4 type  2   force =     0.00002178   -0.00009121    0.05160570
     atom    5 type  2   force =    -0.01360402   -0.00063723    0.00574027
     atom    6 type  2   force =     0.01347775   -0.00015984    0.00564598
     atom    7 type  1   force =     0.00010878   -0.00003042    0.00097161
     atom    8 type  1   force =     0.00001927    0.00011148    0.00021508
     atom    9 type  2   force =     0.00006164    0.00011849   -0.00044983
     atom   10 type  2   force =     0.00000057    0.00008113    0.00077557
     atom   11 type  2   force =    -0.00001542    0.00023443    0.00003346
     atom   12 type  2   force =     0.00000085    0.00023561    0.00011694
     atom   13 type  1   force =     0.00003200    0.00028495   -0.00061985
     atom   14 type  1   force =    -0.00005454    0.00014413   -0.00111682
     atom   15 type  2   force =     0.00008793   -0.00036923   -0.00028804
     atom   16 type  2   force =    -0.00005078    0.00022143   -0.00015870
     atom   17 type  2   force =    -0.00003974   -0.00013225    0.00023849
     atom   18 type  2   force =     0.00011825   -0.00018089    0.00029516
     atom   19 type  1   force =     0.00012850    0.00005596    0.00054643
     atom   20 type  1   force =    -0.00006174   -0.00000435    0.00162704
     atom   21 type  2   force =     0.00007189    0.00014628    0.10523839
     atom   22 type  2   force =     0.00002173    0.00006741   -0.00093745
     atom   23 type  2   force =    -0.06756501   -0.00011630   -0.02616723
     atom   24 type  2   force =     0.06749110    0.00032183   -0.02620852
     atom   25 type  1   force =     0.00006818    0.00005855    0.09056961
     atom   26 type  1   force =    -0.00007691   -0.00033814   -0.18441599
     atom   27 type  2   force =     0.00006389   -0.00049247   -0.02270469
     atom   28 type  2   force =     0.00002396   -0.00008534    0.05143586
     atom   29 type  2   force =    -0.01361389   -0.00058152    0.00567390
     atom   30 type  2   force =     0.01347957   -0.00006619    0.00558599
     atom   31 type  1   force =     0.00008385    0.00007672    0.00079689
     atom   32 type  1   force =     0.00001032   -0.00002203    0.00017022
     atom   33 type  2   force =     0.00006996   -0.00006604   -0.00004828
     atom   34 type  2   force =    -0.00000749   -0.00003873   -0.00000245
     atom   35 type  2   force =    -0.00010437   -0.00000232   -0.00001115
     atom   36 type  2   force =     0.00012191   -0.00000386    0.00005863
     atom   37 type  1   force =     0.00006641    0.00011035    0.00082869
     atom   38 type  1   force =    -0.00006327   -0.00016501   -0.00128015
     atom   39 type  2   force =     0.00009891    0.00029965    0.00010000
     atom   40 type  2   force =     0.00004649    0.00000621    0.00018761
     atom   41 type  2   force =     0.00022195    0.00001680    0.00026111
     atom   42 type  2   force =    -0.00015102   -0.00001683    0.00032665
     atom   43 type  1   force =     0.00003431    0.00047959    0.00073883
     atom   44 type  1   force =    -0.00008740   -0.00006651    0.00144248
     atom   45 type  2   force =     0.00006682    0.00013933    0.10519060
     atom   46 type  2   force =    -0.06757432   -0.00019221   -0.02616630
     atom   47 type  2   force =     0.06749756    0.00023772   -0.02620941
     atom   48 type  3   force =     0.00322342   -0.00046702    0.06074903
     atom   49 type  3   force =    -0.00385023    0.00089947   -0.06231056

     Total force =     0.377350     Total SCF correction =     0.000375
  @ DRIVER MODE: Message from server: STATUS
  @ DRIVER MODE: Message from server: GETFORCE
  @ DRIVER MODE: Returning v,forces,stress,ensemble

     Writing output data file ./calc.save/
  @ DRIVER MODE: Message from server: EXIT
  @ DRIVE MODE: Exiting

     General routines

     Parallel routines

   This run was terminated on:  13:46: 2  12Oct2021

   JOB DONE.