     Program PWSCF v.6.7GPU starts on 20Jul2021 at 10:21:48

     R & G space division:  proc/nbgrp/npool/nimage =      16
     Reading input from /storage/home/hcoda1/3/ntian30/research/carbon/15Jul_vib/ads_slab/CH3NHH_a/out_0009/pw.inp
Warning: card &CELL ignored
Warning: card   CELL_DYNAMICS='IPI', ignored
Warning: card / ignored

     Current dimensions of program PWSCF are:
     Max number of different atomic species (ntypx) = 10
     Max number of k-points (npk) =  40000
     Max angular momentum in pseudopotentials (lmaxx) =  3
     Presently no symmetry can be used with electric field

     Message from routine cell_base_init:
     DEPRECATED: use true lattice parameter, not A to a.u. conversion factor

     IMPORTANT: XC functional enforced from input :
     Exchange-correlation= BEEF-VDW
                           (   1   4  43  14   2   0   0)
     Any further DFT definition will be discarded
     Please, verify this is what you really want

  @ DRIVER MODE: Connecting to
 qe_1139763_2382402.sched-torque.pace.gatech.edut90gfpay_scratch
  using UNIX socket
  @ DRIVER MODE: Message from server: STATUS
  @ DRIVER MODE: Message from server: INIT
  @ DRIVER MODE: Receiving replica           0          -1
  @ DRIVER MODE: Receiving encoded integer          25
  @ DRIVER MODE:  SCF:  T  FORCE:  T  STRESS:  F  VC:  F  ENSEMBLE:  F
  @ DRIVER MODE:  SCF:  T  FORCE:  T  STRESS:  F  VC:  F  ENSEMBLE:  F

     Using Slab Decomposition

     bravais-lattice index     =            0
     lattice parameter (alat)  =       1.8897  a.u.
     unit-cell volume          =    6658.9804 (a.u.)^3
     number of atoms/cell      =           54
     number of atomic types    =            5
     number of electrons       =       392.00
     number of Kohn-Sham states=          206
     kinetic-energy cutoff     =      29.3995  Ry
     charge density cutoff     =     293.9946  Ry
     scf convergence threshold =      7.3E-08
     mixing beta               =       0.0500
     number of iterations used =            8  plain     mixing
     Exchange-correlation= BEEF-VDW
                           (   1   4  43  14   2   0   0)

     celldm(1)=   1.889726  celldm(2)=   0.000000  celldm(3)=   0.000000
     celldm(4)=   0.000000  celldm(5)=   0.000000  celldm(6)=   0.000000

     crystal axes: (cart. coord. in units of alat)
               a(1) = (   6.579727   0.000000   0.000000 )
               a(2) = (  -0.000775   5.961596   0.000000 )
               a(3) = (   0.000000   0.000000  25.155947 )

     reciprocal axes: (cart. coord. in units 2 pi/alat)
               b(1) = (  0.151982  0.000020  0.000000 )
               b(2) = (  0.000000  0.167740  0.000000 )
               b(3) = (  0.000000  0.000000  0.039752 )

     PseudoPot. # 1 for Ti read from file:
     /storage/coda1/p-amedford6/0/shared/rich_project_chbe-medford/medford-share/data/pseudos_module/espresso/nninc/pbe/van/Ti.UPF
     MD5 check sum: 8e4df49b7f0d34bbd5052bf3f5ea0213
     Pseudo is Ultrasoft, Zval = 12.0
     Generated by new atomic code, or converted to UPF format
     Using radial grid of  851 points,  6 beta functions with:
                l(1) =   0
                l(2) =   0
                l(3) =   1
                l(4) =   1
                l(5) =   2
                l(6) =   2
     Q(r) pseudized with  8 coefficients,  rinner =    1.000   1.000   1.000
                                                       1.000   1.000

     PseudoPot. # 2 for O  read from file:
     /storage/coda1/p-amedford6/0/shared/rich_project_chbe-medford/medford-share/data/pseudos_module/espresso/nninc/pbe/van/O.UPF
     MD5 check sum: 78c19812648e8988a0fe644b0f25305e
     Pseudo is Ultrasoft, Zval =  6.0
     Generated by new atomic code, or converted to UPF format
     Using radial grid of  737 points,  4 beta functions with:
                l(1) =   0
                l(2) =   0
                l(3) =   1
                l(4) =   1
     Q(r) pseudized with  8 coefficients,  rinner =    0.800   0.800   0.800

     PseudoPot. # 3 for N  read from file:
     /storage/coda1/p-amedford6/0/shared/rich_project_chbe-medford/medford-share/data/pseudos_module/espresso/nninc/pbe/van/N.UPF
     MD5 check sum: 90d10febe142ad51ac9d5be1deb811c4
     Pseudo is Ultrasoft, Zval =  5.0
     Generated by new atomic code, or converted to UPF format
     Using radial grid of  729 points,  4 beta functions with:
                l(1) =   0
                l(2) =   0
                l(3) =   1
                l(4) =   1
     Q(r) pseudized with  8 coefficients,  rinner =    0.800   0.800   0.800

     PseudoPot. # 4 for C  read from file:
     /storage/coda1/p-amedford6/0/shared/rich_project_chbe-medford/medford-share/data/pseudos_module/espresso/nninc/pbe/van/C.UPF
     MD5 check sum: 1a69bf6b8db32088f5b2163dbdb77a27
     Pseudo is Ultrasoft, Zval =  4.0
     Generated by new atomic code, or converted to UPF format
     Using radial grid of  721 points,  4 beta functions with:
                l(1) =   0
                l(2) =   0
                l(3) =   1
                l(4) =   1
     Q(r) pseudized with  8 coefficients,  rinner =    0.800   0.800   0.800

     PseudoPot. # 5 for H  read from file:
     /storage/coda1/p-amedford6/0/shared/rich_project_chbe-medford/medford-share/data/pseudos_module/espresso/nninc/pbe/van/H.UPF
     MD5 check sum: b5ee9d7bfd3a09ee7748110bda690ff7
     Pseudo is Ultrasoft, Zval =  1.0
     Generated by new atomic code, or converted to UPF format
     Using radial grid of  615 points,  1 beta functions with:
                l(1) =   0
     Q(r) pseudized with  8 coefficients,  rinner =    0.800

     atomic species   valence    mass     pseudopotential
        Ti1           12.00    47.86700     Ti( 1.00)
        O1             6.00    15.99900     O ( 1.00)
        N1             5.00    14.00700     N ( 1.00)
        C1             4.00    12.01100     C ( 1.00)
        H1             1.00     1.00800     H ( 1.00)

     Starting magnetic structure
     atomic species   magnetization
        Ti1          0.000
        O1           0.000
        N1           0.000
        C1           0.025
        H1           0.000

     No symmetry found

   Cartesian axes

     site n.     atom                  positions (alat units)
         1           Ti1 tau(   1) = (   0.0004258   2.9801865   6.0000000  )
         2           Ti1 tau(   2) = (   3.2906075   1.4906267   6.0002472  )
         3           O1  tau(   3) = (   0.0006271   0.0005054   7.9858123  )
         4           O1  tau(   4) = (   3.2906025   0.0005020   7.3038282  )
         5           O1  tau(   5) = (   4.5942328   1.4918067   9.2879030  )
         6           O1  tau(   6) = (   1.9868534   1.4903216   9.2879459  )
         7           Ti1 tau(   7) = (   3.2907910   2.8959150   9.1758416  )
         8           Ti1 tau(   8) = (   0.0015273   1.4827037   9.2680791  )
         9           O1  tau(   9) = (   3.2893523   5.9576907  11.3759447  )
        10           O1  tau(  10) = (   0.0116148   5.9584955  10.6183126  )
        11           O1  tau(  11) = (   1.2892553   1.4862333  12.6941169  )
        12           O1  tau(  12) = (   5.2958346   1.4833122  12.6807028  )
        13           Ti1 tau(  13) = (   0.0095698   2.9692159  12.5083673  )
        14           Ti1 tau(  14) = (   3.3108451   1.4743585  12.5306019  )
        15           O1  tau(  15) = (   6.5736105   5.8801748  14.6991865  )
        16           O1  tau(  16) = (   3.2979610   5.9450902  14.0010558  )
        17           O1  tau(  17) = (   4.5273680   1.5185660  16.1654609  )
        18           O1  tau(  18) = (   2.0122787   1.5163527  16.1384539  )
        19           Ti1 tau(  19) = (   3.2802752   2.9921964  15.7561315  )
        20           Ti1 tau(  20) = (   0.0093588   1.3049760  15.8672178  )
        21           O1  tau(  21) = (   3.2904802   0.0005063   4.7018136  )
        22           O1  tau(  22) = (   6.5538635   0.1342075  17.2452287  )
        23           O1  tau(  23) = (   1.3043587   1.4918075   6.0039043  )
        24           O1  tau(  24) = (   5.2767064   1.4903225   6.0039473  )
        25           Ti1 tau(  25) = (   0.0000382   5.9609847   6.0000000  )
        26           Ti1 tau(  26) = (   3.2902200   4.4714249   6.0002472  )
        27           O1  tau(  27) = (   0.0002396   2.9813036   7.9858123  )
        28           O1  tau(  28) = (   3.2902150   2.9813002   7.3038282  )
        29           O1  tau(  29) = (   4.5938453   4.4726049   9.2879030  )
        30           O1  tau(  30) = (   1.9864658   4.4711199   9.2879459  )
        31           Ti1 tau(  31) = (   3.2891106   5.8743827   9.1763621  )
        32           Ti1 tau(  32) = (   0.0006254   4.4649316   9.2693709  )
        33           O1  tau(  33) = (   3.2933707   2.9638296  11.3700534  )
        34           O1  tau(  34) = (   0.0092240   2.9805883  10.6323155  )
        35           O1  tau(  35) = (   1.2923283   4.4540072  12.6594629  )
        36           O1  tau(  36) = (   5.2938616   4.4568750  12.6477176  )
        37           Ti1 tau(  37) = (   0.0202681   5.9396231  12.5027719  )
        38           Ti1 tau(  38) = (   3.3116628   4.4527548  12.5215617  )
        39           O1  tau(  39) = (   6.5466975   3.0260875  14.9671898  )
        40           O1  tau(  40) = (   3.2966604   2.9917109  13.9679302  )
        41           O1  tau(  41) = (   4.5116687   4.4737236  16.2360857  )
        42           O1  tau(  42) = (   2.0028912   4.4646324  16.2202640  )
        43           Ti1 tau(  43) = (   3.2937213   0.0113368  15.7972781  )
        44           Ti1 tau(  44) = (   0.0208052   4.5175143  16.0574476  )
        45           O1  tau(  45) = (   3.2900926   2.9813045   4.7018136  )
        46           O1  tau(  46) = (   1.3039711   4.4726057   6.0039043  )
        47           O1  tau(  47) = (   5.2763189   4.4711207   6.0039473  )
        48           N1  tau(  48) = (   6.3337458   3.3624127  18.1270434  )
        49           C1  tau(  49) = (   0.8795605   3.2539204  19.0799812  )
        50           H1  tau(  50) = (   1.4196110   4.2071110  19.0760701  )
        51           H1  tau(  51) = (   0.5395241   3.0459488  20.0957609  )
        52           H1  tau(  52) = (   1.5475163   2.4696122  18.7548312  )
        53           H1  tau(  53) = (   5.6940081   4.0973896  18.4182617  )
        54           H1  tau(  54) = (   5.7906660   2.4998151  18.1411682  )

     number of k points=    10  Fermi-Dirac smearing, width (Ry)=  0.0073
                       cart. coord. in units 2pi/alat
        k(    1) = (   0.0000000   0.0000000   0.0000000), wk =   0.0625000
        k(    2) = (   0.0000000   0.0419351   0.0000000), wk =   0.1250000
        k(    3) = (   0.0000000  -0.0838702   0.0000000), wk =   0.0625000
        k(    4) = (   0.0379955   0.0000049   0.0000000), wk =   0.1250000
        k(    5) = (   0.0379955   0.0419400   0.0000000), wk =   0.1250000
        k(    6) = (   0.0379955  -0.0838652   0.0000000), wk =   0.1250000
        k(    7) = (   0.0379955  -0.0419301   0.0000000), wk =   0.1250000
[...]
     %                                                                      %
     %   T. Thonhauser et al., PRL 115, 136402 (2015).                      %
     %   T. Thonhauser et al., PRB 76, 125112 (2007).                       %
     %   K. Berland et al., Rep. Prog. Phys. 78, 066501 (2015).             %
     %   D.C. Langreth et al., J. Phys.: Condens. Matter 21, 084203 (2009). %
     %                                                                      %
     %                                                                      %
     % If you are calculating the stress with vdW-DF, please also cite:     %
     %                                                                      %
     %   R. Sabatini et al., J. Phys.: Condens. Matter 24, 424209 (2012).   %
     %                                                                      %
     %%%%%%%%%%%%%%%%%%%%%%%%%%%%%%%%%%%%%%%%%%%%%%%%%%%%%%%%%%%%%%%%%%%%%%%%

     Adding external electric field

     Computed dipole along edir(3) :
        Dipole               -7.5471 Ry au,        -19.1827 Debye
        Dipole field         -0.0142 Ry au,

        Potential amp.        1.3202 Ry
        Total length         46.3494 bohr

[...]

     Starting wfcs are  297 atomic wfcs
  @ DRIVER MODE: Message from server: STATUS
  @ DRIVER MODE: Message from server: POSDATA
  @ DRIVER MODE: Reading and sharing cell
  @ DRIVER MODE: Reading and sharing positions
  @ DRIVER MODE: Received positions

     Self-consistent Calculation

     iteration #  1     ecut=    29.40 Ry     beta= 0.05
     Davidson diagonalization with overlap
     c_bands:  1 eigenvalues not converged
     c_bands:  2 eigenvalues not converged
     c_bands:  1 eigenvalues not converged
     c_bands:  1 eigenvalues not converged
     c_bands:  1 eigenvalues not converged
     c_bands:  1 eigenvalues not converged
     c_bands:  1 eigenvalues not converged
     c_bands:  2 eigenvalues not converged
     c_bands:  1 eigenvalues not converged
     c_bands:  1 eigenvalues not converged
     c_bands:  1 eigenvalues not converged
     c_bands:  1 eigenvalues not converged
     ethr =  1.00E-05,  avg # of iterations = 19.6

[...]

     total energy              =   -2679.38578480 Ry
     estimated scf accuracy    <    2680.76787557 Ry

     total magnetization       =     0.00 Bohr mag/cell
     absolute magnetization    =     0.01 Bohr mag/cell

[...]

     iteration #  3     ecut=    29.40 Ry     beta= 0.05
     Davidson diagonalization with overlap
     ethr =  1.00E-02,  avg # of iterations = 14.9

[...]

     iteration #276     ecut=    29.40 Ry     beta= 0.05
     Davidson diagonalization with overlap
     ethr =  2.27E-11,  avg # of iterations =  4.2

[...]

     total energy              =   -2921.63309341 Ry
     estimated scf accuracy    <       0.00000008 Ry

[...]

     iteration #287     ecut=    29.40 Ry     beta= 0.05
     Davidson diagonalization with overlap
     c_bands:  5 eigenvalues not converged
     c_bands:  2 eigenvalues not converged
     c_bands:  3 eigenvalues not converged
     c_bands:  2 eigenvalues not converged
     c_bands:  3 eigenvalues not converged
     c_bands:  3 eigenvalues not converged
     c_bands:  1 eigenvalues not converged
     c_bands:  1 eigenvalues not converged
     c_bands:  3 eigenvalues not converged
     c_bands:  2 eigenvalues not converged
     c_bands:  3 eigenvalues not converged
     c_bands:  2 eigenvalues not converged
     c_bands:  3 eigenvalues not converged
     c_bands:  3 eigenvalues not converged
     c_bands:  2 eigenvalues not converged
     c_bands:  2 eigenvalues not converged
     c_bands:  4 eigenvalues not converged
     ethr =  1.94E-11,  avg # of iterations = 22.7

     negative rho (up, down):  8.575E-03 8.577E-03

[...]

     Adding external electric field

     Computed dipole along edir(3) :
        Dipole                1.2982 Ry au,          3.2998 Debye
        Dipole field          0.0024 Ry au,

        Potential amp.       -0.2271 Ry
        Total length         46.3494 bohr

     Magnetic moment per site  (integrated on atomic sphere of radius R)
     atom   1 (R=0.738)  charge=  8.0426  magn=  0.0138
     atom   2 (R=0.738)  charge=  8.0243  magn=  0.0005
     atom   3 (R=0.738)  charge=  5.0120  magn= -0.0014
     atom   4 (R=0.738)  charge=  5.0490  magn= -0.0001
     atom   5 (R=0.738)  charge=  5.0182  magn= -0.0002
     atom   6 (R=0.738)  charge=  5.0186  magn= -0.0002
     atom   7 (R=0.738)  charge=  8.0244  magn=  0.0008
     atom   8 (R=0.738)  charge=  8.0256  magn=  0.0086
     atom   9 (R=0.738)  charge=  5.0259  magn= -0.0001
     atom  10 (R=0.738)  charge=  5.0261  magn= -0.0005
     atom  11 (R=0.738)  charge=  5.0131  magn= -0.0002
     atom  12 (R=0.738)  charge=  5.0142  magn= -0.0002
     atom  13 (R=0.738)  charge=  8.0323  magn=  0.0020
     atom  14 (R=0.738)  charge=  8.0300  magn=  0.0002
     atom  15 (R=0.738)  charge=  5.0263  magn= -0.0001
     atom  16 (R=0.738)  charge=  5.0222  magn=  0.0002
     atom  17 (R=0.738)  charge=  4.9995  magn=  0.0002
     atom  18 (R=0.738)  charge=  5.0035  magn=  0.0002
     atom  19 (R=0.738)  charge=  8.0638  magn= -0.0037
     atom  20 (R=0.738)  charge=  8.0765  magn= -0.0006
     atom  21 (R=0.738)  charge=  4.8972  magn= -0.0003
     atom  22 (R=0.738)  charge=  4.9759  magn=  0.0002
     atom  23 (R=0.738)  charge=  5.0093  magn= -0.0015
     atom  24 (R=0.738)  charge=  5.0095  magn= -0.0015
     atom  25 (R=0.738)  charge=  8.0427  magn=  0.0138
     atom  26 (R=0.738)  charge=  8.0244  magn=  0.0005
     atom  27 (R=0.738)  charge=  5.0118  magn= -0.0014
     atom  28 (R=0.738)  charge=  5.0493  magn= -0.0001
     atom  29 (R=0.738)  charge=  5.0191  magn= -0.0002
     atom  30 (R=0.738)  charge=  5.0193  magn= -0.0002
     atom  31 (R=0.738)  charge=  8.0246  magn=  0.0008
     atom  32 (R=0.738)  charge=  8.0257  magn=  0.0087
     atom  33 (R=0.738)  charge=  5.0254  magn= -0.0001
     atom  34 (R=0.738)  charge=  5.0228  magn= -0.0005
     atom  35 (R=0.738)  charge=  5.0162  magn= -0.0002
     atom  36 (R=0.738)  charge=  5.0179  magn= -0.0002
     atom  37 (R=0.738)  charge=  8.0280  magn=  0.0019
     atom  38 (R=0.738)  charge=  8.0303  magn=  0.0002
     atom  39 (R=0.738)  charge=  5.0062  magn=  0.0001
     atom  40 (R=0.738)  charge=  5.0343  magn=  0.0002
     atom  41 (R=0.738)  charge=  4.9975  magn=  0.0003
     atom  42 (R=0.738)  charge=  5.0021  magn=  0.0003
     atom  43 (R=0.738)  charge=  8.0613  magn= -0.0038
     atom  44 (R=0.738)  charge=  8.0414  magn= -0.0013
     atom  45 (R=0.738)  charge=  4.8972  magn= -0.0003
     atom  46 (R=0.738)  charge=  5.0093  magn= -0.0015
     atom  47 (R=0.738)  charge=  5.0095  magn= -0.0015
     atom  48 (R=0.420)  charge=  1.3383  magn=  0.0000
     atom  49 (R=0.446)  charge=  0.8303  magn= -0.0000
     atom  50 (R=0.420)  charge=  0.4394  magn=  0.0000
     atom  51 (R=0.420)  charge=  0.4463  magn=  0.0000
     atom  52 (R=0.420)  charge=  0.4483  magn=  0.0000
     atom  53 (R=0.420)  charge=  0.4503  magn= -0.0000
     atom  54 (R=0.420)  charge=  0.4504  magn= -0.0000

     End of self-consistent calculation

 ------ SPIN UP ------------

          k = 0.0000 0.0000 0.0000 ( 18029 PWs)   bands (ev):

   -55.4337 -55.3972 -55.3955 -55.3614 -55.3555 -55.3134 -55.3133 -55.2789
   -55.2536 -55.2342 -55.2217 -55.2191 -55.1881 -55.1152 -54.4137 -54.3797
   -32.0022 -31.8877 -31.8808 -31.8011 -31.7483 -31.7429 -31.7385 -31.7286
   -31.6861 -31.6734 -31.6446 -31.6416 -31.6413 -31.6179 -31.6034 -31.5972
   -31.5890 -31.5780 -31.5718 -31.5528 -31.5488 -31.5341 -31.5039 -31.5024
   -31.4907 -31.4851 -31.4843 -31.4561 -31.4549 -31.4440 -31.4377 -31.4209
   -31.4153 -31.4085 -31.4052 -31.4016 -31.3674 -31.3549 -31.3503 -31.3334
   -31.3212 -31.2987 -30.8227 -30.7289 -30.7068 -30.6393 -30.5525 -30.4414
   -16.2930 -16.1618 -15.9762 -15.8298 -15.7496 -15.6313 -15.5170 -15.5004
   -15.3639 -15.2816 -15.1630 -15.1380 -15.1190 -15.0960 -15.0846 -15.0683
   -14.9772 -14.9714 -14.9576 -14.9256 -14.9236 -14.8786 -14.8711 -14.8298
   -14.8102 -14.8061 -14.6836 -14.5919 -14.5184 -14.2806 -12.9156 -12.7982
   -10.2327  -6.2791  -4.8389  -3.9671  -3.6081  -3.4540  -3.3647  -3.3378
    -3.3250  -3.1906  -3.0438  -2.8917  -2.8480  -2.8269  -2.7208  -2.6474
    -2.6376  -2.6178  -2.4628  -2.4317  -2.3886  -2.3417  -2.2977  -2.2432
    -2.2241  -2.2180  -2.2028  -2.1798  -2.1702  -2.0532  -2.0002  -1.9171
    -1.8598  -1.8370  -1.7868  -1.7654  -1.7432  -1.7227  -1.7140  -1.6689
    -1.6578  -1.6280  -1.5723  -1.4619  -1.3621  -1.3094  -1.1915  -1.0701
    -1.0301  -1.0174  -0.9789  -0.9357  -0.9191  -0.8543  -0.8102  -0.7797
    -0.7216  -0.6634  -0.6009  -0.5525  -0.4820  -0.4678  -0.4197  -0.3663
    -0.2532  -0.2152  -0.1999  -0.1742  -0.0815  -0.0452  -0.0004   0.0828
     0.0928   0.1085   0.2088   0.2222   0.2923   0.3383   0.3556   0.4486
     0.4865   0.4962   0.5017   0.5256   0.5528   0.6035   0.6411   0.6696
     0.7396   0.8650   1.0811   1.1553   1.1798   1.5063   1.5150   1.6095
     1.7930   2.1860   2.2337   3.6566   3.7336   3.7959   3.8119   3.8379
     3.8976   4.1392   4.1609   4.1643   4.1743   4.1978

[...]

          k =-0.0760-0.0000 0.0000 ( 17886 PWs)   bands (ev):

[...]

 ------ SPIN DOWN ----------

[...]

          k = 0.0380-0.0419 0.0000 ( 17876 PWs)   bands (ev):

[...]

          k =-0.0760-0.0839 0.0000 ( 17948 PWs)   bands (ev):

   -55.4181 -55.4116 -55.3564 -55.3543 -55.3537 -55.3163 -55.2948 -55.2913
   -55.2444 -55.2367 -55.2329 -55.1912 -55.1905 -55.1176 -54.3959 -54.3956
   -31.8087 -31.8069 -31.8038 -31.7205 -31.6950 -31.6861 -31.6857 -31.6439
   -31.6433 -31.6414 -31.6346 -31.6330 -31.6283 -31.5998 -31.5937 -31.5702
   -31.5694 -31.5657 -31.5644 -31.5624 -31.5585 -31.5544 -31.5173 -31.5159
   -31.5103 -31.5013 -31.5007 -31.4877 -31.4834 -31.4717 -31.4716 -31.4692
   -31.4658 -31.4494 -31.4456 -31.4339 -31.4265 -31.4237 -31.3793 -31.3716
   -31.3704 -31.3280 -30.7184 -30.7181 -30.6349 -30.6347 -30.5950 -30.5949
   -16.1306 -15.7790 -15.6871 -15.6397 -15.4664 -15.4373 -15.4206 -15.4054
   -15.2732 -15.2548 -15.2310 -15.2033 -15.1811 -15.1463 -15.1370 -15.1343
   -15.0548 -15.0406 -15.0336 -15.0177 -14.9518 -14.9419 -14.9396 -14.9323
   -14.8825 -14.8788 -14.8151 -14.7857 -14.7826 -14.5708 -12.9001 -12.9000
   -10.2360  -6.2499  -4.8361  -3.9299  -2.9565  -2.9228  -2.8930  -2.8899
    -2.6805  -2.6404  -2.6050  -2.5793  -2.4890  -2.4495  -2.4351  -2.4267
    -2.3552  -2.3386  -2.3195  -2.2753  -2.2692  -2.2556  -2.2336  -2.2037
    -2.1818  -2.1619  -2.1524  -2.1344  -2.0879  -2.0764  -2.0521  -2.0364
    -2.0339  -2.0161  -1.9875  -1.9412  -1.8145  -1.8064  -1.7395  -1.6395
    -1.6348  -1.5583  -1.5452  -1.5105  -1.4847  -1.4652  -1.4232  -1.2497
    -1.2063  -1.1794  -1.1698  -1.1135  -1.0482  -1.0250  -0.9550  -0.9391
    -0.9205  -0.8169  -0.7724  -0.7575  -0.6681  -0.6554  -0.5770  -0.5135
    -0.4678  -0.4415  -0.3973  -0.3894  -0.3871  -0.3393  -0.3317  -0.2505
    -0.2029  -0.1673  -0.1533  -0.1228   0.0735   0.0842   0.1109   0.2509
     0.2799   0.4033   0.4372   0.4894   0.5645   0.5970   0.6786   0.7141
     0.8438   0.8725   0.8739   0.9463   0.9577   1.0200   1.0296   1.9659
     1.9667   2.0539   2.0541   3.8175   3.8973   3.9273   3.9692   4.0802
     4.1555   4.1857   4.2055   4.2549   4.2576   4.3225

     the Fermi energy is     3.7284 ev

!    total energy              =   -2921.63309428 Ry
     estimated scf accuracy    <       0.00000007 Ry
     smearing contrib. (-TS)   =      -0.03706969 Ry
     internal energy E=F+TS    =   -2921.59602459 Ry

     The total energy is F=E-TS. E is the sum of the following terms:
     one-electron contribution =  -24028.57622499 Ry
     hartree contribution      =   12103.37131834 Ry
     xc contribution           =    -481.74985036 Ry
     ewald contribution        =    9485.35555177 Ry
     electric field correction =       0.00318065 Ry

     total magnetization       =     0.06 Bohr mag/cell
     absolute magnetization    =     0.11 Bohr mag/cell

     convergence has been achieved in 287 iterations

     Forces acting on atoms (cartesian axes, Ry/au):

     atom    1 type  1   force =     0.00003345   -0.00021986    0.09328835
     atom    2 type  1   force =    -0.00019132   -0.00036379   -0.17831956
     atom    3 type  2   force =     0.00002785   -0.00039696   -0.02020707
     atom    4 type  2   force =    -0.00002777   -0.00194863    0.05879635
     atom    5 type  2   force =    -0.01020421   -0.00111929    0.00777100
     atom    6 type  2   force =     0.01167723   -0.00040034    0.00693735
     atom    7 type  1   force =    -0.00048900    0.00209943   -0.01458389
     atom    8 type  1   force =     0.00024369   -0.00049817   -0.00481556
     atom    9 type  2   force =     0.00015061    0.00011762   -0.00006036
     atom   10 type  2   force =    -0.00113496    0.00137670    0.00053787
     atom   11 type  2   force =    -0.00010252    0.00015709    0.00006265
     atom   12 type  2   force =    -0.00003036    0.00036249    0.00023845
     atom   13 type  1   force =    -0.00004202   -0.00018951   -0.00018243
     atom   14 type  1   force =    -0.00015335    0.00011324    0.00028967
     atom   15 type  2   force =    -0.00020508   -0.00031482    0.00007456
     atom   16 type  2   force =    -0.00022178    0.00019580    0.00018015
     atom   17 type  2   force =     0.00009492   -0.00013433    0.00004305
     atom   18 type  2   force =    -0.00004233   -0.00017315    0.00022826
     atom   19 type  1   force =    -0.00028257    0.00032643    0.00038088
     atom   20 type  1   force =    -0.00008584   -0.00004609   -0.00029569
     atom   21 type  2   force =     0.00002976   -0.00006174    0.10393607
     atom   22 type  2   force =     0.00025376    0.00036287    0.00003058
     atom   23 type  2   force =    -0.07041886   -0.00015225   -0.02692552
     atom   24 type  2   force =     0.07025818    0.00029013   -0.02697293
     atom   25 type  1   force =    -0.00001388   -0.00014528    0.09280347
     atom   26 type  1   force =    -0.00020974   -0.00048869   -0.17833475
     atom   27 type  2   force =     0.00008668   -0.00026648   -0.01927400
     atom   28 type  2   force =     0.00004295   -0.00171644    0.05813614
     atom   29 type  2   force =    -0.01072575   -0.00111315    0.00833152
     atom   30 type  2   force =     0.01207225   -0.00083716    0.00745375
     atom   31 type  1   force =    -0.00039711    0.00594221   -0.01546361
     atom   32 type  1   force =     0.00022429   -0.00003891   -0.00518611
     atom   33 type  2   force =    -0.00007782    0.00001172    0.00008327
     atom   34 type  2   force =    -0.00101374   -0.00248454   -0.00000762
     atom   35 type  2   force =    -0.00005896    0.00023807   -0.00005970
     atom   36 type  2   force =    -0.00012371    0.00009331    0.00000437
     atom   37 type  1   force =    -0.00002436    0.00005380   -0.00021882
     atom   38 type  1   force =    -0.00007979    0.00000269    0.00010733
     atom   39 type  2   force =     0.00021594   -0.00003336    0.00012973
     atom   40 type  2   force =    -0.00030143    0.00024386   -0.00004716
     atom   41 type  2   force =     0.00023728    0.00043667    0.00014760
     atom   42 type  2   force =    -0.00005041    0.00011229    0.00031752
     atom   43 type  1   force =    -0.00031374    0.00028457    0.00007065
     atom   44 type  1   force =     0.00003147   -0.00023989    0.00009563
     atom   45 type  2   force =     0.00001994   -0.00007296    0.10391083
     atom   46 type  2   force =    -0.07039290   -0.00010164   -0.02687456
     atom   47 type  2   force =     0.07024076    0.00032544   -0.02692438
     atom   48 type  3   force =     0.00036743   -0.00483244   -0.00031609
     atom   49 type  4   force =    -0.00045124    0.02171134    0.00035381
     atom   50 type  5   force =    -0.00314524   -0.00824804    0.00026485
     atom   51 type  5   force =    -0.00041291   -0.00199637    0.00108310
     atom   52 type  5   force =     0.00446526   -0.00765483   -0.00249831
     atom   53 type  5   force =     0.00085088    0.00082722    0.00234938
     atom   54 type  5   force =    -0.00019990    0.00060413   -0.00087005

     Total force =     0.367137     Total SCF correction =     0.000166
  @ DRIVER MODE: Message from server: STATUS
  @ DRIVER MODE: Message from server: GETFORCE
  @ DRIVER MODE: Returning v,forces,stress,ensemble

     Writing output data file ./calc.save/
  @ DRIVER MODE: Message from server: EXIT
  @ DRIVE MODE: Exiting

     General routines

     Parallel routines

   This run was terminated on:  12:46: 8  20Jul2021

   JOB DONE.