     Program PWSCF v.6.7GPU starts on 23Sep2021 at  1:28:12

     R & G space division:  proc/nbgrp/npool/nimage =      10
     Reading input from /storage/home/hcoda1/3/ntian30/research/carbon/CxH_vib/H2O_calc/ads_slab/CH2NHHHO_a/out_0026/pw.inp
Warning: card &CELL ignored
Warning: card   CELL_DYNAMICS='IPI', ignored
Warning: card / ignored

     Current dimensions of program PWSCF are:
     Max number of different atomic species (ntypx) = 10
     Max number of k-points (npk) =  40000
     Max angular momentum in pseudopotentials (lmaxx) =  3
     Presently no symmetry can be used with electric field

     Message from routine cell_base_init:
     DEPRECATED: use true lattice parameter, not A to a.u. conversion factor

     IMPORTANT: XC functional enforced from input :
     Exchange-correlation= BEEF-VDW
                           (   1   4  43  14   2   0   0)
     Any further DFT definition will be discarded
     Please, verify this is what you really want

  @ DRIVER MODE: Connecting to
 qe_1139763_2937325.sched-torque.pace.gatech.edua5lf0z5f_scratch
  using UNIX socket
  @ DRIVER MODE: Message from server: STATUS
  @ DRIVER MODE: Message from server: INIT
  @ DRIVER MODE: Receiving replica           0          -1
  @ DRIVER MODE: Receiving encoded integer          25
  @ DRIVER MODE:  SCF:  T  FORCE:  T  STRESS:  F  VC:  F  ENSEMBLE:  F
  @ DRIVER MODE:  SCF:  T  FORCE:  T  STRESS:  F  VC:  F  ENSEMBLE:  F

     Using Slab Decomposition

     bravais-lattice index     =            0
     lattice parameter (alat)  =       1.8897  a.u.
     unit-cell volume          =    6658.9804 (a.u.)^3
     number of atoms/cell      =           55
     number of atomic types    =            5
     number of electrons       =       398.00
     number of Kohn-Sham states=          209
     kinetic-energy cutoff     =      29.3995  Ry
     charge density cutoff     =     293.9946  Ry
     scf convergence threshold =      7.3E-08
     mixing beta               =       0.0500
     number of iterations used =            8  plain     mixing
     Exchange-correlation= BEEF-VDW
                           (   1   4  43  14   2   0   0)

     celldm(1)=   1.889726  celldm(2)=   0.000000  celldm(3)=   0.000000
     celldm(4)=   0.000000  celldm(5)=   0.000000  celldm(6)=   0.000000

     crystal axes: (cart. coord. in units of alat)
               a(1) = (   6.579727   0.000000   0.000000 )
               a(2) = (  -0.000775   5.961596   0.000000 )
               a(3) = (   0.000000   0.000000  25.155947 )

     reciprocal axes: (cart. coord. in units 2 pi/alat)
               b(1) = (  0.151982  0.000020  0.000000 )
               b(2) = (  0.000000  0.167740  0.000000 )
               b(3) = (  0.000000  0.000000  0.039752 )

     PseudoPot. # 1 for Ti read from file:
     /storage/coda1/p-amedford6/0/shared/rich_project_chbe-medford/medford-share/data/pseudos_module/espresso/nninc/pbe/van/Ti.UPF
     MD5 check sum: 8e4df49b7f0d34bbd5052bf3f5ea0213
     Pseudo is Ultrasoft, Zval = 12.0
     Generated by new atomic code, or converted to UPF format
     Using radial grid of  851 points,  6 beta functions with:
                l(1) =   0
                l(2) =   0
                l(3) =   1
                l(4) =   1
                l(5) =   2
                l(6) =   2
     Q(r) pseudized with  8 coefficients,  rinner =    1.000   1.000   1.000
                                                       1.000   1.000

     PseudoPot. # 2 for O  read from file:
     /storage/coda1/p-amedford6/0/shared/rich_project_chbe-medford/medford-share/data/pseudos_module/espresso/nninc/pbe/van/O.UPF
     MD5 check sum: 78c19812648e8988a0fe644b0f25305e
     Pseudo is Ultrasoft, Zval =  6.0
     Generated by new atomic code, or converted to UPF format
     Using radial grid of  737 points,  4 beta functions with:
                l(1) =   0
                l(2) =   0
                l(3) =   1
                l(4) =   1
     Q(r) pseudized with  8 coefficients,  rinner =    0.800   0.800   0.800

     PseudoPot. # 3 for N  read from file:
     /storage/coda1/p-amedford6/0/shared/rich_project_chbe-medford/medford-share/data/pseudos_module/espresso/nninc/pbe/van/N.UPF
     MD5 check sum: 90d10febe142ad51ac9d5be1deb811c4
     Pseudo is Ultrasoft, Zval =  5.0
     Generated by new atomic code, or converted to UPF format
     Using radial grid of  729 points,  4 beta functions with:
                l(1) =   0
                l(2) =   0
                l(3) =   1
                l(4) =   1
     Q(r) pseudized with  8 coefficients,  rinner =    0.800   0.800   0.800

     PseudoPot. # 4 for C  read from file:
     /storage/coda1/p-amedford6/0/shared/rich_project_chbe-medford/medford-share/data/pseudos_module/espresso/nninc/pbe/van/C.UPF
     MD5 check sum: 1a69bf6b8db32088f5b2163dbdb77a27
     Pseudo is Ultrasoft, Zval =  4.0
     Generated by new atomic code, or converted to UPF format
     Using radial grid of  721 points,  4 beta functions with:
                l(1) =   0
                l(2) =   0
                l(3) =   1
                l(4) =   1
     Q(r) pseudized with  8 coefficients,  rinner =    0.800   0.800   0.800

     PseudoPot. # 5 for H  read from file:
     /storage/coda1/p-amedford6/0/shared/rich_project_chbe-medford/medford-share/data/pseudos_module/espresso/nninc/pbe/van/H.UPF
     MD5 check sum: b5ee9d7bfd3a09ee7748110bda690ff7
     Pseudo is Ultrasoft, Zval =  1.0
     Generated by new atomic code, or converted to UPF format
     Using radial grid of  615 points,  1 beta functions with:
                l(1) =   0
     Q(r) pseudized with  8 coefficients,  rinner =    0.800

     atomic species   valence    mass     pseudopotential
        Ti1           12.00    47.86700     Ti( 1.00)
        O1             6.00    15.99900     O ( 1.00)
        N1             5.00    14.00700     N ( 1.00)
        C1             4.00    12.01100     C ( 1.00)
        H1             1.00     1.00800     H ( 1.00)

     No symmetry found

   Cartesian axes

     site n.     atom                  positions (alat units)
         1           Ti1 tau(   1) = (   0.0004258   2.9801865   6.0000000  )
         2           Ti1 tau(   2) = (   3.2906075   1.4906267   6.0002472  )
         3           O1  tau(   3) = (   0.0006271   0.0005054   7.9858123  )
         4           O1  tau(   4) = (   3.2906025   0.0005020   7.3038282  )
         5           O1  tau(   5) = (   4.5942328   1.4918067   9.2879030  )
         6           O1  tau(   6) = (   1.9868534   1.4903216   9.2879459  )
         7           Ti1 tau(   7) = (   3.2907910   2.8959150   9.1758416  )
         8           Ti1 tau(   8) = (   0.0015273   1.4827037   9.2680791  )
         9           O1  tau(   9) = (   3.3134935   5.9450930  11.3716456  )
        10           O1  tau(  10) = (   0.0116148   5.9584955  10.6183126  )
        11           O1  tau(  11) = (   1.3009377   1.4930576  12.6823270  )
        12           O1  tau(  12) = (   5.3410967   1.4903504  12.6863499  )
        13           Ti1 tau(  13) = (   0.0342001   2.9430440  12.5112676  )
        14           Ti1 tau(  14) = (   3.3297267   1.2953541  12.7310232  )
        15           O1  tau(  15) = (   0.0493764   5.9086628  14.6689690  )
        16           O1  tau(  16) = (   3.3288597   0.0714287  14.0177558  )
        17           O1  tau(  17) = (   4.6153468   1.5975901  16.1787110  )
        18           O1  tau(  18) = (   2.0592605   1.5839887  16.0909148  )
        19           Ti1 tau(  19) = (   3.3163104   3.0362344  15.7082748  )
        20           Ti1 tau(  20) = (   0.1120434   1.3330501  15.8434463  )
        21           O1  tau(  21) = (   3.2904802   0.0005063   4.7018136  )
        22           O1  tau(  22) = (   0.0690725   0.1374024  17.2087871  )
        23           O1  tau(  23) = (   1.3043587   1.4918075   6.0039043  )
        24           O1  tau(  24) = (   5.2767064   1.4903225   6.0039473  )
        25           Ti1 tau(  25) = (   0.0000382   5.9609847   6.0000000  )
        26           Ti1 tau(  26) = (   3.2902200   4.4714249   6.0002472  )
        27           O1  tau(  27) = (   0.0002396   2.9813036   7.9858123  )
        28           O1  tau(  28) = (   3.2902150   2.9813002   7.3038282  )
        29           O1  tau(  29) = (   4.5938453   4.4726049   9.2879030  )
        30           O1  tau(  30) = (   1.9864658   4.4711199   9.2879459  )
        31           Ti1 tau(  31) = (   3.2891106   5.8743827   9.1763621  )
        32           Ti1 tau(  32) = (   0.0006254   4.4649316   9.2693709  )
        33           O1  tau(  33) = (   3.3165203   3.0043058  11.3207354  )
        34           O1  tau(  34) = (   0.0092240   2.9805883  10.6323155  )
        35           O1  tau(  35) = (   1.3050136   4.4578615  12.6552238  )
        36           O1  tau(  36) = (   5.3353050   4.4620295  12.6594116  )
        37           Ti1 tau(  37) = (   0.0330755   5.9154870  12.5003292  )
        38           Ti1 tau(  38) = (   3.3291962   4.3779952  12.4454333  )
        39           O1  tau(  39) = (   0.0233967   3.0352723  14.9286183  )
        40           O1  tau(  40) = (   3.3272303   3.0068708  13.9347379  )
        41           O1  tau(  41) = (   4.5962338   4.4808180  16.1645836  )
        42           O1  tau(  42) = (   2.0526765   4.4464907  16.1857218  )
        43           Ti1 tau(  43) = (   3.4309460   0.0633718  16.3216252  )
        44           Ti1 tau(  44) = (   0.1034465   4.5521166  15.9739525  )
        45           O1  tau(  45) = (   3.2900926   2.9813045   4.7018136  )
        46           O1  tau(  46) = (   1.3039711   4.4726057   6.0039043  )
        47           O1  tau(  47) = (   5.2763189   4.4711207   6.0039473  )
        48           N1  tau(  48) = (   6.1597698   3.4535781  18.2989460  )
        49           C1  tau(  49) = (   0.6557129   3.1470513  19.0816575  )
        50           H1  tau(  50) = (   1.2037892   3.9510289  19.5415217  )
        51           H1  tau(  51) = (   1.0557295   2.1499681  19.0337936  )
        52           H1  tau(  52) = (   5.6980836   4.3337965  18.4846543  )
        53           H1  tau(  53) = (   5.5056413   2.7003945  18.1017309  )
        54           O1  tau(  54) = (   3.2744276   0.0793712  18.1757868  )
        55           H1  tau(  55) = (   2.3604784   5.9194474  18.4805682  )

     number of k points=    10  Fermi-Dirac smearing, width (Ry)=  0.0073
                       cart. coord. in units 2pi/alat
        k(    1) = (   0.0000000   0.0000000   0.0000000), wk =   0.1250000
        k(    2) = (   0.0000000   0.0419351   0.0000000), wk =   0.2500000
        k(    3) = (   0.0000000  -0.0838702   0.0000000), wk =   0.1250000
        k(    4) = (   0.0379955   0.0000049   0.0000000), wk =   0.2500000
        k(    5) = (   0.0379955   0.0419400   0.0000000), wk =   0.2500000
        k(    6) = (   0.0379955  -0.0838652   0.0000000), wk =   0.2500000
        k(    7) = (   0.0379955  -0.0419301   0.0000000), wk =   0.2500000
        k(    8) = (  -0.0759910  -0.0000099   0.0000000), wk =   0.1250000
        k(    9) = (  -0.0759910   0.0419252   0.0000000), wk =   0.2500000
        k(   10) = (  -0.0759910  -0.0838800   0.0000000), wk =   0.1250000

     Initial potential from superposition of free atoms

     starting charge  381.99915, renormalised to  398.00000

     negative rho (up, down):  1.645E-02 0.000E+00

     %%%%%%%%%%%%%%%%%%%%%%%%%%%%%%%%%%%%%%%%%%%%%%%%%%%%%%%%%%%%%%%%%%%%%%%%
     %                                                                      %
     % You are using vdW-DF, which was implemented by the Thonhauser group. %
     % Please cite the following two papers that made this development      %
     % possible and the two reviews that describe the various versions:     %
     %                                                                      %
     %   T. Thonhauser et al., PRL 115, 136402 (2015).                      %
     %   T. Thonhauser et al., PRB 76, 125112 (2007).                       %
     %   K. Berland et al., Rep. Prog. Phys. 78, 066501 (2015).             %
     %   D.C. Langreth et al., J. Phys.: Condens. Matter 21, 084203 (2009). %
     %                                                                      %
     %                                                                      %
     % If you are calculating the stress with vdW-DF, please also cite:     %
     %                                                                      %
     %   R. Sabatini et al., J. Phys.: Condens. Matter 24, 424209 (2012).   %
     %                                                                      %
     %%%%%%%%%%%%%%%%%%%%%%%%%%%%%%%%%%%%%%%%%%%%%%%%%%%%%%%%%%%%%%%%%%%%%%%%

     Adding external electric field

     Computed dipole along edir(3) :
        Dipole              -10.2322 Ry au,        -26.0075 Debye
        Dipole field         -0.0193 Ry au,

        Potential amp.        1.7900 Ry
        Total length         46.3494 bohr

     Starting wfcs are  301 atomic wfcs
  @ DRIVER MODE: Message from server: STATUS
  @ DRIVER MODE: Message from server: POSDATA
  @ DRIVER MODE: Reading and sharing cell
  @ DRIVER MODE: Reading and sharing positions
  @ DRIVER MODE: Received positions

     Self-consistent Calculation

     iteration #  1     ecut=    29.40 Ry     beta= 0.05
     Davidson diagonalization with overlap
     c_bands:  1 eigenvalues not converged
     c_bands:  3 eigenvalues not converged
     c_bands:  1 eigenvalues not converged
     c_bands:  1 eigenvalues not converged
     c_bands:  4 eigenvalues not converged
     c_bands:  4 eigenvalues not converged
     c_bands:  4 eigenvalues not converged
     c_bands:  2 eigenvalues not converged
     c_bands:  3 eigenvalues not converged
     c_bands:  4 eigenvalues not converged
     ethr =  1.00E-05,  avg # of iterations = 20.0

[...]

     total energy              =   -2477.32499165 Ry
     estimated scf accuracy    <    5313.88808523 Ry

     iteration #  2     ecut=    29.40 Ry     beta= 0.05
     Davidson diagonalization with overlap
     ethr =  1.00E-02,  avg # of iterations = 24.4

[...]

     iteration # 42     ecut=    29.40 Ry     beta= 0.05
     Davidson diagonalization with overlap
     c_bands:  1 eigenvalues not converged
     c_bands:  1 eigenvalues not converged
     c_bands:  1 eigenvalues not converged
     ethr =  2.99E-06,  avg # of iterations = 15.9

[...]

     total energy              =   -2953.88664025 Ry
     estimated scf accuracy    <       0.00000009 Ry

     iteration # 70     ecut=    29.40 Ry     beta= 0.05
     Davidson diagonalization with overlap
     ethr =  2.14E-11,  avg # of iterations =  5.2

     negative rho (up, down):  1.574E-02 0.000E+00

     Adding external electric field

     Computed dipole along edir(3) :
        Dipole                0.8554 Ry au,          2.1742 Debye
        Dipole field          0.0016 Ry au,

        Potential amp.       -0.1496 Ry
        Total length         46.3494 bohr

     End of self-consistent calculation

          k = 0.0000 0.0000 0.0000 ( 18029 PWs)   bands (ev):

   -55.7653 -55.7132 -55.6791 -55.5818 -55.5430 -55.5421 -55.5275 -55.5083
   -55.4999 -55.4498 -55.4489 -55.3369 -55.3084 -55.2639 -54.6915 -54.6575
   -32.1990 -32.0842 -32.0669 -32.0612 -32.0457 -32.0319 -32.0036 -31.9828
   -31.9805 -31.9589 -31.9439 -31.8659 -31.8509 -31.8503 -31.8286 -31.8217
   -31.8208 -31.7912 -31.7708 -31.7452 -31.7437 -31.7358 -31.7265 -31.7229
   -31.7214 -31.7146 -31.6864 -31.6772 -31.6692 -31.6680 -31.6612 -31.6556
   -31.6449 -31.6370 -31.6147 -31.6049 -31.5313 -31.5288 -31.5095 -31.4765
   -31.4686 -31.4612 -31.0977 -31.0109 -30.9885 -30.9152 -30.8288 -30.7170
   -16.8964 -16.6111 -16.3783 -16.2129 -15.9900 -15.9379 -15.8771 -15.7047
   -15.5896 -15.5342 -15.3506 -15.2815 -15.2533 -15.2406 -15.2361 -15.2187
   -15.2058 -15.1627 -15.1450 -15.1428 -15.1372 -15.1028 -15.0755 -15.0342
   -14.9872 -14.9515 -14.8551 -14.8000 -14.7603 -14.5159 -14.4839 -13.1899
   -13.0734  -9.8001  -7.0998  -5.3327  -4.1403  -3.7414  -3.6278  -3.6168
    -3.5562  -3.5009  -3.3439  -3.2229  -3.1421  -3.1253  -2.9732  -2.8596
    -2.8139  -2.7483  -2.7141  -2.6741  -2.6367  -2.6257  -2.5936  -2.5019
    -2.4800  -2.4657  -2.4044  -2.3790  -2.3127  -2.2895  -2.2567  -2.2439
    -2.1372  -2.0851  -2.0512  -2.0428  -2.0266  -1.9988  -1.9716  -1.9646
    -1.9371  -1.8533  -1.7995  -1.7444  -1.7177  -1.7020  -1.3986  -1.3263
    -1.2913  -1.2547  -1.1646  -1.1466  -1.1116  -1.0929  -1.0778  -1.0710
    -0.9560  -0.8874  -0.8284  -0.7988  -0.7553  -0.7228  -0.6100  -0.5575
    -0.5073  -0.4670  -0.4539  -0.4294  -0.3430  -0.3157  -0.2999  -0.1983
    -0.1555  -0.0910  -0.0208  -0.0070   0.0419   0.0719   0.1102   0.1471
     0.2052   0.2379   0.2554   0.2995   0.3383   0.3491   0.4072   0.4237
     0.5194   0.6036   0.6225   0.6932   0.7821   0.8279   0.9476   1.0102
     1.2813   1.3353   1.3482   1.5268   1.9027   1.9482   3.3642   3.4015
     3.5175   3.5306   3.6065   3.6174   3.7021   3.8576   3.9066   4.0173
     4.0540

[...]

          k = 0.0380-0.0419 0.0000 ( 17876 PWs)   bands (ev):

[...]

          k =-0.0760-0.0000 0.0000 ( 17886 PWs)   bands (ev):

[...]

          k =-0.0760-0.0839 0.0000 ( 17948 PWs)   bands (ev):

   -55.7645 -55.6963 -55.6958 -55.5711 -55.5533 -55.5281 -55.5257 -55.5246
   -55.4937 -55.4552 -55.4473 -55.3331 -55.3108 -55.2676 -54.6749 -54.6740
   -32.0294 -32.0144 -32.0140 -32.0132 -31.9893 -31.9888 -31.9847 -31.9738
   -31.9144 -31.8889 -31.8713 -31.8584 -31.8537 -31.8337 -31.8187 -31.8163
   -31.8156 -31.8126 -31.8090 -31.8038 -31.7784 -31.7523 -31.7436 -31.7369
   -31.7290 -31.7271 -31.7127 -31.7108 -31.7093 -31.7007 -31.7000 -31.6807
   -31.6782 -31.6737 -31.6438 -31.6125 -31.5939 -31.5577 -31.5352 -31.5310
   -31.5172 -31.4722 -31.0015 -31.0008 -30.9112 -30.9099 -30.8724 -30.8716
   -16.8792 -16.5997 -16.0517 -15.8016 -15.7094 -15.6990 -15.5669 -15.4999
   -15.4887 -15.4469 -15.4274 -15.4055 -15.3994 -15.3748 -15.3342 -15.2804
   -15.2508 -15.2241 -15.2178 -15.1782 -15.1708 -15.1522 -15.1498 -15.1282
   -15.0783 -15.0373 -15.0237 -15.0089 -14.8238 -14.7721 -14.6394 -13.1755
   -13.1750  -9.8007  -7.0915  -5.3172  -4.1258  -3.3709  -3.1756  -3.0120
    -2.9409  -2.8851  -2.7918  -2.7496  -2.7350  -2.6893  -2.6666  -2.6437
    -2.5636  -2.5492  -2.5199  -2.5084  -2.4791  -2.4643  -2.4578  -2.4481
    -2.4041  -2.3953  -2.3854  -2.3534  -2.3455  -2.3353  -2.2960  -2.2748
    -2.2648  -2.2541  -2.2057  -2.1822  -2.1034  -2.0640  -1.9669  -1.8838
    -1.8732  -1.8499  -1.8023  -1.7905  -1.7482  -1.7324  -1.6888  -1.6147
    -1.5302  -1.4621  -1.3509  -1.3079  -1.2966  -1.2378  -1.2198  -1.1635
    -1.1302  -1.1002  -1.0701  -0.9698  -0.9367  -0.8798  -0.7636  -0.6997
    -0.6872  -0.6643  -0.6538  -0.6181  -0.5977  -0.5826  -0.5514  -0.4695
    -0.4320  -0.4170  -0.4075  -0.3710  -0.2454  -0.1235  -0.0792  -0.0193
     0.0467   0.0629   0.1162   0.1565   0.3113   0.3450   0.4426   0.4573
     0.4782   0.5916   0.5989   0.6796   0.7210   0.7663   0.7947   0.8271
     0.8319   0.8716   1.6966   1.7050   1.7686   1.7687   3.3734   3.7454
     3.8480   3.8644   3.8818   3.9230   3.9367   3.9657   3.9714   4.0357
     4.0527

     the Fermi energy is     3.4063 ev

!    total energy              =   -2953.88666078 Ry
     estimated scf accuracy    <       0.00000007 Ry
     smearing contrib. (-TS)   =      -0.02908303 Ry
     internal energy E=F+TS    =   -2953.85757775 Ry

     The total energy is F=E-TS. E is the sum of the following terms:
     one-electron contribution =  -23669.84568337 Ry
     hartree contribution      =   11925.88684671 Ry
     xc contribution           =    -488.85659283 Ry
     ewald contribution        =    9278.95647096 Ry
     electric field correction =       0.00138078 Ry

     convergence has been achieved in  70 iterations

     Forces acting on atoms (cartesian axes, Ry/au):

     atom    1 type  1   force =    -0.00001794   -0.00028945    0.09375582
     atom    2 type  1   force =    -0.00009671    0.00049300   -0.17554065
     atom    3 type  2   force =     0.00011124   -0.00024327   -0.02089438
     atom    4 type  2   force =     0.00001244   -0.00197729    0.05496351
     atom    5 type  2   force =    -0.00644404   -0.00244411    0.00276726
     atom    6 type  2   force =     0.00860297   -0.00177392    0.00360608
     atom    7 type  1   force =     0.00058940   -0.00335081    0.00969376
     atom    8 type  1   force =    -0.00066813    0.00048764    0.00110306
     atom    9 type  2   force =    -0.00001347    0.00059398   -0.00097919
     atom   10 type  2   force =    -0.00025071    0.00115468   -0.00781950
     atom   11 type  2   force =    -0.00012125   -0.00001809    0.00017244
     atom   12 type  2   force =    -0.00041872   -0.00018162    0.00003420
     atom   13 type  1   force =    -0.00027961    0.00001642   -0.00043342
     atom   14 type  1   force =    -0.00061521    0.00042913    0.00042748
     atom   15 type  2   force =    -0.00005736    0.00106062   -0.00003556
     atom   16 type  2   force =    -0.00008190    0.00007126   -0.00021543
     atom   17 type  2   force =    -0.00036850    0.00057815   -0.00031814
     atom   18 type  2   force =     0.00012383    0.00069758   -0.00022338
     atom   19 type  1   force =     0.00005611   -0.00012411    0.00066609
     atom   20 type  1   force =    -0.00009599   -0.00043858    0.00003145
     atom   21 type  2   force =     0.00001652    0.00008439    0.10331495
     atom   22 type  2   force =    -0.00008708    0.00014886    0.00001838
     atom   23 type  2   force =    -0.07187555   -0.00017390   -0.02715711
     atom   24 type  2   force =     0.07174177    0.00029751   -0.02723605
     atom   25 type  1   force =     0.00009041   -0.00020075    0.09354963
     atom   26 type  1   force =    -0.00025416   -0.00137889   -0.17566669
     atom   27 type  2   force =     0.00015138   -0.00016197   -0.01964811
     atom   28 type  2   force =     0.00011069   -0.00028467    0.05020646
     atom   29 type  2   force =    -0.00551089    0.00258925    0.00165932
     atom   30 type  2   force =     0.00765772    0.00268360    0.00255320
     atom   31 type  1   force =     0.00070665    0.00798699   -0.00205824
     atom   32 type  1   force =    -0.00071051   -0.00207213    0.00020584
     atom   33 type  2   force =    -0.00017033   -0.00074307   -0.00012579
     atom   34 type  2   force =     0.00011506   -0.00173391   -0.00874102
     atom   35 type  2   force =    -0.00004163   -0.00011769   -0.00058115
     atom   36 type  2   force =    -0.00019489   -0.00019196   -0.00039064
     atom   37 type  1   force =     0.00044779    0.00066511   -0.00071153
     atom   38 type  1   force =    -0.00062344   -0.00052637    0.00023530
     atom   39 type  2   force =    -0.00001955    0.00009741    0.00023512
     atom   40 type  2   force =     0.00011484    0.00001930    0.00061637
     atom   41 type  2   force =    -0.00056519   -0.00024576    0.00004848
     atom   42 type  2   force =     0.00060520    0.00009081   -0.00069273
     atom   43 type  1   force =    -0.00024374    0.00039766   -0.00010513
     atom   44 type  1   force =    -0.00001425   -0.00118051   -0.00000351
     atom   45 type  2   force =     0.00001878   -0.00005426    0.10310009
     atom   46 type  2   force =    -0.07188659   -0.00002075   -0.02717041
     atom   47 type  2   force =     0.07179185    0.00040031   -0.02725840
     atom   48 type  3   force =     0.00538519   -0.00582190   -0.00088128
     atom   49 type  4   force =     0.00134135   -0.00066850    0.00050624
     atom   50 type  5   force =    -0.00045523    0.00016882    0.00010907
     atom   51 type  5   force =     0.00003586   -0.00057194    0.00079254
     atom   52 type  5   force =    -0.00499253    0.00645015    0.00001383
     atom   53 type  5   force =    -0.00115619   -0.00031914    0.00018428
     atom   54 type  2   force =    -0.00134510   -0.00058905   -0.00057792
     atom   55 type  5   force =    -0.00015066    0.00023576    0.00089512

     Total force =     0.362237     Total SCF correction =     0.000805
  @ DRIVER MODE: Message from server: STATUS
  @ DRIVER MODE: Message from server: GETFORCE
  @ DRIVER MODE: Returning v,forces,stress,ensemble

     Writing output data file ./calc.save/
  @ DRIVER MODE: Message from server: EXIT
  @ DRIVE MODE: Exiting

     General routines

     Parallel routines

   This run was terminated on:   1:47: 9  23Sep2021

   JOB DONE.