     Program PWSCF v.6.8 starts on 26Aug2021 at 13:13:14

     R & G space division:  proc/nbgrp/npool/nimage =      72

     Reading input from /storage/home/hcoda1/3/ntian30/research/carbon/methanol/ads_slab/CH3OH_c/methanol.log/pw.inp
Warning: card &CELL ignored
Warning: card   CELL_DYNAMICS='IPI', ignored
Warning: card / ignored

     Current dimensions of program PWSCF are:
     Max number of different atomic species (ntypx) = 10
     Max number of k-points (npk) =  40000
     Max angular momentum in pseudopotentials (lmaxx) =  4
     Presently no symmetry can be used with electric field

     Message from routine cell_base_init:
     DEPRECATED: use true lattice parameter, not A to a.u. conversion factor

     IMPORTANT: XC functional enforced from input :
     Exchange-correlation= BEEF-VDW
                           (   1   4  43  14   2   0   0)
     Any further DFT definition will be discarded
     Please, verify this is what you really want

  @ DRIVER MODE: Connecting to
 qe_1139763_2656604.sched-torque.pace.gatech.edu2ako37zq_scratch
  using UNIX socket
  @ DRIVER MODE: Message from server: STATUS
  @ DRIVER MODE: Message from server: INIT
  @ DRIVER MODE: Receiving replica           0          -1
  @ DRIVER MODE: Receiving encoded integer          25
  @ DRIVER MODE:  SCF:  T  FORCE:  T  STRESS:  F  VC:  F  ENSEMBLE:  F
  @ DRIVER MODE:  SCF:  T  FORCE:  T  STRESS:  F  VC:  F  ENSEMBLE:  F

     Using Slab Decomposition

     bravais-lattice index     =            0
     lattice parameter (alat)  =       1.8897  a.u.
     unit-cell volume          =    6658.9804 (a.u.)^3
     number of atoms/cell      =           53
     number of atomic types    =            4
     number of electrons       =       392.00
     number of Kohn-Sham states=          206
     kinetic-energy cutoff     =      29.3995  Ry
     charge density cutoff     =     293.9946  Ry
     scf convergence threshold =      7.3E-08
     mixing beta               =       0.0500
     number of iterations used =            8  plain     mixing
     Exchange-correlation= BEEF-VDW
                           (   1   4  43  14   2   0   0)

     celldm(1)=   1.889726  celldm(2)=   0.000000  celldm(3)=   0.000000
     celldm(4)=   0.000000  celldm(5)=   0.000000  celldm(6)=   0.000000

     crystal axes: (cart. coord. in units of alat)
               a(1) = (   6.579727   0.000000   0.000000 )
               a(2) = (  -0.000775   5.961596   0.000000 )
               a(3) = (   0.000000   0.000000  25.155947 )

     reciprocal axes: (cart. coord. in units 2 pi/alat)
               b(1) = (  0.151982  0.000020  0.000000 )
               b(2) = (  0.000000  0.167740  0.000000 )
               b(3) = (  0.000000  0.000000  0.039752 )

     PseudoPot. # 1 for Ti read from file:
     /storage/coda1/p-amedford6/0/shared/rich_project_chbe-medford/medford-share/data/pseudos_module/espresso/nninc/pbe/van/Ti.UPF
     MD5 check sum: 8e4df49b7f0d34bbd5052bf3f5ea0213
     Pseudo is Ultrasoft, Zval = 12.0
     Generated by new atomic code, or converted to UPF format
     Using radial grid of  851 points,  6 beta functions with:
                l(1) =   0
                l(2) =   0
                l(3) =   1
                l(4) =   1
                l(5) =   2
                l(6) =   2
     Q(r) pseudized with  8 coefficients,  rinner =    1.000   1.000   1.000
                                                       1.000   1.000

     PseudoPot. # 2 for O  read from file:
     /storage/coda1/p-amedford6/0/shared/rich_project_chbe-medford/medford-share/data/pseudos_module/espresso/nninc/pbe/van/O.UPF
     MD5 check sum: 78c19812648e8988a0fe644b0f25305e
     Pseudo is Ultrasoft, Zval =  6.0
     Generated by new atomic code, or converted to UPF format
     Using radial grid of  737 points,  4 beta functions with:
                l(1) =   0
                l(2) =   0
                l(3) =   1
                l(4) =   1
     Q(r) pseudized with  8 coefficients,  rinner =    0.800   0.800   0.800

     PseudoPot. # 3 for C  read from file:
     /storage/coda1/p-amedford6/0/shared/rich_project_chbe-medford/medford-share/data/pseudos_module/espresso/nninc/pbe/van/C.UPF
     MD5 check sum: 1a69bf6b8db32088f5b2163dbdb77a27
     Pseudo is Ultrasoft, Zval =  4.0
     Generated by new atomic code, or converted to UPF format
     Using radial grid of  721 points,  4 beta functions with:
                l(1) =   0
                l(2) =   0
                l(3) =   1
                l(4) =   1
     Q(r) pseudized with  8 coefficients,  rinner =    0.800   0.800   0.800

     PseudoPot. # 4 for H  read from file:
     /storage/coda1/p-amedford6/0/shared/rich_project_chbe-medford/medford-share/data/pseudos_module/espresso/nninc/pbe/van/H.UPF
     MD5 check sum: b5ee9d7bfd3a09ee7748110bda690ff7
     Pseudo is Ultrasoft, Zval =  1.0
     Generated by new atomic code, or converted to UPF format
     Using radial grid of  615 points,  1 beta functions with:
                l(1) =   0
     Q(r) pseudized with  8 coefficients,  rinner =    0.800

     atomic species   valence    mass     pseudopotential
        Ti1           12.00    47.86700     Ti( 1.00)
        O1             6.00    15.99900     O ( 1.00)
        C1             4.00    12.01100     C ( 1.00)
        H1             1.00     1.00800     H ( 1.00)

     No symmetry found

   Cartesian axes

     site n.     atom                  positions (alat units)
         1           Ti1 tau(   1) = (   0.0004258   2.9801865   6.0000000  )
         2           Ti1 tau(   2) = (   3.2906075   1.4906267   6.0002472  )
         3           O1  tau(   3) = (   0.0006271   0.0005054   7.9858123  )
         4           O1  tau(   4) = (   3.2906025   0.0005020   7.3038282  )
         5           O1  tau(   5) = (   4.5942328   1.4918067   9.2879030  )
         6           O1  tau(   6) = (   1.9868534   1.4903216   9.2879459  )
         7           Ti1 tau(   7) = (   3.3226903   2.9514341   9.1576891  )
         8           Ti1 tau(   8) = (   0.0343464   1.5915341   9.3698150  )
         9           O1  tau(   9) = (   3.2914246   5.9565917  11.3520874  )
        10           O1  tau(  10) = (   0.0056322   0.0001635  10.6062760  )
        11           O1  tau(  11) = (   1.2817320   1.4815673  12.6483243  )
        12           O1  tau(  12) = (   5.2831613   1.4908443  12.6423163  )
        13           Ti1 tau(  13) = (   0.0382653   2.9371430  12.8126397  )
        14           Ti1 tau(  14) = (   3.3532929   1.4821923  12.4951370  )
        15           O1  tau(  15) = (   6.5662424   5.9331786  14.6600200  )
        16           O1  tau(  16) = (   3.2816364   5.9551084  13.9465949  )
        17           O1  tau(  17) = (   4.5315606   1.5040344  16.0986503  )
        18           O1  tau(  18) = (   2.0287349   1.4998145  16.0995964  )
        19           Ti1 tau(  19) = (   3.2668404   2.9769305  15.7222481  )
        20           Ti1 tau(  20) = (   6.5415330   1.4777109  16.1743724  )
        21           O1  tau(  21) = (   3.2904802   0.0005063   4.7018136  )
        22           O1  tau(  22) = (   6.5659521   0.0029676  17.1944956  )
        23           O1  tau(  23) = (   1.3043587   1.4918075   6.0039043  )
        24           O1  tau(  24) = (   5.2767064   1.4903225   6.0039473  )
        25           Ti1 tau(  25) = (   0.0000382   5.9609847   6.0000000  )
        26           Ti1 tau(  26) = (   3.2902200   4.4714249   6.0002472  )
        27           O1  tau(  27) = (   0.0002396   2.9813036   7.9858123  )
        28           O1  tau(  28) = (   3.2902150   2.9813002   7.3038282  )
        29           O1  tau(  29) = (   4.5938453   4.4726049   9.2879030  )
        30           O1  tau(  30) = (   1.9864658   4.4711199   9.2879459  )
        31           Ti1 tau(  31) = (   3.3086233   5.9367107   9.1526142  )
        32           Ti1 tau(  32) = (   0.0357814   4.5182409   9.2638332  )
        33           O1  tau(  33) = (   3.2921447   2.9709340  11.3500156  )
        34           O1  tau(  34) = (   0.0064783   2.9842416  10.5732297  )
        35           O1  tau(  35) = (   1.2836142   4.4569143  12.6423601  )
        36           O1  tau(  36) = (   5.2821634   4.4598214  12.6376843  )
        37           Ti1 tau(  37) = (   0.0453433   5.9192801  12.5257453  )
        38           Ti1 tau(  38) = (   3.3504828   4.4607682  12.4868234  )
        39           O1  tau(  39) = (   0.0004961   2.9772524  14.7247240  )
        40           O1  tau(  40) = (   3.2810368   2.9729593  13.9290527  )
        41           O1  tau(  41) = (   4.5304642   4.4591278  16.0913236  )
        42           O1  tau(  42) = (   2.0231910   4.4609068  16.0933517  )
        43           Ti1 tau(  43) = (   3.2586866   5.9546939  15.7393459  )
        44           Ti1 tau(  44) = (   6.5465221   4.6060206  15.8931146  )
        45           O1  tau(  45) = (   3.2900926   2.9813045   4.7018136  )
        46           O1  tau(  46) = (   1.3039711   4.4726057   6.0039043  )
        47           O1  tau(  47) = (   5.2763189   4.4711207   6.0039473  )
        48           C1  tau(  48) = (   6.5676456   2.8990966  18.3944956  )
        49           O1  tau(  49) = (   1.4108584   2.8990966  18.3944956  )
        50           H1  tau(  50) = (   6.2622496   1.8532326  18.3944956  )
        51           H1  tau(  51) = (   1.7007654   3.8247616  18.3944956  )
        52           H1  tau(  52) = (   6.1516586   3.3833726  19.2862676  )
        53           H1  tau(  53) = (   6.1516586   3.3833726  17.5027236  )

     number of k points=    10  Fermi-Dirac smearing, width (Ry)=  0.0073
                       cart. coord. in units 2pi/alat
        k(    1) = (   0.0000000   0.0000000   0.0000000), wk =   0.1250000
        k(    2) = (   0.0000000   0.0419351   0.0000000), wk =   0.2500000
        k(    3) = (   0.0000000  -0.0838702   0.0000000), wk =   0.1250000
        k(    4) = (   0.0379955   0.0000049   0.0000000), wk =   0.2500000
        k(    5) = (   0.0379955   0.0419400   0.0000000), wk =   0.2500000
        k(    6) = (   0.0379955  -0.0838652   0.0000000), wk =   0.2500000
        k(    7) = (   0.0379955  -0.0419301   0.0000000), wk =   0.2500000
        k(    8) = (  -0.0759910  -0.0000099   0.0000000), wk =   0.1250000
        k(    9) = (  -0.0759910   0.0419252   0.0000000), wk =   0.2500000
        k(   10) = (  -0.0759910  -0.0838800   0.0000000), wk =   0.1250000

     Initial potential from superposition of free atoms

     starting charge  375.99917, renormalised to  392.00000

     negative rho (up, down):  1.846E-02 0.000E+00

     %%%%%%%%%%%%%%%%%%%%%%%%%%%%%%%%%%%%%%%%%%%%%%%%%%%%%%%%%%%%%%%%%%%%%%%%
     %                                                                      %
     % You are using vdW-DF, which was implemented by the Thonhauser group. %
     % Please cite the following two papers that made this development      %
     % possible and the two reviews that describe the various versions:     %
     %                                                                      %
     %   T. Thonhauser et al., PRL 115, 136402 (2015).                      %
[...]
        39           O1  tau(  39) = (   6.5510167   2.9463375  14.9445289  )
        40           O1  tau(  40) = (   3.2641118   2.9584284  13.9475357  )
        41           O1  tau(  41) = (   4.5135052   4.4238039  16.1300055  )
        42           O1  tau(  42) = (   1.9785690   4.4357467  16.1216702  )
        43           Ti1 tau(  43) = (   3.2428698   5.9313642  15.7685218  )
        44           Ti1 tau(  44) = (   6.5111990   4.5855545  15.8813772  )
        45           O1  tau(  45) = (   3.2900926   2.9813045   4.7018136  )
        46           O1  tau(  46) = (   1.3039711   4.4726057   6.0039043  )
        47           O1  tau(  47) = (   5.2763189   4.4711207   6.0039473  )
        48           C1  tau(  48) = (   0.0902158   2.8849159  19.0276373  )
        49           O1  tau(  49) = (   1.4379569   3.2889874  19.1665488  )
        50           H1  tau(  50) = (   0.0092442   1.8655293  19.3929633  )
        51           H1  tau(  51) = (   1.5314120   4.2008487  18.8461760  )
        52           H1  tau(  52) = (   5.9729386   3.5370603  19.5609702  )
        53           H1  tau(  53) = (   6.3323437   2.8770827  17.9704770  )

     number of k points=    10  Fermi-Dirac smearing, width (Ry)=  0.0073
                       cart. coord. in units 2pi/alat
        k(    1) = (   0.0000000   0.0000000   0.0000000), wk =   0.1250000
        k(    2) = (   0.0000000   0.0419351   0.0000000), wk =   0.2500000
        k(    3) = (   0.0000000  -0.0838702   0.0000000), wk =   0.1250000
        k(    4) = (   0.0379955   0.0000049   0.0000000), wk =   0.2500000
        k(    5) = (   0.0379955   0.0419400   0.0000000), wk =   0.2500000
        k(    6) = (   0.0379955  -0.0838652   0.0000000), wk =   0.2500000
        k(    7) = (   0.0379955  -0.0419301   0.0000000), wk =   0.2500000
        k(    8) = (  -0.0759910  -0.0000099   0.0000000), wk =   0.1250000
        k(    9) = (  -0.0759910   0.0419252   0.0000000), wk =   0.2500000
        k(   10) = (  -0.0759910  -0.0838800   0.0000000), wk =   0.1250000

     Initial potential from superposition of free atoms

     starting charge  375.99917, renormalised to  392.00000

[...]

     %%%%%%%%%%%%%%%%%%%%%%%%%%%%%%%%%%%%%%%%%%%%%%%%%%%%%%%%%%%%%%%%%%%%%%%%
     %                                                                      %
     % You are using vdW-DF, which was implemented by the Thonhauser group. %
     % Please cite the following two papers that made this development      %
     % possible and the two reviews that describe the various versions:     %
     %                                                                      %
     %   T. Thonhauser et al., PRL 115, 136402 (2015).                      %
     %   T. Thonhauser et al., PRB 76, 125112 (2007).                       %
     %   K. Berland et al., Rep. Prog. Phys. 78, 066501 (2015).             %
     %   D.C. Langreth et al., J. Phys.: Condens. Matter 21, 084203 (2009). %
     %                                                                      %
     %                                                                      %
     % If you are calculating the stress with vdW-DF, please also cite:     %
     %                                                                      %
     %   R. Sabatini et al., J. Phys.: Condens. Matter 24, 424209 (2012).   %
     %                                                                      %
     %%%%%%%%%%%%%%%%%%%%%%%%%%%%%%%%%%%%%%%%%%%%%%%%%%%%%%%%%%%%%%%%%%%%%%%%

[...]

     Starting wfcs are  296 atomic wfcs
  @ DRIVER MODE: Message from server: STATUS
  @ DRIVER MODE: Message from server: POSDATA
  @ DRIVER MODE: Reading and sharing cell
  @ DRIVER MODE: Reading and sharing positions
  @ DRIVER MODE: Received positions

[...]

     Self-consistent Calculation

[...]

     iteration # 14     ecut=    29.40 Ry     beta= 0.05
     Davidson diagonalization with overlap
     c_bands:  4 eigenvalues not converged
     c_bands:  1 eigenvalues not converged
     ethr =  2.28E-10,  avg # of iterations = 16.5

[...]

     total energy              =   -2932.59394314 Ry
     estimated scf accuracy    <       0.00000008 Ry

     iteration # 20     ecut=    29.40 Ry     beta= 0.05
     Davidson diagonalization with overlap
     ethr =  1.97E-11,  avg # of iterations = 12.0

[...]

     End of self-consistent calculation

[...]

          k = 0.0380-0.0419 0.0000 ( 17876 PWs)   bands (ev):

[...]

          k =-0.0760-0.0839 0.0000 ( 17948 PWs)   bands (ev):

   -56.0097 -56.0093 -55.9637 -55.9628 -55.9070 -55.8814 -55.8791 -55.8624
   -55.8574 -55.8544 -55.8440 -55.7971 -55.7907 -55.7855 -55.0732 -55.0731
   -32.4747 -32.3950 -32.3934 -32.2972 -32.2966 -32.2963 -32.2805 -32.2567
   -32.2557 -32.2281 -32.2239 -32.2223 -32.2170 -32.1777 -32.1728 -32.1718
   -32.1706 -32.1699 -32.1582 -32.1493 -32.1451 -32.1442 -32.1351 -32.1174
   -32.1128 -32.1059 -32.1042 -32.1030 -32.0817 -32.0810 -32.0750 -32.0724
   -32.0544 -32.0521 -32.0420 -32.0245 -32.0234 -32.0187 -31.9989 -31.9863
   -31.9758 -31.9722 -31.3900 -31.3900 -31.3158 -31.3156 -31.2759 -31.2759
   -18.2317 -16.5603 -16.2110 -16.1814 -16.0895 -16.0762 -15.9807 -15.9656
   -15.8771 -15.8254 -15.8096 -15.8026 -15.7634 -15.7339 -15.7155 -15.7117
   -15.6489 -15.6341 -15.6084 -15.6016 -15.5505 -15.5463 -15.5442 -15.5433
   -15.5099 -15.5071 -15.4666 -15.4636 -15.3799 -15.2253 -13.5728 -13.5727
    -9.7607  -5.3469  -3.6914  -3.5841  -3.4800  -3.4364  -3.3130  -3.2440
    -3.2175  -3.2035  -3.1600  -3.1436  -3.0706  -3.0272  -3.0250  -2.9419
    -2.9356  -2.9253  -2.9209  -2.8578  -2.8440  -2.8217  -2.7970  -2.7735
    -2.7461  -2.7398  -2.7317  -2.6985  -2.6929  -2.6828  -2.6757  -2.6417
    -2.6156  -2.6034  -2.5704  -2.4288  -2.4169  -2.3253  -2.2709  -2.2640
    -2.1828  -2.1776  -2.1406  -2.1038  -2.0568  -2.0173  -1.8526  -1.8303
    -1.8278  -1.7735  -1.7071  -1.6656  -1.6067  -1.5867  -1.5434  -1.4985
    -1.3698  -1.3489  -1.3232  -1.2371  -1.2218  -1.1463  -1.0783  -1.0363
    -1.0233  -1.0205  -0.9946  -0.9819  -0.9781  -0.8698  -0.8480  -0.8223
    -0.7779  -0.7686  -0.7446  -0.5499  -0.4968  -0.4779  -0.3659  -0.3150
    -0.1364  -0.1263  -0.0906   0.0331   0.0406   0.0533   0.0875   0.2166
     0.2237   0.2934   0.3345   0.3467   0.3853   0.3881   0.8966   1.2844
     1.2854   1.3922   1.3923   3.2339   3.3092   3.3393   3.3792   3.5149
     3.5189   3.5730   3.6130   3.6257   3.6328   3.6969

     the Fermi energy is     3.1332 ev

!    total energy              =   -2932.59394662 Ry
     estimated scf accuracy    <       0.00000003 Ry
     smearing contrib. (-TS)   =      -0.03678451 Ry
     internal energy E=F+TS    =   -2932.55716211 Ry

     The total energy is F=E-TS. E is the sum of the following terms:
     one-electron contribution =  -23623.71470630 Ry
     hartree contribution      =   11895.72171739 Ry
     xc contribution           =    -482.94803034 Ry
     ewald contribution        =    9278.38353570 Ry
     electric field correction =       0.00032143 Ry

     convergence has been achieved in  20 iterations

     Forces acting on atoms (cartesian axes, Ry/au):

     atom    1 type  1   force =    -0.00008766   -0.00016494    0.08969652
     atom    2 type  1   force =    -0.00011994    0.00020802   -0.18420826
     atom    3 type  2   force =     0.00051029    0.00127059   -0.02412843
     atom    4 type  2   force =     0.00068648   -0.00012265    0.05279421
     atom    5 type  2   force =    -0.01390217    0.00010169    0.00634540
     atom    6 type  2   force =     0.01339246    0.00044556    0.00606694
     atom    7 type  1   force =    -0.00016988   -0.00041801    0.00010576
     atom    8 type  1   force =     0.00015488   -0.00066442    0.00016482
     atom    9 type  2   force =    -0.00022551    0.00062581   -0.00034281
     atom   10 type  2   force =     0.00004856   -0.00030074    0.00021904
     atom   11 type  2   force =     0.00046761   -0.00006333    0.00064381
     atom   12 type  2   force =    -0.00061200   -0.00015017    0.00047211
     atom   13 type  1   force =     0.00053696   -0.00039800    0.00005035
     atom   14 type  1   force =    -0.00047029    0.00051518    0.00045797
     atom   15 type  2   force =    -0.00025111    0.00070387    0.00049710
     atom   16 type  2   force =     0.00029982   -0.00032920    0.00022144
     atom   17 type  2   force =    -0.00053014   -0.00011779    0.00030650
     atom   18 type  2   force =     0.00068351   -0.00031537   -0.00042543
     atom   19 type  1   force =    -0.00089308   -0.00044177    0.00062509
     atom   20 type  1   force =     0.00014111   -0.00049556   -0.00059590
     atom   21 type  2   force =     0.00007464    0.00001456    0.10525125
     atom   22 type  2   force =    -0.00042493    0.00040170   -0.00017038
     atom   23 type  2   force =    -0.06766396   -0.00023768   -0.02597816
     atom   24 type  2   force =     0.06756528    0.00017826   -0.02607741
     atom   25 type  1   force =    -0.00013774    0.00013075    0.08941189
     atom   26 type  1   force =    -0.00014113   -0.00040284   -0.18431584
     atom   27 type  2   force =     0.00042578    0.00034033   -0.02300473
     atom   28 type  2   force =     0.00067275    0.00001002    0.05254155
     atom   29 type  2   force =    -0.01416437   -0.00014924    0.00567542
     atom   30 type  2   force =     0.01379786    0.00070883    0.00538975
     atom   31 type  1   force =    -0.00008206    0.00044228   -0.00016684
     atom   32 type  1   force =     0.00005054    0.00035285    0.00106310
     atom   33 type  2   force =     0.00015290   -0.00036987    0.00000007
     atom   34 type  2   force =    -0.00005301   -0.00037202   -0.00057677
     atom   35 type  2   force =    -0.00028283   -0.00003677   -0.00013502
     atom   36 type  2   force =    -0.00004294    0.00004044    0.00026083
     atom   37 type  1   force =     0.00067480    0.00068272   -0.00006530
     atom   38 type  1   force =    -0.00013197    0.00020009    0.00025975
     atom   39 type  2   force =     0.00015129   -0.00019086    0.00029492
     atom   40 type  2   force =     0.00017079   -0.00022324   -0.00019746
     atom   41 type  2   force =    -0.00082381   -0.00044530    0.00021798
     atom   42 type  2   force =     0.00074869   -0.00012136   -0.00035726
     atom   43 type  1   force =    -0.00065088   -0.00080599   -0.00061615
     atom   44 type  1   force =     0.00095183    0.00015289    0.00009194
     atom   45 type  2   force =     0.00005812    0.00003950    0.10521167
     atom   46 type  2   force =    -0.06763424   -0.00026112   -0.02598500
     atom   47 type  2   force =     0.06755202    0.00020833   -0.02607414
     atom   48 type  3   force =     0.00076508    0.00102370   -0.00104810
     atom   49 type  2   force =    -0.00007160    0.00068867   -0.00061793
     atom   50 type  4   force =    -0.00059988   -0.00081774    0.00013168
     atom   51 type  4   force =    -0.00110274   -0.00118137    0.00021009
     atom   52 type  4   force =    -0.00006146   -0.00010157   -0.00063874
     atom   53 type  4   force =     0.00059727    0.00021229    0.00104705

     Total force =     0.366980     Total SCF correction =     0.000548
  @ DRIVER MODE: Message from server: STATUS
  @ DRIVER MODE: Message from server: GETFORCE
  @ DRIVER MODE: Returning v,forces,stress,ensemble

     Writing config to output data dir ./calc.save/
  @ DRIVER MODE: Message from server: STATUS
  @ DRIVER MODE: Message from server: INIT
  @ DRIVER MODE: Receiving replica           0           0
  @ DRIVER MODE: Receiving encoded integer           2
  @ DRIVER MODE:  SCF:  T  FORCE:  T  STRESS:  F  VC:  F  ENSEMBLE:  F
  @ DRIVER MODE:  SCF:  F  FORCE:  F  STRESS:  F  VC:  F  ENSEMBLE:  T
  @ DRIVER MODE: Message from server: STATUS
  @ DRIVER MODE: Message from server: POSDATA
  @ DRIVER MODE: Reading and sharing positions
  @ DRIVER MODE: Received positions
     NEW-OLD atomic charge density approx. for the potential

[...]

     Adding external electric field

     Computed dipole along edir(3) :
        Dipole                0.4127 Ry au,          1.0490 Debye
        Dipole field          0.0008 Ry au,

        Potential amp.       -0.0722 Ry
        Total length         46.3494 bohr

  @ DRIVER MODE: BEEF-vdw

[...]

     negative rho (up, down):  1.603E-02 0.000E+00

     negative rho (up, down):  1.603E-02 0.000E+00
 BEEFens 2000 ensemble energies
             -0.346864956365838E+02
             -0.201512713862303E+01
             -0.715336557461202E+01
              0.240564922473519E+02
             -0.119239964266239E+02
             -0.921446267362663E+01
             -0.240712367529326E+02
             -0.503297357029663E+02
             -0.214957838465725E+02
             -0.225940257745931E+02
             -0.209786057363137E+02
              0.426324729248604E+01
              0.200181039471117E+01
             -0.107248703388231E+01
              0.172947723501291E+01
              0.265099486367483E+02
             -0.102155987925015E+02
             -0.720868174254252E+01
              0.117285009589337E+02
             -0.619431395765203E+02
              0.310321776472527E+02
             -0.133028528962777E+02
             -0.240128590105251E+01
             -0.560096311796302E+01
             -0.957478774697563E+00
             -0.214556777553769E+01
              0.480385084894740E+02
             -0.150172293691926E+02
             -0.402966467646490E+01
             -0.303689274959449E+02
              0.392474070366382E+02
             -0.434449054942984E+01
             -0.213540433523344E+02
              0.112333620103388E+02
             -0.205086360967067E+01
              0.130122496124123E+02
             -0.541179805941908E+00
              0.273649126781767E+01
              0.189276564590032E+02
             -0.546645069600612E+02
              0.304572989079666E+02
              0.813296150493920E+01
             -0.626809822728012E+01
             -0.174908304076545E+02
              0.689696705330857E+01
             -0.109490698875796E+02
              0.248914264588606E+02
              0.198991073965561E+02
             -0.128168865024271E+02
             -0.163720008652380E+02
             -0.172804247481473E+02
             -0.208094237480109E+02
              0.105650020419983E+02
             -0.270958427125075E+02
              0.830199920793075E+01
              0.346350828854544E+02
              0.399010239241670E+02
              0.185940620967874E+02
              0.831805431854706E+01
              0.173538876110948E+02
[...]
             -0.408043323015320E+02
              0.277844837303297E+01
             -0.144059092152476E+01
             -0.568399315208285E+01
              0.577302185988628E-01
             -0.363260999105312E+02
             -0.701379089974910E+01
              0.493376281134852E+01
              0.741918788775612E+01
              0.272110540515566E+02
             -0.237868118082333E+02
              0.310651973683621E+02
             -0.222317958001777E+02
              0.142942514202791E+02
              0.225024592714550E+02

 BEEF-vdW xc energy contributions
           1 :   -409.209158786715
           2 :    356.378141038109
           3 :   -271.261620675127
           4 :    182.574141066621
           5 :   -113.000898476386
           6 :    71.4198029135338
           7 :   -54.0235752800620
           8 :    50.8340445234984
           9 :   -52.5170680831063
          10 :    53.8710076637303
          11 :   -53.6025188245576
          12 :    52.1720990743552
          13 :   -49.9559183436442
          14 :    46.7264580093797
          15 :   -42.1787449447422
          16 :    36.5723074310227
          17 :   -30.8627469109177
          18 :    26.2496669634739
          19 :   -23.5590593128013
          20 :    22.8914153303824
          21 :   -23.7223013482333
          22 :    25.2681757270257
          23 :   -26.8192886537262
          24 :    27.8690863982587
          25 :   -28.0989723031233
          26 :    27.3373432443249
          27 :   -25.5742652226621
          28 :    23.0197574338673
          29 :   -20.1331501177080
          30 :    17.5298524649735
          31 :   -48.0270583529941
          32 :   -32.5687674511954
  @ DRIVER MODE: Message from server: STATUS
  @ DRIVER MODE: Message from server: GETFORCE
  @ DRIVER MODE: Returning v,forces,stress,ensemble
  @ DRIVE MODE: Returning Ensemble Energies

     Writing config to output data dir ./calc.save/
  @ DRIVER MODE: Message from server: EXIT
  @ DRIVE MODE: Exiting

     General routines

     Parallel routines

   This run was terminated on:   1: 8:32  27Aug2021

   JOB DONE.