     Program PWSCF v.6.7GPU starts on 22Sep2021 at 19:15:50

     R & G space division:  proc/nbgrp/npool/nimage =      10
     Reading input from /storage/home/hcoda1/3/ntian30/research/carbon/CxH_vib/H2O_calc/ads_slab/CH2NHNHH2O_b/out_0010/pw.inp
Warning: card &CELL ignored
Warning: card   CELL_DYNAMICS='IPI', ignored
Warning: card / ignored

     Current dimensions of program PWSCF are:
     Max number of different atomic species (ntypx) = 10
     Max number of k-points (npk) =  40000
     Max angular momentum in pseudopotentials (lmaxx) =  3
     Presently no symmetry can be used with electric field

     Message from routine cell_base_init:
     DEPRECATED: use true lattice parameter, not A to a.u. conversion factor

     IMPORTANT: XC functional enforced from input :
     Exchange-correlation= BEEF-VDW
                           (   1   4  43  14   2   0   0)
     Any further DFT definition will be discarded
     Please, verify this is what you really want

  @ DRIVER MODE: Connecting to
 qe_1139763_2937310.sched-torque.pace.gatech.edufb8qgw74_scratch
  using UNIX socket
  @ DRIVER MODE: Message from server: STATUS
  @ DRIVER MODE: Message from server: INIT
  @ DRIVER MODE: Receiving replica           0          -1
  @ DRIVER MODE: Receiving encoded integer          25
  @ DRIVER MODE:  SCF:  T  FORCE:  T  STRESS:  F  VC:  F  ENSEMBLE:  F
  @ DRIVER MODE:  SCF:  T  FORCE:  T  STRESS:  F  VC:  F  ENSEMBLE:  F

     Using Slab Decomposition

     bravais-lattice index     =            0
     lattice parameter (alat)  =       1.8897  a.u.
     unit-cell volume          =    6658.9804 (a.u.)^3
     number of atoms/cell      =           57
     number of atomic types    =            5
     number of electrons       =       404.00
     number of Kohn-Sham states=          212
     kinetic-energy cutoff     =      29.3995  Ry
     charge density cutoff     =     293.9946  Ry
     scf convergence threshold =      7.3E-08
     mixing beta               =       0.0500
     number of iterations used =            8  plain     mixing
     Exchange-correlation= BEEF-VDW
                           (   1   4  43  14   2   0   0)

     celldm(1)=   1.889726  celldm(2)=   0.000000  celldm(3)=   0.000000
     celldm(4)=   0.000000  celldm(5)=   0.000000  celldm(6)=   0.000000

     crystal axes: (cart. coord. in units of alat)
               a(1) = (   6.579727   0.000000   0.000000 )
               a(2) = (  -0.000775   5.961596   0.000000 )
               a(3) = (   0.000000   0.000000  25.155947 )

     reciprocal axes: (cart. coord. in units 2 pi/alat)
               b(1) = (  0.151982  0.000020  0.000000 )
               b(2) = (  0.000000  0.167740  0.000000 )
               b(3) = (  0.000000  0.000000  0.039752 )

     PseudoPot. # 1 for Ti read from file:
     /storage/coda1/p-amedford6/0/shared/rich_project_chbe-medford/medford-share/data/pseudos_module/espresso/nninc/pbe/van/Ti.UPF
     MD5 check sum: 8e4df49b7f0d34bbd5052bf3f5ea0213
     Pseudo is Ultrasoft, Zval = 12.0
     Generated by new atomic code, or converted to UPF format
     Using radial grid of  851 points,  6 beta functions with:
                l(1) =   0
                l(2) =   0
                l(3) =   1
                l(4) =   1
                l(5) =   2
                l(6) =   2
     Q(r) pseudized with  8 coefficients,  rinner =    1.000   1.000   1.000
                                                       1.000   1.000

     PseudoPot. # 2 for O  read from file:
     /storage/coda1/p-amedford6/0/shared/rich_project_chbe-medford/medford-share/data/pseudos_module/espresso/nninc/pbe/van/O.UPF
     MD5 check sum: 78c19812648e8988a0fe644b0f25305e
     Pseudo is Ultrasoft, Zval =  6.0
     Generated by new atomic code, or converted to UPF format
     Using radial grid of  737 points,  4 beta functions with:
                l(1) =   0
                l(2) =   0
                l(3) =   1
                l(4) =   1
     Q(r) pseudized with  8 coefficients,  rinner =    0.800   0.800   0.800

     PseudoPot. # 3 for N  read from file:
     /storage/coda1/p-amedford6/0/shared/rich_project_chbe-medford/medford-share/data/pseudos_module/espresso/nninc/pbe/van/N.UPF
     MD5 check sum: 90d10febe142ad51ac9d5be1deb811c4
     Pseudo is Ultrasoft, Zval =  5.0
     Generated by new atomic code, or converted to UPF format
     Using radial grid of  729 points,  4 beta functions with:
                l(1) =   0
                l(2) =   0
                l(3) =   1
                l(4) =   1
     Q(r) pseudized with  8 coefficients,  rinner =    0.800   0.800   0.800

     PseudoPot. # 4 for C  read from file:
     /storage/coda1/p-amedford6/0/shared/rich_project_chbe-medford/medford-share/data/pseudos_module/espresso/nninc/pbe/van/C.UPF
     MD5 check sum: 1a69bf6b8db32088f5b2163dbdb77a27
     Pseudo is Ultrasoft, Zval =  4.0
     Generated by new atomic code, or converted to UPF format
     Using radial grid of  721 points,  4 beta functions with:
                l(1) =   0
                l(2) =   0
                l(3) =   1
                l(4) =   1
     Q(r) pseudized with  8 coefficients,  rinner =    0.800   0.800   0.800

     PseudoPot. # 5 for H  read from file:
     /storage/coda1/p-amedford6/0/shared/rich_project_chbe-medford/medford-share/data/pseudos_module/espresso/nninc/pbe/van/H.UPF
     MD5 check sum: b5ee9d7bfd3a09ee7748110bda690ff7
     Pseudo is Ultrasoft, Zval =  1.0
     Generated by new atomic code, or converted to UPF format
     Using radial grid of  615 points,  1 beta functions with:
                l(1) =   0
     Q(r) pseudized with  8 coefficients,  rinner =    0.800

     atomic species   valence    mass     pseudopotential
        Ti1           12.00    47.86700     Ti( 1.00)
        O1             6.00    15.99900     O ( 1.00)
        N1             5.00    14.00700     N ( 1.00)
        C1             4.00    12.01100     C ( 1.00)
        H1             1.00     1.00800     H ( 1.00)

     No symmetry found

   Cartesian axes

     site n.     atom                  positions (alat units)
         1           Ti1 tau(   1) = (   0.0004258   2.9801865   6.0000000  )
         2           Ti1 tau(   2) = (   3.2906075   1.4906267   6.0002472  )
         3           O1  tau(   3) = (   0.0006271   0.0005054   7.9858123  )
         4           O1  tau(   4) = (   3.2906025   0.0005020   7.3038282  )
         5           O1  tau(   5) = (   4.5942328   1.4918067   9.2879030  )
         6           O1  tau(   6) = (   1.9868534   1.4903216   9.2879459  )
         7           Ti1 tau(   7) = (   3.2907910   2.8959150   9.1758416  )
         8           Ti1 tau(   8) = (   0.0015273   1.4827037   9.2680791  )
         9           O1  tau(   9) = (   3.2740695   5.9399032  11.3612631  )
        10           O1  tau(  10) = (   0.0116148   5.9584955  10.6183126  )
        11           O1  tau(  11) = (   1.2665466   1.4659349  12.6457467  )
        12           O1  tau(  12) = (   5.2636777   1.4644475  12.6520517  )
        13           Ti1 tau(  13) = (   0.0254019   2.9535957  12.5508080  )
        14           Ti1 tau(  14) = (   3.3235577   1.4585364  12.5144190  )
        15           O1  tau(  15) = (   0.0066209   5.9388471  14.7046414  )
        16           O1  tau(  16) = (   3.2471877   5.9405099  14.0100224  )
        17           O1  tau(  17) = (   4.5302733   1.5208160  16.0462967  )
        18           O1  tau(  18) = (   1.9955500   1.4995475  16.2009832  )
        19           Ti1 tau(  19) = (   3.2567830   2.9699832  15.6929747  )
        20           Ti1 tau(  20) = (   6.4949666   1.4732860  15.8443191  )
        21           O1  tau(  21) = (   3.2904802   0.0005063   4.7018136  )
        22           O1  tau(  22) = (   6.4419287   5.8812218  17.2824568  )
        23           O1  tau(  23) = (   1.3043587   1.4918075   6.0039043  )
        24           O1  tau(  24) = (   5.2767064   1.4903225   6.0039473  )
        25           Ti1 tau(  25) = (   0.0000382   5.9609847   6.0000000  )
        26           Ti1 tau(  26) = (   3.2902200   4.4714249   6.0002472  )
        27           O1  tau(  27) = (   0.0002396   2.9813036   7.9858123  )
        28           O1  tau(  28) = (   3.2902150   2.9813002   7.3038282  )
        29           O1  tau(  29) = (   4.5938453   4.4726049   9.2879030  )
        30           O1  tau(  30) = (   1.9864658   4.4711199   9.2879459  )
        31           Ti1 tau(  31) = (   3.2891106   5.8743827   9.1763621  )
        32           Ti1 tau(  32) = (   0.0006254   4.4649316   9.2693709  )
        33           O1  tau(  33) = (   3.2800166   2.9600013  11.3546200  )
        34           O1  tau(  34) = (   0.0092240   2.9805883  10.6323155  )
        35           O1  tau(  35) = (   1.2663080   4.4508225  12.6496728  )
        36           O1  tau(  36) = (   5.2650692   4.4524444  12.6537221  )
        37           Ti1 tau(  37) = (   0.0180281   5.9297397  12.5120547  )
        38           Ti1 tau(  38) = (   3.3242103   4.4456960  12.5094407  )
        39           O1  tau(  39) = (   0.0028395   2.9305241  14.7702868  )
        40           O1  tau(  40) = (   3.2369197   2.9632653  13.9133312  )
        41           O1  tau(  41) = (   4.5259019   4.3784886  16.1008109  )
        42           O1  tau(  42) = (   2.0017919   4.4285960  16.1845674  )
        43           Ti1 tau(  43) = (   3.2453488   5.9423767  15.8283900  )
        44           Ti1 tau(  44) = (   6.5728488   4.6138345  16.0446011  )
        45           O1  tau(  45) = (   3.2900926   2.9813045   4.7018136  )
        46           O1  tau(  46) = (   1.3039711   4.4726057   6.0039043  )
        47           O1  tau(  47) = (   5.2763189   4.4711207   6.0039473  )
        48           N1  tau(  48) = (   0.9567011   2.5879941  18.4848429  )
        49           N1  tau(  49) = (   6.5185693   2.8462889  17.6364570  )
        50           C1  tau(  50) = (   1.0658718   2.8740630  19.7563100  )
        51           H1  tau(  51) = (   1.9437682   2.5238050  20.2723566  )
        52           H1  tau(  52) = (   0.2809834   3.4210577  20.2544045  )
        53           H1  tau(  53) = (   1.7014144   2.0656717  17.9989220  )
        54           H1  tau(  54) = (   5.6742842   3.0275795  18.1730567  )
        55           O1  tau(  55) = (   3.7618585   0.1297276  18.3074903  )
        56           H1  tau(  56) = (   4.7330396   0.0541995  18.1289380  )
        57           H1  tau(  57) = (   3.4892521   5.2388606  18.6788193  )

     number of k points=    10  Fermi-Dirac smearing, width (Ry)=  0.0073
                       cart. coord. in units 2pi/alat
        k(    1) = (   0.0000000   0.0000000   0.0000000), wk =   0.1250000
        k(    2) = (   0.0000000   0.0419351   0.0000000), wk =   0.2500000
        k(    3) = (   0.0000000  -0.0838702   0.0000000), wk =   0.1250000
        k(    4) = (   0.0379955   0.0000049   0.0000000), wk =   0.2500000
        k(    5) = (   0.0379955   0.0419400   0.0000000), wk =   0.2500000
        k(    6) = (   0.0379955  -0.0838652   0.0000000), wk =   0.2500000
        k(    7) = (   0.0379955  -0.0419301   0.0000000), wk =   0.2500000
        k(    8) = (  -0.0759910  -0.0000099   0.0000000), wk =   0.1250000
        k(    9) = (  -0.0759910   0.0419252   0.0000000), wk =   0.2500000
        k(   10) = (  -0.0759910  -0.0838800   0.0000000), wk =   0.1250000

     Initial potential from superposition of free atoms

     starting charge  387.99913, renormalised to  404.00000

     negative rho (up, down):  1.394E-02 0.000E+00

     %%%%%%%%%%%%%%%%%%%%%%%%%%%%%%%%%%%%%%%%%%%%%%%%%%%%%%%%%%%%%%%%%%%%%%%%
     %                                                                      %
     % You are using vdW-DF, which was implemented by the Thonhauser group. %
     % Please cite the following two papers that made this development      %
     % possible and the two reviews that describe the various versions:     %
     %                                                                      %
     %   T. Thonhauser et al., PRL 115, 136402 (2015).                      %
     %   T. Thonhauser et al., PRB 76, 125112 (2007).                       %
     %   K. Berland et al., Rep. Prog. Phys. 78, 066501 (2015).             %
     %   D.C. Langreth et al., J. Phys.: Condens. Matter 21, 084203 (2009). %
     %                                                                      %
     %                                                                      %
     % If you are calculating the stress with vdW-DF, please also cite:     %
     %                                                                      %
     %   R. Sabatini et al., J. Phys.: Condens. Matter 24, 424209 (2012).   %
     %                                                                      %
     %%%%%%%%%%%%%%%%%%%%%%%%%%%%%%%%%%%%%%%%%%%%%%%%%%%%%%%%%%%%%%%%%%%%%%%%

     Adding external electric field

     Computed dipole along edir(3) :
        Dipole              -14.1772 Ry au,        -36.0349 Debye
        Dipole field         -0.0268 Ry au,

        Potential amp.        2.4801 Ry
        Total length         46.3494 bohr

     Starting wfcs are  306 atomic wfcs
  @ DRIVER MODE: Message from server: STATUS
  @ DRIVER MODE: Message from server: POSDATA
  @ DRIVER MODE: Reading and sharing cell
  @ DRIVER MODE: Reading and sharing positions
  @ DRIVER MODE: Received positions

     Self-consistent Calculation

     iteration #  1     ecut=    29.40 Ry     beta= 0.05
     Davidson diagonalization with overlap
     c_bands:  4 eigenvalues not converged
     c_bands:  5 eigenvalues not converged
     c_bands:  2 eigenvalues not converged
     c_bands:  2 eigenvalues not converged
     c_bands:  1 eigenvalues not converged
     c_bands:  1 eigenvalues not converged
     c_bands:  4 eigenvalues not converged
     c_bands:  1 eigenvalues not converged
     c_bands:  1 eigenvalues not converged
     ethr =  1.00E-05,  avg # of iterations = 28.7

[...]

     total energy              =   -2249.25683169 Ry
     estimated scf accuracy    <    8255.73764623 Ry

     iteration #  2     ecut=    29.40 Ry     beta= 0.05
     Davidson diagonalization with overlap
     ethr =  1.00E-02,  avg # of iterations = 27.6

[...]

     iteration # 79     ecut=    29.40 Ry     beta= 0.05
     Davidson diagonalization with overlap
     c_bands:  1 eigenvalues not converged
     ethr =  4.78E-11,  avg # of iterations = 13.0

[...]

     total energy              =   -2975.20160862 Ry
     estimated scf accuracy    <       0.00000010 Ry

     iteration # 80     ecut=    29.40 Ry     beta= 0.05
     Davidson diagonalization with overlap
     ethr =  2.52E-11,  avg # of iterations =  6.9

     negative rho (up, down):  1.354E-02 0.000E+00

     Adding external electric field

     Computed dipole along edir(3) :
        Dipole                1.4201 Ry au,          3.6095 Debye
        Dipole field          0.0027 Ry au,

        Potential amp.       -0.2484 Ry
        Total length         46.3494 bohr

     End of self-consistent calculation

          k = 0.0000 0.0000 0.0000 ( 18029 PWs)   bands (ev):

   -55.1458 -55.1174 -55.1092 -55.0833 -55.0808 -55.0319 -54.9901 -54.9573
   -54.9422 -54.9266 -54.9220 -54.9204 -54.9091 -54.8354 -54.1303 -54.0963
   -31.7088 -31.6073 -31.5251 -31.4819 -31.4615 -31.4566 -31.4464 -31.4442
   -31.4072 -31.3871 -31.3652 -31.3618 -31.3457 -31.3233 -31.3067 -31.2927
   -31.2869 -31.2702 -31.2678 -31.2584 -31.2288 -31.2159 -31.2120 -31.1869
   -31.1810 -31.1744 -31.1650 -31.1604 -31.1575 -31.1503 -31.1389 -31.1370
   -31.1149 -31.1065 -31.1032 -31.0933 -31.0861 -31.0735 -31.0709 -31.0520
   -31.0503 -31.0168 -30.5388 -30.4468 -30.4246 -30.3554 -30.2687 -30.1576
   -19.2411 -18.5903 -15.9627 -15.6979 -15.5667 -15.4012 -15.3377 -15.1663
   -15.0854 -15.0204 -14.9350 -14.8760 -14.8618 -14.8555 -14.7640 -14.7458
   -14.6930 -14.6807 -14.6739 -14.6430 -14.6348 -14.5772 -14.5727 -14.5671
   -14.5335 -14.5207 -14.4908 -14.3730 -14.2924 -14.2356 -14.0235 -13.6632
   -12.6327 -12.5156 -10.0175  -6.8234  -6.4807  -6.3642  -4.0740  -3.8957
    -3.3141  -3.1713  -3.1529  -3.0699  -3.0466  -2.9237  -2.8678  -2.7065
    -2.5953  -2.5014  -2.4115  -2.3418  -2.3338  -2.3055  -2.1879  -2.1262
    -2.0799  -2.0368  -2.0180  -2.0057  -1.9574  -1.9214  -1.9190  -1.8517
    -1.8500  -1.7128  -1.6162  -1.6048  -1.5801  -1.5641  -1.4754  -1.4525
    -1.4430  -1.4371  -1.4307  -1.4232  -1.3887  -1.3447  -1.3190  -1.2354
    -1.1824  -1.1410  -1.0082  -0.9051  -0.8321  -0.7755  -0.6871  -0.6838
    -0.6162  -0.5501  -0.5362  -0.5345  -0.4740  -0.3527  -0.3064  -0.2559
    -0.2351  -0.2104  -0.1206  -0.1034  -0.0336   0.0391   0.0674   0.0775
     0.0990   0.2728   0.2803   0.3096   0.3282   0.4178   0.4701   0.5125
     0.5183   0.5411   0.6066   0.6456   0.7370   0.7845   0.7952   0.8159
     0.8376   0.8779   0.9536   0.9638   1.0045   1.0279   1.1692   1.2055
     1.2617   1.4743   1.4762   1.8053   1.8455   1.8924   2.0786   2.4668
     2.5142   3.9536   4.0432   4.0824   4.0842   4.1030   4.1888   4.3218
     4.4347   4.4453   4.4572   4.4793

[...]

          k = 0.0380-0.0419 0.0000 ( 17876 PWs)   bands (ev):

[...]

          k =-0.0760-0.0000 0.0000 ( 17886 PWs)   bands (ev):

[...]

          k =-0.0760-0.0839 0.0000 ( 17948 PWs)   bands (ev):

   -55.1310 -55.1238 -55.1005 -55.1001 -55.0789 -55.0229 -54.9991 -54.9423
   -54.9359 -54.9279 -54.9264 -54.9255 -54.9174 -54.8387 -54.1134 -54.1131
   -31.5172 -31.5090 -31.4238 -31.4226 -31.4222 -31.4070 -31.3928 -31.3924
   -31.3684 -31.3662 -31.3611 -31.3544 -31.3433 -31.3131 -31.2831 -31.2763
   -31.2757 -31.2752 -31.2708 -31.2653 -31.2583 -31.2406 -31.2261 -31.2236
   -31.2204 -31.2199 -31.2195 -31.1983 -31.1755 -31.1669 -31.1662 -31.1562
   -31.1502 -31.1477 -31.1456 -31.1453 -31.1438 -31.1135 -31.1071 -31.1053
   -31.0900 -31.0592 -30.4374 -30.4372 -30.3515 -30.3512 -30.3122 -30.3120
   -19.2385 -18.5899 -15.4569 -15.2996 -15.2866 -15.1352 -15.1209 -15.1126
   -15.0878 -15.0124 -14.9934 -14.9296 -14.9171 -14.8731 -14.8470 -14.8340
   -14.8230 -14.7298 -14.7225 -14.7162 -14.7003 -14.6498 -14.6377 -14.6206
   -14.5974 -14.5933 -14.5564 -14.4920 -14.4887 -14.4566 -14.2242 -13.6741
   -12.6173 -12.6171 -10.0203  -6.8172  -6.4840  -6.3562  -4.0517  -3.8799
    -2.9356  -2.7221  -2.5246  -2.5085  -2.4619  -2.3682  -2.3264  -2.2864
    -2.1901  -2.1410  -2.1254  -2.1032  -2.0896  -2.0303  -2.0255  -2.0232
    -1.9872  -1.9787  -1.9645  -1.9397  -1.9167  -1.8833  -1.8691  -1.8588
    -1.8461  -1.8069  -1.7870  -1.7587  -1.7453  -1.7164  -1.7000  -1.6303
    -1.5265  -1.4964  -1.4434  -1.3509  -1.3326  -1.3268  -1.2418  -1.2089
    -1.1959  -1.1806  -1.1666  -1.1050  -0.9694  -0.8810  -0.8709  -0.8192
    -0.7518  -0.7194  -0.6771  -0.6474  -0.6209  -0.5670  -0.5182  -0.4939
    -0.4177  -0.3671  -0.3611  -0.3289  -0.1828  -0.1578  -0.1118  -0.1095
    -0.0949  -0.0861   0.0036   0.0203   0.0648   0.0845   0.1241   0.1430
     0.2141   0.2320   0.3517   0.4215   0.4833   0.5897   0.7310   0.7440
     0.8153   0.8777   0.9161   0.9814   1.0391   1.0724   1.1547   1.1647
     1.1817   1.2824   1.3317   1.3383   1.3552   2.2510   2.2526   2.3341
     2.3342   4.1158   4.1382   4.2275   4.2411   4.2935   4.3768   4.4659
     4.4924   4.5271   4.5314   4.6105

     the Fermi energy is     4.0017 ev

!    total energy              =   -2975.20161763 Ry
     estimated scf accuracy    <       0.00000005 Ry
     smearing contrib. (-TS)   =      -0.03821388 Ry
     internal energy E=F+TS    =   -2975.16340375 Ry

     The total energy is F=E-TS. E is the sum of the following terms:
     one-electron contribution =  -23646.27610150 Ry
     hartree contribution      =   11921.29859366 Ry
     xc contribution           =    -494.97392283 Ry
     ewald contribution        =    9244.78422122 Ry
     electric field correction =       0.00380570 Ry

     convergence has been achieved in  80 iterations

     Forces acting on atoms (cartesian axes, Ry/au):

     atom    1 type  1   force =     0.00013951   -0.00013014    0.09420679
     atom    2 type  1   force =    -0.00023182   -0.00025390   -0.17729677
     atom    3 type  2   force =     0.00001653   -0.00026661   -0.02170422
     atom    4 type  2   force =    -0.00004176   -0.00184794    0.05695648
     atom    5 type  2   force =    -0.01106833   -0.00171582    0.00687404
     atom    6 type  2   force =     0.01215677   -0.00090995    0.00493925
     atom    7 type  1   force =    -0.00121985    0.00154854   -0.01217727
     atom    8 type  1   force =     0.00073063    0.00495141    0.00603922
     atom    9 type  2   force =     0.00026801    0.00050760    0.00032325
     atom   10 type  2   force =    -0.00307286   -0.00067335   -0.00505731
     atom   11 type  2   force =     0.00081584    0.00022166   -0.00025040
     atom   12 type  2   force =    -0.00007416    0.00051682    0.00000001
     atom   13 type  1   force =    -0.00021062    0.00010178   -0.00010843
     atom   14 type  1   force =    -0.00000846    0.00011629   -0.00009847
     atom   15 type  2   force =    -0.00007622    0.00053018    0.00012016
     atom   16 type  2   force =     0.00041000    0.00036362   -0.00014777
     atom   17 type  2   force =     0.00023961   -0.00011521    0.00035391
     atom   18 type  2   force =     0.00004177   -0.00018746    0.00013310
     atom   19 type  1   force =     0.00030249    0.00043486   -0.00005777
     atom   20 type  1   force =    -0.00000589    0.00068591    0.00038433
     atom   21 type  2   force =     0.00004716    0.00002574    0.10367262
     atom   22 type  2   force =     0.00053086    0.00101408   -0.00031057
     atom   23 type  2   force =    -0.07084822   -0.00008912   -0.02718980
     atom   24 type  2   force =     0.07068220    0.00039265   -0.02722663
     atom   25 type  1   force =    -0.00006196   -0.00027663    0.09392932
     atom   26 type  1   force =    -0.00031005   -0.00036098   -0.17746562
     atom   27 type  2   force =     0.00000770   -0.00022748   -0.02074448
     atom   28 type  2   force =     0.00003485   -0.00148648    0.05598312
     atom   29 type  2   force =    -0.01133889   -0.00053042    0.00690639
     atom   30 type  2   force =     0.01230026   -0.00025172    0.00492380
     atom   31 type  1   force =    -0.00121848    0.00506159   -0.01497034
     atom   32 type  1   force =     0.00092793   -0.00601896    0.00588182
     atom   33 type  2   force =     0.00035436   -0.00013553    0.00011778
     atom   34 type  2   force =    -0.00261059   -0.00151163   -0.00575490
     atom   35 type  2   force =     0.00037027    0.00029732   -0.00030798
     atom   36 type  2   force =     0.00043871    0.00040061   -0.00007273
     atom   37 type  1   force =    -0.00016318   -0.00014373   -0.00014951
     atom   38 type  1   force =     0.00005405    0.00033115    0.00044237
     atom   39 type  2   force =     0.00009596    0.00075766   -0.00076983
     atom   40 type  2   force =     0.00003834   -0.00008993    0.00001709
     atom   41 type  2   force =     0.00077971    0.00047273    0.00042025
     atom   42 type  2   force =    -0.00064107    0.00028447   -0.00022261
     atom   43 type  1   force =     0.00043464   -0.00084200    0.00013074
     atom   44 type  1   force =     0.00016412   -0.00035836    0.00015521
     atom   45 type  2   force =     0.00002008   -0.00002383    0.10367284
     atom   46 type  2   force =    -0.07083458   -0.00000634   -0.02720283
     atom   47 type  2   force =     0.07066426    0.00039912   -0.02719858
     atom   48 type  3   force =    -0.00205819    0.00241830   -0.00002427
     atom   49 type  3   force =     0.00418933   -0.00400345   -0.00239024
     atom   50 type  4   force =     0.00036598   -0.00058017    0.00012327
     atom   51 type  5   force =    -0.00022963   -0.00037961    0.00033841
     atom   52 type  5   force =     0.00042708   -0.00048768   -0.00022917
     atom   53 type  5   force =    -0.00102576    0.00070285    0.00000910
     atom   54 type  5   force =    -0.00128604    0.00136348    0.00190734
     atom   55 type  2   force =     0.00008343    0.00021978    0.00000695
     atom   56 type  5   force =     0.00071197   -0.00022612   -0.00052663
     atom   57 type  5   force =    -0.00020781    0.00001035    0.00068617

     Total force =     0.365756     Total SCF correction =     0.000499
  @ DRIVER MODE: Message from server: STATUS
  @ DRIVER MODE: Message from server: GETFORCE
  @ DRIVER MODE: Returning v,forces,stress,ensemble

     Writing output data file ./calc.save/
  @ DRIVER MODE: Message from server: EXIT
  @ DRIVE MODE: Exiting

     General routines

     Parallel routines

   This run was terminated on:  19:37: 3  22Sep2021

   JOB DONE.