     Program PWSCF v.6.7GPU starts on 19Aug2021 at  6: 5:22

     R & G space division:  proc/nbgrp/npool/nimage =       6
     Reading input from /storage/home/hcoda1/3/ntian30/research/carbon/CH3_vib_side_on/ads_slab/CH3N2_c/out_0036/pw.inp
Warning: card &CELL ignored
Warning: card   CELL_DYNAMICS='IPI', ignored
Warning: card / ignored

     Current dimensions of program PWSCF are:
     Max number of different atomic species (ntypx) = 10
     Max number of k-points (npk) =  40000
     Max angular momentum in pseudopotentials (lmaxx) =  3
     Presently no symmetry can be used with electric field

     Message from routine cell_base_init:
     DEPRECATED: use true lattice parameter, not A to a.u. conversion factor

     IMPORTANT: XC functional enforced from input :
     Exchange-correlation= BEEF-VDW
                           (   1   4  43  14   2   0   0)
     Any further DFT definition will be discarded
     Please, verify this is what you really want

  @ DRIVER MODE: Connecting to
 qe_1139763_2594174.sched-torque.pace.gatech.edu7pmxpbdo_scratch
  using UNIX socket
  @ DRIVER MODE: Message from server: STATUS
  @ DRIVER MODE: Message from server: INIT
  @ DRIVER MODE: Receiving replica           0          -1
  @ DRIVER MODE: Receiving encoded integer          25
  @ DRIVER MODE:  SCF:  T  FORCE:  T  STRESS:  F  VC:  F  ENSEMBLE:  F
  @ DRIVER MODE:  SCF:  T  FORCE:  T  STRESS:  F  VC:  F  ENSEMBLE:  F

     Using Slab Decomposition

     bravais-lattice index     =            0
     lattice parameter (alat)  =       1.8897  a.u.
     unit-cell volume          =    6658.9804 (a.u.)^3
     number of atoms/cell      =           53
     number of atomic types    =            5
     number of electrons       =       395.00
     number of Kohn-Sham states=          207
     kinetic-energy cutoff     =      29.3995  Ry
     charge density cutoff     =     293.9946  Ry
     scf convergence threshold =      7.3E-08
     mixing beta               =       0.0500
     number of iterations used =            8  plain     mixing
     Exchange-correlation= BEEF-VDW
                           (   1   4  43  14   2   0   0)

     celldm(1)=   1.889726  celldm(2)=   0.000000  celldm(3)=   0.000000
     celldm(4)=   0.000000  celldm(5)=   0.000000  celldm(6)=   0.000000

     crystal axes: (cart. coord. in units of alat)
               a(1) = (   6.579727   0.000000   0.000000 )
               a(2) = (  -0.000775   5.961596   0.000000 )
               a(3) = (   0.000000   0.000000  25.155947 )

     reciprocal axes: (cart. coord. in units 2 pi/alat)
               b(1) = (  0.151982  0.000020  0.000000 )
               b(2) = (  0.000000  0.167740  0.000000 )
               b(3) = (  0.000000  0.000000  0.039752 )

     PseudoPot. # 1 for Ti read from file:
     /storage/coda1/p-amedford6/0/shared/rich_project_chbe-medford/medford-share/data/pseudos_module/espresso/nninc/pbe/van/Ti.UPF
     MD5 check sum: 8e4df49b7f0d34bbd5052bf3f5ea0213
     Pseudo is Ultrasoft, Zval = 12.0
     Generated by new atomic code, or converted to UPF format
     Using radial grid of  851 points,  6 beta functions with:
                l(1) =   0
                l(2) =   0
                l(3) =   1
                l(4) =   1
                l(5) =   2
                l(6) =   2
     Q(r) pseudized with  8 coefficients,  rinner =    1.000   1.000   1.000
                                                       1.000   1.000

     PseudoPot. # 2 for O  read from file:
     /storage/coda1/p-amedford6/0/shared/rich_project_chbe-medford/medford-share/data/pseudos_module/espresso/nninc/pbe/van/O.UPF
     MD5 check sum: 78c19812648e8988a0fe644b0f25305e
     Pseudo is Ultrasoft, Zval =  6.0
     Generated by new atomic code, or converted to UPF format
     Using radial grid of  737 points,  4 beta functions with:
                l(1) =   0
                l(2) =   0
                l(3) =   1
                l(4) =   1
     Q(r) pseudized with  8 coefficients,  rinner =    0.800   0.800   0.800

     PseudoPot. # 3 for N  read from file:
     /storage/coda1/p-amedford6/0/shared/rich_project_chbe-medford/medford-share/data/pseudos_module/espresso/nninc/pbe/van/N.UPF
     MD5 check sum: 90d10febe142ad51ac9d5be1deb811c4
     Pseudo is Ultrasoft, Zval =  5.0
     Generated by new atomic code, or converted to UPF format
     Using radial grid of  729 points,  4 beta functions with:
                l(1) =   0
                l(2) =   0
                l(3) =   1
                l(4) =   1
     Q(r) pseudized with  8 coefficients,  rinner =    0.800   0.800   0.800

     PseudoPot. # 4 for C  read from file:
     /storage/coda1/p-amedford6/0/shared/rich_project_chbe-medford/medford-share/data/pseudos_module/espresso/nninc/pbe/van/C.UPF
     MD5 check sum: 1a69bf6b8db32088f5b2163dbdb77a27
     Pseudo is Ultrasoft, Zval =  4.0
     Generated by new atomic code, or converted to UPF format
     Using radial grid of  721 points,  4 beta functions with:
                l(1) =   0
                l(2) =   0
                l(3) =   1
                l(4) =   1
     Q(r) pseudized with  8 coefficients,  rinner =    0.800   0.800   0.800

     PseudoPot. # 5 for H  read from file:
     /storage/coda1/p-amedford6/0/shared/rich_project_chbe-medford/medford-share/data/pseudos_module/espresso/nninc/pbe/van/H.UPF
     MD5 check sum: b5ee9d7bfd3a09ee7748110bda690ff7
     Pseudo is Ultrasoft, Zval =  1.0
     Generated by new atomic code, or converted to UPF format
     Using radial grid of  615 points,  1 beta functions with:
                l(1) =   0
     Q(r) pseudized with  8 coefficients,  rinner =    0.800

     atomic species   valence    mass     pseudopotential
        Ti1           12.00    47.86700     Ti( 1.00)
        O1             6.00    15.99900     O ( 1.00)
        N1             5.00    14.00700     N ( 1.00)
        C1             4.00    12.01100     C ( 1.00)
        H1             1.00     1.00800     H ( 1.00)

     No symmetry found

   Cartesian axes

     site n.     atom                  positions (alat units)
         1           Ti1 tau(   1) = (   0.0004258   2.9801865   6.0000000  )
         2           Ti1 tau(   2) = (   3.2906075   1.4906267   6.0002472  )
         3           O1  tau(   3) = (   0.0006271   0.0005054   7.9858123  )
         4           O1  tau(   4) = (   3.2906025   0.0005020   7.3038282  )
         5           O1  tau(   5) = (   4.5942328   1.4918067   9.2879030  )
         6           O1  tau(   6) = (   1.9868534   1.4903216   9.2879459  )
         7           Ti1 tau(   7) = (   3.2907910   2.8959150   9.1758416  )
         8           Ti1 tau(   8) = (   0.0015273   1.4827037   9.2680791  )
         9           O1  tau(   9) = (   3.2868105   5.9447858  11.3346005  )
        10           O1  tau(  10) = (   0.0116148   5.9584955  10.6183126  )
        11           O1  tau(  11) = (   1.2897616   1.4699164  12.6258314  )
        12           O1  tau(  12) = (   5.2713851   1.4716199  12.6109895  )
        13           Ti1 tau(  13) = (   0.0629619   2.9460495  12.6207869  )
        14           Ti1 tau(  14) = (   3.3778125   1.4702366  12.4807322  )
        15           O1  tau(  15) = (   6.5741670   5.9392046  14.6271830  )
        16           O1  tau(  16) = (   3.2925211   5.9405975  13.9303826  )
        17           O1  tau(  17) = (   4.5331425   1.4971777  16.0590535  )
        18           O1  tau(  18) = (   2.0416154   1.4974824  16.0477615  )
        19           Ti1 tau(  19) = (   3.2901388   2.9722967  15.7036181  )
        20           Ti1 tau(  20) = (   6.5714728   1.5019933  15.8140906  )
        21           O1  tau(  21) = (   3.2904802   0.0005063   4.7018136  )
        22           O1  tau(  22) = (   6.5775371   0.0159386  17.1814867  )
        23           O1  tau(  23) = (   1.3043587   1.4918075   6.0039043  )
        24           O1  tau(  24) = (   5.2767064   1.4903225   6.0039473  )
        25           Ti1 tau(  25) = (   0.0000382   5.9609847   6.0000000  )
        26           Ti1 tau(  26) = (   3.2902200   4.4714249   6.0002472  )
        27           O1  tau(  27) = (   0.0002396   2.9813036   7.9858123  )
        28           O1  tau(  28) = (   3.2902150   2.9813002   7.3038282  )
        29           O1  tau(  29) = (   4.5938453   4.4726049   9.2879030  )
        30           O1  tau(  30) = (   1.9864658   4.4711199   9.2879459  )
        31           Ti1 tau(  31) = (   3.2891106   5.8743827   9.1763621  )
        32           Ti1 tau(  32) = (   0.0006254   4.4649316   9.2693709  )
        33           O1  tau(  33) = (   3.2909631   2.9655588  11.3316111  )
        34           O1  tau(  34) = (   0.0092240   2.9805883  10.6323155  )
        35           O1  tau(  35) = (   1.2884032   4.4536117  12.6269208  )
        36           O1  tau(  36) = (   5.2752684   4.4605011  12.6109535  )
        37           Ti1 tau(  37) = (   0.0626277   5.9200555  12.5524633  )
        38           Ti1 tau(  38) = (   3.3797810   4.4486816  12.4846537  )
        39           O1  tau(  39) = (   6.5720240   2.9440667  14.6479771  )
        40           O1  tau(  40) = (   3.2941106   2.9728877  13.9057494  )
        41           O1  tau(  41) = (   4.5311790   4.4530262  16.1020043  )
        42           O1  tau(  42) = (   2.0427069   4.4534008  16.0946336  )
        43           Ti1 tau(  43) = (   3.2818950   5.9508925  15.7274921  )
        44           Ti1 tau(  44) = (   6.5750914   4.6476268  16.0792144  )
        45           O1  tau(  45) = (   3.2900926   2.9813045   4.7018136  )
        46           O1  tau(  46) = (   1.3039711   4.4726057   6.0039043  )
        47           O1  tau(  47) = (   5.2763189   4.4711207   6.0039473  )
        48           N1  tau(  48) = (   0.0795740   2.6614725  18.6386781  )
        49           N1  tau(  49) = (   0.0132033   2.8794178  17.4383708  )
        50           C1  tau(  50) = (   0.1510961   3.8031638  19.5808395  )
        51           H1  tau(  51) = (   6.4701351   4.7592986  19.1328852  )
        52           H1  tau(  52) = (   6.0910372   3.5604803  20.4266230  )
        53           H1  tau(  53) = (   1.1812797   3.8285794  19.9576819  )

     number of k points=    10  Fermi-Dirac smearing, width (Ry)=  0.0073
                       cart. coord. in units 2pi/alat
        k(    1) = (   0.0000000   0.0000000   0.0000000), wk =   0.1250000
        k(    2) = (   0.0000000   0.0419351   0.0000000), wk =   0.2500000
        k(    3) = (   0.0000000  -0.0838702   0.0000000), wk =   0.1250000
        k(    4) = (   0.0379955   0.0000049   0.0000000), wk =   0.2500000
        k(    5) = (   0.0379955   0.0419400   0.0000000), wk =   0.2500000
        k(    6) = (   0.0379955  -0.0838652   0.0000000), wk =   0.2500000
        k(    7) = (   0.0379955  -0.0419301   0.0000000), wk =   0.2500000
        k(    8) = (  -0.0759910  -0.0000099   0.0000000), wk =   0.1250000
        k(    9) = (  -0.0759910   0.0419252   0.0000000), wk =   0.2500000
        k(   10) = (  -0.0759910  -0.0838800   0.0000000), wk =   0.1250000

     Initial potential from superposition of free atoms

     starting charge  378.99916, renormalised to  395.00000

     negative rho (up, down):  1.505E-02 0.000E+00

     %%%%%%%%%%%%%%%%%%%%%%%%%%%%%%%%%%%%%%%%%%%%%%%%%%%%%%%%%%%%%%%%%%%%%%%%
     %                                                                      %
     % You are using vdW-DF, which was implemented by the Thonhauser group. %
     % Please cite the following two papers that made this development      %
     % possible and the two reviews that describe the various versions:     %
     %                                                                      %
     %   T. Thonhauser et al., PRL 115, 136402 (2015).                      %
     %   T. Thonhauser et al., PRB 76, 125112 (2007).                       %
     %   K. Berland et al., Rep. Prog. Phys. 78, 066501 (2015).             %
     %   D.C. Langreth et al., J. Phys.: Condens. Matter 21, 084203 (2009). %
     %                                                                      %
     %                                                                      %
     % If you are calculating the stress with vdW-DF, please also cite:     %
     %                                                                      %
     %   R. Sabatini et al., J. Phys.: Condens. Matter 24, 424209 (2012).   %
     %                                                                      %
     %%%%%%%%%%%%%%%%%%%%%%%%%%%%%%%%%%%%%%%%%%%%%%%%%%%%%%%%%%%%%%%%%%%%%%%%

     Adding external electric field

     Computed dipole along edir(3) :
        Dipole               -8.8503 Ry au,        -22.4951 Debye
        Dipole field         -0.0167 Ry au,

        Potential amp.        1.5482 Ry
        Total length         46.3494 bohr

     Starting wfcs are  299 atomic wfcs
  @ DRIVER MODE: Message from server: STATUS
  @ DRIVER MODE: Message from server: POSDATA
  @ DRIVER MODE: Reading and sharing cell
  @ DRIVER MODE: Reading and sharing positions
  @ DRIVER MODE: Received positions

     Self-consistent Calculation

     iteration #  1     ecut=    29.40 Ry     beta= 0.05
     Davidson diagonalization with overlap
     c_bands:  1 eigenvalues not converged
     c_bands:  2 eigenvalues not converged
     c_bands:  1 eigenvalues not converged
     c_bands:  3 eigenvalues not converged
     c_bands:  3 eigenvalues not converged
     c_bands:  1 eigenvalues not converged
     ethr =  1.00E-05,  avg # of iterations = 18.9

[...]

     total energy              =   -2605.47150976 Ry
     estimated scf accuracy    <    3701.30570758 Ry

     iteration #  2     ecut=    29.40 Ry     beta= 0.05
     Davidson diagonalization with overlap
     ethr =  1.00E-02,  avg # of iterations = 22.2

[...]

     iteration # 60     ecut=    29.40 Ry     beta= 0.05
     Davidson diagonalization with overlap
     c_bands:  1 eigenvalues not converged
     ethr =  8.69E-09,  avg # of iterations = 15.5

[...]

     total energy              =   -2939.15476710 Ry
     estimated scf accuracy    <       0.00000017 Ry

     iteration # 74     ecut=    29.40 Ry     beta= 0.05
     Davidson diagonalization with overlap
     ethr =  3.44E-11,  avg # of iterations =  5.5

     negative rho (up, down):  1.564E-02 0.000E+00

     Adding external electric field

     Computed dipole along edir(3) :
        Dipole                0.7087 Ry au,          1.8012 Debye
        Dipole field          0.0013 Ry au,

        Potential amp.       -0.1240 Ry
        Total length         46.3494 bohr

     End of self-consistent calculation

          k = 0.0000 0.0000 0.0000 ( 18029 PWs)   bands (ev):

   -55.8952 -55.8802 -55.8611 -55.8442 -55.7955 -55.7301 -55.7041 -55.7036
   -55.6935 -55.6695 -55.6684 -55.6348 -55.2861 -55.0950 -54.8724 -54.8384
   -32.4344 -32.3774 -32.2300 -32.2276 -32.2023 -32.1990 -32.1882 -32.1590
   -32.1376 -32.1242 -32.1024 -32.0666 -32.0608 -32.0474 -32.0334 -32.0199
   -32.0176 -31.9993 -31.9848 -31.9524 -31.9441 -31.9397 -31.8985 -31.8937
   -31.8913 -31.8879 -31.8798 -31.8750 -31.8705 -31.8440 -31.8432 -31.8344
   -31.8331 -31.8213 -31.8100 -31.7806 -31.7778 -31.5662 -31.4595 -31.3573
   -31.3552 -31.3109 -31.2795 -31.1912 -31.1688 -31.0962 -31.0097 -30.8987
   -18.4504 -16.6327 -16.3680 -16.1390 -16.0453 -16.0131 -15.8950 -15.7326
   -15.6151 -15.5603 -15.4628 -15.4433 -15.4306 -15.3984 -15.3800 -15.3747
   -15.3407 -15.3365 -15.3183 -15.3030 -15.2546 -15.2309 -15.2092 -15.1099
   -15.0636 -15.0300 -15.0145 -14.9515 -14.9463 -14.4418 -13.3750 -13.2586
   -11.3562  -6.9306  -4.3489  -4.0026  -3.8860  -3.8587  -3.8472  -3.8007
    -3.7437  -3.6243  -3.4989  -3.4367  -3.1261  -3.0779  -3.0621  -3.0448
    -3.0071  -2.7996  -2.7485  -2.7085  -2.6834  -2.6764  -2.6653  -2.6578
    -2.6461  -2.6075  -2.5054  -2.4362  -2.4275  -2.3433  -2.2934  -2.2699
    -2.2072  -2.1871  -2.1654  -2.1420  -2.1307  -2.1097  -2.0898  -2.0787
    -1.9730  -1.8829  -1.7509  -1.6944  -1.6714  -1.6537  -1.6462  -1.5025
    -1.3700  -1.3377  -1.3286  -1.3198  -1.2866  -1.2745  -1.1917  -1.0628
    -1.0519  -1.0121  -0.9599  -0.9019  -0.8768  -0.7749  -0.7380  -0.6613
    -0.6562  -0.6393  -0.5862  -0.5341  -0.3763  -0.3344  -0.3083  -0.2862
    -0.2616  -0.1908  -0.1694  -0.0530  -0.0356  -0.0180   0.0422   0.0654
     0.0783   0.0881   0.1060   0.1242   0.1416   0.3088   0.3812   0.4333
     0.4570   0.5149   0.6399   0.7089   0.7638   0.8642   1.0753   1.1495
     1.2423   1.3416   1.7207   1.7663   2.6483   3.2443   3.3250   3.3741
     3.3888   3.4859   3.5196   3.6960   3.6972   3.7258   3.7956

[...]

          k = 0.0380-0.0419 0.0000 ( 17876 PWs)   bands (ev):

[...]

          k =-0.0760-0.0000 0.0000 ( 17886 PWs)   bands (ev):

[...]

          k =-0.0760-0.0839 0.0000 ( 17948 PWs)   bands (ev):

   -55.8786 -55.8775 -55.8624 -55.8618 -55.7921 -55.7180 -55.7074 -55.7055
   -55.6875 -55.6850 -55.6523 -55.6510 -55.2846 -55.0963 -54.8554 -54.8552
   -32.2390 -32.2371 -32.1931 -32.1923 -32.1741 -32.1730 -32.1695 -32.1341
   -32.0885 -32.0855 -32.0794 -32.0789 -32.0422 -32.0128 -32.0051 -32.0045
   -31.9981 -31.9981 -31.9973 -31.9971 -31.9930 -31.9911 -31.9887 -31.9377
   -31.9239 -31.9119 -31.9109 -31.8996 -31.8865 -31.8859 -31.8834 -31.8824
   -31.8668 -31.8661 -31.8571 -31.8544 -31.6946 -31.5679 -31.4677 -31.4145
   -31.3570 -31.3363 -31.1816 -31.1814 -31.0923 -31.0921 -31.0531 -31.0530
   -18.4462 -16.0685 -16.0425 -15.8425 -15.8095 -15.8053 -15.7909 -15.6822
   -15.5972 -15.5903 -15.5876 -15.5209 -15.4908 -15.4752 -15.4345 -15.4218
   -15.4146 -15.4029 -15.3925 -15.3555 -15.3481 -15.3310 -15.3235 -15.2393
   -15.2115 -15.2073 -15.1816 -15.0637 -14.9324 -14.6180 -13.3605 -13.3603
   -11.3539  -6.9423  -4.2585  -3.8880  -3.8398  -3.3579  -3.3291  -3.0889
    -3.0501  -3.0364  -2.9832  -2.8217  -2.7913  -2.7655  -2.7539  -2.7223
    -2.7170  -2.7050  -2.6999  -2.6799  -2.6384  -2.6162  -2.5984  -2.5818
    -2.5623  -2.5484  -2.5322  -2.5157  -2.5063  -2.4671  -2.4436  -2.4318
    -2.4131  -2.4015  -2.2450  -2.1221  -2.0875  -2.0330  -2.0227  -2.0014
    -1.9614  -1.9576  -1.9460  -1.8815  -1.8071  -1.6527  -1.6101  -1.5940
    -1.5752  -1.5589  -1.5002  -1.4598  -1.3730  -1.2982  -1.2748  -1.2703
    -1.2020  -1.1147  -1.1067  -1.0601  -1.0171  -1.0072  -0.9527  -0.8879
    -0.8576  -0.8533  -0.8010  -0.7318  -0.7135  -0.6634  -0.6565  -0.6121
    -0.5570  -0.5486  -0.5278  -0.4869  -0.4049  -0.3813  -0.2428  -0.1630
    -0.0406   0.0739   0.1681   0.1824   0.2624   0.3144   0.3982   0.4157
     0.4261   0.4353   0.4785   0.5618   0.6374   0.6521   0.6979   0.8189
     1.5132   1.5140   1.5860   1.5863   2.7052   3.4915   3.5362   3.5783
     3.6105   3.7169   3.7493   3.7730   3.7742   3.8021   3.9164

     the Fermi energy is     3.2395 ev

!    total energy              =   -2939.15477963 Ry
     estimated scf accuracy    <       0.00000006 Ry
     smearing contrib. (-TS)   =      -0.02244475 Ry
     internal energy E=F+TS    =   -2939.13233488 Ry

     The total energy is F=E-TS. E is the sum of the following terms:
     one-electron contribution =  -24175.76224697 Ry
     hartree contribution      =   12175.12495984 Ry
     xc contribution           =    -485.18174899 Ry
     ewald contribution        =    9546.68575354 Ry
     electric field correction =       0.00094770 Ry

     convergence has been achieved in  74 iterations

     Forces acting on atoms (cartesian axes, Ry/au):

     atom    1 type  1   force =     0.00011578   -0.00024603    0.09664089
     atom    2 type  1   force =    -0.00012325   -0.00049365   -0.17524019
     atom    3 type  2   force =     0.00000143   -0.00010167   -0.02499058
     atom    4 type  2   force =     0.00005249   -0.00150023    0.05300008
     atom    5 type  2   force =    -0.01214585   -0.00108714    0.00362096
     atom    6 type  2   force =     0.01369731   -0.00027913    0.00229675
     atom    7 type  1   force =    -0.00117336    0.00036870   -0.01149161
     atom    8 type  1   force =     0.00055835    0.00939678    0.02851452
     atom    9 type  2   force =     0.00019913    0.00053155   -0.00012489
     atom   10 type  2   force =    -0.00114625    0.00028469   -0.01821954
     atom   11 type  2   force =    -0.00012429    0.00000347   -0.00012973
     atom   12 type  2   force =     0.00013480    0.00021579    0.00018883
     atom   13 type  1   force =     0.00009476   -0.00029401    0.00014641
     atom   14 type  1   force =     0.00021637    0.00017225    0.00019738
     atom   15 type  2   force =     0.00021881   -0.00005475   -0.00010902
     atom   16 type  2   force =    -0.00032892    0.00033849    0.00036473
     atom   17 type  2   force =    -0.00016272    0.00041530   -0.00016216
     atom   18 type  2   force =     0.00012078    0.00016227    0.00022514
     atom   19 type  1   force =    -0.00008271    0.00015871    0.00009079
     atom   20 type  1   force =    -0.00059072   -0.00024327    0.00022185
     atom   21 type  2   force =     0.00008768    0.00001570    0.10323279
     atom   22 type  2   force =    -0.00020270    0.00025543    0.00078641
     atom   23 type  2   force =    -0.07147610   -0.00007812   -0.02771120
     atom   24 type  2   force =     0.07144367    0.00034636   -0.02771962
     atom   25 type  1   force =     0.00007126   -0.00022491    0.09637306
     atom   26 type  1   force =    -0.00022746   -0.00026606   -0.17564332
     atom   27 type  2   force =     0.00007118   -0.00025263   -0.02398780
     atom   28 type  2   force =     0.00009658   -0.00126197    0.05286448
     atom   29 type  2   force =    -0.01239128    0.00004077    0.00353278
     atom   30 type  2   force =     0.01385804    0.00033307    0.00217774
     atom   31 type  1   force =    -0.00113564    0.00332985   -0.01190789
     atom   32 type  1   force =     0.00065221   -0.01116480    0.02911628
     atom   33 type  2   force =     0.00011132   -0.00020293   -0.00038358
     atom   34 type  2   force =    -0.00089624   -0.00093687   -0.02481724
     atom   35 type  2   force =    -0.00039713    0.00027208    0.00002686
     atom   36 type  2   force =     0.00072268    0.00029255    0.00034582
     atom   37 type  1   force =    -0.00000490   -0.00022912    0.00004013
     atom   38 type  1   force =    -0.00001652    0.00010204   -0.00001327
     atom   39 type  2   force =     0.00032264    0.00033554   -0.00044823
     atom   40 type  2   force =    -0.00030314    0.00010233    0.00014929
     atom   41 type  2   force =    -0.00042907    0.00052575    0.00012528
     atom   42 type  2   force =     0.00004326    0.00045957    0.00040234
     atom   43 type  1   force =    -0.00006010    0.00037274    0.00043085
     atom   44 type  1   force =    -0.00040559    0.00022102    0.00074462
     atom   45 type  2   force =     0.00008069   -0.00002794    0.10324212
     atom   46 type  2   force =    -0.07150200   -0.00003082   -0.02772353
     atom   47 type  2   force =     0.07146878    0.00039459   -0.02775222
     atom   48 type  3   force =     0.00107708   -0.00078331    0.00030132
     atom   49 type  3   force =     0.00057423    0.00036747   -0.00029719
     atom   50 type  4   force =     0.00479415    0.00042997    0.00197312
     atom   51 type  5   force =     0.00061973    0.00075460   -0.00031300
     atom   52 type  5   force =    -0.00212802   -0.00091131    0.00066999
     atom   53 type  5   force =    -0.00405123   -0.00032879   -0.00285777

     Total force =     0.368399     Total SCF correction =     0.000488
  @ DRIVER MODE: Message from server: STATUS
  @ DRIVER MODE: Message from server: GETFORCE
  @ DRIVER MODE: Returning v,forces,stress,ensemble

     Writing output data file ./calc.save/
  @ DRIVER MODE: Message from server: EXIT
  @ DRIVE MODE: Exiting

     General routines

     Parallel routines

   This run was terminated on:   6:36:15  19Aug2021

   JOB DONE.