     Program PWSCF v.6.7GPU starts on 25Aug2021 at  9:12: 4

     R & G space division:  proc/nbgrp/npool/nimage =       6
     Reading input from /storage/home/hcoda1/3/ntian30/research/carbon/CH3_vib_end_on/ads_slab/CH3NHNH2_a/out_0030/pw.inp
Warning: card &CELL ignored
Warning: card   CELL_DYNAMICS='IPI', ignored
Warning: card / ignored

     Current dimensions of program PWSCF are:
     Max number of different atomic species (ntypx) = 10
     Max number of k-points (npk) =  40000
     Max angular momentum in pseudopotentials (lmaxx) =  3
     Presently no symmetry can be used with electric field

     Message from routine cell_base_init:
     DEPRECATED: use true lattice parameter, not A to a.u. conversion factor

     IMPORTANT: XC functional enforced from input :
     Exchange-correlation= BEEF-VDW
                           (   1   4  43  14   2   0   0)
     Any further DFT definition will be discarded
     Please, verify this is what you really want

  @ DRIVER MODE: Connecting to
 qe_1139763_2643871.sched-torque.pace.gatech.eduysttewke_scratch
  using UNIX socket
  @ DRIVER MODE: Message from server: STATUS
  @ DRIVER MODE: Message from server: INIT
  @ DRIVER MODE: Receiving replica           0          -1
  @ DRIVER MODE: Receiving encoded integer          25
  @ DRIVER MODE:  SCF:  T  FORCE:  T  STRESS:  F  VC:  F  ENSEMBLE:  F
  @ DRIVER MODE:  SCF:  T  FORCE:  T  STRESS:  F  VC:  F  ENSEMBLE:  F

     Using Slab Decomposition

     bravais-lattice index     =            0
     lattice parameter (alat)  =       1.8897  a.u.
     unit-cell volume          =    6658.9804 (a.u.)^3
     number of atoms/cell      =           56
     number of atomic types    =            5
     number of electrons       =       398.00
     number of Kohn-Sham states=          209
     kinetic-energy cutoff     =      29.3995  Ry
     charge density cutoff     =     293.9946  Ry
     scf convergence threshold =      7.3E-08
     mixing beta               =       0.0500
     number of iterations used =            8  plain     mixing
     Exchange-correlation= BEEF-VDW
                           (   1   4  43  14   2   0   0)

     celldm(1)=   1.889726  celldm(2)=   0.000000  celldm(3)=   0.000000
     celldm(4)=   0.000000  celldm(5)=   0.000000  celldm(6)=   0.000000

     crystal axes: (cart. coord. in units of alat)
               a(1) = (   6.579727   0.000000   0.000000 )
               a(2) = (  -0.000775   5.961596   0.000000 )
               a(3) = (   0.000000   0.000000  25.155947 )

     reciprocal axes: (cart. coord. in units 2 pi/alat)
               b(1) = (  0.151982  0.000020  0.000000 )
               b(2) = (  0.000000  0.167740  0.000000 )
               b(3) = (  0.000000  0.000000  0.039752 )

     PseudoPot. # 1 for Ti read from file:
     /storage/coda1/p-amedford6/0/shared/rich_project_chbe-medford/medford-share/data/pseudos_module/espresso/nninc/pbe/van/Ti.UPF
     MD5 check sum: 8e4df49b7f0d34bbd5052bf3f5ea0213
     Pseudo is Ultrasoft, Zval = 12.0
     Generated by new atomic code, or converted to UPF format
     Using radial grid of  851 points,  6 beta functions with:
                l(1) =   0
                l(2) =   0
                l(3) =   1
                l(4) =   1
                l(5) =   2
                l(6) =   2
     Q(r) pseudized with  8 coefficients,  rinner =    1.000   1.000   1.000
                                                       1.000   1.000

     PseudoPot. # 2 for O  read from file:
     /storage/coda1/p-amedford6/0/shared/rich_project_chbe-medford/medford-share/data/pseudos_module/espresso/nninc/pbe/van/O.UPF
     MD5 check sum: 78c19812648e8988a0fe644b0f25305e
     Pseudo is Ultrasoft, Zval =  6.0
     Generated by new atomic code, or converted to UPF format
     Using radial grid of  737 points,  4 beta functions with:
                l(1) =   0
                l(2) =   0
                l(3) =   1
                l(4) =   1
     Q(r) pseudized with  8 coefficients,  rinner =    0.800   0.800   0.800

     PseudoPot. # 3 for N  read from file:
     /storage/coda1/p-amedford6/0/shared/rich_project_chbe-medford/medford-share/data/pseudos_module/espresso/nninc/pbe/van/N.UPF
     MD5 check sum: 90d10febe142ad51ac9d5be1deb811c4
     Pseudo is Ultrasoft, Zval =  5.0
     Generated by new atomic code, or converted to UPF format
     Using radial grid of  729 points,  4 beta functions with:
                l(1) =   0
                l(2) =   0
                l(3) =   1
                l(4) =   1
     Q(r) pseudized with  8 coefficients,  rinner =    0.800   0.800   0.800

     PseudoPot. # 4 for C  read from file:
     /storage/coda1/p-amedford6/0/shared/rich_project_chbe-medford/medford-share/data/pseudos_module/espresso/nninc/pbe/van/C.UPF
     MD5 check sum: 1a69bf6b8db32088f5b2163dbdb77a27
     Pseudo is Ultrasoft, Zval =  4.0
     Generated by new atomic code, or converted to UPF format
     Using radial grid of  721 points,  4 beta functions with:
                l(1) =   0
                l(2) =   0
                l(3) =   1
                l(4) =   1
     Q(r) pseudized with  8 coefficients,  rinner =    0.800   0.800   0.800

     PseudoPot. # 5 for H  read from file:
     /storage/coda1/p-amedford6/0/shared/rich_project_chbe-medford/medford-share/data/pseudos_module/espresso/nninc/pbe/van/H.UPF
     MD5 check sum: b5ee9d7bfd3a09ee7748110bda690ff7
     Pseudo is Ultrasoft, Zval =  1.0
     Generated by new atomic code, or converted to UPF format
     Using radial grid of  615 points,  1 beta functions with:
                l(1) =   0
     Q(r) pseudized with  8 coefficients,  rinner =    0.800

     atomic species   valence    mass     pseudopotential
        Ti1           12.00    47.86700     Ti( 1.00)
        O1             6.00    15.99900     O ( 1.00)
        N1             5.00    14.00700     N ( 1.00)
        C1             4.00    12.01100     C ( 1.00)
        H1             1.00     1.00800     H ( 1.00)

     No symmetry found

   Cartesian axes

     site n.     atom                  positions (alat units)
         1           Ti1 tau(   1) = (   0.0004258   2.9801865   6.0000000  )
         2           Ti1 tau(   2) = (   3.2906075   1.4906267   6.0002472  )
         3           O1  tau(   3) = (   0.0006271   0.0005054   7.9858123  )
         4           O1  tau(   4) = (   3.2906025   0.0005020   7.3038282  )
         5           O1  tau(   5) = (   4.5942328   1.4918067   9.2879030  )
         6           O1  tau(   6) = (   1.9868534   1.4903216   9.2879459  )
         7           Ti1 tau(   7) = (   3.2907910   2.8959150   9.1758416  )
         8           Ti1 tau(   8) = (   0.0015273   1.4827037   9.2680791  )
         9           O1  tau(   9) = (   3.2714441   0.0289406  11.3813764  )
        10           O1  tau(  10) = (   0.0116148   5.9584955  10.6183126  )
        11           O1  tau(  11) = (   1.2692032   1.5162281  12.7122965  )
        12           O1  tau(  12) = (   5.2779133   1.5159715  12.6811497  )
        13           Ti1 tau(  13) = (   6.5579218   3.0031650  12.5037829  )
        14           Ti1 tau(  14) = (   3.2791490   1.5128154  12.5375672  )
        15           O1  tau(  15) = (   6.5208524   5.8954130  14.6845636  )
        16           O1  tau(  16) = (   3.2849572   0.0099931  14.0031570  )
        17           O1  tau(  17) = (   4.4884262   1.5607690  16.1641467  )
        18           O1  tau(  18) = (   1.9729656   1.5430890  16.0903287  )
        19           Ti1 tau(  19) = (   3.2372663   3.0309179  15.7728032  )
        20           Ti1 tau(  20) = (   6.5553692   1.3539605  15.8053163  )
        21           O1  tau(  21) = (   3.2904802   0.0005063   4.7018136  )
        22           O1  tau(  22) = (   6.5123495   0.2165906  17.2215032  )
        23           O1  tau(  23) = (   1.3043587   1.4918075   6.0039043  )
        24           O1  tau(  24) = (   5.2767064   1.4903225   6.0039473  )
        25           Ti1 tau(  25) = (   0.0000382   5.9609847   6.0000000  )
        26           Ti1 tau(  26) = (   3.2902200   4.4714249   6.0002472  )
        27           O1  tau(  27) = (   0.0002396   2.9813036   7.9858123  )
        28           O1  tau(  28) = (   3.2902150   2.9813002   7.3038282  )
        29           O1  tau(  29) = (   4.5938453   4.4726049   9.2879030  )
        30           O1  tau(  30) = (   1.9864658   4.4711199   9.2879459  )
        31           Ti1 tau(  31) = (   3.2891106   5.8743827   9.1763621  )
        32           Ti1 tau(  32) = (   0.0006254   4.4649316   9.2693709  )
        33           O1  tau(  33) = (   3.2699379   2.9911670  11.3762017  )
        34           O1  tau(  34) = (   0.0092240   2.9805883  10.6323155  )
        35           O1  tau(  35) = (   1.2730946   4.4825978  12.6662957  )
        36           O1  tau(  36) = (   5.2742290   4.4829497  12.6320226  )
        37           Ti1 tau(  37) = (   6.5783117   0.0079037  12.5026730  )
        38           Ti1 tau(  38) = (   3.2784283   4.4905194  12.5286134  )
        39           O1  tau(  39) = (   6.5033290   3.0824797  14.9867588  )
        40           O1  tau(  40) = (   3.2824109   3.0350539  13.9807796  )
        41           O1  tau(  41) = (   4.4804250   4.5097483  16.2808085  )
        42           O1  tau(  42) = (   1.9642025   4.5165872  16.2225063  )
        43           Ti1 tau(  43) = (   3.2609991   0.0502580  15.7998297  )
        44           Ti1 tau(  44) = (   6.5501253   4.5826093  16.0954727  )
        45           O1  tau(  45) = (   3.2900926   2.9813045   4.7018136  )
        46           O1  tau(  46) = (   1.3039711   4.4726057   6.0039043  )
        47           O1  tau(  47) = (   5.2763189   4.4711207   6.0039473  )
        48           N1  tau(  48) = (   0.8845045   3.2634721  19.1145209  )
        49           N1  tau(  49) = (   6.3504243   3.3997271  18.1887592  )
        50           C1  tau(  50) = (   1.2927081   4.5631590  19.6429350  )
        51           H1  tau(  51) = (   0.4658632   5.1229972  20.1056819  )
        52           H1  tau(  52) = (   2.0600825   4.3818216  20.4058833  )
        53           H1  tau(  53) = (   1.7018904   5.1738364  18.8453250  )
        54           H1  tau(  54) = (   0.5628611   2.6866381  19.8888112  )
        55           H1  tau(  55) = (   5.6051421   3.9827062  18.5884547  )
        56           H1  tau(  56) = (   5.9567982   2.4624696  18.0937858  )

     number of k points=    10  Fermi-Dirac smearing, width (Ry)=  0.0073
                       cart. coord. in units 2pi/alat
        k(    1) = (   0.0000000   0.0000000   0.0000000), wk =   0.1250000
        k(    2) = (   0.0000000   0.0419351   0.0000000), wk =   0.2500000
        k(    3) = (   0.0000000  -0.0838702   0.0000000), wk =   0.1250000
        k(    4) = (   0.0379955   0.0000049   0.0000000), wk =   0.2500000
        k(    5) = (   0.0379955   0.0419400   0.0000000), wk =   0.2500000
        k(    6) = (   0.0379955  -0.0838652   0.0000000), wk =   0.2500000
        k(    7) = (   0.0379955  -0.0419301   0.0000000), wk =   0.2500000
        k(    8) = (  -0.0759910  -0.0000099   0.0000000), wk =   0.1250000
        k(    9) = (  -0.0759910   0.0419252   0.0000000), wk =   0.2500000
        k(   10) = (  -0.0759910  -0.0838800   0.0000000), wk =   0.1250000

     Initial potential from superposition of free atoms

     starting charge  381.99914, renormalised to  398.00000

     negative rho (up, down):  1.415E-02 0.000E+00

     %%%%%%%%%%%%%%%%%%%%%%%%%%%%%%%%%%%%%%%%%%%%%%%%%%%%%%%%%%%%%%%%%%%%%%%%
     %                                                                      %
     % You are using vdW-DF, which was implemented by the Thonhauser group. %
     % Please cite the following two papers that made this development      %
     % possible and the two reviews that describe the various versions:     %
     %                                                                      %
     %   T. Thonhauser et al., PRL 115, 136402 (2015).                      %
     %   T. Thonhauser et al., PRB 76, 125112 (2007).                       %
     %   K. Berland et al., Rep. Prog. Phys. 78, 066501 (2015).             %
     %   D.C. Langreth et al., J. Phys.: Condens. Matter 21, 084203 (2009). %
     %                                                                      %
     %                                                                      %
     % If you are calculating the stress with vdW-DF, please also cite:     %
     %                                                                      %
     %   R. Sabatini et al., J. Phys.: Condens. Matter 24, 424209 (2012).   %
     %                                                                      %
     %%%%%%%%%%%%%%%%%%%%%%%%%%%%%%%%%%%%%%%%%%%%%%%%%%%%%%%%%%%%%%%%%%%%%%%%

     Adding external electric field

     Computed dipole along edir(3) :
        Dipole              -11.7179 Ry au,        -29.7838 Debye
        Dipole field         -0.0221 Ry au,

        Potential amp.        2.0499 Ry
        Total length         46.3494 bohr

     Starting wfcs are  302 atomic wfcs
  @ DRIVER MODE: Message from server: STATUS
  @ DRIVER MODE: Message from server: POSDATA
  @ DRIVER MODE: Reading and sharing cell
  @ DRIVER MODE: Reading and sharing positions
  @ DRIVER MODE: Received positions

     Self-consistent Calculation

     iteration #  1     ecut=    29.40 Ry     beta= 0.05
     Davidson diagonalization with overlap
     c_bands:  3 eigenvalues not converged
     c_bands:  1 eigenvalues not converged
     c_bands:  1 eigenvalues not converged
     c_bands:  4 eigenvalues not converged
     c_bands:  1 eigenvalues not converged
     c_bands:  4 eigenvalues not converged
     c_bands:  5 eigenvalues not converged
     c_bands:  2 eigenvalues not converged
     ethr =  1.00E-05,  avg # of iterations = 21.9

[...]

     total energy              =   -2424.58435299 Ry
     estimated scf accuracy    <    5830.22288043 Ry

     iteration #  2     ecut=    29.40 Ry     beta= 0.05
     Davidson diagonalization with overlap
     ethr =  1.00E-02,  avg # of iterations = 22.3

[...]

     iteration # 55     ecut=    29.40 Ry     beta= 0.05
     Davidson diagonalization with overlap
     c_bands:  1 eigenvalues not converged
     c_bands:  2 eigenvalues not converged
     c_bands:  1 eigenvalues not converged
     c_bands:  1 eigenvalues not converged
     ethr =  5.50E-11,  avg # of iterations = 17.3

[...]

     total energy              =   -2942.84381286 Ry
     estimated scf accuracy    <       0.00000015 Ry

     iteration # 57     ecut=    29.40 Ry     beta= 0.05
     Davidson diagonalization with overlap
     ethr =  3.77E-11,  avg # of iterations = 10.0

     negative rho (up, down):  1.511E-02 0.000E+00

     Adding external electric field

     Computed dipole along edir(3) :
        Dipole                1.4941 Ry au,          3.7977 Debye
        Dipole field          0.0028 Ry au,

        Potential amp.       -0.2614 Ry
        Total length         46.3494 bohr

     End of self-consistent calculation

          k = 0.0000 0.0000 0.0000 ( 18029 PWs)   bands (ev):

   -55.2013 -55.1641 -55.1535 -55.1247 -55.1193 -55.0825 -55.0795 -55.0446
   -55.0253 -55.0124 -54.9909 -54.9861 -54.9524 -54.8559 -54.1857 -54.1516
   -31.7676 -31.6515 -31.6464 -31.5676 -31.5146 -31.5135 -31.5107 -31.4922
   -31.4424 -31.4388 -31.4109 -31.4087 -31.3985 -31.3816 -31.3685 -31.3628
   -31.3558 -31.3460 -31.3386 -31.3217 -31.3061 -31.3032 -31.2715 -31.2678
   -31.2570 -31.2561 -31.2377 -31.2280 -31.2106 -31.2099 -31.2056 -31.1849
   -31.1847 -31.1815 -31.1747 -31.1720 -31.1387 -31.1290 -31.1144 -31.0975
   -31.0691 -31.0498 -30.5953 -30.5006 -30.4786 -30.4115 -30.3247 -30.2139
   -17.9600 -16.0348 -15.7725 -15.6271 -15.5149 -15.4037 -15.2842 -15.2533
   -15.1336 -15.0576 -14.9236 -14.8973 -14.8748 -14.8512 -14.8393 -14.8267
   -14.7510 -14.7445 -14.7285 -14.7003 -14.6984 -14.6532 -14.6434 -14.6040
   -14.5790 -14.5577 -14.4531 -14.3649 -14.2910 -14.0744 -13.4368 -12.6884
   -12.5709  -9.6975  -6.5935  -6.0872  -4.5890  -3.3732  -3.2369  -3.2249
    -3.1372  -3.1040  -3.0957  -3.0019  -2.9499  -2.7916  -2.6493  -2.6233
    -2.4925  -2.4175  -2.4011  -2.3766  -2.2469  -2.2118  -2.1606  -2.1217
    -2.0624  -2.0321  -2.0082  -1.9925  -1.9614  -1.9523  -1.9272  -1.8382
    -1.7786  -1.6854  -1.6682  -1.6008  -1.5927  -1.5602  -1.5391  -1.4939
    -1.4836  -1.4338  -1.4266  -1.4139  -1.3941  -1.2656  -1.2227  -1.1127
    -1.0515  -0.9639  -0.8432  -0.8031  -0.7890  -0.6984  -0.6895  -0.6575
    -0.5811  -0.5780  -0.5472  -0.4390  -0.3741  -0.3104  -0.2515  -0.2252
    -0.1920  -0.1145  -0.0238   0.0124   0.0291   0.0522   0.1525   0.1874
     0.2432   0.3100   0.3215   0.3347   0.4144   0.4555   0.5308   0.5673
     0.5850   0.6737   0.7001   0.7279   0.7285   0.7663   0.7805   0.8202
     0.8689   0.8957   0.9822   1.0455   1.1032   1.3478   1.4004   1.4065
     1.7325   1.7405   1.8369   2.0203   2.4134   2.4618   3.8952   3.9639
     4.0396   4.0447   4.0671   4.1309   4.3688   4.3919   4.4008   4.4030
     4.4297

[...]

          k = 0.0380-0.0419 0.0000 ( 17876 PWs)   bands (ev):

[...]

          k =-0.0760-0.0000 0.0000 ( 17886 PWs)   bands (ev):

[...]

          k =-0.0760-0.0839 0.0000 ( 17948 PWs)   bands (ev):

   -55.1875 -55.1777 -55.1365 -55.1362 -55.1234 -55.0782 -55.0651 -55.0590
   -55.0166 -55.0095 -55.0063 -54.9696 -54.9690 -54.8570 -54.1688 -54.1684
   -31.5758 -31.5749 -31.5680 -31.4832 -31.4616 -31.4614 -31.4583 -31.4277
   -31.4276 -31.4122 -31.4013 -31.3997 -31.3910 -31.3654 -31.3560 -31.3430
   -31.3421 -31.3381 -31.3350 -31.3294 -31.3274 -31.3214 -31.2825 -31.2791
   -31.2789 -31.2775 -31.2599 -31.2584 -31.2561 -31.2559 -31.2510 -31.2426
   -31.2395 -31.2227 -31.2192 -31.2034 -31.2026 -31.1996 -31.1503 -31.1499
   -31.1256 -31.0735 -30.4914 -30.4910 -30.4079 -30.4076 -30.3682 -30.3680
   -17.9568 -15.5599 -15.4298 -15.4007 -15.2443 -15.2082 -15.1748 -15.1615
   -15.0406 -15.0033 -14.9786 -14.9692 -14.9516 -14.9112 -14.9056 -14.8986
   -14.8282 -14.8089 -14.8047 -14.7824 -14.7242 -14.7153 -14.7114 -14.7038
   -14.6533 -14.6496 -14.5690 -14.5589 -14.5556 -14.3759 -13.4401 -12.6724
   -12.6724  -9.7136  -6.5775  -6.0871  -4.5682  -3.2049  -2.9608  -2.6922
    -2.6874  -2.6593  -2.4582  -2.3955  -2.3648  -2.3593  -2.2620  -2.2254
    -2.2009  -2.1974  -2.1318  -2.1173  -2.0867  -2.0565  -2.0403  -2.0264
    -2.0107  -1.9966  -1.9712  -1.9337  -1.9256  -1.9173  -1.8855  -1.8639
    -1.8409  -1.8185  -1.8051  -1.7866  -1.7607  -1.7382  -1.6014  -1.5698
    -1.4994  -1.4561  -1.4131  -1.4087  -1.3370  -1.3006  -1.2504  -1.2383
    -1.2212  -1.0814  -1.0231  -0.9721  -0.9522  -0.9412  -0.8123  -0.7981
    -0.7251  -0.7074  -0.6911  -0.6159  -0.5655  -0.5272  -0.5136  -0.4203
    -0.4048  -0.3385  -0.2364  -0.2137  -0.1998  -0.1592  -0.1561  -0.1089
    -0.1018  -0.0177   0.0265   0.0616   0.0724   0.1082   0.3010   0.3171
     0.3271   0.4801   0.4959   0.6376   0.6811   0.7476   0.8065   0.8454
     0.9070   0.9443   1.0552   1.0871   1.1021   1.1099   1.1718   1.1837
     1.2464   1.2572   2.1930   2.1936   2.2816   2.2820   4.0411   4.1485
     4.1561   4.1977   4.3177   4.3478   4.4101   4.4374   4.4790   4.4822
     4.5519

     the Fermi energy is     3.9585 ev

!    total energy              =   -2942.84387000 Ry
     estimated scf accuracy    <       0.00000004 Ry
     smearing contrib. (-TS)   =      -0.03707629 Ry
     internal energy E=F+TS    =   -2942.80679371 Ry

     The total energy is F=E-TS. E is the sum of the following terms:
     one-electron contribution =  -23366.28235799 Ry
     hartree contribution      =   11777.31379810 Ry
     xc contribution           =    -487.73600812 Ry
     ewald contribution        =    9133.89356133 Ry
     electric field correction =       0.00421298 Ry

     convergence has been achieved in  57 iterations

     Forces acting on atoms (cartesian axes, Ry/au):

     atom    1 type  1   force =     0.00017710   -0.00032579    0.09329535
     atom    2 type  1   force =    -0.00006437   -0.00042259   -0.17822560
     atom    3 type  2   force =     0.00002802   -0.00032138   -0.02003316
     atom    4 type  2   force =     0.00001985   -0.00183133    0.05923221
     atom    5 type  2   force =    -0.01047033   -0.00025882    0.00864237
     atom    6 type  2   force =     0.01148643    0.00041249    0.00645142
     atom    7 type  1   force =    -0.00100771    0.00212866   -0.01398273
     atom    8 type  1   force =     0.00081443   -0.00094292   -0.00573522
     atom    9 type  2   force =    -0.00009922    0.00012556    0.00000608
     atom   10 type  2   force =    -0.00185762    0.00411489    0.00026622
     atom   11 type  2   force =    -0.00006922   -0.00064714    0.00028105
     atom   12 type  2   force =    -0.00000900   -0.00041442    0.00053789
     atom   13 type  1   force =     0.00004491    0.00008385    0.00031106
     atom   14 type  1   force =    -0.00037839   -0.00000141    0.00006100
     atom   15 type  2   force =     0.00052080    0.00023231   -0.00031480
     atom   16 type  2   force =     0.00032162   -0.00035137   -0.00007559
     atom   17 type  2   force =    -0.00058335   -0.00001967   -0.00003733
     atom   18 type  2   force =     0.00053957   -0.00019740    0.00000234
     atom   19 type  1   force =    -0.00002788   -0.00053475    0.00024341
     atom   20 type  1   force =     0.00069952    0.00009796    0.00091637
     atom   21 type  2   force =     0.00012506   -0.00012615    0.10404979
     atom   22 type  2   force =    -0.00037845    0.00019376   -0.00027262
     atom   23 type  2   force =    -0.07028775   -0.00022503   -0.02687425
     atom   24 type  2   force =     0.07027939    0.00021048   -0.02689760
     atom   25 type  1   force =     0.00007428   -0.00032434    0.09260698
     atom   26 type  1   force =    -0.00004015   -0.00059114   -0.17833612
     atom   27 type  2   force =     0.00013119   -0.00016568   -0.01908869
     atom   28 type  2   force =     0.00005244   -0.00163326    0.05859073
     atom   29 type  2   force =    -0.01106962   -0.00055736    0.00931907
     atom   30 type  2   force =     0.01198795   -0.00002020    0.00721034
     atom   31 type  1   force =    -0.00093433    0.00648493   -0.01504639
     atom   32 type  1   force =     0.00085804    0.00101175   -0.00588346
     atom   33 type  2   force =     0.00017859   -0.00057470   -0.00002563
     atom   34 type  2   force =    -0.00185794   -0.00052403   -0.00049348
     atom   35 type  2   force =    -0.00045095    0.00006385   -0.00043690
     atom   36 type  2   force =     0.00034843   -0.00011654    0.00018147
     atom   37 type  1   force =    -0.00051022   -0.00024283    0.00018936
     atom   38 type  1   force =    -0.00004294   -0.00015384   -0.00009000
     atom   39 type  2   force =     0.00029617   -0.00060119    0.00000565
     atom   40 type  2   force =    -0.00060231   -0.00051445    0.00025062
     atom   41 type  2   force =    -0.00023250   -0.00073301   -0.00071237
     atom   42 type  2   force =     0.00045831   -0.00008673   -0.00011398
     atom   43 type  1   force =     0.00023976   -0.00021449   -0.00017820
     atom   44 type  1   force =     0.00052417    0.00005420    0.00081344
     atom   45 type  2   force =     0.00013436   -0.00014131    0.10400979
     atom   46 type  2   force =    -0.07028535   -0.00015539   -0.02685120
     atom   47 type  2   force =     0.07025613    0.00026631   -0.02690667
     atom   48 type  3   force =     0.00135156    0.00133559   -0.00009544
     atom   49 type  3   force =    -0.00015374   -0.00083436   -0.00000736
     atom   50 type  4   force =     0.00482880   -0.00275518    0.00627825
     atom   51 type  5   force =    -0.00111959    0.00154199    0.00030545
     atom   52 type  5   force =    -0.00469883    0.00088359   -0.00687421
     atom   53 type  5   force =     0.00144017    0.00033404   -0.00073673
     atom   54 type  5   force =    -0.00001868   -0.00174190    0.00068390
     atom   55 type  5   force =     0.00005346   -0.00053028   -0.00016044
     atom   56 type  5   force =    -0.00102006    0.00025617   -0.00025540

     Total force =     0.366535     Total SCF correction =     0.000468
  @ DRIVER MODE: Message from server: STATUS
  @ DRIVER MODE: Message from server: GETFORCE
  @ DRIVER MODE: Returning v,forces,stress,ensemble

     Writing output data file ./calc.save/
  @ DRIVER MODE: Message from server: EXIT
  @ DRIVE MODE: Exiting

     General routines

     Parallel routines

   This run was terminated on:   9:39:14  25Aug2021

   JOB DONE.