     Program PWSCF v.6.7GPU starts on 16Sep2021 at  0: 0:48

     R & G space division:  proc/nbgrp/npool/nimage =      10
     Reading input from /storage/home/hcoda1/3/ntian30/research/carbon/CxH_vib/H2O_calc/ads_slab/CHNHH2O_a/out_0025/pw.inp
Warning: card &CELL ignored
Warning: card   CELL_DYNAMICS='IPI', ignored
Warning: card / ignored

     Current dimensions of program PWSCF are:
     Max number of different atomic species (ntypx) = 10
     Max number of k-points (npk) =  40000
     Max angular momentum in pseudopotentials (lmaxx) =  3
     Presently no symmetry can be used with electric field

     Message from routine cell_base_init:
     DEPRECATED: use true lattice parameter, not A to a.u. conversion factor

     IMPORTANT: XC functional enforced from input :
     Exchange-correlation= BEEF-VDW
                           (   1   4  43  14   2   0   0)
     Any further DFT definition will be discarded
     Please, verify this is what you really want

  @ DRIVER MODE: Connecting to
 qe_1139763_2852628.sched-torque.pace.gatech.eduv7x955pn_scratch
  using UNIX socket
  @ DRIVER MODE: Message from server: STATUS
  @ DRIVER MODE: Message from server: INIT
  @ DRIVER MODE: Receiving replica           0          -1
  @ DRIVER MODE: Receiving encoded integer          25
  @ DRIVER MODE:  SCF:  T  FORCE:  T  STRESS:  F  VC:  F  ENSEMBLE:  F
  @ DRIVER MODE:  SCF:  T  FORCE:  T  STRESS:  F  VC:  F  ENSEMBLE:  F

     Using Slab Decomposition

     bravais-lattice index     =            0
     lattice parameter (alat)  =       1.8897  a.u.
     unit-cell volume          =    6658.9804 (a.u.)^3
     number of atoms/cell      =           54
     number of atomic types    =            5
     number of electrons       =       397.00
     number of Kohn-Sham states=          208
     kinetic-energy cutoff     =      29.3995  Ry
     charge density cutoff     =     293.9946  Ry
     scf convergence threshold =      7.3E-08
     mixing beta               =       0.0500
     number of iterations used =            8  plain     mixing
     Exchange-correlation= BEEF-VDW
                           (   1   4  43  14   2   0   0)

     celldm(1)=   1.889726  celldm(2)=   0.000000  celldm(3)=   0.000000
     celldm(4)=   0.000000  celldm(5)=   0.000000  celldm(6)=   0.000000

     crystal axes: (cart. coord. in units of alat)
               a(1) = (   6.579727   0.000000   0.000000 )
               a(2) = (  -0.000775   5.961596   0.000000 )
               a(3) = (   0.000000   0.000000  25.155947 )

     reciprocal axes: (cart. coord. in units 2 pi/alat)
               b(1) = (  0.151982  0.000020  0.000000 )
               b(2) = (  0.000000  0.167740  0.000000 )
               b(3) = (  0.000000  0.000000  0.039752 )

     PseudoPot. # 1 for Ti read from file:
     /storage/coda1/p-amedford6/0/shared/rich_project_chbe-medford/medford-share/data/pseudos_module/espresso/nninc/pbe/van/Ti.UPF
     MD5 check sum: 8e4df49b7f0d34bbd5052bf3f5ea0213
     Pseudo is Ultrasoft, Zval = 12.0
     Generated by new atomic code, or converted to UPF format
     Using radial grid of  851 points,  6 beta functions with:
                l(1) =   0
                l(2) =   0
                l(3) =   1
                l(4) =   1
                l(5) =   2
                l(6) =   2
     Q(r) pseudized with  8 coefficients,  rinner =    1.000   1.000   1.000
                                                       1.000   1.000

     PseudoPot. # 2 for O  read from file:
     /storage/coda1/p-amedford6/0/shared/rich_project_chbe-medford/medford-share/data/pseudos_module/espresso/nninc/pbe/van/O.UPF
     MD5 check sum: 78c19812648e8988a0fe644b0f25305e
     Pseudo is Ultrasoft, Zval =  6.0
     Generated by new atomic code, or converted to UPF format
     Using radial grid of  737 points,  4 beta functions with:
                l(1) =   0
                l(2) =   0
                l(3) =   1
                l(4) =   1
     Q(r) pseudized with  8 coefficients,  rinner =    0.800   0.800   0.800

     PseudoPot. # 3 for N  read from file:
     /storage/coda1/p-amedford6/0/shared/rich_project_chbe-medford/medford-share/data/pseudos_module/espresso/nninc/pbe/van/N.UPF
     MD5 check sum: 90d10febe142ad51ac9d5be1deb811c4
     Pseudo is Ultrasoft, Zval =  5.0
     Generated by new atomic code, or converted to UPF format
     Using radial grid of  729 points,  4 beta functions with:
                l(1) =   0
                l(2) =   0
                l(3) =   1
                l(4) =   1
     Q(r) pseudized with  8 coefficients,  rinner =    0.800   0.800   0.800

     PseudoPot. # 4 for C  read from file:
     /storage/coda1/p-amedford6/0/shared/rich_project_chbe-medford/medford-share/data/pseudos_module/espresso/nninc/pbe/van/C.UPF
     MD5 check sum: 1a69bf6b8db32088f5b2163dbdb77a27
     Pseudo is Ultrasoft, Zval =  4.0
     Generated by new atomic code, or converted to UPF format
     Using radial grid of  721 points,  4 beta functions with:
                l(1) =   0
                l(2) =   0
                l(3) =   1
                l(4) =   1
     Q(r) pseudized with  8 coefficients,  rinner =    0.800   0.800   0.800

     PseudoPot. # 5 for H  read from file:
     /storage/coda1/p-amedford6/0/shared/rich_project_chbe-medford/medford-share/data/pseudos_module/espresso/nninc/pbe/van/H.UPF
     MD5 check sum: b5ee9d7bfd3a09ee7748110bda690ff7
     Pseudo is Ultrasoft, Zval =  1.0
     Generated by new atomic code, or converted to UPF format
     Using radial grid of  615 points,  1 beta functions with:
                l(1) =   0
     Q(r) pseudized with  8 coefficients,  rinner =    0.800

     atomic species   valence    mass     pseudopotential
        Ti1           12.00    47.86700     Ti( 1.00)
        O1             6.00    15.99900     O ( 1.00)
        N1             5.00    14.00700     N ( 1.00)
        C1             4.00    12.01100     C ( 1.00)
        H1             1.00     1.00800     H ( 1.00)

     No symmetry found

   Cartesian axes

     site n.     atom                  positions (alat units)
         1           Ti1 tau(   1) = (   0.0004258   2.9801865   6.0000000  )
         2           Ti1 tau(   2) = (   3.2906075   1.4906267   6.0002472  )
         3           O1  tau(   3) = (   0.0006271   0.0005054   7.9858123  )
         4           O1  tau(   4) = (   3.2906025   0.0005020   7.3038282  )
         5           O1  tau(   5) = (   4.5942328   1.4918067   9.2879030  )
         6           O1  tau(   6) = (   1.9868534   1.4903216   9.2879459  )
         7           Ti1 tau(   7) = (   3.2907910   2.8959150   9.1758416  )
         8           Ti1 tau(   8) = (   0.0015273   1.4827037   9.2680791  )
         9           O1  tau(   9) = (   3.2914171   5.9475995  11.3455371  )
        10           O1  tau(  10) = (   0.0116148   5.9584955  10.6183126  )
        11           O1  tau(  11) = (   1.3057669   1.4807986  12.6390077  )
        12           O1  tau(  12) = (   5.3035249   1.4749620  12.6227664  )
        13           Ti1 tau(  13) = (   6.5294082   2.9362577  12.6231083  )
        14           Ti1 tau(  14) = (   3.2175537   1.4615748  12.5070279  )
        15           O1  tau(  15) = (   6.5585639   5.9474800  14.6380151  )
        16           O1  tau(  16) = (   3.3125803   5.9531145  13.9695519  )
        17           O1  tau(  17) = (   4.5393379   1.5011389  16.1071157  )
        18           O1  tau(  18) = (   2.0094023   1.5044898  16.0307267  )
        19           Ti1 tau(  19) = (   3.2760958   2.9523363  15.6877793  )
        20           Ti1 tau(  20) = (   0.0277933   1.3451898  16.0452527  )
        21           O1  tau(  21) = (   3.2904802   0.0005063   4.7018136  )
        22           O1  tau(  22) = (   0.0198929   5.9263875  17.1601691  )
        23           O1  tau(  23) = (   1.3043587   1.4918075   6.0039043  )
        24           O1  tau(  24) = (   5.2767064   1.4903225   6.0039473  )
        25           Ti1 tau(  25) = (   0.0000382   5.9609847   6.0000000  )
        26           Ti1 tau(  26) = (   3.2902200   4.4714249   6.0002472  )
        27           O1  tau(  27) = (   0.0002396   2.9813036   7.9858123  )
        28           O1  tau(  28) = (   3.2902150   2.9813002   7.3038282  )
        29           O1  tau(  29) = (   4.5938453   4.4726049   9.2879030  )
        30           O1  tau(  30) = (   1.9864658   4.4711199   9.2879459  )
        31           Ti1 tau(  31) = (   3.2891106   5.8743827   9.1763621  )
        32           Ti1 tau(  32) = (   0.0006254   4.4649316   9.2693709  )
        33           O1  tau(  33) = (   3.2862706   2.9662616  11.3468726  )
        34           O1  tau(  34) = (   0.0092240   2.9805883  10.6323155  )
        35           O1  tau(  35) = (   1.3102706   4.4726941  12.6361575  )
        36           O1  tau(  36) = (   5.3014905   4.4644878  12.6181669  )
        37           Ti1 tau(  37) = (   6.5311680   5.9227251  12.5202533  )
        38           Ti1 tau(  38) = (   3.2191334   4.4553394  12.5017427  )
        39           O1  tau(  39) = (   6.5614274   2.9920157  14.6796082  )
        40           O1  tau(  40) = (   3.3146075   2.9603188  13.8993185  )
        41           O1  tau(  41) = (   4.5484517   4.4144432  16.0509510  )
        42           O1  tau(  42) = (   2.0146171   4.4214036  15.9967612  )
        43           Ti1 tau(  43) = (   3.3303817   5.9274347  15.8100502  )
        44           Ti1 tau(  44) = (   0.0273359   4.4939047  15.8144843  )
        45           O1  tau(  45) = (   3.2900926   2.9813045   4.7018136  )
        46           O1  tau(  46) = (   1.3039711   4.4726057   6.0039043  )
        47           O1  tau(  47) = (   5.2763189   4.4711207   6.0039473  )
        48           N1  tau(  48) = (   6.5134970   2.9613368  17.6459670  )
        49           C1  tau(  49) = (   0.7931072   3.0267964  18.6255283  )
        50           H1  tau(  50) = (   1.8307262   2.9311331  18.2395185  )
        51           H1  tau(  51) = (   5.5494773   3.0666896  17.9713127  )
        52           O1  tau(  52) = (   3.1755344   5.8058271  18.1612476  )
        53           H1  tau(  53) = (   3.8461454   0.3022996  18.7034462  )
        54           H1  tau(  54) = (   2.3120581   0.0053998  18.5533318  )

     number of k points=    10  Fermi-Dirac smearing, width (Ry)=  0.0073
                       cart. coord. in units 2pi/alat
        k(    1) = (   0.0000000   0.0000000   0.0000000), wk =   0.1250000
        k(    2) = (   0.0000000   0.0419351   0.0000000), wk =   0.2500000
        k(    3) = (   0.0000000  -0.0838702   0.0000000), wk =   0.1250000
        k(    4) = (   0.0379955   0.0000049   0.0000000), wk =   0.2500000
        k(    5) = (   0.0379955   0.0419400   0.0000000), wk =   0.2500000
        k(    6) = (   0.0379955  -0.0838652   0.0000000), wk =   0.2500000
        k(    7) = (   0.0379955  -0.0419301   0.0000000), wk =   0.2500000
        k(    8) = (  -0.0759910  -0.0000099   0.0000000), wk =   0.1250000
        k(    9) = (  -0.0759910   0.0419252   0.0000000), wk =   0.2500000
        k(   10) = (  -0.0759910  -0.0838800   0.0000000), wk =   0.1250000

     Initial potential from superposition of free atoms

     starting charge  380.99916, renormalised to  397.00000

     negative rho (up, down):  1.755E-02 0.000E+00

     %%%%%%%%%%%%%%%%%%%%%%%%%%%%%%%%%%%%%%%%%%%%%%%%%%%%%%%%%%%%%%%%%%%%%%%%
     %                                                                      %
     % You are using vdW-DF, which was implemented by the Thonhauser group. %
     % Please cite the following two papers that made this development      %
     % possible and the two reviews that describe the various versions:     %
     %                                                                      %
     %   T. Thonhauser et al., PRL 115, 136402 (2015).                      %
     %   T. Thonhauser et al., PRB 76, 125112 (2007).                       %
     %   K. Berland et al., Rep. Prog. Phys. 78, 066501 (2015).             %
     %   D.C. Langreth et al., J. Phys.: Condens. Matter 21, 084203 (2009). %
     %                                                                      %
     %                                                                      %
     % If you are calculating the stress with vdW-DF, please also cite:     %
     %                                                                      %
     %   R. Sabatini et al., J. Phys.: Condens. Matter 24, 424209 (2012).   %
     %                                                                      %
     %%%%%%%%%%%%%%%%%%%%%%%%%%%%%%%%%%%%%%%%%%%%%%%%%%%%%%%%%%%%%%%%%%%%%%%%

     Adding external electric field

     Computed dipole along edir(3) :
        Dipole               -9.1667 Ry au,        -23.2993 Debye
        Dipole field         -0.0173 Ry au,

        Potential amp.        1.6036 Ry
        Total length         46.3494 bohr

     Starting wfcs are  300 atomic wfcs
  @ DRIVER MODE: Message from server: STATUS
  @ DRIVER MODE: Message from server: POSDATA
  @ DRIVER MODE: Reading and sharing cell
  @ DRIVER MODE: Reading and sharing positions
  @ DRIVER MODE: Received positions

     Self-consistent Calculation

     iteration #  1     ecut=    29.40 Ry     beta= 0.05
     Davidson diagonalization with overlap
     c_bands:  1 eigenvalues not converged
     c_bands:  1 eigenvalues not converged
     c_bands:  1 eigenvalues not converged
     c_bands:  1 eigenvalues not converged
     c_bands:  1 eigenvalues not converged
     c_bands:  1 eigenvalues not converged
     c_bands:  1 eigenvalues not converged
     c_bands:  1 eigenvalues not converged
     c_bands:  1 eigenvalues not converged
     ethr =  1.00E-05,  avg # of iterations = 19.8

[...]

     total energy              =   -2547.26249053 Ry
     estimated scf accuracy    <    4504.92991002 Ry

     iteration #  2     ecut=    29.40 Ry     beta= 0.05
     Davidson diagonalization with overlap
     ethr =  1.00E-02,  avg # of iterations = 24.8

[...]

     iteration # 75     ecut=    29.40 Ry     beta= 0.05
     Davidson diagonalization with overlap
     ethr =  5.09E-11,  avg # of iterations =  8.5

[...]

     total energy              =   -2952.61549526 Ry
     estimated scf accuracy    <       0.00000010 Ry

     iteration # 76     ecut=    29.40 Ry     beta= 0.05
     Davidson diagonalization with overlap
     c_bands:  1 eigenvalues not converged
     ethr =  2.39E-11,  avg # of iterations = 13.5

     negative rho (up, down):  1.616E-02 0.000E+00

     Adding external electric field

     Computed dipole along edir(3) :
        Dipole                0.4092 Ry au,          1.0400 Debye
        Dipole field          0.0008 Ry au,

        Potential amp.       -0.0716 Ry
        Total length         46.3494 bohr

     End of self-consistent calculation

          k = 0.0000 0.0000 0.0000 ( 18029 PWs)   bands (ev):

   -56.0234 -55.9991 -55.9924 -55.9892 -55.9628 -55.8693 -55.8369 -55.8279
   -55.8244 -55.8112 -55.8027 -55.7777 -55.7477 -55.5783 -55.0092 -54.9752
   -32.5450 -32.5072 -32.4007 -32.3687 -32.3358 -32.3155 -32.3067 -32.3012
   -32.2668 -32.2364 -32.2245 -32.2180 -32.2083 -32.1958 -32.1781 -32.1758
   -32.1513 -32.1290 -32.1280 -32.1248 -32.0920 -32.0806 -32.0720 -32.0397
   -32.0289 -32.0273 -32.0235 -32.0193 -32.0163 -32.0111 -31.9964 -31.9853
   -31.9833 -31.9819 -31.9698 -31.9640 -31.9599 -31.9416 -31.9223 -31.8390
   -31.8220 -31.7352 -31.4166 -31.3274 -31.3050 -31.2333 -31.1468 -31.0358
   -19.2416 -16.7561 -16.5158 -16.3409 -16.2007 -16.1700 -15.9534 -15.8517
   -15.7807 -15.7263 -15.6574 -15.6054 -15.5715 -15.5623 -15.5457 -15.5227
   -15.5024 -15.4796 -15.4564 -15.4446 -15.4381 -15.3958 -15.3887 -15.3727
   -15.3540 -15.2477 -15.1840 -15.1596 -15.1144 -15.0913 -14.7377 -13.5112
   -13.3946  -7.8683  -7.1026  -4.1540  -4.0593  -3.9846  -3.9433  -3.9286
    -3.7716  -3.6944  -3.5449  -3.5180  -3.3075  -3.2748  -3.2201  -3.1948
    -3.1333  -3.0714  -2.9762  -2.9324  -2.8556  -2.8400  -2.8271  -2.8042
    -2.7838  -2.7677  -2.7273  -2.6638  -2.5936  -2.5602  -2.4463  -2.4205
    -2.4137  -2.3460  -2.3389  -2.3272  -2.3141  -2.2826  -2.2609  -2.2577
    -2.1861  -2.1541  -2.0838  -2.0318  -1.9707  -1.8527  -1.7008  -1.6392
    -1.5888  -1.5281  -1.5033  -1.4676  -1.4454  -1.4211  -1.3611  -1.3041
    -1.2395  -1.2275  -1.1569  -1.0645  -0.9929  -0.9556  -0.8849  -0.8231
    -0.8015  -0.7736  -0.7654  -0.7566  -0.7079  -0.5349  -0.4790  -0.4651
    -0.4257  -0.3429  -0.3125  -0.3025  -0.2534  -0.2448  -0.2052  -0.1164
    -0.0975  -0.0624  -0.0446  -0.0311   0.0019   0.0213   0.1765   0.1971
     0.2394   0.2610   0.3636   0.4698   0.5365   0.6240   0.7185   0.9373
     1.0133   1.0904   1.2043   1.5855   1.6316   2.7808   3.1048   3.1934
     3.2314   3.2375   3.2716   3.3422   3.5588   3.5896   3.6071   3.6638

[...]

          k = 0.0380-0.0419 0.0000 ( 17876 PWs)   bands (ev):

[...]

          k =-0.0760-0.0000 0.0000 ( 17886 PWs)   bands (ev):

[...]

          k =-0.0760-0.0839 0.0000 ( 17948 PWs)   bands (ev):

   -56.0071 -56.0054 -55.9910 -55.9829 -55.9784 -55.8601 -55.8372 -55.8260
   -55.8205 -55.8183 -55.7952 -55.7941 -55.7461 -55.5797 -54.9923 -54.9920
   -32.3588 -32.3429 -32.3230 -32.3219 -32.3016 -32.3002 -32.2797 -32.2718
   -32.2521 -32.2192 -32.2043 -32.1999 -32.1956 -32.1740 -32.1463 -32.1412
   -32.1366 -32.1344 -32.1328 -32.1311 -32.1305 -32.1274 -32.1265 -32.1248
   -32.0781 -32.0591 -32.0503 -32.0386 -32.0268 -32.0245 -32.0231 -32.0213
   -32.0207 -32.0101 -32.0083 -31.9979 -31.9917 -31.9772 -31.9714 -31.8429
   -31.8270 -31.8221 -31.3178 -31.3176 -31.2295 -31.2292 -31.1901 -31.1900
   -19.2407 -16.2150 -16.0955 -16.0407 -15.9476 -15.9221 -15.9078 -15.8339
   -15.7811 -15.7282 -15.7185 -15.6945 -15.6800 -15.6729 -15.6140 -15.5856
   -15.5612 -15.5503 -15.5068 -15.4942 -15.4862 -15.4723 -15.4703 -15.4641
   -15.4205 -15.3890 -15.3522 -15.3482 -15.2088 -15.1000 -15.0097 -13.4966
   -13.4962  -7.8774  -7.1044  -3.9113  -3.6474  -3.4930  -3.3160  -3.2651
    -3.1665  -3.1541  -3.1233  -3.1031  -2.9938  -2.9343  -2.9216  -2.8999
    -2.8590  -2.8493  -2.8426  -2.8376  -2.8032  -2.8015  -2.7649  -2.7459
    -2.7146  -2.7011  -2.6955  -2.6885  -2.6645  -2.6450  -2.6052  -2.5904
    -2.5742  -2.5443  -2.5072  -2.3739  -2.3042  -2.2266  -2.2188  -2.1791
    -2.1665  -2.1468  -2.1036  -2.0858  -2.0585  -1.9774  -1.9020  -1.7476
    -1.7294  -1.7059  -1.6742  -1.6143  -1.5220  -1.4969  -1.4691  -1.4227
    -1.4063  -1.3477  -1.3265  -1.2962  -1.2404  -1.1780  -1.1407  -1.1137
    -1.0684  -1.0034  -0.9827  -0.9615  -0.9482  -0.8870  -0.7787  -0.7721
    -0.7666  -0.7169  -0.7014  -0.6718  -0.6510  -0.5590  -0.4797  -0.4196
    -0.3228  -0.1586  -0.0785   0.0190   0.0561   0.1010   0.1457   0.1872
     0.2844   0.2864   0.3585   0.3893   0.4071   0.4888   0.4998   0.5229
     0.6834   1.3759   1.3771   1.4511   1.4516   2.8156   3.3621   3.4084
     3.4426   3.4893   3.5921   3.6123   3.6423   3.6427   3.7212   3.7687

     the Fermi energy is     3.1079 ev

!    total energy              =   -2952.61550804 Ry
     estimated scf accuracy    <       0.00000005 Ry
     smearing contrib. (-TS)   =      -0.02584151 Ry
     internal energy E=F+TS    =   -2952.58966654 Ry

     The total energy is F=E-TS. E is the sum of the following terms:
     one-electron contribution =  -24509.56187236 Ry
     hartree contribution      =   12341.97692953 Ry
     xc contribution           =    -487.96464641 Ry
     ewald contribution        =    9702.95960674 Ry
     electric field correction =       0.00031596 Ry

     convergence has been achieved in  76 iterations

     Forces acting on atoms (cartesian axes, Ry/au):

     atom    1 type  1   force =    -0.00003272   -0.00030676    0.09590918
     atom    2 type  1   force =     0.00005583   -0.00049411   -0.17611545
     atom    3 type  2   force =     0.00010435   -0.00010070   -0.02430918
     atom    4 type  2   force =     0.00000991   -0.00163305    0.05391964
     atom    5 type  2   force =    -0.01178559   -0.00141737    0.00394287
     atom    6 type  2   force =     0.01321753   -0.00102513    0.00318501
     atom    7 type  1   force =     0.00034834    0.00068757   -0.00766158
     atom    8 type  1   force =     0.00027014    0.01496641    0.02332293
     atom    9 type  2   force =    -0.00004753    0.00018614    0.00013865
     atom   10 type  2   force =    -0.00219172    0.00049609   -0.01741720
     atom   11 type  2   force =     0.00046978   -0.00026918   -0.00020424
     atom   12 type  2   force =    -0.00083978   -0.00018103    0.00001388
     atom   13 type  1   force =     0.00046996    0.00044300    0.00006274
     atom   14 type  1   force =    -0.00019234    0.00004515    0.00087872
     atom   15 type  2   force =    -0.00014522   -0.00003180   -0.00073398
     atom   16 type  2   force =     0.00000879    0.00051306   -0.00020661
     atom   17 type  2   force =    -0.00053377    0.00012850    0.00025538
     atom   18 type  2   force =     0.00023069    0.00029487   -0.00038655
     atom   19 type  1   force =     0.00052385    0.00060042   -0.00043516
     atom   20 type  1   force =    -0.00043163    0.00034547   -0.00004306
     atom   21 type  2   force =     0.00006638   -0.00000292    0.10330217
     atom   22 type  2   force =    -0.00038995   -0.00019265    0.00058607
     atom   23 type  2   force =    -0.07133374   -0.00010639   -0.02763400
     atom   24 type  2   force =     0.07125963    0.00034319   -0.02770299
     atom   25 type  1   force =     0.00024204   -0.00028959    0.09573960
     atom   26 type  1   force =     0.00011313   -0.00029108   -0.17604395
     atom   27 type  2   force =     0.00014128   -0.00028985   -0.02320381
     atom   28 type  2   force =     0.00000385   -0.00132603    0.05367721
     atom   29 type  2   force =    -0.01212778    0.00039247    0.00379198
     atom   30 type  2   force =     0.01352101    0.00100901    0.00303491
     atom   31 type  1   force =     0.00024657    0.00375634   -0.01146045
     atom   32 type  1   force =     0.00044564   -0.01661653    0.02313788
     atom   33 type  2   force =     0.00018053    0.00009986   -0.00030690
     atom   34 type  2   force =    -0.00191337   -0.00010406   -0.02069907
     atom   35 type  2   force =     0.00046131    0.00006035    0.00008372
     atom   36 type  2   force =    -0.00088652   -0.00000287    0.00034107
     atom   37 type  1   force =     0.00080737    0.00004849   -0.00027307
     atom   38 type  1   force =    -0.00000419    0.00012498    0.00038346
     atom   39 type  2   force =    -0.00028577    0.00044003   -0.00054868
     atom   40 type  2   force =    -0.00037670   -0.00007740   -0.00020048
     atom   41 type  2   force =    -0.00064414    0.00047358    0.00045629
     atom   42 type  2   force =    -0.00001548    0.00006171   -0.00011601
     atom   43 type  1   force =    -0.00002726   -0.00018052    0.00037783
     atom   44 type  1   force =     0.00008692   -0.00028103    0.00042639
     atom   45 type  2   force =     0.00007037   -0.00000256    0.10326758
     atom   46 type  2   force =    -0.07132155   -0.00005144   -0.02761559
     atom   47 type  2   force =     0.07124442    0.00037967   -0.02769060
     atom   48 type  3   force =     0.00126622    0.00102511    0.00040585
     atom   49 type  4   force =    -0.00022847   -0.00022519   -0.00058989
     atom   50 type  5   force =    -0.00004103   -0.00059999    0.00022417
     atom   51 type  5   force =     0.00019145   -0.00059673    0.00009614
     atom   52 type  2   force =     0.02594141    0.00294267    0.00107973
     atom   53 type  5   force =    -0.01038249   -0.00651842   -0.00726471
     atom   54 type  5   force =    -0.01581996    0.00335026    0.00682218

     Total force =     0.369393     Total SCF correction =     0.000937
  @ DRIVER MODE: Message from server: STATUS
  @ DRIVER MODE: Message from server: GETFORCE
  @ DRIVER MODE: Returning v,forces,stress,ensemble

     Writing output data file ./calc.save/
  @ DRIVER MODE: Message from server: EXIT
  @ DRIVE MODE: Exiting

     General routines

     Parallel routines

   This run was terminated on:   0:20: 8  16Sep2021

   JOB DONE.