     Program PWSCF v.6.7GPU starts on 15Sep2021 at 23:49:29

     R & G space division:  proc/nbgrp/npool/nimage =      10
     Reading input from /storage/home/hcoda1/3/ntian30/research/carbon/CxH_vib/H2O_calc/ads_slab/CH2NNHHH2O_a/out_0024/pw.inp
Warning: card &CELL ignored
Warning: card   CELL_DYNAMICS='IPI', ignored
Warning: card / ignored

     Current dimensions of program PWSCF are:
     Max number of different atomic species (ntypx) = 10
     Max number of k-points (npk) =  40000
     Max angular momentum in pseudopotentials (lmaxx) =  3
     Presently no symmetry can be used with electric field

     Message from routine cell_base_init:
     DEPRECATED: use true lattice parameter, not A to a.u. conversion factor

     IMPORTANT: XC functional enforced from input :
     Exchange-correlation= BEEF-VDW
                           (   1   4  43  14   2   0   0)
     Any further DFT definition will be discarded
     Please, verify this is what you really want

  @ DRIVER MODE: Connecting to
 qe_1139763_2852611.sched-torque.pace.gatech.edu96grhyr5_scratch
  using UNIX socket
  @ DRIVER MODE: Message from server: STATUS
  @ DRIVER MODE: Message from server: INIT
  @ DRIVER MODE: Receiving replica           0          -1
  @ DRIVER MODE: Receiving encoded integer          25
  @ DRIVER MODE:  SCF:  T  FORCE:  T  STRESS:  F  VC:  F  ENSEMBLE:  F
  @ DRIVER MODE:  SCF:  T  FORCE:  T  STRESS:  F  VC:  F  ENSEMBLE:  F

     Using Slab Decomposition

     bravais-lattice index     =            0
     lattice parameter (alat)  =       1.8897  a.u.
     unit-cell volume          =    6658.9804 (a.u.)^3
     number of atoms/cell      =           57
     number of atomic types    =            5
     number of electrons       =       404.00
     number of Kohn-Sham states=          212
     kinetic-energy cutoff     =      29.3995  Ry
     charge density cutoff     =     293.9946  Ry
     scf convergence threshold =      7.3E-08
     mixing beta               =       0.0500
     number of iterations used =            8  plain     mixing
     Exchange-correlation= BEEF-VDW
                           (   1   4  43  14   2   0   0)

     celldm(1)=   1.889726  celldm(2)=   0.000000  celldm(3)=   0.000000
     celldm(4)=   0.000000  celldm(5)=   0.000000  celldm(6)=   0.000000

     crystal axes: (cart. coord. in units of alat)
               a(1) = (   6.579727   0.000000   0.000000 )
               a(2) = (  -0.000775   5.961596   0.000000 )
               a(3) = (   0.000000   0.000000  25.155947 )

     reciprocal axes: (cart. coord. in units 2 pi/alat)
               b(1) = (  0.151982  0.000020  0.000000 )
               b(2) = (  0.000000  0.167740  0.000000 )
               b(3) = (  0.000000  0.000000  0.039752 )

     PseudoPot. # 1 for Ti read from file:
     /storage/coda1/p-amedford6/0/shared/rich_project_chbe-medford/medford-share/data/pseudos_module/espresso/nninc/pbe/van/Ti.UPF
     MD5 check sum: 8e4df49b7f0d34bbd5052bf3f5ea0213
     Pseudo is Ultrasoft, Zval = 12.0
     Generated by new atomic code, or converted to UPF format
     Using radial grid of  851 points,  6 beta functions with:
                l(1) =   0
                l(2) =   0
                l(3) =   1
                l(4) =   1
                l(5) =   2
                l(6) =   2
     Q(r) pseudized with  8 coefficients,  rinner =    1.000   1.000   1.000
                                                       1.000   1.000

     PseudoPot. # 2 for O  read from file:
     /storage/coda1/p-amedford6/0/shared/rich_project_chbe-medford/medford-share/data/pseudos_module/espresso/nninc/pbe/van/O.UPF
     MD5 check sum: 78c19812648e8988a0fe644b0f25305e
     Pseudo is Ultrasoft, Zval =  6.0
     Generated by new atomic code, or converted to UPF format
     Using radial grid of  737 points,  4 beta functions with:
                l(1) =   0
                l(2) =   0
                l(3) =   1
                l(4) =   1
     Q(r) pseudized with  8 coefficients,  rinner =    0.800   0.800   0.800

     PseudoPot. # 3 for N  read from file:
     /storage/coda1/p-amedford6/0/shared/rich_project_chbe-medford/medford-share/data/pseudos_module/espresso/nninc/pbe/van/N.UPF
     MD5 check sum: 90d10febe142ad51ac9d5be1deb811c4
     Pseudo is Ultrasoft, Zval =  5.0
     Generated by new atomic code, or converted to UPF format
     Using radial grid of  729 points,  4 beta functions with:
                l(1) =   0
                l(2) =   0
                l(3) =   1
                l(4) =   1
     Q(r) pseudized with  8 coefficients,  rinner =    0.800   0.800   0.800

     PseudoPot. # 4 for C  read from file:
     /storage/coda1/p-amedford6/0/shared/rich_project_chbe-medford/medford-share/data/pseudos_module/espresso/nninc/pbe/van/C.UPF
     MD5 check sum: 1a69bf6b8db32088f5b2163dbdb77a27
     Pseudo is Ultrasoft, Zval =  4.0
     Generated by new atomic code, or converted to UPF format
     Using radial grid of  721 points,  4 beta functions with:
                l(1) =   0
                l(2) =   0
                l(3) =   1
                l(4) =   1
     Q(r) pseudized with  8 coefficients,  rinner =    0.800   0.800   0.800

     PseudoPot. # 5 for H  read from file:
     /storage/coda1/p-amedford6/0/shared/rich_project_chbe-medford/medford-share/data/pseudos_module/espresso/nninc/pbe/van/H.UPF
     MD5 check sum: b5ee9d7bfd3a09ee7748110bda690ff7
     Pseudo is Ultrasoft, Zval =  1.0
     Generated by new atomic code, or converted to UPF format
     Using radial grid of  615 points,  1 beta functions with:
                l(1) =   0
     Q(r) pseudized with  8 coefficients,  rinner =    0.800

     atomic species   valence    mass     pseudopotential
        Ti1           12.00    47.86700     Ti( 1.00)
        O1             6.00    15.99900     O ( 1.00)
        N1             5.00    14.00700     N ( 1.00)
        C1             4.00    12.01100     C ( 1.00)
        H1             1.00     1.00800     H ( 1.00)

     No symmetry found

   Cartesian axes

     site n.     atom                  positions (alat units)
         1           Ti1 tau(   1) = (   0.0004258   2.9801865   6.0000000  )
         2           Ti1 tau(   2) = (   3.2906075   1.4906267   6.0002472  )
         3           O1  tau(   3) = (   0.0006271   0.0005054   7.9858123  )
         4           O1  tau(   4) = (   3.2906025   0.0005020   7.3038282  )
         5           O1  tau(   5) = (   4.5942328   1.4918067   9.2879030  )
         6           O1  tau(   6) = (   1.9868534   1.4903216   9.2879459  )
         7           Ti1 tau(   7) = (   3.2907910   2.8959150   9.1758416  )
         8           Ti1 tau(   8) = (   0.0015273   1.4827037   9.2680791  )
         9           O1  tau(   9) = (   3.3121314   5.9338840  11.3691909  )
        10           O1  tau(  10) = (   0.0116148   5.9584955  10.6183126  )
        11           O1  tau(  11) = (   1.3134021   1.4784130  12.6451072  )
        12           O1  tau(  12) = (   5.3172625   1.4801399  12.6491864  )
        13           Ti1 tau(  13) = (   0.0380378   2.9573341  12.5222382  )
        14           Ti1 tau(  14) = (   3.3404755   1.4532591  12.5245293  )
        15           O1  tau(  15) = (   0.0239237   0.0366503  14.6894071  )
        16           O1  tau(  16) = (   3.3255740   5.9570089  14.0129324  )
        17           O1  tau(  17) = (   4.5846449   1.4795273  16.1858442  )
        18           O1  tau(  18) = (   2.0539891   1.4908220  16.1938258  )
        19           Ti1 tau(  19) = (   3.3028508   2.9322526  15.7076921  )
        20           Ti1 tau(  20) = (   0.0088316   1.3655950  16.0522487  )
        21           O1  tau(  21) = (   3.2904802   0.0005063   4.7018136  )
        22           O1  tau(  22) = (   0.0586005   5.8320325  17.2288864  )
        23           O1  tau(  23) = (   1.3043587   1.4918075   6.0039043  )
        24           O1  tau(  24) = (   5.2767064   1.4903225   6.0039473  )
        25           Ti1 tau(  25) = (   0.0000382   5.9609847   6.0000000  )
        26           Ti1 tau(  26) = (   3.2902200   4.4714249   6.0002472  )
        27           O1  tau(  27) = (   0.0002396   2.9813036   7.9858123  )
        28           O1  tau(  28) = (   3.2902150   2.9813002   7.3038282  )
        29           O1  tau(  29) = (   4.5938453   4.4726049   9.2879030  )
        30           O1  tau(  30) = (   1.9864658   4.4711199   9.2879459  )
        31           Ti1 tau(  31) = (   3.2891106   5.8743827   9.1763621  )
        32           Ti1 tau(  32) = (   0.0006254   4.4649316   9.2693709  )
        33           O1  tau(  33) = (   3.3142679   2.9660735  11.3641874  )
        34           O1  tau(  34) = (   0.0092240   2.9805883  10.6323155  )
        35           O1  tau(  35) = (   1.3108675   4.4558178  12.6782323  )
        36           O1  tau(  36) = (   5.3175068   4.4537340  12.6790822  )
        37           Ti1 tau(  37) = (   0.0418451   5.9490355  12.4996082  )
        38           Ti1 tau(  38) = (   3.3402151   4.4429940  12.5219265  )
        39           O1  tau(  39) = (   0.0332256   2.9148708  14.9327709  )
        40           O1  tau(  40) = (   3.3156017   2.9437717  13.9283311  )
        41           O1  tau(  41) = (   4.5915719   4.3868214  16.1197993  )
        42           O1  tau(  42) = (   2.0539401   4.4017640  16.0846163  )
        43           Ti1 tau(  43) = (   3.3369130   5.9116756  15.8392261  )
        44           Ti1 tau(  44) = (   0.0533093   4.5818758  15.8415549  )
        45           O1  tau(  45) = (   3.2900926   2.9813045   4.7018136  )
        46           O1  tau(  46) = (   1.3039711   4.4726057   6.0039043  )
        47           O1  tau(  47) = (   5.2763189   4.4711207   6.0039473  )
        48           N1  tau(  48) = (   6.5287229   2.7802708  18.1865785  )
        49           C1  tau(  49) = (   0.9724842   2.7744648  18.9576868  )
        50           H1  tau(  50) = (   0.9153086   3.0669255  20.0057840  )
        51           H1  tau(  51) = (   1.9225290   2.4867234  18.5493133  )
        52           N1  tau(  52) = (   5.2958906   3.1014149  18.7352402  )
        53           H1  tau(  53) = (   5.3913054   3.6367428  19.5974321  )
        54           H1  tau(  54) = (   4.7863746   3.6605970  18.0522289  )
        55           O1  tau(  55) = (   3.2511457   5.8152340  18.3397965  )
        56           H1  tau(  56) = (   3.7467739   0.6636339  18.5518981  )
        57           H1  tau(  57) = (   2.3053106   0.0674530  18.4201010  )

     number of k points=    10  Fermi-Dirac smearing, width (Ry)=  0.0073
                       cart. coord. in units 2pi/alat
        k(    1) = (   0.0000000   0.0000000   0.0000000), wk =   0.1250000
        k(    2) = (   0.0000000   0.0419351   0.0000000), wk =   0.2500000
        k(    3) = (   0.0000000  -0.0838702   0.0000000), wk =   0.1250000
        k(    4) = (   0.0379955   0.0000049   0.0000000), wk =   0.2500000
        k(    5) = (   0.0379955   0.0419400   0.0000000), wk =   0.2500000
        k(    6) = (   0.0379955  -0.0838652   0.0000000), wk =   0.2500000
        k(    7) = (   0.0379955  -0.0419301   0.0000000), wk =   0.2500000
        k(    8) = (  -0.0759910  -0.0000099   0.0000000), wk =   0.1250000
        k(    9) = (  -0.0759910   0.0419252   0.0000000), wk =   0.2500000
        k(   10) = (  -0.0759910  -0.0838800   0.0000000), wk =   0.1250000

     Initial potential from superposition of free atoms

     starting charge  387.99913, renormalised to  404.00000

     negative rho (up, down):  1.527E-02 0.000E+00

     %%%%%%%%%%%%%%%%%%%%%%%%%%%%%%%%%%%%%%%%%%%%%%%%%%%%%%%%%%%%%%%%%%%%%%%%
     %                                                                      %
     % You are using vdW-DF, which was implemented by the Thonhauser group. %
     % Please cite the following two papers that made this development      %
     % possible and the two reviews that describe the various versions:     %
     %                                                                      %
     %   T. Thonhauser et al., PRL 115, 136402 (2015).                      %
     %   T. Thonhauser et al., PRB 76, 125112 (2007).                       %
     %   K. Berland et al., Rep. Prog. Phys. 78, 066501 (2015).             %
     %   D.C. Langreth et al., J. Phys.: Condens. Matter 21, 084203 (2009). %
     %                                                                      %
     %                                                                      %
     % If you are calculating the stress with vdW-DF, please also cite:     %
     %                                                                      %
     %   R. Sabatini et al., J. Phys.: Condens. Matter 24, 424209 (2012).   %
     %                                                                      %
     %%%%%%%%%%%%%%%%%%%%%%%%%%%%%%%%%%%%%%%%%%%%%%%%%%%%%%%%%%%%%%%%%%%%%%%%

     Adding external electric field

     Computed dipole along edir(3) :
        Dipole              -14.3252 Ry au,        -36.4110 Debye
        Dipole field         -0.0270 Ry au,

        Potential amp.        2.5060 Ry
        Total length         46.3494 bohr

     Starting wfcs are  306 atomic wfcs
  @ DRIVER MODE: Message from server: STATUS
  @ DRIVER MODE: Message from server: POSDATA
  @ DRIVER MODE: Reading and sharing cell
  @ DRIVER MODE: Reading and sharing positions
  @ DRIVER MODE: Received positions

     Self-consistent Calculation

     iteration #  1     ecut=    29.40 Ry     beta= 0.05
     Davidson diagonalization with overlap
     c_bands:  4 eigenvalues not converged
     c_bands:  3 eigenvalues not converged
     c_bands:  5 eigenvalues not converged
     c_bands:  1 eigenvalues not converged
     c_bands:  2 eigenvalues not converged
     c_bands:  1 eigenvalues not converged
     c_bands:  2 eigenvalues not converged
     c_bands:  4 eigenvalues not converged
     c_bands:  5 eigenvalues not converged
     ethr =  1.00E-05,  avg # of iterations = 24.6

[...]

     total energy              =   -2233.93420491 Ry
     estimated scf accuracy    <    8445.31634555 Ry

     iteration #  2     ecut=    29.40 Ry     beta= 0.05
     Davidson diagonalization with overlap
     ethr =  1.00E-02,  avg # of iterations = 25.4

[...]

     iteration # 67     ecut=    29.40 Ry     beta= 0.05
     Davidson diagonalization with overlap
     ethr =  3.83E-11,  avg # of iterations =  9.9

[...]

     total energy              =   -2975.20593611 Ry
     estimated scf accuracy    <       0.00000011 Ry

     iteration # 68     ecut=    29.40 Ry     beta= 0.05
     Davidson diagonalization with overlap
     c_bands:  1 eigenvalues not converged
     c_bands:  2 eigenvalues not converged
     ethr =  2.84E-11,  avg # of iterations = 15.2

     negative rho (up, down):  1.520E-02 0.000E+00

     Adding external electric field

     Computed dipole along edir(3) :
        Dipole                1.4016 Ry au,          3.5625 Debye
        Dipole field          0.0026 Ry au,

        Potential amp.       -0.2452 Ry
        Total length         46.3494 bohr

     End of self-consistent calculation

          k = 0.0000 0.0000 0.0000 ( 18029 PWs)   bands (ev):

   -55.1886 -55.1527 -55.1489 -55.1148 -55.1012 -55.0691 -55.0351 -55.0311
   -55.0076 -54.9780 -54.9726 -54.9692 -54.9445 -54.8739 -54.1721 -54.1380
   -31.7539 -31.6406 -31.5990 -31.5577 -31.5073 -31.4970 -31.4899 -31.4826
   -31.4379 -31.4037 -31.4000 -31.3934 -31.3914 -31.3652 -31.3425 -31.3335
   -31.3325 -31.3262 -31.3069 -31.3008 -31.2813 -31.2768 -31.2620 -31.2481
   -31.2374 -31.2349 -31.2142 -31.2080 -31.2060 -31.1993 -31.1935 -31.1758
   -31.1710 -31.1607 -31.1558 -31.1428 -31.1217 -31.1178 -31.1062 -31.0894
   -31.0885 -31.0036 -30.5810 -30.4878 -30.4657 -30.3976 -30.3108 -30.1997
   -18.9174 -18.5453 -16.0144 -15.7493 -15.6132 -15.5032 -15.3876 -15.2577
   -15.2101 -15.0789 -15.0194 -14.9060 -14.8781 -14.8353 -14.8166 -14.8113
   -14.7534 -14.7261 -14.7192 -14.6937 -14.6838 -14.6622 -14.6230 -14.6166
   -14.5807 -14.5693 -14.5660 -14.4207 -14.3434 -14.2791 -13.9677 -13.6699
   -12.6745 -12.5571  -8.8127  -6.7056  -6.4684  -6.0655  -4.1507  -3.3575
    -3.2019  -3.1880  -3.1262  -3.0858  -3.0715  -3.0098  -2.9394  -2.7363
    -2.6014  -2.5743  -2.4553  -2.3892  -2.3848  -2.3316  -2.1888  -2.1841
    -2.1288  -2.0893  -2.0393  -2.0192  -1.9959  -1.9721  -1.9382  -1.9188
    -1.8920  -1.7573  -1.7373  -1.6635  -1.6011  -1.5904  -1.5325  -1.5085
    -1.4896  -1.4845  -1.4758  -1.4637  -1.4243  -1.4108  -1.3675  -1.3101
    -1.2076  -1.1187  -1.0266  -0.9478  -0.8849  -0.8232  -0.7616  -0.7523
    -0.6755  -0.6630  -0.5721  -0.5484  -0.5182  -0.4053  -0.3432  -0.3386
    -0.2753  -0.1736  -0.1449  -0.1287  -0.0574   0.0208   0.0397   0.0476
     0.0554   0.1791   0.2323   0.2645   0.2983   0.3687   0.3904   0.4397
     0.4865   0.4933   0.5724   0.6320   0.6861   0.7353   0.7530   0.7774
     0.7953   0.8049   0.8220   0.9031   0.9258   0.9588   1.0121   1.1677
     1.3271   1.4265   1.4426   1.7606   1.7738   1.8509   2.0353   2.4260
     2.4739   3.9074   3.9844   4.0434   4.0495   4.0586   4.1445   4.3891
     4.4047   4.4175   4.4297   4.4734

[...]

          k = 0.0380-0.0419 0.0000 ( 17876 PWs)   bands (ev):

[...]

          k =-0.0760-0.0000 0.0000 ( 17886 PWs)   bands (ev):

[...]

          k =-0.0760-0.0839 0.0000 ( 17948 PWs)   bands (ev):

   -55.1715 -55.1695 -55.1318 -55.1317 -55.0988 -55.0581 -55.0421 -55.0331
   -54.9931 -54.9866 -54.9713 -54.9616 -54.9611 -54.8758 -54.1550 -54.1550
   -31.5633 -31.5531 -31.5239 -31.4557 -31.4557 -31.4493 -31.4404 -31.4232
   -31.4232 -31.4020 -31.3915 -31.3886 -31.3763 -31.3503 -31.3261 -31.3205
   -31.3204 -31.3200 -31.3176 -31.3082 -31.3028 -31.2842 -31.2709 -31.2681
   -31.2541 -31.2514 -31.2513 -31.2504 -31.2406 -31.2363 -31.2265 -31.2249
   -31.2172 -31.2063 -31.2005 -31.1903 -31.1890 -31.1525 -31.1417 -31.1414
   -31.0975 -31.0899 -30.4784 -30.4784 -30.3936 -30.3934 -30.3542 -30.3542
   -18.9150 -18.5445 -15.5314 -15.4849 -15.3295 -15.1951 -15.1920 -15.1517
   -15.0961 -15.0246 -15.0034 -14.9604 -14.9496 -14.9310 -14.8940 -14.8870
   -14.8605 -14.7899 -14.7804 -14.7719 -14.7381 -14.6993 -14.6885 -14.6872
   -14.6703 -14.6406 -14.6374 -14.5399 -14.5377 -14.4453 -14.3073 -13.6851
   -12.6587 -12.6586  -8.7766  -6.7053  -6.4191  -6.0935  -4.1929  -3.2100
    -2.9346  -2.7491  -2.6436  -2.5417  -2.4146  -2.4089  -2.3235  -2.3150
    -2.2342  -2.1998  -2.1876  -2.1719  -2.0809  -2.0673  -2.0571  -2.0353
    -2.0188  -2.0009  -1.9690  -1.9630  -1.9392  -1.9127  -1.9023  -1.9006
    -1.8816  -1.8487  -1.8174  -1.7984  -1.7777  -1.7472  -1.7357  -1.6684
    -1.6279  -1.5398  -1.5049  -1.3902  -1.3884  -1.3659  -1.3114  -1.2913
    -1.2701  -1.2212  -1.2120  -1.1659  -1.0229  -0.9371  -0.9263  -0.8881
    -0.8392  -0.7904  -0.7434  -0.7280  -0.6620  -0.6411  -0.5479  -0.5327
    -0.4305  -0.3894  -0.3774  -0.3616  -0.2790  -0.2149  -0.1681  -0.1482
    -0.1437  -0.0931  -0.0788  -0.0654   0.0062   0.0534   0.0772   0.0917
     0.1333   0.3019   0.3620   0.3757   0.4948   0.5441   0.6476   0.7081
     0.7839   0.8040   0.8403   0.9306   0.9372   1.0137   1.1084   1.1223
     1.1588   1.2031   1.2520   1.2747   1.2796   2.2082   2.2096   2.2938
     2.2940   4.0514   4.1274   4.1855   4.2335   4.2417   4.3629   4.4246
     4.4674   4.4894   4.4919   4.5668

     the Fermi energy is     3.9655 ev

!    total energy              =   -2975.20595781 Ry
     estimated scf accuracy    <       0.00000006 Ry
     smearing contrib. (-TS)   =      -0.03732334 Ry
     internal energy E=F+TS    =   -2975.16863447 Ry

     The total energy is F=E-TS. E is the sum of the following terms:
     one-electron contribution =  -23537.71991635 Ry
     hartree contribution      =   11866.87758039 Ry
     xc contribution           =    -494.97424064 Ry
     ewald contribution        =    9190.64423499 Ry
     electric field correction =       0.00370714 Ry

     convergence has been achieved in  68 iterations

     Forces acting on atoms (cartesian axes, Ry/au):

     atom    1 type  1   force =     0.00006298   -0.00019925    0.09357249
     atom    2 type  1   force =    -0.00020623   -0.00021415   -0.17802919
     atom    3 type  2   force =     0.00011101   -0.00020572   -0.02067709
     atom    4 type  2   force =     0.00004818   -0.00197889    0.05805795
     atom    5 type  2   force =    -0.01001718   -0.00167091    0.00693863
     atom    6 type  2   force =     0.01216131   -0.00103943    0.00745186
     atom    7 type  1   force =     0.00022656    0.00248556   -0.01210151
     atom    8 type  1   force =    -0.00049340    0.00206081   -0.00194144
     atom    9 type  2   force =     0.00006820    0.00006133   -0.00004185
     atom   10 type  2   force =    -0.00044351   -0.00135526   -0.00318646
     atom   11 type  2   force =     0.00016722   -0.00007976   -0.00007287
     atom   12 type  2   force =    -0.00067775   -0.00011981    0.00008760
     atom   13 type  1   force =     0.00051590    0.00098069    0.00025267
     atom   14 type  1   force =    -0.00140073    0.00027025    0.00016736
     atom   15 type  2   force =    -0.00019269    0.00093622    0.00022308
     atom   16 type  2   force =    -0.00000860   -0.00044025    0.00014603
     atom   17 type  2   force =     0.00070057    0.00003505   -0.00023986
     atom   18 type  2   force =     0.00057065    0.00012597   -0.00038300
     atom   19 type  1   force =    -0.00125296    0.00087854    0.00056739
     atom   20 type  1   force =     0.00067350   -0.00003058   -0.00083285
     atom   21 type  2   force =     0.00001515   -0.00002186    0.10384859
     atom   22 type  2   force =     0.00007450    0.00087210   -0.00008844
     atom   23 type  2   force =    -0.07053669   -0.00013553   -0.02696108
     atom   24 type  2   force =     0.07047475    0.00029202   -0.02702421
     atom   25 type  1   force =     0.00001872   -0.00018842    0.09304067
     atom   26 type  1   force =    -0.00009690   -0.00048232   -0.17794880
     atom   27 type  2   force =     0.00017198   -0.00036529   -0.01955395
     atom   28 type  2   force =     0.00010948   -0.00160307    0.05714102
     atom   29 type  2   force =    -0.01006560   -0.00086474    0.00631750
     atom   30 type  2   force =     0.01212735   -0.00061950    0.00687539
     atom   31 type  1   force =     0.00031892    0.00503741   -0.01527279
     atom   32 type  1   force =    -0.00039186   -0.00271047   -0.00237140
     atom   33 type  2   force =    -0.00003220   -0.00025820   -0.00004126
     atom   34 type  2   force =     0.00046258    0.00031663   -0.00054735
     atom   35 type  2   force =    -0.00010839   -0.00036822   -0.00007196
     atom   36 type  2   force =    -0.00045595   -0.00036043    0.00024673
     atom   37 type  1   force =     0.00027001   -0.00104425    0.00051547
     atom   38 type  1   force =    -0.00122423    0.00024959    0.00128496
     atom   39 type  2   force =    -0.00012937   -0.00046435    0.00025682
     atom   40 type  2   force =     0.00003305   -0.00041547    0.00044537
     atom   41 type  2   force =    -0.00017014   -0.00002732    0.00011217
     atom   42 type  2   force =     0.00129880   -0.00025029    0.00005963
     atom   43 type  1   force =    -0.00126911   -0.00065435   -0.00008357
     atom   44 type  1   force =     0.00096885    0.00060994   -0.00003290
     atom   45 type  2   force =     0.00004086   -0.00002158    0.10378043
     atom   46 type  2   force =    -0.07056973   -0.00006121   -0.02697263
     atom   47 type  2   force =     0.07047651    0.00040621   -0.02700205
     atom   48 type  3   force =     0.00014280   -0.00027375    0.00045097
     atom   49 type  4   force =    -0.00349730    0.00208838    0.00363969
     atom   50 type  5   force =    -0.00122659    0.00029932   -0.00034833
     atom   51 type  5   force =     0.00348182   -0.00156837   -0.00372567
     atom   52 type  3   force =    -0.00006240    0.00067023   -0.00001338
     atom   53 type  5   force =     0.00023069    0.00051153   -0.00028230
     atom   54 type  5   force =    -0.00056138    0.00075208    0.00014627
     atom   55 type  2   force =    -0.00056983    0.00077881   -0.00005817
     atom   56 type  5   force =    -0.00035449   -0.00037684    0.00079658
     atom   57 type  5   force =    -0.00000770   -0.00024885   -0.00051696

     Total force =     0.365797     Total SCF correction =     0.000417
  @ DRIVER MODE: Message from server: STATUS
  @ DRIVER MODE: Message from server: GETFORCE
  @ DRIVER MODE: Returning v,forces,stress,ensemble

     Writing output data file ./calc.save/
  @ DRIVER MODE: Message from server: EXIT
  @ DRIVE MODE: Exiting

     General routines

     Parallel routines

   This run was terminated on:   0: 8:51  16Sep2021

   JOB DONE.