     Program PWSCF v.6.7GPU starts on 16Sep2021 at 12:40:47

     R & G space division:  proc/nbgrp/npool/nimage =      10
     Reading input from /storage/home/hcoda1/3/ntian30/research/carbon/CxH_vib/H2O_calc/ads_slab/CH3NH2NHH2O_c/out_0059/pw.inp
Warning: card &CELL ignored
Warning: card   CELL_DYNAMICS='IPI', ignored
Warning: card / ignored

     Current dimensions of program PWSCF are:
     Max number of different atomic species (ntypx) = 10
     Max number of k-points (npk) =  40000
     Max angular momentum in pseudopotentials (lmaxx) =  3
     Presently no symmetry can be used with electric field

     Message from routine cell_base_init:
     DEPRECATED: use true lattice parameter, not A to a.u. conversion factor

     IMPORTANT: XC functional enforced from input :
     Exchange-correlation= BEEF-VDW
                           (   1   4  43  14   2   0   0)
     Any further DFT definition will be discarded
     Please, verify this is what you really want

  @ DRIVER MODE: Connecting to
 qe_1139763_2852614.sched-torque.pace.gatech.eduomh_p6nn_scratch
  using UNIX socket
  @ DRIVER MODE: Message from server: STATUS
  @ DRIVER MODE: Message from server: INIT
  @ DRIVER MODE: Receiving replica           0          -1
  @ DRIVER MODE: Receiving encoded integer          25
  @ DRIVER MODE:  SCF:  T  FORCE:  T  STRESS:  F  VC:  F  ENSEMBLE:  F
  @ DRIVER MODE:  SCF:  T  FORCE:  T  STRESS:  F  VC:  F  ENSEMBLE:  F

     Using Slab Decomposition

     bravais-lattice index     =            0
     lattice parameter (alat)  =       1.8897  a.u.
     unit-cell volume          =    6658.9804 (a.u.)^3
     number of atoms/cell      =           59
     number of atomic types    =            5
     number of electrons       =       406.00
     number of Kohn-Sham states=          213
     kinetic-energy cutoff     =      29.3995  Ry
     charge density cutoff     =     293.9946  Ry
     scf convergence threshold =      7.3E-08
     mixing beta               =       0.0500
     number of iterations used =            8  plain     mixing
     Exchange-correlation= BEEF-VDW
                           (   1   4  43  14   2   0   0)

     celldm(1)=   1.889726  celldm(2)=   0.000000  celldm(3)=   0.000000
     celldm(4)=   0.000000  celldm(5)=   0.000000  celldm(6)=   0.000000

     crystal axes: (cart. coord. in units of alat)
               a(1) = (   6.579727   0.000000   0.000000 )
               a(2) = (  -0.000775   5.961596   0.000000 )
               a(3) = (   0.000000   0.000000  25.155947 )

     reciprocal axes: (cart. coord. in units 2 pi/alat)
               b(1) = (  0.151982  0.000020  0.000000 )
               b(2) = (  0.000000  0.167740  0.000000 )
               b(3) = (  0.000000  0.000000  0.039752 )

     PseudoPot. # 1 for Ti read from file:
     /storage/coda1/p-amedford6/0/shared/rich_project_chbe-medford/medford-share/data/pseudos_module/espresso/nninc/pbe/van/Ti.UPF
     MD5 check sum: 8e4df49b7f0d34bbd5052bf3f5ea0213
     Pseudo is Ultrasoft, Zval = 12.0
     Generated by new atomic code, or converted to UPF format
     Using radial grid of  851 points,  6 beta functions with:
                l(1) =   0
                l(2) =   0
                l(3) =   1
                l(4) =   1
                l(5) =   2
                l(6) =   2
     Q(r) pseudized with  8 coefficients,  rinner =    1.000   1.000   1.000
                                                       1.000   1.000

     PseudoPot. # 2 for O  read from file:
     /storage/coda1/p-amedford6/0/shared/rich_project_chbe-medford/medford-share/data/pseudos_module/espresso/nninc/pbe/van/O.UPF
     MD5 check sum: 78c19812648e8988a0fe644b0f25305e
     Pseudo is Ultrasoft, Zval =  6.0
     Generated by new atomic code, or converted to UPF format
     Using radial grid of  737 points,  4 beta functions with:
                l(1) =   0
                l(2) =   0
                l(3) =   1
                l(4) =   1
     Q(r) pseudized with  8 coefficients,  rinner =    0.800   0.800   0.800

     PseudoPot. # 3 for N  read from file:
     /storage/coda1/p-amedford6/0/shared/rich_project_chbe-medford/medford-share/data/pseudos_module/espresso/nninc/pbe/van/N.UPF
     MD5 check sum: 90d10febe142ad51ac9d5be1deb811c4
     Pseudo is Ultrasoft, Zval =  5.0
     Generated by new atomic code, or converted to UPF format
     Using radial grid of  729 points,  4 beta functions with:
                l(1) =   0
                l(2) =   0
                l(3) =   1
                l(4) =   1
     Q(r) pseudized with  8 coefficients,  rinner =    0.800   0.800   0.800

     PseudoPot. # 4 for C  read from file:
     /storage/coda1/p-amedford6/0/shared/rich_project_chbe-medford/medford-share/data/pseudos_module/espresso/nninc/pbe/van/C.UPF
     MD5 check sum: 1a69bf6b8db32088f5b2163dbdb77a27
     Pseudo is Ultrasoft, Zval =  4.0
     Generated by new atomic code, or converted to UPF format
     Using radial grid of  721 points,  4 beta functions with:
                l(1) =   0
                l(2) =   0
                l(3) =   1
                l(4) =   1
     Q(r) pseudized with  8 coefficients,  rinner =    0.800   0.800   0.800

     PseudoPot. # 5 for H  read from file:
     /storage/coda1/p-amedford6/0/shared/rich_project_chbe-medford/medford-share/data/pseudos_module/espresso/nninc/pbe/van/H.UPF
     MD5 check sum: b5ee9d7bfd3a09ee7748110bda690ff7
     Pseudo is Ultrasoft, Zval =  1.0
     Generated by new atomic code, or converted to UPF format
     Using radial grid of  615 points,  1 beta functions with:
                l(1) =   0
     Q(r) pseudized with  8 coefficients,  rinner =    0.800

     atomic species   valence    mass     pseudopotential
        Ti1           12.00    47.86700     Ti( 1.00)
        O1             6.00    15.99900     O ( 1.00)
        N1             5.00    14.00700     N ( 1.00)
        C1             4.00    12.01100     C ( 1.00)
        H1             1.00     1.00800     H ( 1.00)

     No symmetry found

   Cartesian axes

     site n.     atom                  positions (alat units)
         1           Ti1 tau(   1) = (   0.0004258   2.9801865   6.0000000  )
         2           Ti1 tau(   2) = (   3.2906075   1.4906267   6.0002472  )
         3           O1  tau(   3) = (   0.0006271   0.0005054   7.9858123  )
         4           O1  tau(   4) = (   3.2906025   0.0005020   7.3038282  )
         5           O1  tau(   5) = (   4.5942328   1.4918067   9.2879030  )
         6           O1  tau(   6) = (   1.9868534   1.4903216   9.2879459  )
         7           Ti1 tau(   7) = (   3.2907910   2.8959150   9.1758416  )
         8           Ti1 tau(   8) = (   0.0015273   1.4827037   9.2680791  )
         9           O1  tau(   9) = (   3.2795193   0.0050042  11.3600746  )
        10           O1  tau(  10) = (   0.0116148   5.9584955  10.6183126  )
        11           O1  tau(  11) = (   1.2764768   1.4833402  12.6625751  )
        12           O1  tau(  12) = (   5.2691860   1.4824858  12.6730715  )
        13           Ti1 tau(  13) = (   6.5785005   2.9712200  12.5432933  )
        14           Ti1 tau(  14) = (   3.2815129   1.4861921  12.5133659  )
        15           O1  tau(  15) = (   0.0084525   5.9333602  14.7514412  )
        16           O1  tau(  16) = (   3.2474592   5.9449689  14.0025778  )
        17           O1  tau(  17) = (   4.5272503   1.5270814  16.0535473  )
        18           O1  tau(  18) = (   2.0088677   1.5398698  16.1918835  )
        19           Ti1 tau(  19) = (   3.2695027   3.0127370  15.7044713  )
        20           Ti1 tau(  20) = (   6.4897317   1.5391078  15.7731133  )
        21           O1  tau(  21) = (   3.2904802   0.0005063   4.7018136  )
        22           O1  tau(  22) = (   6.4943121   0.0104379  17.3746616  )
        23           O1  tau(  23) = (   1.3043587   1.4918075   6.0039043  )
        24           O1  tau(  24) = (   5.2767064   1.4903225   6.0039473  )
        25           Ti1 tau(  25) = (   0.0000382   5.9609847   6.0000000  )
        26           Ti1 tau(  26) = (   3.2902200   4.4714249   6.0002472  )
        27           O1  tau(  27) = (   0.0002396   2.9813036   7.9858123  )
        28           O1  tau(  28) = (   3.2902150   2.9813002   7.3038282  )
        29           O1  tau(  29) = (   4.5938453   4.4726049   9.2879030  )
        30           O1  tau(  30) = (   1.9864658   4.4711199   9.2879459  )
        31           Ti1 tau(  31) = (   3.2891106   5.8743827   9.1763621  )
        32           Ti1 tau(  32) = (   0.0006254   4.4649316   9.2693709  )
        33           O1  tau(  33) = (   3.2806081   2.9711243  11.3509633  )
        34           O1  tau(  34) = (   0.0092240   2.9805883  10.6323155  )
        35           O1  tau(  35) = (   1.2760424   4.4718827  12.6381679  )
        36           O1  tau(  36) = (   5.2690016   4.4731519  12.6446470  )
        37           Ti1 tau(  37) = (   6.5708669   5.9382087  12.5160675  )
        38           Ti1 tau(  38) = (   3.2845625   4.4656782  12.4980923  )
        39           O1  tau(  39) = (   6.5779858   3.0049062  14.7590937  )
        40           O1  tau(  40) = (   3.2501146   3.0001303  13.9242794  )
        41           O1  tau(  41) = (   4.5300198   4.4412671  16.1793791  )
        42           O1  tau(  42) = (   2.0030354   4.4482434  16.2507355  )
        43           Ti1 tau(  43) = (   3.2558399   0.0045369  15.7947069  )
        44           Ti1 tau(  44) = (   0.0024851   4.6597080  16.1671864  )
        45           O1  tau(  45) = (   3.2900926   2.9813045   4.7018136  )
        46           O1  tau(  46) = (   1.3039711   4.4726057   6.0039043  )
        47           O1  tau(  47) = (   5.2763189   4.4711207   6.0039473  )
        48           N1  tau(  48) = (   0.8610865   2.3037131  18.4629187  )
        49           N1  tau(  49) = (   6.4642385   2.8627238  17.5618644  )
        50           C1  tau(  50) = (   1.1134797   3.0572184  19.7121060  )
        51           H1  tau(  51) = (   0.2160447   3.0254214  20.3281890  )
        52           H1  tau(  52) = (   1.9467850   2.5864873  20.2353232  )
        53           H1  tau(  53) = (   1.3463996   4.0866186  19.4485780  )
        54           H1  tau(  54) = (   0.5832711   1.3114681  18.6183785  )
        55           H1  tau(  55) = (   5.5643591   2.7461405  18.0238738  )
        56           H1  tau(  56) = (   1.7079168   2.1891883  17.8702682  )
        57           O1  tau(  57) = (   4.0734316   0.3075885  18.7665601  )
        58           H1  tau(  58) = (   4.9241673   0.1787741  18.2816895  )
        59           H1  tau(  59) = (   3.8734322   5.3936830  19.1372508  )

     number of k points=    10  Fermi-Dirac smearing, width (Ry)=  0.0073
                       cart. coord. in units 2pi/alat
        k(    1) = (   0.0000000   0.0000000   0.0000000), wk =   0.1250000
        k(    2) = (   0.0000000   0.0419351   0.0000000), wk =   0.2500000
        k(    3) = (   0.0000000  -0.0838702   0.0000000), wk =   0.1250000
        k(    4) = (   0.0379955   0.0000049   0.0000000), wk =   0.2500000
        k(    5) = (   0.0379955   0.0419400   0.0000000), wk =   0.2500000
        k(    6) = (   0.0379955  -0.0838652   0.0000000), wk =   0.2500000
        k(    7) = (   0.0379955  -0.0419301   0.0000000), wk =   0.2500000
        k(    8) = (  -0.0759910  -0.0000099   0.0000000), wk =   0.1250000
        k(    9) = (  -0.0759910   0.0419252   0.0000000), wk =   0.2500000
        k(   10) = (  -0.0759910  -0.0838800   0.0000000), wk =   0.1250000

     Initial potential from superposition of free atoms

     starting charge  389.99912, renormalised to  406.00000

     negative rho (up, down):  1.392E-02 0.000E+00

     %%%%%%%%%%%%%%%%%%%%%%%%%%%%%%%%%%%%%%%%%%%%%%%%%%%%%%%%%%%%%%%%%%%%%%%%
     %                                                                      %
     % You are using vdW-DF, which was implemented by the Thonhauser group. %
     % Please cite the following two papers that made this development      %
     % possible and the two reviews that describe the various versions:     %
     %                                                                      %
     %   T. Thonhauser et al., PRL 115, 136402 (2015).                      %
     %   T. Thonhauser et al., PRB 76, 125112 (2007).                       %
     %   K. Berland et al., Rep. Prog. Phys. 78, 066501 (2015).             %
     %   D.C. Langreth et al., J. Phys.: Condens. Matter 21, 084203 (2009). %
     %                                                                      %
     %                                                                      %
     % If you are calculating the stress with vdW-DF, please also cite:     %
     %                                                                      %
     %   R. Sabatini et al., J. Phys.: Condens. Matter 24, 424209 (2012).   %
     %                                                                      %
     %%%%%%%%%%%%%%%%%%%%%%%%%%%%%%%%%%%%%%%%%%%%%%%%%%%%%%%%%%%%%%%%%%%%%%%%

     Adding external electric field

     Computed dipole along edir(3) :
        Dipole              -15.6762 Ry au,        -39.8449 Debye
        Dipole field         -0.0296 Ry au,

        Potential amp.        2.7423 Ry
        Total length         46.3494 bohr

     Starting wfcs are  308 atomic wfcs
  @ DRIVER MODE: Message from server: STATUS
  @ DRIVER MODE: Message from server: POSDATA
  @ DRIVER MODE: Reading and sharing cell
  @ DRIVER MODE: Reading and sharing positions
  @ DRIVER MODE: Received positions

     Self-consistent Calculation

     iteration #  1     ecut=    29.40 Ry     beta= 0.05
     Davidson diagonalization with overlap
     c_bands:  2 eigenvalues not converged
     c_bands:  5 eigenvalues not converged
     c_bands:  2 eigenvalues not converged
     c_bands:  4 eigenvalues not converged
     c_bands:  4 eigenvalues not converged
     c_bands:  5 eigenvalues not converged
     c_bands:  4 eigenvalues not converged
     c_bands:  1 eigenvalues not converged
     ethr =  1.00E-05,  avg # of iterations = 22.5

[...]

     total energy              =   -2140.13445399 Ry
     estimated scf accuracy    <    9575.19186102 Ry

     iteration #  2     ecut=    29.40 Ry     beta= 0.05
     Davidson diagonalization with overlap
     ethr =  1.00E-02,  avg # of iterations = 31.9

[...]

     iteration # 73     ecut=    29.40 Ry     beta= 0.05
     Davidson diagonalization with overlap
     c_bands:  2 eigenvalues not converged
     c_bands:  1 eigenvalues not converged
     ethr =  6.29E-11,  avg # of iterations = 14.2

[...]

     total energy              =   -2977.68483596 Ry
     estimated scf accuracy    <       0.00000012 Ry

     iteration # 75     ecut=    29.40 Ry     beta= 0.05
     Davidson diagonalization with overlap
     ethr =  3.05E-11,  avg # of iterations = 10.4

     negative rho (up, down):  1.231E-02 0.000E+00

     Adding external electric field

     Computed dipole along edir(3) :
        Dipole                1.6059 Ry au,          4.0819 Debye
        Dipole field          0.0030 Ry au,

        Potential amp.       -0.2809 Ry
        Total length         46.3494 bohr

     End of self-consistent calculation

          k = 0.0000 0.0000 0.0000 ( 18029 PWs)   bands (ev):

   -54.9546 -54.9177 -54.9153 -54.8836 -54.8444 -54.8344 -54.7942 -54.7627
   -54.7570 -54.7473 -54.7276 -54.7223 -54.7140 -54.6597 -53.9334 -53.8994
   -31.5266 -31.4078 -31.3209 -31.2820 -31.2645 -31.2521 -31.2495 -31.2444
   -31.2096 -31.2076 -31.1634 -31.1628 -31.1574 -31.1273 -31.1087 -31.0887
   -31.0781 -31.0723 -31.0707 -31.0638 -31.0293 -31.0248 -31.0181 -31.0129
   -30.9932 -30.9746 -30.9646 -30.9635 -30.9560 -30.9553 -30.9455 -30.9370
   -30.9207 -30.9206 -30.9120 -30.9098 -30.8843 -30.8782 -30.8762 -30.8750
   -30.8568 -30.8562 -30.3421 -30.2496 -30.2274 -30.1586 -30.0719 -29.9609
   -18.9614 -18.2169 -15.7894 -15.5214 -15.3960 -15.1964 -15.1433 -15.0383
   -14.8784 -14.8174 -14.7526 -14.7266 -14.7212 -14.6953 -14.6225 -14.5672
   -14.5369 -14.4859 -14.4853 -14.4491 -14.4420 -14.4357 -14.3824 -14.3787
   -14.3422 -14.3284 -14.3207 -14.1776 -14.0992 -14.0494 -14.0404 -13.1974
   -12.4360 -12.3188 -10.9834  -7.5861  -6.3967  -5.9886  -5.7596  -4.0098
    -3.8452  -3.1335  -2.9626  -2.9506  -2.8731  -2.8494  -2.6786  -2.6195
    -2.5104  -2.3941  -2.3184  -2.2210  -2.1767  -2.1589  -2.1451  -2.0303
    -1.9459  -1.9082  -1.8690  -1.8307  -1.8137  -1.7684  -1.7472  -1.7371
    -1.7045  -1.6793  -1.5259  -1.4511  -1.4149  -1.3803  -1.3408  -1.2836
    -1.2618  -1.2455  -1.2400  -1.2322  -1.2157  -1.1907  -1.1551  -1.1239
    -1.0554  -0.9732  -0.9623  -0.8506  -0.7660  -0.6361  -0.5811  -0.5231
    -0.4928  -0.4265  -0.3845  -0.3368  -0.3004  -0.2940  -0.2473  -0.1611
    -0.1468  -0.0899  -0.0712   0.0133   0.0601   0.0655   0.0761   0.2528
     0.2628   0.2806   0.3844   0.4650   0.5034   0.5205   0.5778   0.6400
     0.6425   0.6809   0.7030   0.7339   0.8161   0.9198   0.9450   0.9831
     0.9974   1.0229   1.0399   1.0682   1.1066   1.1873   1.1934   1.2712
     1.3637   1.3750   1.6373   1.6691   1.9998   2.0268   2.0892   2.2749
     2.6637   2.7112   4.1476   4.2095   4.2542   4.2803   4.2985   4.3770
     4.3955   4.6154   4.6417   4.6427   4.6519

[...]

          k = 0.0380-0.0419 0.0000 ( 17876 PWs)   bands (ev):

[...]

          k =-0.0760-0.0000 0.0000 ( 17886 PWs)   bands (ev):

[...]

          k =-0.0760-0.0839 0.0000 ( 17948 PWs)   bands (ev):

   -54.9428 -54.9269 -54.9006 -54.9005 -54.8419 -54.8248 -54.8038 -54.7545
   -54.7475 -54.7419 -54.7325 -54.7295 -54.7246 -54.6621 -53.9164 -53.9162
   -31.3353 -31.3239 -31.2576 -31.2230 -31.2228 -31.2168 -31.1931 -31.1930
   -31.1674 -31.1658 -31.1567 -31.1530 -31.1450 -31.0950 -31.0815 -31.0807
   -31.0766 -31.0751 -31.0719 -31.0692 -31.0414 -31.0320 -31.0298 -31.0232
   -31.0223 -31.0199 -31.0199 -31.0190 -30.9983 -30.9810 -30.9749 -30.9672
   -30.9617 -30.9560 -30.9544 -30.9503 -30.9492 -30.9225 -30.9158 -30.9128
   -30.9081 -30.8976 -30.2402 -30.2400 -30.1547 -30.1545 -30.1153 -30.1152
   -18.9564 -18.2175 -15.2801 -15.1532 -15.0540 -14.9984 -14.9518 -14.9364
   -14.9187 -14.8649 -14.8347 -14.7750 -14.7511 -14.7030 -14.6596 -14.6556
   -14.6275 -14.5483 -14.5331 -14.5206 -14.5131 -14.4624 -14.4484 -14.4255
   -14.4029 -14.3988 -14.3804 -14.3071 -14.2983 -14.2941 -14.2521 -13.2067
   -12.4205 -12.4203 -10.9839  -7.5972  -6.3871  -5.9879  -5.7445  -3.9879
    -3.8395  -2.5638  -2.5410  -2.4052  -2.3908  -2.2796  -2.1877  -2.1374
    -2.1317  -1.9925  -1.9598  -1.9434  -1.9289  -1.9163  -1.8676  -1.8441
    -1.8077  -1.7908  -1.7815  -1.7714  -1.7557  -1.7355  -1.6829  -1.6790
    -1.6689  -1.6545  -1.6104  -1.5946  -1.5637  -1.5526  -1.5247  -1.5019
    -1.4349  -1.3405  -1.2932  -1.2497  -1.1947  -1.1430  -1.1370  -1.0578
    -1.0402  -1.0086  -0.9776  -0.9526  -0.8591  -0.7837  -0.6891  -0.6867
    -0.6833  -0.5630  -0.5230  -0.5047  -0.4933  -0.4623  -0.3781  -0.3687
    -0.3085  -0.2345  -0.2077  -0.2030  -0.1770  -0.0569  -0.0322   0.0275
     0.0585   0.0903   0.0925   0.1721   0.1851   0.2442   0.2586   0.2719
     0.3168   0.3343   0.4330   0.5229   0.5589   0.6618   0.7547   0.7838
     0.8795   0.9372   1.0419   1.0640   1.0858   1.1822   1.1905   1.2252
     1.3539   1.3608   1.4768   1.5164   1.5265   1.5290   2.4473   2.4487
     2.5312   2.5313   4.2744   4.3971   4.4124   4.4585   4.5134   4.6542
     4.6776   4.7247   4.7264   4.8008   4.8124

     the Fermi energy is     4.1997 ev

!    total energy              =   -2977.68485477 Ry
     estimated scf accuracy    <       0.00000005 Ry
     smearing contrib. (-TS)   =      -0.03701790 Ry
     internal energy E=F+TS    =   -2977.64783688 Ry

     The total energy is F=E-TS. E is the sum of the following terms:
     one-electron contribution =  -23308.59682471 Ry
     hartree contribution      =   11755.29271240 Ry
     xc contribution           =    -496.60815978 Ry
     ewald contribution        =    9072.25956817 Ry
     electric field correction =       0.00486704 Ry

     convergence has been achieved in  75 iterations

     Forces acting on atoms (cartesian axes, Ry/au):

     atom    1 type  1   force =     0.00008752   -0.00025386    0.09411525
     atom    2 type  1   force =    -0.00008692   -0.00045815   -0.17748333
     atom    3 type  2   force =     0.00006010   -0.00032853   -0.02122876
     atom    4 type  2   force =     0.00003617   -0.00179282    0.05730260
     atom    5 type  2   force =    -0.01080080   -0.00101893    0.00668014
     atom    6 type  2   force =     0.01199850   -0.00033568    0.00503284
     atom    7 type  1   force =    -0.00060081    0.00105346   -0.01461964
     atom    8 type  1   force =     0.00086583    0.00331244    0.00460281
     atom    9 type  2   force =     0.00000569   -0.00005173    0.00012342
     atom   10 type  2   force =    -0.00368735    0.00210888   -0.00167132
     atom   11 type  2   force =    -0.00017322    0.00061785   -0.00010531
     atom   12 type  2   force =     0.00018890    0.00028354   -0.00022403
     atom   13 type  1   force =    -0.00019785   -0.00027319    0.00014390
     atom   14 type  1   force =     0.00024627   -0.00023213   -0.00035162
     atom   15 type  2   force =     0.00021107    0.00035867   -0.00013851
     atom   16 type  2   force =    -0.00012493    0.00025174   -0.00026790
     atom   17 type  2   force =    -0.00005504   -0.00016763    0.00012204
     atom   18 type  2   force =     0.00016830    0.00008071   -0.00007548
     atom   19 type  1   force =     0.00005986    0.00020455   -0.00033077
     atom   20 type  1   force =     0.00037595   -0.00007639    0.00001453
     atom   21 type  2   force =     0.00011902   -0.00007950    0.10377965
     atom   22 type  2   force =     0.00100210   -0.00045401   -0.00099519
     atom   23 type  2   force =    -0.07066708   -0.00014584   -0.02713444
     atom   24 type  2   force =     0.07063031    0.00031876   -0.02713913
     atom   25 type  1   force =     0.00011655   -0.00016471    0.09374185
     atom   26 type  1   force =    -0.00006101   -0.00053888   -0.17768925
     atom   27 type  2   force =     0.00006639   -0.00005404   -0.02033071
     atom   28 type  2   force =     0.00006547   -0.00146049    0.05630184
     atom   29 type  2   force =    -0.01130884   -0.00039388    0.00736300
     atom   30 type  2   force =     0.01242132    0.00000111    0.00575304
     atom   31 type  1   force =    -0.00074420    0.00573560   -0.01566174
     atom   32 type  1   force =     0.00081396   -0.00458947    0.00433816
     atom   33 type  2   force =     0.00002131    0.00014995    0.00027111
     atom   34 type  2   force =    -0.00321244   -0.00103021   -0.00522212
     atom   35 type  2   force =    -0.00011170   -0.00039522    0.00006800
     atom   36 type  2   force =     0.00021328   -0.00006810   -0.00010762
     atom   37 type  1   force =    -0.00012440    0.00043260   -0.00011318
     atom   38 type  1   force =     0.00009145    0.00016060   -0.00010310
     atom   39 type  2   force =    -0.00043975   -0.00031364   -0.00020261
     atom   40 type  2   force =     0.00012372   -0.00008097    0.00024832
     atom   41 type  2   force =    -0.00003376    0.00009839   -0.00035163
     atom   42 type  2   force =     0.00047850    0.00006113   -0.00034902
     atom   43 type  1   force =    -0.00004324    0.00000475    0.00040172
     atom   44 type  1   force =     0.00029655    0.00053989    0.00045201
     atom   45 type  2   force =     0.00010603   -0.00006395    0.10376095
     atom   46 type  2   force =    -0.07066094   -0.00006971   -0.02711976
     atom   47 type  2   force =     0.07063582    0.00032892   -0.02714222
     atom   48 type  3   force =     0.00054882   -0.00069887    0.00106612
     atom   49 type  3   force =    -0.00018716   -0.00042614    0.00048216
     atom   50 type  4   force =     0.00031825    0.00037913   -0.00025101
     atom   51 type  5   force =     0.00061092    0.00079215   -0.00026161
     atom   52 type  5   force =    -0.00007546    0.00034096    0.00023993
     atom   53 type  5   force =     0.00015089   -0.00052481   -0.00049074
     atom   54 type  5   force =     0.00041111   -0.00013624    0.00018846
     atom   55 type  5   force =     0.00033485   -0.00058489   -0.00012813
     atom   56 type  5   force =     0.00021213   -0.00015900    0.00038826
     atom   57 type  2   force =    -0.00954296   -0.00462488    0.00869382
     atom   58 type  5   force =     0.00676356   -0.00184865   -0.00506716
     atom   59 type  5   force =     0.00208339    0.00627935   -0.00331883

     Total force =     0.366260     Total SCF correction =     0.000560
  @ DRIVER MODE: Message from server: STATUS
  @ DRIVER MODE: Message from server: GETFORCE
  @ DRIVER MODE: Returning v,forces,stress,ensemble

     Writing output data file ./calc.save/
  @ DRIVER MODE: Message from server: EXIT
  @ DRIVE MODE: Exiting

     General routines

     Parallel routines

   This run was terminated on:  13: 3: 1  16Sep2021

   JOB DONE.