     Program PWSCF v.6.7GPU starts on 23Sep2021 at 17:37:31

     R & G space division:  proc/nbgrp/npool/nimage =       8
     Reading input from /storage/home/hcoda1/3/ntian30/research/carbon/CxH_vib/H2O_calc/ads_slab/CH2NNHHHO_a/out_0016/pw.inp
Warning: card &CELL ignored
Warning: card   CELL_DYNAMICS='IPI', ignored
Warning: card / ignored

     Current dimensions of program PWSCF are:
     Max number of different atomic species (ntypx) = 10
     Max number of k-points (npk) =  40000
     Max angular momentum in pseudopotentials (lmaxx) =  3
     Presently no symmetry can be used with electric field

     Message from routine cell_base_init:
     DEPRECATED: use true lattice parameter, not A to a.u. conversion factor

     IMPORTANT: XC functional enforced from input :
     Exchange-correlation= BEEF-VDW
                           (   1   4  43  14   2   0   0)
     Any further DFT definition will be discarded
     Please, verify this is what you really want

  @ DRIVER MODE: Connecting to
 qe_1139763_2947314.sched-torque.pace.gatech.educ4wqvtvc_scratch
  using UNIX socket
  @ DRIVER MODE: Message from server: STATUS
  @ DRIVER MODE: Message from server: INIT
  @ DRIVER MODE: Receiving replica           0          -1
  @ DRIVER MODE: Receiving encoded integer          25
  @ DRIVER MODE:  SCF:  T  FORCE:  T  STRESS:  F  VC:  F  ENSEMBLE:  F
  @ DRIVER MODE:  SCF:  T  FORCE:  T  STRESS:  F  VC:  F  ENSEMBLE:  F

     Using Slab Decomposition

     bravais-lattice index     =            0
     lattice parameter (alat)  =       1.8897  a.u.
     unit-cell volume          =    6658.9804 (a.u.)^3
     number of atoms/cell      =           56
     number of atomic types    =            5
     number of electrons       =       403.00
     number of Kohn-Sham states=          211
     kinetic-energy cutoff     =      29.3995  Ry
     charge density cutoff     =     293.9946  Ry
     scf convergence threshold =      7.3E-08
     mixing beta               =       0.0500
     number of iterations used =            8  plain     mixing
     Exchange-correlation= BEEF-VDW
                           (   1   4  43  14   2   0   0)

     celldm(1)=   1.889726  celldm(2)=   0.000000  celldm(3)=   0.000000
     celldm(4)=   0.000000  celldm(5)=   0.000000  celldm(6)=   0.000000

     crystal axes: (cart. coord. in units of alat)
               a(1) = (   6.579727   0.000000   0.000000 )
               a(2) = (  -0.000775   5.961596   0.000000 )
               a(3) = (   0.000000   0.000000  25.155947 )

     reciprocal axes: (cart. coord. in units 2 pi/alat)
               b(1) = (  0.151982  0.000020  0.000000 )
               b(2) = (  0.000000  0.167740  0.000000 )
               b(3) = (  0.000000  0.000000  0.039752 )

     PseudoPot. # 1 for Ti read from file:
     /storage/coda1/p-amedford6/0/shared/rich_project_chbe-medford/medford-share/data/pseudos_module/espresso/nninc/pbe/van/Ti.UPF
     MD5 check sum: 8e4df49b7f0d34bbd5052bf3f5ea0213
     Pseudo is Ultrasoft, Zval = 12.0
     Generated by new atomic code, or converted to UPF format
     Using radial grid of  851 points,  6 beta functions with:
                l(1) =   0
                l(2) =   0
                l(3) =   1
                l(4) =   1
                l(5) =   2
                l(6) =   2
     Q(r) pseudized with  8 coefficients,  rinner =    1.000   1.000   1.000
                                                       1.000   1.000

     PseudoPot. # 2 for O  read from file:
     /storage/coda1/p-amedford6/0/shared/rich_project_chbe-medford/medford-share/data/pseudos_module/espresso/nninc/pbe/van/O.UPF
     MD5 check sum: 78c19812648e8988a0fe644b0f25305e
     Pseudo is Ultrasoft, Zval =  6.0
     Generated by new atomic code, or converted to UPF format
     Using radial grid of  737 points,  4 beta functions with:
                l(1) =   0
                l(2) =   0
                l(3) =   1
                l(4) =   1
     Q(r) pseudized with  8 coefficients,  rinner =    0.800   0.800   0.800

     PseudoPot. # 3 for N  read from file:
     /storage/coda1/p-amedford6/0/shared/rich_project_chbe-medford/medford-share/data/pseudos_module/espresso/nninc/pbe/van/N.UPF
     MD5 check sum: 90d10febe142ad51ac9d5be1deb811c4
     Pseudo is Ultrasoft, Zval =  5.0
     Generated by new atomic code, or converted to UPF format
     Using radial grid of  729 points,  4 beta functions with:
                l(1) =   0
                l(2) =   0
                l(3) =   1
                l(4) =   1
     Q(r) pseudized with  8 coefficients,  rinner =    0.800   0.800   0.800

     PseudoPot. # 4 for C  read from file:
     /storage/coda1/p-amedford6/0/shared/rich_project_chbe-medford/medford-share/data/pseudos_module/espresso/nninc/pbe/van/C.UPF
     MD5 check sum: 1a69bf6b8db32088f5b2163dbdb77a27
     Pseudo is Ultrasoft, Zval =  4.0
     Generated by new atomic code, or converted to UPF format
     Using radial grid of  721 points,  4 beta functions with:
                l(1) =   0
                l(2) =   0
                l(3) =   1
                l(4) =   1
     Q(r) pseudized with  8 coefficients,  rinner =    0.800   0.800   0.800

     PseudoPot. # 5 for H  read from file:
     /storage/coda1/p-amedford6/0/shared/rich_project_chbe-medford/medford-share/data/pseudos_module/espresso/nninc/pbe/van/H.UPF
     MD5 check sum: b5ee9d7bfd3a09ee7748110bda690ff7
     Pseudo is Ultrasoft, Zval =  1.0
     Generated by new atomic code, or converted to UPF format
     Using radial grid of  615 points,  1 beta functions with:
                l(1) =   0
     Q(r) pseudized with  8 coefficients,  rinner =    0.800

     atomic species   valence    mass     pseudopotential
        Ti1           12.00    47.86700     Ti( 1.00)
        O1             6.00    15.99900     O ( 1.00)
        N1             5.00    14.00700     N ( 1.00)
        C1             4.00    12.01100     C ( 1.00)
        H1             1.00     1.00800     H ( 1.00)

     No symmetry found

   Cartesian axes

     site n.     atom                  positions (alat units)
         1           Ti1 tau(   1) = (   0.0004258   2.9801865   6.0000000  )
         2           Ti1 tau(   2) = (   3.2906075   1.4906267   6.0002472  )
         3           O1  tau(   3) = (   0.0006271   0.0005054   7.9858123  )
         4           O1  tau(   4) = (   3.2906025   0.0005020   7.3038282  )
         5           O1  tau(   5) = (   4.5942328   1.4918067   9.2879030  )
         6           O1  tau(   6) = (   1.9868534   1.4903216   9.2879459  )
         7           Ti1 tau(   7) = (   3.2907910   2.8959150   9.1758416  )
         8           Ti1 tau(   8) = (   0.0015273   1.4827037   9.2680791  )
         9           O1  tau(   9) = (   3.2834828   5.9254549  11.3560997  )
        10           O1  tau(  10) = (   0.0116148   5.9584955  10.6183126  )
        11           O1  tau(  11) = (   1.2632982   1.4794151  12.6467768  )
        12           O1  tau(  12) = (   5.2979234   1.4912170  12.6376735  )
        13           Ti1 tau(  13) = (   6.5593102   2.9584919  12.5255918  )
        14           Ti1 tau(  14) = (   3.2941082   1.2876829  12.7086691  )
        15           O1  tau(  15) = (   6.5459232   0.0848410  14.6672212  )
        16           O1  tau(  16) = (   3.2899079   0.0686032  13.9983899  )
        17           O1  tau(  17) = (   4.5347701   1.5447734  16.1667714  )
        18           O1  tau(  18) = (   1.9898569   1.5359154  16.1924900  )
        19           Ti1 tau(  19) = (   3.2532585   2.9792413  15.6887139  )
        20           Ti1 tau(  20) = (   6.5162390   1.4193964  16.0443711  )
        21           O1  tau(  21) = (   3.2904802   0.0005063   4.7018136  )
        22           O1  tau(  22) = (   6.5314393   5.8470953  17.1670503  )
        23           O1  tau(  23) = (   1.3043587   1.4918075   6.0039043  )
        24           O1  tau(  24) = (   5.2767064   1.4903225   6.0039473  )
        25           Ti1 tau(  25) = (   0.0000382   5.9609847   6.0000000  )
        26           Ti1 tau(  26) = (   3.2902200   4.4714249   6.0002472  )
        27           O1  tau(  27) = (   0.0002396   2.9813036   7.9858123  )
        28           O1  tau(  28) = (   3.2902150   2.9813002   7.3038282  )
        29           O1  tau(  29) = (   4.5938453   4.4726049   9.2879030  )
        30           O1  tau(  30) = (   1.9864658   4.4711199   9.2879459  )
        31           Ti1 tau(  31) = (   3.2891106   5.8743827   9.1763621  )
        32           Ti1 tau(  32) = (   0.0006254   4.4649316   9.2693709  )
        33           O1  tau(  33) = (   3.2801501   3.0037454  11.3162440  )
        34           O1  tau(  34) = (   0.0092240   2.9805883  10.6323155  )
        35           O1  tau(  35) = (   1.2628463   4.4620516  12.6871769  )
        36           O1  tau(  36) = (   5.2965349   4.4479299  12.6783795  )
        37           Ti1 tau(  37) = (   0.0245004   5.9521619  12.5031165  )
        38           Ti1 tau(  38) = (   3.2934334   4.3725749  12.4478892  )
        39           O1  tau(  39) = (   0.0012172   2.9324930  14.9038371  )
        40           O1  tau(  40) = (   3.2612729   2.9642313  13.9201381  )
        41           O1  tau(  41) = (   4.5459169   4.3864222  16.0774642  )
        42           O1  tau(  42) = (   2.0085495   4.4473877  16.1057765  )
        43           Ti1 tau(  43) = (   3.2275989   5.9528725  16.3079466  )
        44           Ti1 tau(  44) = (   6.5418721   4.6299905  15.7990834  )
        45           O1  tau(  45) = (   3.2900926   2.9813045   4.7018136  )
        46           O1  tau(  46) = (   1.3039711   4.4726057   6.0039043  )
        47           O1  tau(  47) = (   5.2763189   4.4711207   6.0039473  )
        48           N1  tau(  48) = (   6.5153795   2.7269917  18.1720481  )
        49           C1  tau(  49) = (   0.9714328   2.6352729  18.9176740  )
        50           H1  tau(  50) = (   0.9613011   2.9797384  19.9541300  )
        51           H1  tau(  51) = (   1.8619620   2.1844435  18.5121220  )
        52           N1  tau(  52) = (   5.3313596   3.1722530  18.7397816  )
        53           H1  tau(  53) = (   5.4931776   3.7097374  19.5894643  )
        54           H1  tau(  54) = (   4.8256156   3.7472006  18.0707398  )
        55           O1  tau(  55) = (   3.3867674   5.8992794  18.1610867  )
        56           H1  tau(  56) = (   4.0349165   0.5560778  18.5374839  )

     number of k points=    10  Fermi-Dirac smearing, width (Ry)=  0.0073
                       cart. coord. in units 2pi/alat
        k(    1) = (   0.0000000   0.0000000   0.0000000), wk =   0.1250000
        k(    2) = (   0.0000000   0.0419351   0.0000000), wk =   0.2500000
        k(    3) = (   0.0000000  -0.0838702   0.0000000), wk =   0.1250000
        k(    4) = (   0.0379955   0.0000049   0.0000000), wk =   0.2500000
        k(    5) = (   0.0379955   0.0419400   0.0000000), wk =   0.2500000
        k(    6) = (   0.0379955  -0.0838652   0.0000000), wk =   0.2500000
        k(    7) = (   0.0379955  -0.0419301   0.0000000), wk =   0.2500000
        k(    8) = (  -0.0759910  -0.0000099   0.0000000), wk =   0.1250000
        k(    9) = (  -0.0759910   0.0419252   0.0000000), wk =   0.2500000
        k(   10) = (  -0.0759910  -0.0838800   0.0000000), wk =   0.1250000

     Initial potential from superposition of free atoms

     starting charge  386.99914, renormalised to  403.00000

     negative rho (up, down):  1.547E-02 0.000E+00

     %%%%%%%%%%%%%%%%%%%%%%%%%%%%%%%%%%%%%%%%%%%%%%%%%%%%%%%%%%%%%%%%%%%%%%%%
     %                                                                      %
     % You are using vdW-DF, which was implemented by the Thonhauser group. %
     % Please cite the following two papers that made this development      %
     % possible and the two reviews that describe the various versions:     %
     %                                                                      %
     %   T. Thonhauser et al., PRL 115, 136402 (2015).                      %
     %   T. Thonhauser et al., PRB 76, 125112 (2007).                       %
     %   K. Berland et al., Rep. Prog. Phys. 78, 066501 (2015).             %
     %   D.C. Langreth et al., J. Phys.: Condens. Matter 21, 084203 (2009). %
     %                                                                      %
     %                                                                      %
     % If you are calculating the stress with vdW-DF, please also cite:     %
     %                                                                      %
     %   R. Sabatini et al., J. Phys.: Condens. Matter 24, 424209 (2012).   %
     %                                                                      %
     %%%%%%%%%%%%%%%%%%%%%%%%%%%%%%%%%%%%%%%%%%%%%%%%%%%%%%%%%%%%%%%%%%%%%%%%

     Adding external electric field

     Computed dipole along edir(3) :
        Dipole              -13.0228 Ry au,        -33.1008 Debye
        Dipole field         -0.0246 Ry au,

        Potential amp.        2.2781 Ry
        Total length         46.3494 bohr

     Starting wfcs are  305 atomic wfcs
  @ DRIVER MODE: Message from server: STATUS
  @ DRIVER MODE: Message from server: POSDATA
  @ DRIVER MODE: Reading and sharing cell
  @ DRIVER MODE: Reading and sharing positions
  @ DRIVER MODE: Received positions

     Self-consistent Calculation

     iteration #  1     ecut=    29.40 Ry     beta= 0.05
     Davidson diagonalization with overlap
     c_bands:  4 eigenvalues not converged
     c_bands:  5 eigenvalues not converged
     c_bands:  3 eigenvalues not converged
     c_bands:  1 eigenvalues not converged
     c_bands:  1 eigenvalues not converged
     c_bands:  5 eigenvalues not converged
     c_bands:  2 eigenvalues not converged
     c_bands:  3 eigenvalues not converged
     ethr =  1.00E-05,  avg # of iterations = 28.8

[...]

     total energy              =   -2311.55538165 Ry
     estimated scf accuracy    <    7504.64921058 Ry

     iteration #  2     ecut=    29.40 Ry     beta= 0.05
     Davidson diagonalization with overlap
     ethr =  1.00E-02,  avg # of iterations = 25.1

[...]

     iteration # 85     ecut=    29.40 Ry     beta= 0.05
     Davidson diagonalization with overlap
     c_bands:  1 eigenvalues not converged
     ethr =  5.21E-11,  avg # of iterations = 14.6

[...]

     total energy              =   -2974.00156741 Ry
     estimated scf accuracy    <       0.00000018 Ry

     iteration # 87     ecut=    29.40 Ry     beta= 0.05
     Davidson diagonalization with overlap
     ethr =  4.40E-11,  avg # of iterations = 12.3

     negative rho (up, down):  1.591E-02 0.000E+00

     Adding external electric field

     Computed dipole along edir(3) :
        Dipole                1.0869 Ry au,          2.7626 Debye
        Dipole field          0.0021 Ry au,

        Potential amp.       -0.1901 Ry
        Total length         46.3494 bohr

     End of self-consistent calculation

          k = 0.0000 0.0000 0.0000 ( 18029 PWs)   bands (ev):

   -55.5966 -55.5311 -55.4971 -55.3804 -55.3741 -55.3575 -55.3442 -55.3315
   -55.3237 -55.2957 -55.2482 -55.1484 -55.1327 -55.0564 -54.4992 -54.4652
   -32.0153 -31.9337 -31.8982 -31.8658 -31.8605 -31.8258 -31.8221 -31.8080
   -31.7807 -31.7769 -31.7582 -31.6836 -31.6574 -31.6495 -31.6373 -31.6337
   -31.6224 -31.6122 -31.5886 -31.5885 -31.5822 -31.5541 -31.5437 -31.5386
   -31.5207 -31.5167 -31.5120 -31.4977 -31.4880 -31.4852 -31.4774 -31.4681
   -31.4680 -31.4445 -31.4224 -31.4035 -31.3452 -31.3373 -31.3047 -31.2942
   -31.2750 -31.2627 -30.9049 -30.8194 -30.7969 -30.7225 -30.6362 -30.5243
   -18.3828 -16.4396 -16.1679 -16.0007 -15.7882 -15.7082 -15.6695 -15.4763
   -15.3841 -15.3226 -15.0936 -15.0706 -15.0652 -15.0399 -15.0299 -15.0142
   -14.9973 -14.9577 -14.9489 -14.9405 -14.9169 -14.9022 -14.8701 -14.8183
   -14.7757 -14.7593 -14.6644 -14.5959 -14.5494 -14.3148 -14.2162 -13.5002
   -12.9972 -12.8809  -8.5546  -6.2679  -5.8370  -4.0462  -3.8521  -3.5296
    -3.4342  -3.4130  -3.3527  -3.2889  -3.0477  -2.9767  -2.8858  -2.8356
    -2.7621  -2.6470  -2.5983  -2.5276  -2.4564  -2.4471  -2.3997  -2.3707
    -2.3090  -2.2958  -2.2599  -2.2533  -2.1825  -2.1628  -2.0621  -2.0497
    -2.0351  -1.9005  -1.8873  -1.8447  -1.8370  -1.8366  -1.7980  -1.7792
    -1.7635  -1.7469  -1.6420  -1.6032  -1.5826  -1.5109  -1.4787  -1.1628
    -1.1300  -1.0858  -1.0678  -1.0166  -0.9646  -0.9414  -0.9189  -0.8546
    -0.8162  -0.7667  -0.7340  -0.7010  -0.6196  -0.5834  -0.5416  -0.4584
    -0.3842  -0.3095  -0.3042  -0.2597  -0.2317  -0.2057  -0.1071  -0.0818
    -0.0685   0.0307   0.0516   0.1264   0.1667   0.2100   0.2489   0.2966
     0.3612   0.3787   0.4043   0.4402   0.4479   0.5031   0.5235   0.5821
     0.6350   0.6501   0.7481   0.8060   0.8204   0.8391   0.9472   1.0251
     1.1451   1.1531   1.2540   1.4797   1.5278   1.5714   1.7210   2.0940
     2.1390   3.5556   3.7043   3.7210   3.7650   3.8121   3.8961   4.0424
     4.1050   4.2427   4.2475

[...]

          k = 0.0380-0.0419 0.0000 ( 17876 PWs)   bands (ev):

[...]

          k =-0.0760-0.0000 0.0000 ( 17886 PWs)   bands (ev):

[...]

          k =-0.0760-0.0839 0.0000 ( 17948 PWs)   bands (ev):

   -55.5958 -55.5142 -55.5138 -55.3729 -55.3671 -55.3573 -55.3407 -55.3402
   -55.3321 -55.2887 -55.2553 -55.1454 -55.1340 -55.0594 -54.4826 -54.4818
   -31.8793 -31.8307 -31.8306 -31.8287 -31.8170 -31.8077 -31.8074 -31.8007
   -31.7333 -31.6861 -31.6771 -31.6667 -31.6617 -31.6342 -31.6340 -31.6323
   -31.6303 -31.6160 -31.6132 -31.5987 -31.5863 -31.5771 -31.5672 -31.5569
   -31.5479 -31.5437 -31.5348 -31.5342 -31.5188 -31.5134 -31.5108 -31.5069
   -31.5065 -31.4784 -31.4744 -31.4163 -31.3975 -31.3737 -31.3477 -31.3410
   -31.3112 -31.2667 -30.8099 -30.8093 -30.7183 -30.7172 -30.6797 -30.6790
   -18.3799 -16.4240 -15.7490 -15.6236 -15.4981 -15.4937 -15.3732 -15.2956
   -15.2782 -15.2494 -15.2375 -15.2033 -15.1858 -15.1501 -15.1182 -15.0874
   -15.0474 -15.0265 -15.0131 -14.9739 -14.9632 -14.9461 -14.9364 -14.9134
   -14.8721 -14.8365 -14.8256 -14.6821 -14.6275 -14.5801 -14.4412 -13.5092
   -12.9830 -12.9826  -8.5310  -6.2342  -5.8566  -3.9940  -3.9317  -2.9856
    -2.9199  -2.8184  -2.7143  -2.6193  -2.5652  -2.5298  -2.4923  -2.4478
    -2.4255  -2.3754  -2.3345  -2.3142  -2.3059  -2.2731  -2.2643  -2.2491
    -2.2292  -2.2142  -2.1990  -2.1889  -2.1607  -2.1434  -2.1426  -2.1087
    -2.0974  -2.0699  -2.0619  -2.0094  -1.9118  -1.8830  -1.7900  -1.6897
    -1.6819  -1.6688  -1.6449  -1.6071  -1.5960  -1.5705  -1.5340  -1.4738
    -1.4653  -1.3015  -1.2485  -1.2177  -1.1441  -1.0884  -1.0577  -1.0302
    -0.9869  -0.9621  -0.8888  -0.8591  -0.7625  -0.7084  -0.6818  -0.6231
    -0.5462  -0.4819  -0.4730  -0.4671  -0.4400  -0.4171  -0.3915  -0.3617
    -0.3366  -0.2661  -0.2284  -0.2096  -0.2001  -0.1446  -0.0989   0.0040
     0.1303   0.2392   0.2559   0.2864   0.3251   0.4758   0.5199   0.5812
     0.6288   0.6600   0.6902   0.7837   0.7950   0.8780   0.9037   0.9405
     0.9857   1.0106   1.0429   1.0724   1.0813   1.8912   1.8985   1.9593
     1.9596   3.7736   4.0518   4.0767   4.0847   4.1027   4.1228   4.1380
     4.1578   4.2275   4.2332

     the Fermi energy is     3.5910 ev

!    total energy              =   -2974.00157440 Ry
     estimated scf accuracy    <       0.00000004 Ry
     smearing contrib. (-TS)   =      -0.01962638 Ry
     internal energy E=F+TS    =   -2973.98194802 Ry

     The total energy is F=E-TS. E is the sum of the following terms:
     one-electron contribution =  -23471.99843092 Ry
     hartree contribution      =   11831.41740363 Ry
     xc contribution           =    -494.06276416 Ry
     ewald contribution        =    9160.65961417 Ry
     electric field correction =       0.00222925 Ry

     convergence has been achieved in  87 iterations

     Forces acting on atoms (cartesian axes, Ry/au):

     atom    1 type  1   force =     0.00012696   -0.00018673    0.09455364
     atom    2 type  1   force =    -0.00003404    0.00034936   -0.17513259
     atom    3 type  2   force =    -0.00002557   -0.00002663   -0.02134859
     atom    4 type  2   force =     0.00001373   -0.00189575    0.05325410
     atom    5 type  2   force =    -0.00694474   -0.00239569    0.00356197
     atom    6 type  2   force =     0.00805447   -0.00193078    0.00204096
     atom    7 type  1   force =    -0.00070251   -0.00277966    0.01002470
     atom    8 type  1   force =     0.00060857    0.00276441    0.00500685
     atom    9 type  2   force =     0.00003274   -0.00046358    0.00022161
     atom   10 type  2   force =    -0.00253811   -0.00140737   -0.01078219
     atom   11 type  2   force =     0.00129384   -0.00018031    0.00055219
     atom   12 type  2   force =    -0.00082551   -0.00023235    0.00066024
     atom   13 type  1   force =    -0.00095483   -0.00095780    0.00045445
     atom   14 type  1   force =     0.00031880    0.00031365    0.00009148
     atom   15 type  2   force =     0.00011744    0.00025614   -0.00041655
     atom   16 type  2   force =    -0.00045789    0.00019692    0.00009354
     atom   17 type  2   force =    -0.00018686    0.00028662    0.00016046
     atom   18 type  2   force =     0.00096902   -0.00016780   -0.00028250
     atom   19 type  1   force =     0.00119071    0.00064560    0.00006244
     atom   20 type  1   force =    -0.00077054    0.00002179    0.00004946
     atom   21 type  2   force =     0.00006249    0.00009696    0.10308982
     atom   22 type  2   force =     0.00059568    0.00068728    0.00050374
     atom   23 type  2   force =    -0.07212892   -0.00013619   -0.02735429
     atom   24 type  2   force =     0.07201436    0.00029541   -0.02735630
     atom   25 type  1   force =     0.00002541   -0.00015312    0.09404876
     atom   26 type  1   force =    -0.00015282   -0.00109789   -0.17522720
     atom   27 type  2   force =     0.00012196   -0.00024458   -0.02013734
     atom   28 type  2   force =    -0.00000355   -0.00026788    0.04932602
     atom   29 type  2   force =    -0.00563798    0.00192465    0.00158056
     atom   30 type  2   force =     0.00666588    0.00249617   -0.00001717
     atom   31 type  1   force =    -0.00072378    0.00676959   -0.00109390
     atom   32 type  1   force =     0.00050170   -0.00385182    0.00432189
     atom   33 type  2   force =     0.00016123   -0.00010982   -0.00081174
     atom   34 type  2   force =    -0.00187208    0.00170084   -0.01046720
     atom   35 type  2   force =     0.00118558    0.00029598   -0.00016837
     atom   36 type  2   force =    -0.00057412    0.00043631   -0.00025449
     atom   37 type  1   force =    -0.00064054    0.00044393   -0.00026027
     atom   38 type  1   force =     0.00055665    0.00015038    0.00013075
     atom   39 type  2   force =     0.00033435   -0.00039738    0.00041723
     atom   40 type  2   force =     0.00020225    0.00013993   -0.00036658
     atom   41 type  2   force =     0.00004887   -0.00012366   -0.00104378
     atom   42 type  2   force =     0.00034913   -0.00035277    0.00039637
     atom   43 type  1   force =     0.00014009   -0.00074792    0.00042020
     atom   44 type  1   force =    -0.00048418   -0.00007529    0.00012540
     atom   45 type  2   force =     0.00007728   -0.00006724    0.10288127
     atom   46 type  2   force =    -0.07216697   -0.00002406   -0.02735150
     atom   47 type  2   force =     0.07208922    0.00041217   -0.02738827
     atom   48 type  3   force =     0.00027094   -0.00082207   -0.00012492
     atom   49 type  4   force =    -0.00012125    0.00219792    0.00289791
     atom   50 type  5   force =     0.00030112   -0.00234302   -0.00348398
     atom   51 type  5   force =    -0.00022995    0.00005596    0.00041857
     atom   52 type  3   force =    -0.00042513   -0.00017120   -0.00000972
     atom   53 type  5   force =     0.00010065   -0.00003048    0.00028176
     atom   54 type  5   force =    -0.00009977    0.00029182   -0.00060082
     atom   55 type  2   force =    -0.00019317    0.00091214    0.00004487
     atom   56 type  5   force =     0.00036369   -0.00050109   -0.00019296

     Total force =     0.361997     Total SCF correction =     0.000700
  @ DRIVER MODE: Message from server: STATUS
  @ DRIVER MODE: Message from server: GETFORCE
  @ DRIVER MODE: Returning v,forces,stress,ensemble

     Writing output data file ./calc.save/
  @ DRIVER MODE: Message from server: EXIT
  @ DRIVE MODE: Exiting

     General routines

     Parallel routines

   This run was terminated on:  18: 7:28  23Sep2021

   JOB DONE.