     Program PWSCF v.6.7GPU starts on 23Aug2021 at 15:51:56

     R & G space division:  proc/nbgrp/npool/nimage =       6
     Reading input from /storage/home/hcoda1/3/ntian30/research/carbon/CH_vib/ads_slab/CHNNHHH_a/out_0006/pw.inp
Warning: card &CELL ignored
Warning: card   CELL_DYNAMICS='IPI', ignored
Warning: card / ignored

     Current dimensions of program PWSCF are:
     Max number of different atomic species (ntypx) = 10
     Max number of k-points (npk) =  40000
     Max angular momentum in pseudopotentials (lmaxx) =  3
     Presently no symmetry can be used with electric field

     Message from routine cell_base_init:
     DEPRECATED: use true lattice parameter, not A to a.u. conversion factor

     IMPORTANT: XC functional enforced from input :
     Exchange-correlation= BEEF-VDW
                           (   1   4  43  14   2   0   0)
     Any further DFT definition will be discarded
     Please, verify this is what you really want

  @ DRIVER MODE: Connecting to
 qe_1139763_2632795.sched-torque.pace.gatech.eduq8e9vbr8_scratch
  using UNIX socket
  @ DRIVER MODE: Message from server: STATUS
  @ DRIVER MODE: Message from server: INIT
  @ DRIVER MODE: Receiving replica           0          -1
  @ DRIVER MODE: Receiving encoded integer          25
  @ DRIVER MODE:  SCF:  T  FORCE:  T  STRESS:  F  VC:  F  ENSEMBLE:  F
  @ DRIVER MODE:  SCF:  T  FORCE:  T  STRESS:  F  VC:  F  ENSEMBLE:  F

     Using Slab Decomposition

     bravais-lattice index     =            0
     lattice parameter (alat)  =       1.8897  a.u.
     unit-cell volume          =    6658.9804 (a.u.)^3
     number of atoms/cell      =           54
     number of atomic types    =            5
     number of electrons       =       396.00
     number of Kohn-Sham states=          208
     kinetic-energy cutoff     =      29.3995  Ry
     charge density cutoff     =     293.9946  Ry
     scf convergence threshold =      7.3E-08
     mixing beta               =       0.0500
     number of iterations used =            8  plain     mixing
     Exchange-correlation= BEEF-VDW
                           (   1   4  43  14   2   0   0)

     celldm(1)=   1.889726  celldm(2)=   0.000000  celldm(3)=   0.000000
     celldm(4)=   0.000000  celldm(5)=   0.000000  celldm(6)=   0.000000

     crystal axes: (cart. coord. in units of alat)
               a(1) = (   6.579727   0.000000   0.000000 )
               a(2) = (  -0.000775   5.961596   0.000000 )
               a(3) = (   0.000000   0.000000  25.155947 )

     reciprocal axes: (cart. coord. in units 2 pi/alat)
               b(1) = (  0.151982  0.000020  0.000000 )
               b(2) = (  0.000000  0.167740  0.000000 )
               b(3) = (  0.000000  0.000000  0.039752 )

     PseudoPot. # 1 for Ti read from file:
     /storage/coda1/p-amedford6/0/shared/rich_project_chbe-medford/medford-share/data/pseudos_module/espresso/nninc/pbe/van/Ti.UPF
     MD5 check sum: 8e4df49b7f0d34bbd5052bf3f5ea0213
     Pseudo is Ultrasoft, Zval = 12.0
     Generated by new atomic code, or converted to UPF format
     Using radial grid of  851 points,  6 beta functions with:
                l(1) =   0
                l(2) =   0
                l(3) =   1
                l(4) =   1
                l(5) =   2
                l(6) =   2
     Q(r) pseudized with  8 coefficients,  rinner =    1.000   1.000   1.000
                                                       1.000   1.000

     PseudoPot. # 2 for O  read from file:
     /storage/coda1/p-amedford6/0/shared/rich_project_chbe-medford/medford-share/data/pseudos_module/espresso/nninc/pbe/van/O.UPF
     MD5 check sum: 78c19812648e8988a0fe644b0f25305e
     Pseudo is Ultrasoft, Zval =  6.0
     Generated by new atomic code, or converted to UPF format
     Using radial grid of  737 points,  4 beta functions with:
                l(1) =   0
                l(2) =   0
                l(3) =   1
                l(4) =   1
     Q(r) pseudized with  8 coefficients,  rinner =    0.800   0.800   0.800

     PseudoPot. # 3 for N  read from file:
     /storage/coda1/p-amedford6/0/shared/rich_project_chbe-medford/medford-share/data/pseudos_module/espresso/nninc/pbe/van/N.UPF
     MD5 check sum: 90d10febe142ad51ac9d5be1deb811c4
     Pseudo is Ultrasoft, Zval =  5.0
     Generated by new atomic code, or converted to UPF format
     Using radial grid of  729 points,  4 beta functions with:
                l(1) =   0
                l(2) =   0
                l(3) =   1
                l(4) =   1
     Q(r) pseudized with  8 coefficients,  rinner =    0.800   0.800   0.800

     PseudoPot. # 4 for C  read from file:
     /storage/coda1/p-amedford6/0/shared/rich_project_chbe-medford/medford-share/data/pseudos_module/espresso/nninc/pbe/van/C.UPF
     MD5 check sum: 1a69bf6b8db32088f5b2163dbdb77a27
     Pseudo is Ultrasoft, Zval =  4.0
     Generated by new atomic code, or converted to UPF format
     Using radial grid of  721 points,  4 beta functions with:
                l(1) =   0
                l(2) =   0
                l(3) =   1
                l(4) =   1
     Q(r) pseudized with  8 coefficients,  rinner =    0.800   0.800   0.800

     PseudoPot. # 5 for H  read from file:
     /storage/coda1/p-amedford6/0/shared/rich_project_chbe-medford/medford-share/data/pseudos_module/espresso/nninc/pbe/van/H.UPF
     MD5 check sum: b5ee9d7bfd3a09ee7748110bda690ff7
     Pseudo is Ultrasoft, Zval =  1.0
     Generated by new atomic code, or converted to UPF format
     Using radial grid of  615 points,  1 beta functions with:
                l(1) =   0
     Q(r) pseudized with  8 coefficients,  rinner =    0.800

     atomic species   valence    mass     pseudopotential
        Ti1           12.00    47.86700     Ti( 1.00)
        O1             6.00    15.99900     O ( 1.00)
        N1             5.00    14.00700     N ( 1.00)
        C1             4.00    12.01100     C ( 1.00)
        H1             1.00     1.00800     H ( 1.00)

     No symmetry found

   Cartesian axes

     site n.     atom                  positions (alat units)
         1           Ti1 tau(   1) = (   0.0004258   2.9801865   6.0000000  )
         2           Ti1 tau(   2) = (   3.2906075   1.4906267   6.0002472  )
         3           O1  tau(   3) = (   0.0006271   0.0005054   7.9858123  )
         4           O1  tau(   4) = (   3.2906025   0.0005020   7.3038282  )
         5           O1  tau(   5) = (   4.5942328   1.4918067   9.2879030  )
         6           O1  tau(   6) = (   1.9868534   1.4903216   9.2879459  )
         7           Ti1 tau(   7) = (   3.2907910   2.8959150   9.1758416  )
         8           Ti1 tau(   8) = (   0.0015273   1.4827037   9.2680791  )
         9           O1  tau(   9) = (   3.3116888   5.9365513  11.3741315  )
        10           O1  tau(  10) = (   0.0116148   5.9584955  10.6183126  )
        11           O1  tau(  11) = (   1.3152863   1.4773744  12.6583839  )
        12           O1  tau(  12) = (   5.3185463   1.4781915  12.6604289  )
        13           Ti1 tau(  13) = (   0.0312267   2.9553392  12.5172039  )
        14           Ti1 tau(  14) = (   3.3247105   1.4628205  12.5237724  )
        15           O1  tau(  15) = (   0.0176705   0.0150782  14.7085838  )
        16           O1  tau(  16) = (   3.3263678   5.9469243  13.9928752  )
        17           O1  tau(  17) = (   4.5829619   1.4750097  16.2211409  )
        18           O1  tau(  18) = (   2.0801478   1.4636096  16.1819230  )
        19           Ti1 tau(  19) = (   3.3264833   2.9461821  15.7545810  )
        20           Ti1 tau(  20) = (   0.0064452   1.3478264  16.0581623  )
        21           O1  tau(  21) = (   3.2904802   0.0005063   4.7018136  )
        22           O1  tau(  22) = (   0.0393124   5.8647722  17.2449945  )
        23           O1  tau(  23) = (   1.3043587   1.4918075   6.0039043  )
        24           O1  tau(  24) = (   5.2767064   1.4903225   6.0039473  )
        25           Ti1 tau(  25) = (   0.0000382   5.9609847   6.0000000  )
        26           Ti1 tau(  26) = (   3.2902200   4.4714249   6.0002472  )
        27           O1  tau(  27) = (   0.0002396   2.9813036   7.9858123  )
        28           O1  tau(  28) = (   3.2902150   2.9813002   7.3038282  )
        29           O1  tau(  29) = (   4.5938453   4.4726049   9.2879030  )
        30           O1  tau(  30) = (   1.9864658   4.4711199   9.2879459  )
        31           Ti1 tau(  31) = (   3.2891106   5.8743827   9.1763621  )
        32           Ti1 tau(  32) = (   0.0006254   4.4649316   9.2693709  )
        33           O1  tau(  33) = (   3.3126387   2.9639063  11.3704323  )
        34           O1  tau(  34) = (   0.0092240   2.9805883  10.6323155  )
        35           O1  tau(  35) = (   1.3140505   4.4512041  12.6779488  )
        36           O1  tau(  36) = (   5.3186431   4.4503656  12.6784002  )
        37           Ti1 tau(  37) = (   0.0306983   5.9434578  12.5012515  )
        38           Ti1 tau(  38) = (   3.3249252   4.4426326  12.5284913  )
        39           O1  tau(  39) = (   0.0332616   2.9308952  14.9693926  )
        40           O1  tau(  40) = (   3.3269026   2.9510973  13.9662216  )
        41           O1  tau(  41) = (   4.5816979   4.4256876  16.1885362  )
        42           O1  tau(  42) = (   2.0739833   4.4348339  16.1471384  )
        43           Ti1 tau(  43) = (   3.3139036   5.9323143  15.7909994  )
        44           Ti1 tau(  44) = (   0.0257917   4.5791344  15.8913375  )
        45           O1  tau(  45) = (   3.2900926   2.9813045   4.7018136  )
        46           O1  tau(  46) = (   1.3039711   4.4726057   6.0039043  )
        47           O1  tau(  47) = (   5.2763189   4.4711207   6.0039473  )
        48           N1  tau(  48) = (   0.2611162   2.7486399  18.0484573  )
        49           C1  tau(  49) = (   1.0666652   3.1333113  18.7681872  )
        50           H1  tau(  50) = (   1.9496291   3.4674532  19.3170853  )
        51           N1  tau(  51) = (   3.9312863   3.7371558  19.5917579  )
        52           H1  tau(  52) = (   4.2637485   4.0673035  20.4913501  )
        53           H1  tau(  53) = (   4.3024207   4.3757745  18.8906580  )
        54           H1  tau(  54) = (   4.4024832   2.8518033  19.4177320  )

     number of k points=    10  Fermi-Dirac smearing, width (Ry)=  0.0073
                       cart. coord. in units 2pi/alat
        k(    1) = (   0.0000000   0.0000000   0.0000000), wk =   0.1250000
        k(    2) = (   0.0000000   0.0419351   0.0000000), wk =   0.2500000
        k(    3) = (   0.0000000  -0.0838702   0.0000000), wk =   0.1250000
        k(    4) = (   0.0379955   0.0000049   0.0000000), wk =   0.2500000
        k(    5) = (   0.0379955   0.0419400   0.0000000), wk =   0.2500000
        k(    6) = (   0.0379955  -0.0838652   0.0000000), wk =   0.2500000
        k(    7) = (   0.0379955  -0.0419301   0.0000000), wk =   0.2500000
        k(    8) = (  -0.0759910  -0.0000099   0.0000000), wk =   0.1250000
        k(    9) = (  -0.0759910   0.0419252   0.0000000), wk =   0.2500000
        k(   10) = (  -0.0759910  -0.0838800   0.0000000), wk =   0.1250000

     Initial potential from superposition of free atoms

     starting charge  379.99915, renormalised to  396.00000

     negative rho (up, down):  1.481E-02 0.000E+00

     %%%%%%%%%%%%%%%%%%%%%%%%%%%%%%%%%%%%%%%%%%%%%%%%%%%%%%%%%%%%%%%%%%%%%%%%
     %                                                                      %
     % You are using vdW-DF, which was implemented by the Thonhauser group. %
     % Please cite the following two papers that made this development      %
     % possible and the two reviews that describe the various versions:     %
     %                                                                      %
     %   T. Thonhauser et al., PRL 115, 136402 (2015).                      %
     %   T. Thonhauser et al., PRB 76, 125112 (2007).                       %
     %   K. Berland et al., Rep. Prog. Phys. 78, 066501 (2015).             %
     %   D.C. Langreth et al., J. Phys.: Condens. Matter 21, 084203 (2009). %
     %                                                                      %
     %                                                                      %
     % If you are calculating the stress with vdW-DF, please also cite:     %
     %                                                                      %
     %   R. Sabatini et al., J. Phys.: Condens. Matter 24, 424209 (2012).   %
     %                                                                      %
     %%%%%%%%%%%%%%%%%%%%%%%%%%%%%%%%%%%%%%%%%%%%%%%%%%%%%%%%%%%%%%%%%%%%%%%%

     Adding external electric field

     Computed dipole along edir(3) :
        Dipole              -10.3211 Ry au,        -26.2336 Debye
        Dipole field         -0.0195 Ry au,

        Potential amp.        1.8055 Ry
        Total length         46.3494 bohr

     Starting wfcs are  300 atomic wfcs
  @ DRIVER MODE: Message from server: STATUS
  @ DRIVER MODE: Message from server: POSDATA
  @ DRIVER MODE: Reading and sharing cell
  @ DRIVER MODE: Reading and sharing positions
  @ DRIVER MODE: Received positions

     Self-consistent Calculation

     iteration #  1     ecut=    29.40 Ry     beta= 0.05
     Davidson diagonalization with overlap
     c_bands:  1 eigenvalues not converged
     c_bands:  2 eigenvalues not converged
     c_bands:  2 eigenvalues not converged
     c_bands:  1 eigenvalues not converged
     c_bands:  3 eigenvalues not converged
     c_bands:  2 eigenvalues not converged
     c_bands:  3 eigenvalues not converged
     c_bands:  2 eigenvalues not converged
     c_bands:  2 eigenvalues not converged
     c_bands:  2 eigenvalues not converged
     ethr =  1.00E-05,  avg # of iterations = 20.0

[...]

     total energy              =   -2524.39111422 Ry
     estimated scf accuracy    <    4655.48537279 Ry

     iteration #  2     ecut=    29.40 Ry     beta= 0.05
     Davidson diagonalization with overlap
     ethr =  1.00E-02,  avg # of iterations = 23.9

[...]

     iteration # 53     ecut=    29.40 Ry     beta= 0.05
     Davidson diagonalization with overlap
     c_bands:  2 eigenvalues not converged
     ethr =  9.24E-10,  avg # of iterations = 10.1

[...]

     total energy              =   -2940.41291700 Ry
     estimated scf accuracy    <       0.00000009 Ry

     iteration # 61     ecut=    29.40 Ry     beta= 0.05
     Davidson diagonalization with overlap
     ethr =  2.27E-11,  avg # of iterations =  3.3

     negative rho (up, down):  1.579E-02 0.000E+00

     Adding external electric field

     Computed dipole along edir(3) :
        Dipole                1.4874 Ry au,          3.7806 Debye
        Dipole field          0.0028 Ry au,

        Potential amp.       -0.2602 Ry
        Total length         46.3494 bohr

     End of self-consistent calculation

          k = 0.0000 0.0000 0.0000 ( 18029 PWs)   bands (ev):

   -55.2542 -55.2183 -55.2059 -55.1718 -55.1318 -55.1235 -55.1050 -55.0965
   -55.0720 -55.0529 -55.0377 -55.0347 -55.0011 -54.9881 -54.2337 -54.1997
   -31.8228 -31.7077 -31.6983 -31.6196 -31.5638 -31.5616 -31.5532 -31.5401
   -31.4948 -31.4822 -31.4631 -31.4601 -31.4504 -31.4254 -31.4094 -31.4068
   -31.3906 -31.3808 -31.3738 -31.3688 -31.3584 -31.3465 -31.3218 -31.3197
   -31.3095 -31.3026 -31.2764 -31.2745 -31.2631 -31.2619 -31.2531 -31.2344
   -31.2333 -31.2257 -31.2213 -31.2196 -31.1887 -31.1859 -31.1683 -31.1627
   -31.1457 -31.0988 -30.6430 -30.5490 -30.5270 -30.4595 -30.3727 -30.2617
   -16.8320 -16.0803 -15.8107 -15.6695 -15.5632 -15.4501 -15.3365 -15.3153
   -15.1782 -15.1474 -15.0895 -14.9709 -14.9215 -14.9027 -14.8881 -14.8755
   -14.8682 -14.7950 -14.7899 -14.7671 -14.7462 -14.7337 -14.6907 -14.6888
   -14.6482 -14.6274 -14.5834 -14.4926 -14.4092 -14.3399 -14.0221 -12.7365
   -12.6191  -7.9601  -5.2454  -5.0394  -3.9954  -3.4185  -3.2680  -3.1723
    -3.1455  -3.1318  -3.0007  -2.8668  -2.8504  -2.7711  -2.6420  -2.5923
    -2.5079  -2.4567  -2.4449  -2.4263  -2.2428  -2.2283  -2.1754  -2.1257
    -2.0956  -2.0586  -2.0382  -2.0201  -2.0033  -1.9927  -1.9334  -1.8152
    -1.7844  -1.7275  -1.6761  -1.6506  -1.5966  -1.5756  -1.5396  -1.5348
    -1.5333  -1.4852  -1.4606  -1.4362  -1.3608  -1.2728  -1.1585  -1.1075
    -0.9539  -0.8893  -0.8333  -0.8214  -0.7588  -0.7375  -0.7097  -0.6312
    -0.6262  -0.5910  -0.4724  -0.3802  -0.3398  -0.3278  -0.2736  -0.2352
    -0.2087  -0.1625  -0.0676  -0.0322  -0.0158  -0.0112   0.1379   0.1528
     0.2206   0.2689   0.2909   0.2915   0.4029   0.4201   0.4935   0.5295
     0.5651   0.6398   0.6793   0.6953   0.6977   0.7311   0.7360   0.8269
     0.8472   0.8572   0.9294   1.0784   1.3027   1.3526   1.3616   1.6952
     1.6968   1.7890   1.9726   2.3648   2.4130   3.8442   3.9155   3.9900
     3.9965   4.0208   4.0823   4.3238   4.3344   4.3468   4.3499   4.3902

[...]

          k = 0.0380-0.0419 0.0000 ( 17876 PWs)   bands (ev):

[...]

          k =-0.0760-0.0000 0.0000 ( 17886 PWs)   bands (ev):

[...]

          k =-0.0760-0.0839 0.0000 ( 17948 PWs)   bands (ev):

   -55.2362 -55.2360 -55.1889 -55.1887 -55.1187 -55.1182 -55.1101 -55.1024
   -55.0572 -55.0558 -55.0534 -55.0182 -55.0177 -54.9910 -54.2167 -54.2166
   -31.6310 -31.6266 -31.6261 -31.5255 -31.5134 -31.5133 -31.5128 -31.4801
   -31.4801 -31.4618 -31.4546 -31.4488 -31.4445 -31.3940 -31.3889 -31.3876
   -31.3859 -31.3855 -31.3800 -31.3744 -31.3541 -31.3481 -31.3415 -31.3273
   -31.3265 -31.3204 -31.3117 -31.3085 -31.3084 -31.3022 -31.2890 -31.2863
   -31.2854 -31.2689 -31.2663 -31.2495 -31.2482 -31.2446 -31.1990 -31.1987
   -31.1960 -31.1904 -30.5397 -30.5396 -30.4556 -30.4554 -30.4161 -30.4161
   -16.8240 -15.6157 -15.4958 -15.4546 -15.2666 -15.2583 -15.2279 -15.2155
   -15.1535 -15.0648 -15.0390 -15.0286 -15.0141 -14.9636 -14.9561 -14.9511
   -14.9314 -14.8582 -14.8498 -14.8479 -14.8309 -14.7643 -14.7595 -14.7552
   -14.7444 -14.7012 -14.6983 -14.6039 -14.6019 -14.5120 -14.3886 -12.7205
   -12.7205  -7.9566  -5.2408  -5.0499  -3.9815  -2.8219  -2.7775  -2.7419
    -2.7150  -2.6996  -2.4782  -2.4559  -2.4183  -2.3699  -2.3081  -2.2561
    -2.2487  -2.2309  -2.1639  -2.1259  -2.1092  -2.0953  -2.0768  -2.0612
    -2.0469  -2.0219  -1.9783  -1.9708  -1.9517  -1.9306  -1.9001  -1.8916
    -1.8605  -1.8392  -1.8249  -1.8072  -1.6946  -1.6716  -1.6106  -1.5728
    -1.5317  -1.4564  -1.4512  -1.3547  -1.3475  -1.2929  -1.2810  -1.2564
    -1.1645  -1.0645  -1.0018  -0.9939  -0.9877  -0.8633  -0.8238  -0.8009
    -0.7626  -0.7344  -0.6778  -0.5981  -0.5758  -0.5419  -0.4574  -0.4487
    -0.3922  -0.3136  -0.2774  -0.2469  -0.2185  -0.2091  -0.2004  -0.1463
    -0.1399  -0.0691  -0.0184   0.0150   0.0261   0.0593   0.2632   0.2810
     0.3332   0.4322   0.5024   0.6242   0.6815   0.7031   0.7747   0.8144
     0.8597   0.9217   1.0227   1.0547   1.0583   1.1327   1.1642   1.2067
     1.2107   2.1460   2.1463   2.2328   2.2331   3.9887   4.0821   4.1039
     4.1522   4.2455   4.2821   4.3619   4.3803   4.4296   4.4315   4.5061

     the Fermi energy is     3.9073 ev

!    total energy              =   -2940.41295646 Ry
     estimated scf accuracy    <       0.00000005 Ry
     smearing contrib. (-TS)   =      -0.03730281 Ry
     internal energy E=F+TS    =   -2940.37565364 Ry

     The total energy is F=E-TS. E is the sum of the following terms:
     one-electron contribution =  -23550.80647282 Ry
     hartree contribution      =   11868.09057866 Ry
     xc contribution           =    -485.98053126 Ry
     ewald contribution        =    9228.31659664 Ry
     electric field correction =       0.00417513 Ry

     convergence has been achieved in  61 iterations

     Forces acting on atoms (cartesian axes, Ry/au):

     atom    1 type  1   force =    -0.00002508   -0.00018288    0.09330038
     atom    2 type  1   force =    -0.00015823   -0.00022508   -0.17811129
     atom    3 type  2   force =     0.00006524   -0.00020328   -0.02048754
     atom    4 type  2   force =     0.00000386   -0.00195107    0.05846050
     atom    5 type  2   force =    -0.01029491   -0.00134946    0.00734929
     atom    6 type  2   force =     0.01228999   -0.00075339    0.00784288
     atom    7 type  1   force =     0.00035987    0.00279020   -0.01406192
     atom    8 type  1   force =    -0.00056063    0.00109243   -0.00338057
     atom    9 type  2   force =     0.00003875    0.00049872   -0.00007710
     atom   10 type  2   force =    -0.00055316   -0.00103098   -0.00002893
     atom   11 type  2   force =     0.00007630    0.00010976    0.00006974
     atom   12 type  2   force =    -0.00023986    0.00016068   -0.00004625
     atom   13 type  1   force =    -0.00002845    0.00090270   -0.00042330
     atom   14 type  1   force =     0.00010460    0.00024251   -0.00023301
     atom   15 type  2   force =    -0.00018071    0.00030142    0.00121624
     atom   16 type  2   force =     0.00003897    0.00011518   -0.00000410
     atom   17 type  2   force =     0.00046491   -0.00029729    0.00005821
     atom   18 type  2   force =    -0.00055185   -0.00034793   -0.00028640
     atom   19 type  1   force =    -0.00056116   -0.00016476    0.00000369
     atom   20 type  1   force =    -0.00018510    0.00036168    0.00003733
     atom   21 type  2   force =    -0.00001839    0.00000510    0.10389847
     atom   22 type  2   force =    -0.00025967   -0.00065082   -0.00110998
     atom   23 type  2   force =    -0.07045210   -0.00008255   -0.02689247
     atom   24 type  2   force =     0.07029313    0.00035191   -0.02694953
     atom   25 type  1   force =     0.00003916   -0.00005342    0.09294492
     atom   26 type  1   force =    -0.00017906   -0.00018880   -0.17812720
     atom   27 type  2   force =     0.00012271   -0.00033740   -0.01950951
     atom   28 type  2   force =     0.00003194   -0.00168167    0.05803234
     atom   29 type  2   force =    -0.01041136   -0.00124820    0.00692035
     atom   30 type  2   force =     0.01229564   -0.00091821    0.00743250
     atom   31 type  1   force =     0.00034560    0.00516504   -0.01508909
     atom   32 type  1   force =    -0.00046483   -0.00164480   -0.00360038
     atom   33 type  2   force =    -0.00019608   -0.00021589   -0.00018780
     atom   34 type  2   force =     0.00029110   -0.00052884    0.00108332
     atom   35 type  2   force =    -0.00041955    0.00006131    0.00026285
     atom   36 type  2   force =     0.00034832   -0.00002750    0.00032173
     atom   37 type  1   force =    -0.00012298   -0.00042056   -0.00020106
     atom   38 type  1   force =     0.00014107    0.00034268   -0.00033628
     atom   39 type  2   force =    -0.00031865   -0.00050578    0.00153973
     atom   40 type  2   force =     0.00006752    0.00006804   -0.00012390
     atom   41 type  2   force =     0.00010056    0.00023588   -0.00028907
     atom   42 type  2   force =    -0.00037465   -0.00008835   -0.00026899
     atom   43 type  1   force =    -0.00073291   -0.00018153    0.00004932
     atom   44 type  1   force =     0.00005712    0.00072802   -0.00009413
     atom   45 type  2   force =    -0.00001164    0.00000739    0.10388133
     atom   46 type  2   force =    -0.07047737   -0.00004763   -0.02689647
     atom   47 type  2   force =     0.07030302    0.00039127   -0.02696902
     atom   48 type  3   force =    -0.02054129   -0.01066595   -0.01920033
     atom   49 type  4   force =     0.02023484    0.01034235    0.01870025
     atom   50 type  5   force =    -0.00025516   -0.00008178    0.00026694
     atom   51 type  3   force =     0.00009308   -0.00105400   -0.00097381
     atom   52 type  5   force =     0.00075319    0.00086491    0.00086837
     atom   53 type  5   force =     0.00018274    0.00046688   -0.00048789
     atom   54 type  5   force =    -0.00056840    0.00152374   -0.00009335

     Total force =     0.368391     Total SCF correction =     0.000651
  @ DRIVER MODE: Message from server: STATUS
  @ DRIVER MODE: Message from server: GETFORCE
  @ DRIVER MODE: Returning v,forces,stress,ensemble

     Writing output data file ./calc.save/
  @ DRIVER MODE: Message from server: EXIT
  @ DRIVE MODE: Exiting

     General routines

     Parallel routines

   This run was terminated on:  16:20:53  23Aug2021

   JOB DONE.