     Program PWSCF v.6.7GPU starts on 14Sep2021 at 21:11:20

     R & G space division:  proc/nbgrp/npool/nimage =      10
     Reading input from /storage/home/hcoda1/3/ntian30/research/carbon/CxH_vib/CH_calc/ads_slab/CHOHN2_a/out_0022/pw.inp
Warning: card &CELL ignored
Warning: card   CELL_DYNAMICS='IPI', ignored
Warning: card / ignored

     Current dimensions of program PWSCF are:
     Max number of different atomic species (ntypx) = 10
     Max number of k-points (npk) =  40000
     Max angular momentum in pseudopotentials (lmaxx) =  3
     Presently no symmetry can be used with electric field

     Message from routine cell_base_init:
     DEPRECATED: use true lattice parameter, not A to a.u. conversion factor

     IMPORTANT: XC functional enforced from input :
     Exchange-correlation= BEEF-VDW
                           (   1   4  43  14   2   0   0)
     Any further DFT definition will be discarded
     Please, verify this is what you really want

  @ DRIVER MODE: Connecting to
 qe_1139763_2840439.sched-torque.pace.gatech.edui6p9pr4p_scratch
  using UNIX socket
  @ DRIVER MODE: Message from server: STATUS
  @ DRIVER MODE: Message from server: INIT
  @ DRIVER MODE: Receiving replica           0          -1
  @ DRIVER MODE: Receiving encoded integer          25
  @ DRIVER MODE:  SCF:  T  FORCE:  T  STRESS:  F  VC:  F  ENSEMBLE:  F
  @ DRIVER MODE:  SCF:  T  FORCE:  T  STRESS:  F  VC:  F  ENSEMBLE:  F

     Using Slab Decomposition

     bravais-lattice index     =            0
     lattice parameter (alat)  =       1.8897  a.u.
     unit-cell volume          =    6658.9804 (a.u.)^3
     number of atoms/cell      =           53
     number of atomic types    =            5
     number of electrons       =       400.00
     number of Kohn-Sham states=          210
     kinetic-energy cutoff     =      29.3995  Ry
     charge density cutoff     =     293.9946  Ry
     scf convergence threshold =      7.3E-08
     mixing beta               =       0.0500
     number of iterations used =            8  plain     mixing
     Exchange-correlation= BEEF-VDW
                           (   1   4  43  14   2   0   0)

     celldm(1)=   1.889726  celldm(2)=   0.000000  celldm(3)=   0.000000
     celldm(4)=   0.000000  celldm(5)=   0.000000  celldm(6)=   0.000000

     crystal axes: (cart. coord. in units of alat)
               a(1) = (   6.579727   0.000000   0.000000 )
               a(2) = (  -0.000775   5.961596   0.000000 )
               a(3) = (   0.000000   0.000000  25.155947 )

     reciprocal axes: (cart. coord. in units 2 pi/alat)
               b(1) = (  0.151982  0.000020  0.000000 )
               b(2) = (  0.000000  0.167740  0.000000 )
               b(3) = (  0.000000  0.000000  0.039752 )

     PseudoPot. # 1 for C  read from file:
     /storage/coda1/p-amedford6/0/shared/rich_project_chbe-medford/medford-share/data/pseudos_module/espresso/nninc/pbe/van/C.UPF
     MD5 check sum: 1a69bf6b8db32088f5b2163dbdb77a27
     Pseudo is Ultrasoft, Zval =  4.0
     Generated by new atomic code, or converted to UPF format
     Using radial grid of  721 points,  4 beta functions with:
                l(1) =   0
                l(2) =   0
                l(3) =   1
                l(4) =   1
     Q(r) pseudized with  8 coefficients,  rinner =    0.800   0.800   0.800

     PseudoPot. # 2 for H  read from file:
     /storage/coda1/p-amedford6/0/shared/rich_project_chbe-medford/medford-share/data/pseudos_module/espresso/nninc/pbe/van/H.UPF
     MD5 check sum: b5ee9d7bfd3a09ee7748110bda690ff7
     Pseudo is Ultrasoft, Zval =  1.0
     Generated by new atomic code, or converted to UPF format
     Using radial grid of  615 points,  1 beta functions with:
                l(1) =   0
     Q(r) pseudized with  8 coefficients,  rinner =    0.800

     PseudoPot. # 3 for O  read from file:
     /storage/coda1/p-amedford6/0/shared/rich_project_chbe-medford/medford-share/data/pseudos_module/espresso/nninc/pbe/van/O.UPF
     MD5 check sum: 78c19812648e8988a0fe644b0f25305e
     Pseudo is Ultrasoft, Zval =  6.0
     Generated by new atomic code, or converted to UPF format
     Using radial grid of  737 points,  4 beta functions with:
                l(1) =   0
                l(2) =   0
                l(3) =   1
                l(4) =   1
     Q(r) pseudized with  8 coefficients,  rinner =    0.800   0.800   0.800

     PseudoPot. # 4 for Ti read from file:
     /storage/coda1/p-amedford6/0/shared/rich_project_chbe-medford/medford-share/data/pseudos_module/espresso/nninc/pbe/van/Ti.UPF
     MD5 check sum: 8e4df49b7f0d34bbd5052bf3f5ea0213
     Pseudo is Ultrasoft, Zval = 12.0
     Generated by new atomic code, or converted to UPF format
     Using radial grid of  851 points,  6 beta functions with:
                l(1) =   0
                l(2) =   0
                l(3) =   1
                l(4) =   1
                l(5) =   2
                l(6) =   2
     Q(r) pseudized with  8 coefficients,  rinner =    1.000   1.000   1.000
                                                       1.000   1.000

     PseudoPot. # 5 for N  read from file:
     /storage/coda1/p-amedford6/0/shared/rich_project_chbe-medford/medford-share/data/pseudos_module/espresso/nninc/pbe/van/N.UPF
     MD5 check sum: 90d10febe142ad51ac9d5be1deb811c4
     Pseudo is Ultrasoft, Zval =  5.0
     Generated by new atomic code, or converted to UPF format
     Using radial grid of  729 points,  4 beta functions with:
                l(1) =   0
                l(2) =   0
                l(3) =   1
                l(4) =   1
     Q(r) pseudized with  8 coefficients,  rinner =    0.800   0.800   0.800

     atomic species   valence    mass     pseudopotential
        C1             4.00    12.01100     C ( 1.00)
        H1             1.00     1.00800     H ( 1.00)
        O1             6.00    15.99900     O ( 1.00)
        Ti1           12.00    47.86700     Ti( 1.00)
        N1             5.00    14.00700     N ( 1.00)

     No symmetry found

   Cartesian axes

     site n.     atom                  positions (alat units)
         1           C1  tau(   1) = (   5.6818245   3.0934261  18.8613826  )
         2           H1  tau(   2) = (   0.9295697   3.0331078  18.1055300  )
         3           H1  tau(   3) = (   5.3049293   4.0639705  19.1352297  )
         4           O1  tau(   4) = (   3.2904802   0.0005063   4.7018136  )
         5           O1  tau(   5) = (   3.2900926   2.9813045   4.7018136  )
         6           O1  tau(   6) = (   1.3043587   1.4918075   6.0039043  )
         7           O1  tau(   7) = (   1.3039711   4.4726057   6.0039043  )
         8           O1  tau(   8) = (   5.2767064   1.4903225   6.0039473  )
         9           O1  tau(   9) = (   5.2763189   4.4711207   6.0039473  )
        10           O1  tau(  10) = (   3.2906025   0.0005020   7.3038282  )
        11           O1  tau(  11) = (   3.2902150   2.9813002   7.3038282  )
        12           O1  tau(  12) = (   0.0006271   0.0005054   7.9858123  )
        13           O1  tau(  13) = (   0.0002396   2.9813036   7.9858123  )
        14           O1  tau(  14) = (   4.5942328   1.4918067   9.2879030  )
        15           O1  tau(  15) = (   4.5938453   4.4726049   9.2879030  )
        16           O1  tau(  16) = (   1.9868534   1.4903216   9.2879459  )
        17           O1  tau(  17) = (   1.9864658   4.4711199   9.2879459  )
        18           O1  tau(  18) = (   6.5737290   0.0025997  10.6073112  )
        19           O1  tau(  19) = (   6.5745157   2.9846488  10.6292520  )
        20           O1  tau(  20) = (   3.2733922   2.9888808  11.3669225  )
        21           O1  tau(  21) = (   3.2734535   0.0083669  11.3733985  )
        22           O1  tau(  22) = (   1.2686495   4.4776606  12.6533150  )
        23           O1  tau(  23) = (   1.2691242   1.4995788  12.6525255  )
        24           O1  tau(  24) = (   5.2697113   4.4789153  12.6558726  )
        25           O1  tau(  25) = (   5.2698035   1.4991558  12.6558074  )
        26           O1  tau(  26) = (   3.2614338   2.9920807  13.9552461  )
        27           O1  tau(  27) = (   3.2541646   0.0113981  14.0020514  )
        28           O1  tau(  28) = (   6.5688946   0.0096870  14.6775192  )
        29           O1  tau(  29) = (   6.5667413   2.9928499  14.8718366  )
        30           O1  tau(  30) = (   4.5340645   4.4751187  16.1466513  )
        31           O1  tau(  31) = (   4.5349815   1.5188077  16.1513287  )
        32           O1  tau(  32) = (   2.0116004   1.5352794  16.1924295  )
        33           O1  tau(  33) = (   2.0125852   4.4566501  16.1924965  )
        34           O1  tau(  34) = (   6.5583959   0.0051910  17.1951124  )
        35           O1  tau(  35) = (   0.0128280   2.9917589  17.7791131  )
        36           Ti1 tau(  36) = (   0.0004258   2.9801865   6.0000000  )
        37           Ti1 tau(  37) = (   0.0000382   5.9609847   6.0000000  )
        38           Ti1 tau(  38) = (   3.2906075   1.4906267   6.0002472  )
        39           Ti1 tau(  39) = (   3.2902200   4.4714249   6.0002472  )
        40           Ti1 tau(  40) = (   3.3204229   0.0006979   9.1540291  )
        41           Ti1 tau(  41) = (   3.3226256   2.9815539   9.1563990  )
        42           Ti1 tau(  42) = (   0.0414996   4.4578595   9.2720048  )
        43           Ti1 tau(  43) = (   0.0419130   1.4910583   9.2667342  )
        44           Ti1 tau(  44) = (   6.5463313   0.0151476  12.4833176  )
        45           Ti1 tau(  45) = (   3.2510826   4.4792010  12.5152252  )
        46           Ti1 tau(  46) = (   3.2519543   1.5009035  12.5151888  )
        47           Ti1 tau(  47) = (   6.5510796   2.9946678  12.5453677  )
        48           Ti1 tau(  48) = (   3.2768179   2.9983465  15.7429562  )
        49           Ti1 tau(  49) = (   3.2517467   0.0179395  15.7976682  )
        50           Ti1 tau(  50) = (   6.5407926   4.5826425  15.9111250  )
        51           Ti1 tau(  51) = (   6.5448107   1.3770631  15.9596882  )
        52           N1  tau(  52) = (   4.6962475   1.0170953  19.6889386  )
        53           N1  tau(  53) = (   5.1479752   2.0001232  19.2934520  )

     number of k points=    10  Fermi-Dirac smearing, width (Ry)=  0.0073
                       cart. coord. in units 2pi/alat
        k(    1) = (   0.0000000   0.0000000   0.0000000), wk =   0.1250000
        k(    2) = (   0.0000000   0.0419351   0.0000000), wk =   0.2500000
        k(    3) = (   0.0000000  -0.0838702   0.0000000), wk =   0.1250000
        k(    4) = (   0.0379955   0.0000049   0.0000000), wk =   0.2500000
        k(    5) = (   0.0379955   0.0419400   0.0000000), wk =   0.2500000
        k(    6) = (   0.0379955  -0.0838652   0.0000000), wk =   0.2500000
        k(    7) = (   0.0379955  -0.0419301   0.0000000), wk =   0.2500000
        k(    8) = (  -0.0759910  -0.0000099   0.0000000), wk =   0.1250000
        k(    9) = (  -0.0759910   0.0419252   0.0000000), wk =   0.2500000
        k(   10) = (  -0.0759910  -0.0838800   0.0000000), wk =   0.1250000

     Initial potential from superposition of free atoms

     starting charge  383.99917, renormalised to  400.00000

     negative rho (up, down):  1.647E-02 0.000E+00

     %%%%%%%%%%%%%%%%%%%%%%%%%%%%%%%%%%%%%%%%%%%%%%%%%%%%%%%%%%%%%%%%%%%%%%%%
     %                                                                      %
     % You are using vdW-DF, which was implemented by the Thonhauser group. %
     % Please cite the following two papers that made this development      %
     % possible and the two reviews that describe the various versions:     %
     %                                                                      %
     %   T. Thonhauser et al., PRL 115, 136402 (2015).                      %
     %   T. Thonhauser et al., PRB 76, 125112 (2007).                       %
     %   K. Berland et al., Rep. Prog. Phys. 78, 066501 (2015).             %
     %   D.C. Langreth et al., J. Phys.: Condens. Matter 21, 084203 (2009). %
     %                                                                      %
     %                                                                      %
     % If you are calculating the stress with vdW-DF, please also cite:     %
     %                                                                      %
     %   R. Sabatini et al., J. Phys.: Condens. Matter 24, 424209 (2012).   %
     %                                                                      %
     %%%%%%%%%%%%%%%%%%%%%%%%%%%%%%%%%%%%%%%%%%%%%%%%%%%%%%%%%%%%%%%%%%%%%%%%

     Adding external electric field

     Computed dipole along edir(3) :
        Dipole              -12.5100 Ry au,        -31.7972 Debye
        Dipole field         -0.0236 Ry au,

        Potential amp.        2.1884 Ry
        Total length         46.3494 bohr

     Starting wfcs are  302 atomic wfcs
  @ DRIVER MODE: Message from server: STATUS
  @ DRIVER MODE: Message from server: POSDATA
  @ DRIVER MODE: Reading and sharing cell
  @ DRIVER MODE: Reading and sharing positions
  @ DRIVER MODE: Received positions

     Self-consistent Calculation

     iteration #  1     ecut=    29.40 Ry     beta= 0.05
     Davidson diagonalization with overlap
     c_bands:  3 eigenvalues not converged
     c_bands:  1 eigenvalues not converged
     c_bands:  4 eigenvalues not converged
     c_bands:  2 eigenvalues not converged
     c_bands:  4 eigenvalues not converged
     c_bands:  4 eigenvalues not converged
     c_bands:  1 eigenvalues not converged
     c_bands:  4 eigenvalues not converged
     c_bands:  1 eigenvalues not converged
     ethr =  1.00E-05,  avg # of iterations = 20.9

[...]

     total energy              =   -2397.10006167 Ry
     estimated scf accuracy    <    6493.85761436 Ry

     iteration #  2     ecut=    29.40 Ry     beta= 0.05
     Davidson diagonalization with overlap
     ethr =  1.00E-02,  avg # of iterations = 23.3

[...]

     iteration # 64     ecut=    29.40 Ry     beta= 0.05
     Davidson diagonalization with overlap
     c_bands:  1 eigenvalues not converged
     ethr =  1.72E-10,  avg # of iterations = 14.2

[...]

     total energy              =   -2970.16549999 Ry
     estimated scf accuracy    <       0.00000008 Ry

     iteration # 69     ecut=    29.40 Ry     beta= 0.05
     Davidson diagonalization with overlap
     ethr =  1.90E-11,  avg # of iterations =  8.4

     negative rho (up, down):  1.635E-02 0.000E+00

     Adding external electric field

     Computed dipole along edir(3) :
        Dipole                0.8232 Ry au,          2.0923 Debye
        Dipole field          0.0016 Ry au,

        Potential amp.       -0.1440 Ry
        Total length         46.3494 bohr

     End of self-consistent calculation

          k = 0.0000 0.0000 0.0000 ( 18029 PWs)   bands (ev):

   -55.5653 -55.5349 -55.5292 -55.5005 -55.4628 -55.4557 -55.4418 -55.4081
   -55.4032 -55.3901 -55.3689 -55.3601 -55.3484 -55.3146 -54.6280 -54.5939
   -32.1354 -32.0587 -32.0303 -31.9390 -31.8853 -31.8786 -31.8756 -31.8579
   -31.8232 -31.8145 -31.7776 -31.7765 -31.7689 -31.7468 -31.7411 -31.7189
   -31.7161 -31.7003 -31.6914 -31.6890 -31.6868 -31.6804 -31.6599 -31.6511
   -31.6505 -31.6318 -31.6310 -31.6014 -31.5977 -31.5921 -31.5763 -31.5544
   -31.5539 -31.5523 -31.5435 -31.5328 -31.5283 -31.5021 -31.4925 -31.4836
   -31.4735 -31.4591 -31.0403 -30.9372 -30.9156 -30.8566 -30.7702 -30.6592
   -21.1015 -20.3071 -16.3886 -16.1325 -15.9819 -15.8801 -15.7820 -15.6383
   -15.6096 -15.5036 -15.3743 -15.2917 -15.2360 -15.2278 -15.2129 -15.2009
   -15.1856 -15.1812 -15.1223 -15.0925 -15.0679 -15.0536 -15.0449 -15.0102
   -14.9548 -14.9481 -14.9330 -14.7944 -14.7264 -14.6668 -14.3542 -14.2563
   -13.1287 -13.0092  -8.5373  -6.8039  -5.6736  -4.5372  -4.0288  -3.7470
    -3.7182  -3.5728  -3.4981  -3.4788  -3.4290  -3.3087  -3.1577  -2.9941
    -2.8974  -2.8454  -2.8206  -2.7699  -2.7310  -2.6988  -2.5240  -2.5100
    -2.4819  -2.4569  -2.4394  -2.4332  -2.4040  -2.3330  -2.3126  -2.3060
    -2.2856  -2.1495  -2.1304  -2.0342  -1.9926  -1.9625  -1.9034  -1.8891
    -1.8841  -1.8536  -1.8334  -1.8190  -1.8142  -1.7769  -1.5926  -1.5861
    -1.4715  -1.4261  -1.3460  -1.2940  -1.1248  -1.1227  -1.0627  -1.0369
    -1.0104  -0.9704  -0.9633  -0.9233  -0.8078  -0.7190  -0.6756  -0.6063
    -0.5653  -0.5000  -0.4544  -0.3628  -0.3524  -0.3368  -0.3209  -0.1961
    -0.1356  -0.0956  -0.0641  -0.0189  -0.0058   0.0955   0.1164   0.1933
     0.1993   0.2595   0.2612   0.3625   0.3760   0.3820   0.4075   0.4300
     0.5155   0.5892   0.5907   0.6072   0.7699   0.9778   0.9926   1.0407
     1.2853   1.3874   1.3981   1.5325   1.5570   1.9850   2.0404   3.5305
     3.5985   3.6380   3.6553   3.6692   3.7375   3.9935   4.0201   4.0383
     4.0520   4.0619

[...]

          k = 0.0380-0.0419 0.0000 ( 17876 PWs)   bands (ev):

[...]

          k =-0.0760-0.0000 0.0000 ( 17886 PWs)   bands (ev):

[...]

          k =-0.0760-0.0839 0.0000 ( 17948 PWs)   bands (ev):

   -55.5476 -55.5468 -55.5194 -55.5159 -55.4595 -55.4484 -55.4349 -55.4154
   -55.3973 -55.3870 -55.3848 -55.3629 -55.3324 -55.3306 -54.6109 -54.6109
   -31.9769 -31.9391 -31.9377 -31.8590 -31.8468 -31.8435 -31.8243 -31.8122
   -31.8050 -31.7849 -31.7681 -31.7654 -31.7612 -31.7220 -31.7175 -31.7067
   -31.7037 -31.7025 -31.6933 -31.6892 -31.6866 -31.6854 -31.6730 -31.6521
   -31.6491 -31.6475 -31.6459 -31.6423 -31.6383 -31.6363 -31.6336 -31.6076
   -31.6053 -31.5976 -31.5853 -31.5849 -31.5773 -31.5576 -31.5561 -31.5452
   -31.5187 -31.5157 -30.9282 -30.9281 -30.8530 -30.8529 -30.8135 -30.8134
   -21.0993 -20.3068 -15.9187 -15.8063 -15.7458 -15.5696 -15.5596 -15.5534
   -15.5289 -15.3922 -15.3769 -15.3630 -15.3251 -15.3158 -15.2973 -15.2895
   -15.2702 -15.1583 -15.1554 -15.1474 -15.1447 -15.0828 -15.0795 -15.0647
   -15.0483 -15.0085 -15.0080 -14.9947 -14.9908 -14.8529 -14.6933 -14.2638
   -13.1104 -13.1098  -8.5273  -6.8077  -5.6814  -4.5179  -3.9991  -3.6506
    -3.0837  -3.0254  -3.0074  -2.7837  -2.7658  -2.7286  -2.6894  -2.6311
    -2.5591  -2.5473  -2.5460  -2.4797  -2.4721  -2.4609  -2.4582  -2.4463
    -2.3948  -2.3904  -2.3515  -2.3435  -2.3012  -2.2733  -2.2618  -2.2345
    -2.2273  -2.2266  -2.2047  -2.1887  -2.1744  -2.1698  -2.0628  -2.0061
    -1.9234  -1.8898  -1.8078  -1.7914  -1.7766  -1.6993  -1.6635  -1.6392
    -1.5806  -1.5789  -1.4982  -1.3711  -1.3629  -1.3552  -1.2839  -1.2036
    -1.1944  -1.1528  -1.0990  -1.0498  -1.0355  -0.9463  -0.8913  -0.8773
    -0.7698  -0.7584  -0.7018  -0.5943  -0.5618  -0.5603  -0.5560  -0.5435
    -0.4664  -0.4500  -0.3961  -0.3597  -0.3093  -0.2853  -0.2591  -0.0646
    -0.0545   0.0179   0.1243   0.1717   0.3341   0.3547   0.3759   0.4575
     0.5013   0.5131   0.5875   0.7058   0.7185   0.7670   0.8241   0.8606
     0.8692   0.9055   1.4851   1.7498   1.7504   1.8541   1.8571   3.6807
     3.7700   3.7841   3.8149   3.8630   3.9529   4.0392   4.0561   4.0835
     4.0917   4.1654

     the Fermi energy is     3.5863 ev

!    total energy              =   -2970.16551961 Ry
     estimated scf accuracy    <       0.00000005 Ry
     smearing contrib. (-TS)   =      -0.03781329 Ry
     internal energy E=F+TS    =   -2970.12770632 Ry

     The total energy is F=E-TS. E is the sum of the following terms:
     one-electron contribution =  -23546.34631251 Ry
     hartree contribution      =   11864.92446813 Ry
     xc contribution           =    -491.70071736 Ry
     ewald contribution        =    9202.99357669 Ry
     electric field correction =       0.00127874 Ry

     convergence has been achieved in  69 iterations

     Forces acting on atoms (cartesian axes, Ry/au):

     atom    1 type  1   force =     0.00025643    0.00001537    0.00093237
     atom    2 type  2   force =     0.00070941   -0.00013786    0.00024903
     atom    3 type  2   force =     0.00011129   -0.00031025   -0.00034326
     atom    4 type  3   force =     0.00006065   -0.00000659    0.10503694
     atom    5 type  3   force =     0.00004248    0.00002154    0.10502187
     atom    6 type  3   force =    -0.06776541   -0.00002190   -0.02682612
     atom    7 type  3   force =    -0.06780424   -0.00059078   -0.02685711
     atom    8 type  3   force =     0.06763811    0.00042366   -0.02688623
     atom    9 type  3   force =     0.06767591   -0.00015939   -0.02692051
     atom   10 type  3   force =     0.00072116    0.00001954    0.05053410
     atom   11 type  3   force =     0.00077290    0.00000793    0.05059844
     atom   12 type  3   force =     0.00060954   -0.00004111   -0.02309796
     atom   13 type  3   force =     0.00057318   -0.00016846   -0.02183378
     atom   14 type  3   force =    -0.01559744   -0.00018765    0.00500205
     atom   15 type  3   force =    -0.01566395    0.00008467    0.00497498
     atom   16 type  3   force =     0.01436530    0.00024966    0.00478150
     atom   17 type  3   force =     0.01443962    0.00059286    0.00479065
     atom   18 type  3   force =    -0.00006683    0.00000571   -0.00021643
     atom   19 type  3   force =    -0.00014348    0.00000325   -0.00007209
     atom   20 type  3   force =    -0.00012138    0.00006228   -0.00009108
     atom   21 type  3   force =     0.00004404   -0.00011804    0.00011728
     atom   22 type  3   force =     0.00025927    0.00009479    0.00001628
     atom   23 type  3   force =     0.00000930    0.00019969    0.00006220
     atom   24 type  3   force =    -0.00017287   -0.00004346    0.00019512
     atom   25 type  3   force =     0.00006961    0.00003125    0.00009031
     atom   26 type  3   force =     0.00023000   -0.00016511   -0.00003515
     atom   27 type  3   force =    -0.00008507    0.00020245   -0.00007042
     atom   28 type  3   force =    -0.00011926    0.00184167    0.00138236
     atom   29 type  3   force =     0.00035361   -0.00054703   -0.00111760
     atom   30 type  3   force =    -0.00009381   -0.00046579   -0.00046826
     atom   31 type  3   force =     0.00009179    0.00058331    0.00009790
     atom   32 type  3   force =     0.00014748    0.00040391    0.00011831
     atom   33 type  3   force =     0.00024197   -0.00043336   -0.00034638
     atom   34 type  3   force =    -0.00001812    0.00067559   -0.00213705
     atom   35 type  3   force =    -0.00074004   -0.00004991   -0.00109034
     atom   36 type  4   force =    -0.00021512    0.00010731    0.09293835
     atom   37 type  4   force =    -0.00015682   -0.00013504    0.09679557
     atom   38 type  4   force =    -0.00010743    0.00035964   -0.18350326
     atom   39 type  4   force =    -0.00004837   -0.00057590   -0.18363032
     atom   40 type  4   force =     0.00000891    0.00004671    0.00016599
     atom   41 type  4   force =     0.00018199   -0.00002499    0.00007229
     atom   42 type  4   force =    -0.00037357    0.00012406   -0.00012968
     atom   43 type  4   force =    -0.00022191    0.00029023    0.00014037
     atom   44 type  4   force =     0.00018617    0.00012650    0.00121244
     atom   45 type  4   force =    -0.00006375    0.00002904    0.00024526
     atom   46 type  4   force =    -0.00010219    0.00008478    0.00019860
     atom   47 type  4   force =    -0.00008567   -0.00012129   -0.00101087
     atom   48 type  4   force =    -0.00007677   -0.00005459   -0.00008557
     atom   49 type  4   force =    -0.00015288   -0.00022404    0.00005087
     atom   50 type  4   force =    -0.00003811    0.00818653    0.00151195
     atom   51 type  4   force =     0.00020853   -0.01097977    0.00006898
     atom   52 type  5   force =    -0.00098676   -0.00043449   -0.00090928
     atom   53 type  5   force =     0.00101259    0.00112284    0.00027641

     Total force =     0.368832     Total SCF correction =     0.000593
  @ DRIVER MODE: Message from server: STATUS
  @ DRIVER MODE: Message from server: GETFORCE
  @ DRIVER MODE: Returning v,forces,stress,ensemble

     Writing output data file ./calc.save/
  @ DRIVER MODE: Message from server: EXIT
  @ DRIVE MODE: Exiting

     General routines

     Parallel routines

   This run was terminated on:  21:29:37  14Sep2021

   JOB DONE.