     Program PWSCF v.6.7GPU starts on 21Sep2021 at 13:49:45

     R & G space division:  proc/nbgrp/npool/nimage =      10
     Reading input from /storage/home/hcoda1/3/ntian30/research/carbon/CxH_vib/CH3_calc/ads_slab/CH3ON2_a/out_0006/pw.inp
Warning: card &CELL ignored
Warning: card   CELL_DYNAMICS='IPI', ignored
Warning: card / ignored

     Current dimensions of program PWSCF are:
     Max number of different atomic species (ntypx) = 10
     Max number of k-points (npk) =  40000
     Max angular momentum in pseudopotentials (lmaxx) =  3
     Presently no symmetry can be used with electric field

     Message from routine cell_base_init:
     DEPRECATED: use true lattice parameter, not A to a.u. conversion factor

     IMPORTANT: XC functional enforced from input :
     Exchange-correlation= BEEF-VDW
                           (   1   4  43  14   2   0   0)
     Any further DFT definition will be discarded
     Please, verify this is what you really want

  @ DRIVER MODE: Connecting to
 qe_1139763_2922197.sched-torque.pace.gatech.edu9ccdr8dg_scratch
  using UNIX socket
  @ DRIVER MODE: Message from server: STATUS
  @ DRIVER MODE: Message from server: INIT
  @ DRIVER MODE: Receiving replica           0          -1
  @ DRIVER MODE: Receiving encoded integer          25
  @ DRIVER MODE:  SCF:  T  FORCE:  T  STRESS:  F  VC:  F  ENSEMBLE:  F
  @ DRIVER MODE:  SCF:  T  FORCE:  T  STRESS:  F  VC:  F  ENSEMBLE:  F

     Using Slab Decomposition

     bravais-lattice index     =            0
     lattice parameter (alat)  =       1.8897  a.u.
     unit-cell volume          =    6658.9804 (a.u.)^3
     number of atoms/cell      =           54
     number of atomic types    =            5
     number of electrons       =       401.00
     number of Kohn-Sham states=          210
     kinetic-energy cutoff     =      29.3995  Ry
     charge density cutoff     =     293.9946  Ry
     scf convergence threshold =      7.3E-08
     mixing beta               =       0.0500
     number of iterations used =            8  plain     mixing
     Exchange-correlation= BEEF-VDW
                           (   1   4  43  14   2   0   0)

     celldm(1)=   1.889726  celldm(2)=   0.000000  celldm(3)=   0.000000
     celldm(4)=   0.000000  celldm(5)=   0.000000  celldm(6)=   0.000000

     crystal axes: (cart. coord. in units of alat)
               a(1) = (   6.579727   0.000000   0.000000 )
               a(2) = (  -0.000775   5.961596   0.000000 )
               a(3) = (   0.000000   0.000000  25.155947 )

     reciprocal axes: (cart. coord. in units 2 pi/alat)
               b(1) = (  0.151982  0.000020  0.000000 )
               b(2) = (  0.000000  0.167740  0.000000 )
               b(3) = (  0.000000  0.000000  0.039752 )

     PseudoPot. # 1 for Ti read from file:
     /storage/coda1/p-amedford6/0/shared/rich_project_chbe-medford/medford-share/data/pseudos_module/espresso/nninc/pbe/van/Ti.UPF
     MD5 check sum: 8e4df49b7f0d34bbd5052bf3f5ea0213
     Pseudo is Ultrasoft, Zval = 12.0
     Generated by new atomic code, or converted to UPF format
     Using radial grid of  851 points,  6 beta functions with:
                l(1) =   0
                l(2) =   0
                l(3) =   1
                l(4) =   1
                l(5) =   2
                l(6) =   2
     Q(r) pseudized with  8 coefficients,  rinner =    1.000   1.000   1.000
                                                       1.000   1.000

     PseudoPot. # 2 for O  read from file:
     /storage/coda1/p-amedford6/0/shared/rich_project_chbe-medford/medford-share/data/pseudos_module/espresso/nninc/pbe/van/O.UPF
     MD5 check sum: 78c19812648e8988a0fe644b0f25305e
     Pseudo is Ultrasoft, Zval =  6.0
     Generated by new atomic code, or converted to UPF format
     Using radial grid of  737 points,  4 beta functions with:
                l(1) =   0
                l(2) =   0
                l(3) =   1
                l(4) =   1
     Q(r) pseudized with  8 coefficients,  rinner =    0.800   0.800   0.800

     PseudoPot. # 3 for C  read from file:
     /storage/coda1/p-amedford6/0/shared/rich_project_chbe-medford/medford-share/data/pseudos_module/espresso/nninc/pbe/van/C.UPF
     MD5 check sum: 1a69bf6b8db32088f5b2163dbdb77a27
     Pseudo is Ultrasoft, Zval =  4.0
     Generated by new atomic code, or converted to UPF format
     Using radial grid of  721 points,  4 beta functions with:
                l(1) =   0
                l(2) =   0
                l(3) =   1
                l(4) =   1
     Q(r) pseudized with  8 coefficients,  rinner =    0.800   0.800   0.800

     PseudoPot. # 4 for H  read from file:
     /storage/coda1/p-amedford6/0/shared/rich_project_chbe-medford/medford-share/data/pseudos_module/espresso/nninc/pbe/van/H.UPF
     MD5 check sum: b5ee9d7bfd3a09ee7748110bda690ff7
     Pseudo is Ultrasoft, Zval =  1.0
     Generated by new atomic code, or converted to UPF format
     Using radial grid of  615 points,  1 beta functions with:
                l(1) =   0
     Q(r) pseudized with  8 coefficients,  rinner =    0.800

     PseudoPot. # 5 for N  read from file:
     /storage/coda1/p-amedford6/0/shared/rich_project_chbe-medford/medford-share/data/pseudos_module/espresso/nninc/pbe/van/N.UPF
     MD5 check sum: 90d10febe142ad51ac9d5be1deb811c4
     Pseudo is Ultrasoft, Zval =  5.0
     Generated by new atomic code, or converted to UPF format
     Using radial grid of  729 points,  4 beta functions with:
                l(1) =   0
                l(2) =   0
                l(3) =   1
                l(4) =   1
     Q(r) pseudized with  8 coefficients,  rinner =    0.800   0.800   0.800

     atomic species   valence    mass     pseudopotential
        Ti1           12.00    47.86700     Ti( 1.00)
        O1             6.00    15.99900     O ( 1.00)
        C1             4.00    12.01100     C ( 1.00)
        H1             1.00     1.00800     H ( 1.00)
        N1             5.00    14.00700     N ( 1.00)

     No symmetry found

   Cartesian axes

     site n.     atom                  positions (alat units)
         1           Ti1 tau(   1) = (   0.0004258   2.9801865   6.0000000  )
         2           Ti1 tau(   2) = (   3.2906075   1.4906267   6.0002472  )
         3           O1  tau(   3) = (   0.0006271   0.0005054   7.9858123  )
         4           O1  tau(   4) = (   3.2906025   0.0005020   7.3038282  )
         5           O1  tau(   5) = (   4.5942328   1.4918067   9.2879030  )
         6           O1  tau(   6) = (   1.9868534   1.4903216   9.2879459  )
         7           Ti1 tau(   7) = (   3.3204934   3.0328528   9.1574130  )
         8           Ti1 tau(   8) = (   0.0292148   1.6159158   9.3632543  )
         9           O1  tau(   9) = (   3.3070435   0.0102262  11.3480939  )
        10           O1  tau(  10) = (   0.0088878   0.0096727  10.6115680  )
        11           O1  tau(  11) = (   1.3030819   1.4981340  12.6442205  )
        12           O1  tau(  12) = (   5.3040506   1.5010416  12.6455732  )
        13           Ti1 tau(  13) = (   0.0403577   3.0063940  12.8112948  )
        14           Ti1 tau(  14) = (   3.3464846   1.5065728  12.4912112  )
        15           O1  tau(  15) = (   0.0134291   0.0009660  14.7247257  )
        16           O1  tau(  16) = (   3.3093041   0.0058478  13.9373560  )
        17           O1  tau(  17) = (   4.5500255   1.4945122  16.1009386  )
        18           O1  tau(  18) = (   2.0583445   1.4942802  16.1012567  )
        19           Ti1 tau(  19) = (   3.3037885   2.9813703  15.7231771  )
        20           Ti1 tau(  20) = (   0.0263689   1.3683668  16.1009981  )
        21           O1  tau(  21) = (   3.2904802   0.0005063   4.7018136  )
        22           O1  tau(  22) = (   0.0160251   5.9515368  17.2504238  )
        23           O1  tau(  23) = (   1.3043587   1.4918075   6.0039043  )
        24           O1  tau(  24) = (   5.2767064   1.4903225   6.0039473  )
        25           Ti1 tau(  25) = (   0.0000382   5.9609847   6.0000000  )
        26           Ti1 tau(  26) = (   3.2902200   4.4714249   6.0002472  )
        27           O1  tau(  27) = (   0.0002396   2.9813036   7.9858123  )
        28           O1  tau(  28) = (   3.2902150   2.9813002   7.3038282  )
        29           O1  tau(  29) = (   4.5938453   4.4726049   9.2879030  )
        30           O1  tau(  30) = (   1.9864658   4.4711199   9.2879459  )
        31           Ti1 tau(  31) = (   3.3068128   0.0556959   9.1539818  )
        32           Ti1 tau(  32) = (   0.0329352   4.5395830   9.2719105  )
        33           O1  tau(  33) = (   3.3067668   2.9902038  11.3487497  )
        34           O1  tau(  34) = (   0.0086428   2.9933526  10.5732881  )
        35           O1  tau(  35) = (   1.3040514   4.4849883  12.6410176  )
        36           O1  tau(  36) = (   5.3019722   4.4792838  12.6433842  )
        37           Ti1 tau(  37) = (   0.0449501   0.0247790  12.5283380  )
        38           Ti1 tau(  38) = (   3.3452221   4.4882979  12.4886840  )
        39           O1  tau(  39) = (   0.0326844   3.0101588  14.7024583  )
        40           O1  tau(  40) = (   3.3056340   2.9839048  13.9300935  )
        41           O1  tau(  41) = (   4.5482541   4.4683137  16.0944903  )
        42           O1  tau(  42) = (   2.0564524   4.4684886  16.0889558  )
        43           Ti1 tau(  43) = (   3.3155465   0.0028818  15.7289974  )
        44           Ti1 tau(  44) = (   0.0293978   4.5260084  15.9878609  )
        45           O1  tau(  45) = (   3.2900926   2.9813045   4.7018136  )
        46           O1  tau(  46) = (   1.3039711   4.4726057   6.0039043  )
        47           O1  tau(  47) = (   5.2763189   4.4711207   6.0039473  )
        48           C1  tau(  48) = (   6.0941187   3.0165090  18.6883144  )
        49           O1  tau(  49) = (   6.5649259   2.9843894  17.3344459  )
        50           H1  tau(  50) = (   5.0084317   2.8724860  18.7083625  )
        51           H1  tau(  51) = (   6.5664557   2.2147430  19.2506469  )
        52           H1  tau(  52) = (   6.3318479   3.9831036  19.1258517  )
        53           N1  tau(  53) = (   6.0286935   3.0693532  22.8641725  )
        54           N1  tau(  54) = (   5.2900788   3.1330812  22.0463807  )

     number of k points=    10  Fermi-Dirac smearing, width (Ry)=  0.0073
                       cart. coord. in units 2pi/alat
        k(    1) = (   0.0000000   0.0000000   0.0000000), wk =   0.1250000
        k(    2) = (   0.0000000   0.0419351   0.0000000), wk =   0.2500000
        k(    3) = (   0.0000000  -0.0838702   0.0000000), wk =   0.1250000
        k(    4) = (   0.0379955   0.0000049   0.0000000), wk =   0.2500000
        k(    5) = (   0.0379955   0.0419400   0.0000000), wk =   0.2500000
        k(    6) = (   0.0379955  -0.0838652   0.0000000), wk =   0.2500000
        k(    7) = (   0.0379955  -0.0419301   0.0000000), wk =   0.2500000
        k(    8) = (  -0.0759910  -0.0000099   0.0000000), wk =   0.1250000
        k(    9) = (  -0.0759910   0.0419252   0.0000000), wk =   0.2500000
        k(   10) = (  -0.0759910  -0.0838800   0.0000000), wk =   0.1250000

     Initial potential from superposition of free atoms

     starting charge  384.99916, renormalised to  401.00000

     negative rho (up, down):  1.014E-02 0.000E+00

     %%%%%%%%%%%%%%%%%%%%%%%%%%%%%%%%%%%%%%%%%%%%%%%%%%%%%%%%%%%%%%%%%%%%%%%%
     %                                                                      %
     % You are using vdW-DF, which was implemented by the Thonhauser group. %
     % Please cite the following two papers that made this development      %
     % possible and the two reviews that describe the various versions:     %
     %                                                                      %
     %   T. Thonhauser et al., PRL 115, 136402 (2015).                      %
     %   T. Thonhauser et al., PRB 76, 125112 (2007).                       %
     %   K. Berland et al., Rep. Prog. Phys. 78, 066501 (2015).             %
     %   D.C. Langreth et al., J. Phys.: Condens. Matter 21, 084203 (2009). %
     %                                                                      %
     %                                                                      %
     % If you are calculating the stress with vdW-DF, please also cite:     %
     %                                                                      %
     %   R. Sabatini et al., J. Phys.: Condens. Matter 24, 424209 (2012).   %
     %                                                                      %
     %%%%%%%%%%%%%%%%%%%%%%%%%%%%%%%%%%%%%%%%%%%%%%%%%%%%%%%%%%%%%%%%%%%%%%%%

     Adding external electric field

     Computed dipole along edir(3) :
        Dipole              -14.4716 Ry au,        -36.7831 Debye
        Dipole field         -0.0273 Ry au,

        Potential amp.        2.5316 Ry
        Total length         46.3494 bohr

     Starting wfcs are  303 atomic wfcs
  @ DRIVER MODE: Message from server: STATUS
  @ DRIVER MODE: Message from server: POSDATA
  @ DRIVER MODE: Reading and sharing cell
  @ DRIVER MODE: Reading and sharing positions
  @ DRIVER MODE: Received positions

     Self-consistent Calculation

     iteration #  1     ecut=    29.40 Ry     beta= 0.05
     Davidson diagonalization with overlap
     c_bands:  3 eigenvalues not converged
     c_bands:  3 eigenvalues not converged
     c_bands:  4 eigenvalues not converged
     c_bands:  3 eigenvalues not converged
     c_bands:  5 eigenvalues not converged
     c_bands:  3 eigenvalues not converged
     c_bands:  5 eigenvalues not converged
     c_bands:  3 eigenvalues not converged
     c_bands:  3 eigenvalues not converged
     c_bands:  1 eigenvalues not converged
     ethr =  1.00E-05,  avg # of iterations = 24.0

[...]

     total energy              =   -2414.26547920 Ry
     estimated scf accuracy    <    6341.80467910 Ry

     iteration #  2     ecut=    29.40 Ry     beta= 0.05
     Davidson diagonalization with overlap
     ethr =  1.00E-02,  avg # of iterations = 24.6

[...]

     iteration # 61     ecut=    29.40 Ry     beta= 0.05
     Davidson diagonalization with overlap
     c_bands:  1 eigenvalues not converged
     ethr =  7.51E-11,  avg # of iterations = 10.6

[...]

     total energy              =   -2971.68350679 Ry
     estimated scf accuracy    <       0.00000016 Ry

     iteration # 62     ecut=    29.40 Ry     beta= 0.05
     Davidson diagonalization with overlap
     ethr =  4.10E-11,  avg # of iterations =  5.9

     negative rho (up, down):  1.204E-02 0.000E+00

     Adding external electric field

     Computed dipole along edir(3) :
        Dipole                0.7680 Ry au,          1.9521 Debye
        Dipole field          0.0014 Ry au,

        Potential amp.       -0.1344 Ry
        Total length         46.3494 bohr

     End of self-consistent calculation

          k = 0.0000 0.0000 0.0000 ( 18029 PWs)   bands (ev):

   -55.5989 -55.5839 -55.5623 -55.5477 -55.4929 -55.4827 -55.4593 -55.4312
   -55.4251 -55.3709 -55.3615 -55.3552 -55.3215 -55.2424 -54.6129 -54.5788
   -32.1499 -32.0668 -32.0016 -31.9476 -31.9180 -31.8984 -31.8901 -31.8674
   -31.8346 -31.8231 -31.8048 -31.7995 -31.7973 -31.7652 -31.7591 -31.7430
   -31.7365 -31.7293 -31.7176 -31.6892 -31.6875 -31.6639 -31.6608 -31.6478
   -31.6390 -31.6378 -31.6150 -31.6086 -31.5995 -31.5871 -31.5797 -31.5796
   -31.5738 -31.5570 -31.5364 -31.5294 -31.5249 -31.4994 -31.4663 -31.4590
   -31.4375 -31.4307 -31.0228 -30.9255 -30.9032 -30.8394 -30.7533 -30.6422
   -21.2082 -17.2681 -16.3358 -16.0435 -15.8803 -15.7470 -15.7167 -15.6125
   -15.4228 -15.2849 -15.2657 -15.2031 -15.1653 -15.1538 -15.1249 -15.1203
   -15.1074 -15.1049 -15.0546 -15.0232 -15.0196 -15.0020 -14.9781 -14.9163
   -14.8760 -14.7967 -14.7487 -14.7173 -14.6618 -14.5991 -14.5833 -13.1138
   -12.9955  -9.2124  -6.3748  -4.3471  -4.3307  -4.0191  -3.8269  -3.6956
    -3.5287  -3.5173  -3.4883  -3.4661  -3.4015  -3.1550  -3.1380  -3.0682
    -2.8210  -2.7622  -2.7382  -2.7235  -2.7183  -2.4765  -2.4559  -2.4258
    -2.4158  -2.4061  -2.3794  -2.3531  -2.3489  -2.3177  -2.2994  -2.2114
    -2.1253  -2.1132  -2.0104  -1.9739  -1.9471  -1.9002  -1.8696  -1.8541
    -1.8378  -1.8100  -1.7960  -1.7677  -1.7650  -1.6663  -1.5412  -1.4299
    -1.4012  -1.3659  -1.2987  -1.0933  -1.0441  -1.0126  -0.9999  -0.9419
    -0.9171  -0.9091  -0.8307  -0.7966  -0.7759  -0.6682  -0.6055  -0.5991
    -0.5568  -0.4935  -0.4606  -0.4186  -0.3377  -0.3223  -0.3091  -0.0929
    -0.0696  -0.0602  -0.0507   0.0636   0.1142   0.1711   0.1839   0.1930
     0.2230   0.3044   0.3560   0.3753   0.3955   0.4170   0.4545   0.5259
     0.5494   0.5813   0.6063   0.6341   0.7255   0.7754   0.9174   1.0473
     1.0706   1.1691   1.3146   1.4112   1.4856   1.5819   2.0003   2.0597
     3.5884   3.6163   3.6495   3.6789   3.7418   3.8555   3.9750   4.0241
     4.0471   4.0710

[...]

          k = 0.0380-0.0419 0.0000 ( 17876 PWs)   bands (ev):

[...]

          k =-0.0760-0.0000 0.0000 ( 17886 PWs)   bands (ev):

[...]

          k =-0.0760-0.0839 0.0000 ( 17948 PWs)   bands (ev):

   -55.5873 -55.5737 -55.5667 -55.5647 -55.4903 -55.4770 -55.4430 -55.4414
   -55.4369 -55.3681 -55.3638 -55.3407 -55.3363 -55.2447 -54.5964 -54.5952
   -31.9541 -31.9486 -31.9018 -31.8903 -31.8793 -31.8758 -31.8578 -31.8533
   -31.8496 -31.8079 -31.7854 -31.7796 -31.7782 -31.7399 -31.7294 -31.7234
   -31.7137 -31.7136 -31.7093 -31.7046 -31.7007 -31.6835 -31.6787 -31.6732
   -31.6687 -31.6628 -31.6562 -31.6450 -31.6448 -31.6404 -31.6162 -31.5931
   -31.5923 -31.5895 -31.5836 -31.5673 -31.5621 -31.5514 -31.5452 -31.5347
   -31.4747 -31.4390 -30.9165 -30.9152 -30.8362 -30.8353 -30.7969 -30.7959
   -21.2080 -17.2295 -15.7733 -15.7622 -15.5184 -15.5163 -15.5140 -15.4454
   -15.3541 -15.3368 -15.3187 -15.3143 -15.2564 -15.2491 -15.2346 -15.1741
   -15.1346 -15.1153 -15.1032 -15.1010 -15.0482 -15.0440 -14.9911 -14.9689
   -14.9540 -14.9468 -14.9295 -14.9228 -14.8335 -14.8311 -14.7576 -13.0979
   -13.0956  -9.2131  -6.3753  -4.3459  -4.3378  -3.8871  -3.7969  -3.5312
    -3.0656  -3.0595  -3.0515  -2.7606  -2.7353  -2.7335  -2.6396  -2.5530
    -2.5136  -2.4764  -2.4389  -2.4355  -2.4341  -2.4153  -2.3959  -2.3838
    -2.3627  -2.3474  -2.3355  -2.2768  -2.2413  -2.2321  -2.2275  -2.2189
    -2.1926  -2.1717  -2.1502  -2.1441  -2.1339  -2.1141  -2.0209  -1.8812
    -1.8471  -1.7381  -1.7280  -1.6980  -1.6838  -1.6522  -1.6450  -1.6257
    -1.5197  -1.4503  -1.3279  -1.3154  -1.2974  -1.2458  -1.1776  -1.1037
    -1.0464  -1.0143  -0.9954  -0.9078  -0.8939  -0.8142  -0.8030  -0.7514
    -0.7207  -0.6959  -0.6052  -0.5664  -0.5561  -0.5459  -0.4728  -0.4567
    -0.4356  -0.3955  -0.3363  -0.3268  -0.2522  -0.2208  -0.1724  -0.1115
    -0.0899  -0.0379   0.0503   0.2161   0.3118   0.4116   0.4475   0.5050
     0.5179   0.6151   0.6584   0.6770   0.6817   0.7655   0.8319   0.8600
     0.9270   0.9415   0.9641   1.0273   1.7711   1.7726   1.8629   1.8731
     3.7941   3.8221   3.8421   3.8887   4.0480   4.0526   4.0717   4.0751
     4.1504   4.2128

     the Fermi energy is     3.5563 ev

!    total energy              =   -2971.68358690 Ry
     estimated scf accuracy    <       0.00000007 Ry
     smearing contrib. (-TS)   =      -0.02320923 Ry
     internal energy E=F+TS    =   -2971.66037767 Ry

     The total energy is F=E-TS. E is the sum of the following terms:
     one-electron contribution =  -22783.65919484 Ry
     hartree contribution      =   11483.88203888 Ry
     xc contribution           =    -492.26723690 Ry
     ewald contribution        =    8820.38290202 Ry
     electric field correction =       0.00111316 Ry

     convergence has been achieved in  62 iterations

     Forces acting on atoms (cartesian axes, Ry/au):

     atom    1 type  1   force =    -0.00021172   -0.00153999    0.10614081
     atom    2 type  1   force =    -0.00044795    0.00047170   -0.17980100
     atom    3 type  2   force =     0.00026946   -0.00690240   -0.03318466
     atom    4 type  2   force =     0.00054327    0.00050914    0.04562879
     atom    5 type  2   force =    -0.01840317    0.00015873    0.00400608
     atom    6 type  2   force =     0.02062191   -0.00127856    0.00460134
     atom    7 type  1   force =    -0.00033518   -0.00020958    0.00005750
     atom    8 type  1   force =    -0.00017798   -0.00126750    0.00021327
     atom    9 type  2   force =     0.00001449    0.00011533   -0.00076676
     atom   10 type  2   force =    -0.00005720    0.00002178   -0.00043457
     atom   11 type  2   force =     0.00004738    0.00007757    0.00040829
     atom   12 type  2   force =    -0.00071569    0.00014995    0.00036947
     atom   13 type  1   force =    -0.00000881    0.00042223    0.00052149
     atom   14 type  1   force =    -0.00014166    0.00088162    0.00016752
     atom   15 type  2   force =    -0.00044669   -0.00029058   -0.00003065
     atom   16 type  2   force =    -0.00018836    0.00013514   -0.00072742
     atom   17 type  2   force =    -0.00051695    0.00001717    0.00019734
     atom   18 type  2   force =     0.00047564   -0.00013608   -0.00043119
     atom   19 type  1   force =    -0.00005365    0.00070228   -0.00068328
     atom   20 type  1   force =    -0.00031207    0.00075267    0.00003811
     atom   21 type  2   force =    -0.00006615    0.00009801    0.10414931
     atom   22 type  2   force =    -0.00011241   -0.00047444   -0.00038705
     atom   23 type  2   force =    -0.06902036    0.00067700   -0.02955804
     atom   24 type  2   force =     0.06867410    0.00115086   -0.02962745
     atom   25 type  1   force =    -0.00013162    0.00146666    0.11714338
     atom   26 type  1   force =    -0.00021977    0.00000621   -0.17987286
     atom   27 type  2   force =     0.00042899    0.00390027   -0.02757089
     atom   28 type  2   force =     0.00072678    0.00077750    0.04708218
     atom   29 type  2   force =    -0.01717999    0.00151785    0.00338950
     atom   30 type  2   force =     0.01883384    0.00099914    0.00381092
     atom   31 type  1   force =    -0.00038965    0.00042437   -0.00029613
     atom   32 type  1   force =    -0.00022971    0.00076049    0.00042123
     atom   33 type  2   force =    -0.00028610   -0.00010276   -0.00017465
     atom   34 type  2   force =    -0.00003285    0.00048433    0.00029149
     atom   35 type  2   force =    -0.00005423    0.00005769    0.00053713
     atom   36 type  2   force =    -0.00068224   -0.00006055    0.00041473
     atom   37 type  1   force =    -0.00006340   -0.00018334    0.00010772
     atom   38 type  1   force =    -0.00007540   -0.00114151    0.00005729
     atom   39 type  2   force =    -0.00022844    0.00002213    0.00046691
     atom   40 type  2   force =    -0.00022258    0.00020067    0.00071445
     atom   41 type  2   force =    -0.00103434   -0.00035016   -0.00015404
     atom   42 type  2   force =     0.00087958   -0.00012151   -0.00000692
     atom   43 type  1   force =     0.00018912   -0.00087654    0.00011633
     atom   44 type  1   force =    -0.00001225    0.00059316    0.00019484
     atom   45 type  2   force =    -0.00005959    0.00007712    0.10421214
     atom   46 type  2   force =    -0.06860195   -0.00128218   -0.02960594
     atom   47 type  2   force =     0.06835802   -0.00085776   -0.02969102
     atom   48 type  3   force =    -0.00174895   -0.00056194   -0.01617857
     atom   49 type  2   force =    -0.00163317    0.00045901    0.00666735
     atom   50 type  4   force =     0.00056286    0.00007309    0.00128037
     atom   51 type  4   force =     0.00223451   -0.00352341    0.00348675
     atom   52 type  4   force =     0.00138637    0.00310908    0.00260204
     atom   53 type  5   force =     0.00054749    0.00001677    0.00076468
     atom   54 type  5   force =    -0.00069158   -0.00012595   -0.00107762

     Total force =     0.376622     Total SCF correction =     0.000660
  @ DRIVER MODE: Message from server: STATUS
  @ DRIVER MODE: Message from server: GETFORCE
  @ DRIVER MODE: Returning v,forces,stress,ensemble

     Writing output data file ./calc.save/
  @ DRIVER MODE: Message from server: EXIT
  @ DRIVE MODE: Exiting

     General routines

     Parallel routines

   This run was terminated on:  14: 8: 9  21Sep2021

   JOB DONE.