     Program PWSCF v.6.7GPU starts on 26Sep2021 at  5:50:11

     R & G space division:  proc/nbgrp/npool/nimage =       8
     Reading input from /storage/home/hcoda1/3/ntian30/research/carbon/CxH_vib/H2O_calc/ads_slab/CH3OHN2HO_a/out_0027/pw.inp
Warning: card &CELL ignored
Warning: card   CELL_DYNAMICS='IPI', ignored
Warning: card / ignored

     Current dimensions of program PWSCF are:
     Max number of different atomic species (ntypx) = 10
     Max number of k-points (npk) =  40000
     Max angular momentum in pseudopotentials (lmaxx) =  3
     Presently no symmetry can be used with electric field

     Message from routine cell_base_init:
     DEPRECATED: use true lattice parameter, not A to a.u. conversion factor

     IMPORTANT: XC functional enforced from input :
     Exchange-correlation= BEEF-VDW
                           (   1   4  43  14   2   0   0)
     Any further DFT definition will be discarded
     Please, verify this is what you really want

  @ DRIVER MODE: Connecting to
 qe_1139763_2971668.sched-torque.pace.gatech.edu6h8_1op7_scratch
  using UNIX socket
  @ DRIVER MODE: Message from server: STATUS
  @ DRIVER MODE: Message from server: INIT
  @ DRIVER MODE: Receiving replica           0          -1
  @ DRIVER MODE: Receiving encoded integer          25
  @ DRIVER MODE:  SCF:  T  FORCE:  T  STRESS:  F  VC:  F  ENSEMBLE:  F
  @ DRIVER MODE:  SCF:  T  FORCE:  T  STRESS:  F  VC:  F  ENSEMBLE:  F

     Using Slab Decomposition

     bravais-lattice index     =            0
     lattice parameter (alat)  =       1.8897  a.u.
     unit-cell volume          =    6658.9804 (a.u.)^3
     number of atoms/cell      =           57
     number of atomic types    =            5
     number of electrons       =       409.00
     number of Kohn-Sham states=          214
     kinetic-energy cutoff     =      29.3995  Ry
     charge density cutoff     =     293.9946  Ry
     scf convergence threshold =      7.3E-08
     mixing beta               =       0.0500
     number of iterations used =            8  plain     mixing
     Exchange-correlation= BEEF-VDW
                           (   1   4  43  14   2   0   0)

     celldm(1)=   1.889726  celldm(2)=   0.000000  celldm(3)=   0.000000
     celldm(4)=   0.000000  celldm(5)=   0.000000  celldm(6)=   0.000000

     crystal axes: (cart. coord. in units of alat)
               a(1) = (   6.579727   0.000000   0.000000 )
               a(2) = (  -0.000775   5.961596   0.000000 )
               a(3) = (   0.000000   0.000000  25.155947 )

     reciprocal axes: (cart. coord. in units 2 pi/alat)
               b(1) = (  0.151982  0.000020  0.000000 )
               b(2) = (  0.000000  0.167740  0.000000 )
               b(3) = (  0.000000  0.000000  0.039752 )

     PseudoPot. # 1 for Ti read from file:
     /storage/coda1/p-amedford6/0/shared/rich_project_chbe-medford/medford-share/data/pseudos_module/espresso/nninc/pbe/van/Ti.UPF
     MD5 check sum: 8e4df49b7f0d34bbd5052bf3f5ea0213
     Pseudo is Ultrasoft, Zval = 12.0
     Generated by new atomic code, or converted to UPF format
     Using radial grid of  851 points,  6 beta functions with:
                l(1) =   0
                l(2) =   0
                l(3) =   1
                l(4) =   1
                l(5) =   2
                l(6) =   2
     Q(r) pseudized with  8 coefficients,  rinner =    1.000   1.000   1.000
                                                       1.000   1.000

     PseudoPot. # 2 for O  read from file:
     /storage/coda1/p-amedford6/0/shared/rich_project_chbe-medford/medford-share/data/pseudos_module/espresso/nninc/pbe/van/O.UPF
     MD5 check sum: 78c19812648e8988a0fe644b0f25305e
     Pseudo is Ultrasoft, Zval =  6.0
     Generated by new atomic code, or converted to UPF format
     Using radial grid of  737 points,  4 beta functions with:
                l(1) =   0
                l(2) =   0
                l(3) =   1
                l(4) =   1
     Q(r) pseudized with  8 coefficients,  rinner =    0.800   0.800   0.800

     PseudoPot. # 3 for C  read from file:
     /storage/coda1/p-amedford6/0/shared/rich_project_chbe-medford/medford-share/data/pseudos_module/espresso/nninc/pbe/van/C.UPF
     MD5 check sum: 1a69bf6b8db32088f5b2163dbdb77a27
     Pseudo is Ultrasoft, Zval =  4.0
     Generated by new atomic code, or converted to UPF format
     Using radial grid of  721 points,  4 beta functions with:
                l(1) =   0
                l(2) =   0
                l(3) =   1
                l(4) =   1
     Q(r) pseudized with  8 coefficients,  rinner =    0.800   0.800   0.800

     PseudoPot. # 4 for H  read from file:
     /storage/coda1/p-amedford6/0/shared/rich_project_chbe-medford/medford-share/data/pseudos_module/espresso/nninc/pbe/van/H.UPF
     MD5 check sum: b5ee9d7bfd3a09ee7748110bda690ff7
     Pseudo is Ultrasoft, Zval =  1.0
     Generated by new atomic code, or converted to UPF format
     Using radial grid of  615 points,  1 beta functions with:
                l(1) =   0
     Q(r) pseudized with  8 coefficients,  rinner =    0.800

     PseudoPot. # 5 for N  read from file:
     /storage/coda1/p-amedford6/0/shared/rich_project_chbe-medford/medford-share/data/pseudos_module/espresso/nninc/pbe/van/N.UPF
     MD5 check sum: 90d10febe142ad51ac9d5be1deb811c4
     Pseudo is Ultrasoft, Zval =  5.0
     Generated by new atomic code, or converted to UPF format
     Using radial grid of  729 points,  4 beta functions with:
                l(1) =   0
                l(2) =   0
                l(3) =   1
                l(4) =   1
     Q(r) pseudized with  8 coefficients,  rinner =    0.800   0.800   0.800

     atomic species   valence    mass     pseudopotential
        Ti1           12.00    47.86700     Ti( 1.00)
        O1             6.00    15.99900     O ( 1.00)
        C1             4.00    12.01100     C ( 1.00)
        H1             1.00     1.00800     H ( 1.00)
        N1             5.00    14.00700     N ( 1.00)

     No symmetry found

   Cartesian axes

     site n.     atom                  positions (alat units)
         1           Ti1 tau(   1) = (   0.0004258   2.9801865   6.0000000  )
         2           Ti1 tau(   2) = (   3.2906075   1.4906267   6.0002472  )
         3           O1  tau(   3) = (   0.0006271   0.0005054   7.9858123  )
         4           O1  tau(   4) = (   3.2906025   0.0005020   7.3038282  )
         5           O1  tau(   5) = (   4.5942328   1.4918067   9.2879030  )
         6           O1  tau(   6) = (   1.9868534   1.4903216   9.2879459  )
         7           Ti1 tau(   7) = (   3.3371032   3.0268772   9.1887580  )
         8           Ti1 tau(   8) = (   0.0611061   1.5258697   9.2809523  )
         9           O1  tau(   9) = (   3.3143856   0.0188946  11.3581724  )
        10           O1  tau(  10) = (   0.0164151   0.0031400  10.5895864  )
        11           O1  tau(  11) = (   1.3088961   1.4994640  12.6347600  )
        12           O1  tau(  12) = (   5.3347766   1.4946156  12.6347356  )
        13           Ti1 tau(  13) = (   0.0202478   3.0292801  12.5720800  )
        14           Ti1 tau(  14) = (   3.3188568   1.5851219  12.4260843  )
        15           O1  tau(  15) = (   0.0445434   5.9450813  14.6510506  )
        16           O1  tau(  16) = (   3.3207065   5.8849141  14.0104376  )
        17           O1  tau(  17) = (   4.6249962   1.5116716  16.1313945  )
        18           O1  tau(  18) = (   2.0639035   1.5439872  16.0680944  )
        19           Ti1 tau(  19) = (   3.3360141   2.9454253  15.6763505  )
        20           Ti1 tau(  20) = (   0.0686920   1.3314864  15.9334539  )
        21           O1  tau(  21) = (   3.2904802   0.0005063   4.7018136  )
        22           O1  tau(  22) = (   0.0979609   0.0039778  17.1657837  )
        23           O1  tau(  23) = (   1.3043587   1.4918075   6.0039043  )
        24           O1  tau(  24) = (   5.2767064   1.4903225   6.0039473  )
        25           Ti1 tau(  25) = (   0.0000382   5.9609847   6.0000000  )
        26           Ti1 tau(  26) = (   3.2902200   4.4714249   6.0002472  )
        27           O1  tau(  27) = (   0.0002396   2.9813036   7.9858123  )
        28           O1  tau(  28) = (   3.2902150   2.9813002   7.3038282  )
        29           O1  tau(  29) = (   4.5938453   4.4726049   9.2879030  )
        30           O1  tau(  30) = (   1.9864658   4.4711199   9.2879459  )
        31           Ti1 tau(  31) = (   3.3368545   0.0404040   9.1664313  )
        32           Ti1 tau(  32) = (   0.0604674   4.4799263   9.2696248  )
        33           O1  tau(  33) = (   3.3137611   2.9662427  11.3084074  )
        34           O1  tau(  34) = (   0.0134136   2.9850836  10.6046154  )
        35           O1  tau(  35) = (   1.3054726   4.4719986  12.6384794  )
        36           O1  tau(  36) = (   5.3362180   4.4781181  12.6390536  )
        37           Ti1 tau(  37) = (   0.0365240   0.0487139  12.4702884  )
        38           Ti1 tau(  38) = (   3.3180881   4.6653017  12.7087268  )
        39           O1  tau(  39) = (   0.0228105   2.9918545  14.7761892  )
        40           O1  tau(  40) = (   3.3431522   2.9700269  13.9040455  )
        41           O1  tau(  41) = (   4.6265974   4.4152401  16.1544535  )
        42           O1  tau(  42) = (   2.0571238   4.3592187  16.1146037  )
        43           Ti1 tau(  43) = (   3.3848590   5.9294639  16.2700006  )
        44           Ti1 tau(  44) = (   0.0517009   4.5268197  15.8466567  )
        45           O1  tau(  45) = (   3.2900926   2.9813045   4.7018136  )
        46           O1  tau(  46) = (   1.3039711   4.4726057   6.0039043  )
        47           O1  tau(  47) = (   5.2763189   4.4711207   6.0039473  )
        48           C1  tau(  48) = (   5.9450987   3.0517216  18.8599509  )
        49           O1  tau(  49) = (   0.1802289   3.0084098  17.6484507  )
        50           H1  tau(  50) = (   4.9625852   2.6832861  18.5889656  )
        51           H1  tau(  51) = (   1.1163247   3.1442434  17.8758057  )
        52           H1  tau(  52) = (   6.3899442   2.3814015  19.6026461  )
        53           H1  tau(  53) = (   5.8846647   4.0795385  19.2151274  )
        54           N1  tau(  54) = (   5.7598779   3.1323611  22.9045362  )
        55           N1  tau(  55) = (   4.9845974   3.1850264  22.1203839  )
        56           O1  tau(  56) = (   3.1467188   0.0118795  18.1166202  )
        57           H1  tau(  57) = (   2.2164505   0.0865285  18.3868412  )

     number of k points=    10  Fermi-Dirac smearing, width (Ry)=  0.0073
                       cart. coord. in units 2pi/alat
        k(    1) = (   0.0000000   0.0000000   0.0000000), wk =   0.1250000
        k(    2) = (   0.0000000   0.0419351   0.0000000), wk =   0.2500000
        k(    3) = (   0.0000000  -0.0838702   0.0000000), wk =   0.1250000
        k(    4) = (   0.0379955   0.0000049   0.0000000), wk =   0.2500000
        k(    5) = (   0.0379955   0.0419400   0.0000000), wk =   0.2500000
        k(    6) = (   0.0379955  -0.0838652   0.0000000), wk =   0.2500000
        k(    7) = (   0.0379955  -0.0419301   0.0000000), wk =   0.2500000
        k(    8) = (  -0.0759910  -0.0000099   0.0000000), wk =   0.1250000
        k(    9) = (  -0.0759910   0.0419252   0.0000000), wk =   0.2500000
        k(   10) = (  -0.0759910  -0.0838800   0.0000000), wk =   0.1250000

     Initial potential from superposition of free atoms

     starting charge  392.99914, renormalised to  409.00000

     negative rho (up, down):  9.138E-03 0.000E+00

     %%%%%%%%%%%%%%%%%%%%%%%%%%%%%%%%%%%%%%%%%%%%%%%%%%%%%%%%%%%%%%%%%%%%%%%%
     %                                                                      %
     % You are using vdW-DF, which was implemented by the Thonhauser group. %
     % Please cite the following two papers that made this development      %
     % possible and the two reviews that describe the various versions:     %
     %                                                                      %
     %   T. Thonhauser et al., PRL 115, 136402 (2015).                      %
     %   T. Thonhauser et al., PRB 76, 125112 (2007).                       %
     %   K. Berland et al., Rep. Prog. Phys. 78, 066501 (2015).             %
     %   D.C. Langreth et al., J. Phys.: Condens. Matter 21, 084203 (2009). %
     %                                                                      %
     %                                                                      %
     % If you are calculating the stress with vdW-DF, please also cite:     %
     %                                                                      %
     %   R. Sabatini et al., J. Phys.: Condens. Matter 24, 424209 (2012).   %
     %                                                                      %
     %%%%%%%%%%%%%%%%%%%%%%%%%%%%%%%%%%%%%%%%%%%%%%%%%%%%%%%%%%%%%%%%%%%%%%%%

     Adding external electric field

     Computed dipole along edir(3) :
        Dipole              -18.8687 Ry au,        -47.9594 Debye
        Dipole field         -0.0356 Ry au,

        Potential amp.        3.3008 Ry
        Total length         46.3494 bohr

     Starting wfcs are  309 atomic wfcs
  @ DRIVER MODE: Message from server: STATUS
  @ DRIVER MODE: Message from server: POSDATA
  @ DRIVER MODE: Reading and sharing cell
  @ DRIVER MODE: Reading and sharing positions
  @ DRIVER MODE: Received positions

     Self-consistent Calculation

     iteration #  1     ecut=    29.40 Ry     beta= 0.05
     Davidson diagonalization with overlap
     c_bands:  5 eigenvalues not converged
     c_bands:  5 eigenvalues not converged
     c_bands:  1 eigenvalues not converged
     c_bands:  4 eigenvalues not converged
     c_bands:  1 eigenvalues not converged
     c_bands:  3 eigenvalues not converged
     ethr =  1.00E-05,  avg # of iterations = 27.3

[...]

     total energy              =   -2113.21065969 Ry
     estimated scf accuracy    <   10331.02357395 Ry

     iteration #  2     ecut=    29.40 Ry     beta= 0.05
     Davidson diagonalization with overlap
     ethr =  1.00E-02,  avg # of iterations = 29.4

[...]

     iteration # 82     ecut=    29.40 Ry     beta= 0.05
     Davidson diagonalization with overlap
     ethr =  2.37E-11,  avg # of iterations = 10.5

[...]

     total energy              =   -3006.45828536 Ry
     estimated scf accuracy    <       0.00000008 Ry

     iteration # 83     ecut=    29.40 Ry     beta= 0.05
     Davidson diagonalization with overlap
     c_bands:  1 eigenvalues not converged
     ethr =  1.95E-11,  avg # of iterations = 11.3

     negative rho (up, down):  1.063E-02 0.000E+00

     Adding external electric field

     Computed dipole along edir(3) :
        Dipole                1.0497 Ry au,          2.6680 Debye
        Dipole field          0.0020 Ry au,

        Potential amp.       -0.1836 Ry
        Total length         46.3494 bohr

     End of self-consistent calculation

          k = 0.0000 0.0000 0.0000 ( 18029 PWs)   bands (ev):

   -55.3297 -55.2543 -55.2190 -55.1449 -55.1230 -55.0882 -55.0522 -55.0476
   -55.0458 -55.0267 -55.0167 -54.9867 -54.8998 -54.8238 -54.2138 -54.1797
   -31.7323 -31.7236 -31.6360 -31.6245 -31.5833 -31.5699 -31.5451 -31.5434
   -31.5087 -31.4971 -31.4858 -31.4210 -31.4080 -31.4078 -31.3812 -31.3629
   -31.3544 -31.3373 -31.3363 -31.3249 -31.3178 -31.3130 -31.2671 -31.2650
   -31.2631 -31.2564 -31.2535 -31.2406 -31.2343 -31.2156 -31.2088 -31.1983
   -31.1966 -31.1766 -31.1720 -31.1641 -31.1628 -31.1289 -31.0886 -31.0692
   -31.0380 -31.0277 -30.6199 -30.5336 -30.5111 -30.4369 -30.3506 -30.2390
   -21.5028 -19.7121 -16.1363 -15.9064 -15.7271 -15.5251 -15.4683 -15.4020
   -15.2147 -15.1412 -14.9853 -14.8602 -14.8455 -14.7887 -14.7876 -14.7777
   -14.7486 -14.7237 -14.6784 -14.6670 -14.6616 -14.6581 -14.5966 -14.5541
   -14.5514 -14.5243 -14.5036 -14.3766 -14.3295 -14.2750 -14.1048 -14.0831
   -12.7136 -12.5974 -10.5619  -6.6823  -6.3972  -4.6657  -4.6269  -4.5901
    -4.4127  -3.6525  -3.3671  -3.2554  -3.1552  -3.1365  -3.0713  -3.0205
    -2.8060  -2.6922  -2.6368  -2.5239  -2.3970  -2.3603  -2.3007  -2.2783
    -2.1866  -2.1689  -2.1368  -2.1056  -2.0517  -2.0237  -2.0161  -2.0023
    -1.9276  -1.9210  -1.7913  -1.7863  -1.7300  -1.6380  -1.6202  -1.5973
    -1.5901  -1.5558  -1.5534  -1.5109  -1.4872  -1.4633  -1.4351  -1.3598
    -1.3402  -1.2771  -1.2399  -1.0079  -0.8531  -0.8285  -0.7483  -0.7321
    -0.7013  -0.6720  -0.6520  -0.6411  -0.6040  -0.5886  -0.4849  -0.3814
    -0.3727  -0.3131  -0.2755  -0.2706  -0.1350  -0.0902  -0.0159   0.0068
     0.0391   0.0602   0.1444   0.1933   0.2149   0.2815   0.3129   0.4184
     0.4558   0.4750   0.5164   0.5718   0.6322   0.6660   0.7054   0.7088
     0.7415   0.7908   0.8203   0.8548   0.8772   0.9242   1.0271   1.0644
     1.0749   1.2156   1.2266   1.3088   1.4336   1.4854   1.7585   1.8110
     1.8577   2.0034   2.3798   2.4267   3.8696   3.9722   3.9932   4.0144
     4.0822   4.1641   4.3294   4.3527   4.4170   4.5178

[...]

          k = 0.0380-0.0419 0.0000 ( 17876 PWs)   bands (ev):

[...]

          k =-0.0760-0.0000 0.0000 ( 17886 PWs)   bands (ev):

[...]

          k =-0.0760-0.0839 0.0000 ( 17948 PWs)   bands (ev):

   -55.3290 -55.2412 -55.2320 -55.1389 -55.1186 -55.0940 -55.0515 -55.0468
   -55.0383 -55.0301 -55.0177 -54.9960 -54.8960 -54.8274 -54.1969 -54.1965
   -31.6432 -31.5794 -31.5697 -31.5522 -31.5433 -31.5429 -31.5373 -31.5214
   -31.4592 -31.4545 -31.4156 -31.3943 -31.3827 -31.3776 -31.3612 -31.3590
   -31.3553 -31.3535 -31.3467 -31.3408 -31.3358 -31.3338 -31.3185 -31.3164
   -31.2975 -31.2868 -31.2574 -31.2510 -31.2482 -31.2440 -31.2361 -31.2347
   -31.2281 -31.2234 -31.2196 -31.2151 -31.2127 -31.1742 -31.1556 -31.0926
   -31.0752 -31.0316 -30.5239 -30.5237 -30.4337 -30.4322 -30.3939 -30.3930
   -21.5027 -19.7083 -16.1127 -15.5364 -15.3797 -15.2088 -15.1950 -15.1156
   -15.0241 -15.0064 -14.9758 -14.9624 -14.9454 -14.9209 -14.9127 -14.8775
   -14.8147 -14.7728 -14.7497 -14.7414 -14.6944 -14.6892 -14.6857 -14.6229
   -14.6155 -14.5974 -14.5728 -14.5129 -14.5040 -14.4033 -14.3886 -14.2160
   -12.6998 -12.6988 -10.5640  -6.6826  -6.3989  -4.6607  -4.6337  -4.5782
    -4.4052  -3.6179  -3.3575  -2.6847  -2.5993  -2.5205  -2.4325  -2.3542
    -2.2994  -2.2506  -2.2297  -2.1849  -2.1638  -2.0943  -2.0596  -2.0508
    -2.0314  -2.0293  -1.9988  -1.9834  -1.9706  -1.9494  -1.9210  -1.9037
    -1.8932  -1.8722  -1.8524  -1.8264  -1.8144  -1.8045  -1.7896  -1.7736
    -1.6628  -1.6462  -1.6134  -1.4510  -1.4395  -1.3702  -1.3386  -1.3121
    -1.3085  -1.2781  -1.2631  -1.2212  -1.1154  -1.0876  -1.0383  -0.9985
    -0.9034  -0.8880  -0.8371  -0.7863  -0.7404  -0.7118  -0.6813  -0.6661
    -0.6122  -0.4740  -0.4532  -0.4081  -0.2890  -0.2157  -0.2001  -0.1876
    -0.1657  -0.1427  -0.0961  -0.0879  -0.0261  -0.0135   0.0573   0.0613
     0.0904   0.1120   0.2144   0.3366   0.4152   0.4589   0.5039   0.5533
     0.5871   0.6694   0.7457   0.8320   0.9081   0.9376   0.9513   1.0690
     1.1014   1.1540   1.2000   1.2202   1.2785   1.3142   1.3544   1.3875
     2.1721   2.1858   2.2419   2.2477   4.0503   4.3004   4.3605   4.3775
     4.3871   4.4194   4.4406   4.4919   4.5084   4.5328

     the Fermi energy is     3.8797 ev

!    total energy              =   -3006.45829307 Ry
     estimated scf accuracy    <       0.00000004 Ry
     smearing contrib. (-TS)   =      -0.02082622 Ry
     internal energy E=F+TS    =   -3006.43746685 Ry

     The total energy is F=E-TS. E is the sum of the following terms:
     one-electron contribution =  -22317.73749097 Ry
     hartree contribution      =   11258.38361836 Ry
     xc contribution           =    -501.14150796 Ry
     ewald contribution        =    8554.05583443 Ry
     electric field correction =       0.00207929 Ry

     convergence has been achieved in  83 iterations

     Forces acting on atoms (cartesian axes, Ry/au):

     atom    1 type  1   force =    -0.00037555   -0.00017157    0.09497659
     atom    2 type  1   force =    -0.00035161    0.00513382   -0.17481433
     atom    3 type  2   force =     0.00070837    0.00013043   -0.02672764
     atom    4 type  2   force =     0.00128965    0.00083174    0.05206552
     atom    5 type  2   force =    -0.01096102   -0.00256000    0.00077933
     atom    6 type  2   force =     0.01193663   -0.00381049    0.00179015
     atom    7 type  1   force =    -0.00021802    0.00038923    0.00067038
     atom    8 type  1   force =     0.00013527    0.00022665    0.00016358
     atom    9 type  2   force =     0.00025041    0.00075810   -0.00066355
     atom   10 type  2   force =    -0.00039036    0.00016242    0.00014277
     atom   11 type  2   force =     0.00044909   -0.00015057    0.00011172
     atom   12 type  2   force =    -0.00085427   -0.00014975    0.00036532
     atom   13 type  1   force =     0.00043553    0.00034942   -0.00022957
     atom   14 type  1   force =    -0.00034068   -0.00071121    0.00093196
     atom   15 type  2   force =    -0.00014144   -0.00053270   -0.00099310
     atom   16 type  2   force =    -0.00027746    0.00000359   -0.00022845
     atom   17 type  2   force =    -0.00097411    0.00030867   -0.00001082
     atom   18 type  2   force =     0.00047924    0.00069214   -0.00006811
     atom   19 type  1   force =     0.00025145   -0.00082237    0.00021728
     atom   20 type  1   force =    -0.00024979    0.00010666    0.00040719
     atom   21 type  2   force =    -0.00000388    0.00007325    0.10298448
     atom   22 type  2   force =    -0.00002989   -0.00014877    0.00100862
     atom   23 type  2   force =    -0.07193279    0.00013264   -0.02802493
     atom   24 type  2   force =     0.07176900    0.00062906   -0.02812774
     atom   25 type  1   force =    -0.00036219    0.00025802    0.10242755
     atom   26 type  1   force =    -0.00010755   -0.00475865   -0.17505578
     atom   27 type  2   force =     0.00084880    0.00117118   -0.02484680
     atom   28 type  2   force =     0.00119652    0.00025354    0.05169851
     atom   29 type  2   force =    -0.01192178    0.00381565    0.00172365
     atom   30 type  2   force =     0.01376544    0.00146550    0.00245456
     atom   31 type  1   force =    -0.00029032   -0.00016644    0.00080791
     atom   32 type  1   force =     0.00028181    0.00028292    0.00059654
     atom   33 type  2   force =     0.00000634    0.00020942    0.00008567
     atom   34 type  2   force =    -0.00027173   -0.00032401   -0.00056118
     atom   35 type  2   force =    -0.00022123    0.00004679   -0.00047083
     atom   36 type  2   force =    -0.00038796    0.00009326   -0.00008849
     atom   37 type  1   force =    -0.00005664   -0.00034510    0.00003789
     atom   38 type  1   force =    -0.00056701    0.00028214    0.00000385
     atom   39 type  2   force =    -0.00025305   -0.00024797    0.00077883
     atom   40 type  2   force =    -0.00019729    0.00011391    0.00028698
     atom   41 type  2   force =    -0.00139326   -0.00026220   -0.00004421
     atom   42 type  2   force =     0.00107332   -0.00013702   -0.00049616
     atom   43 type  1   force =    -0.00020046    0.00054603    0.00019756
     atom   44 type  1   force =    -0.00006531    0.00010446    0.00009892
     atom   45 type  2   force =     0.00000233    0.00013976    0.10257614
     atom   46 type  2   force =    -0.07182625   -0.00062180   -0.02797047
     atom   47 type  2   force =     0.07168567   -0.00013161   -0.02804594
     atom   48 type  3   force =     0.00224504   -0.00573381    0.00389358
     atom   49 type  2   force =    -0.00131430   -0.00062174    0.00012108
     atom   50 type  4   force =    -0.00024161   -0.00016261   -0.00051403
     atom   51 type  4   force =     0.00033331    0.00040378   -0.00064281
     atom   52 type  4   force =    -0.00296283    0.00575290   -0.00472841
     atom   53 type  4   force =     0.00048096   -0.00092190   -0.00032885
     atom   54 type  5   force =     0.00010507   -0.00007712    0.00031153
     atom   55 type  5   force =    -0.00049391    0.00006474   -0.00031114
     atom   56 type  2   force =     0.00079185   -0.00055788    0.00046722
     atom   57 type  4   force =    -0.00028555   -0.00080453   -0.00118954

     Total force =     0.364928     Total SCF correction =     0.000689
  @ DRIVER MODE: Message from server: STATUS
  @ DRIVER MODE: Message from server: GETFORCE
  @ DRIVER MODE: Returning v,forces,stress,ensemble

     Writing output data file ./calc.save/
  @ DRIVER MODE: Message from server: EXIT
  @ DRIVE MODE: Exiting

     General routines

     Parallel routines

   This run was terminated on:   6:26:58  26Sep2021

   JOB DONE.