     Program PWSCF v.6.7GPU starts on 24Sep2021 at  3:37:23

     R & G space division:  proc/nbgrp/npool/nimage =       8
     Reading input from /storage/home/hcoda1/3/ntian30/research/carbon/CxH_vib/H2O_calc/ads_slab/CH2N2HO_b/out_0042/pw.inp
Warning: card &CELL ignored
Warning: card   CELL_DYNAMICS='IPI', ignored
Warning: card / ignored

     Current dimensions of program PWSCF are:
     Max number of different atomic species (ntypx) = 10
     Max number of k-points (npk) =  40000
     Max angular momentum in pseudopotentials (lmaxx) =  3
     Presently no symmetry can be used with electric field

     Message from routine cell_base_init:
     DEPRECATED: use true lattice parameter, not A to a.u. conversion factor

     IMPORTANT: XC functional enforced from input :
     Exchange-correlation= BEEF-VDW
                           (   1   4  43  14   2   0   0)
     Any further DFT definition will be discarded
     Please, verify this is what you really want

  @ DRIVER MODE: Connecting to
 qe_1139763_2947312.sched-torque.pace.gatech.edu6hrn2fvf_scratch
  using UNIX socket
  @ DRIVER MODE: Message from server: STATUS
  @ DRIVER MODE: Message from server: INIT
  @ DRIVER MODE: Receiving replica           0          -1
  @ DRIVER MODE: Receiving encoded integer          25
  @ DRIVER MODE:  SCF:  T  FORCE:  T  STRESS:  F  VC:  F  ENSEMBLE:  F
  @ DRIVER MODE:  SCF:  T  FORCE:  T  STRESS:  F  VC:  F  ENSEMBLE:  F

     Using Slab Decomposition

     bravais-lattice index     =            0
     lattice parameter (alat)  =       1.8897  a.u.
     unit-cell volume          =    6658.9804 (a.u.)^3
     number of atoms/cell      =           54
     number of atomic types    =            5
     number of electrons       =       401.00
     number of Kohn-Sham states=          210
     kinetic-energy cutoff     =      29.3995  Ry
     charge density cutoff     =     293.9946  Ry
     scf convergence threshold =      7.3E-08
     mixing beta               =       0.0500
     number of iterations used =            8  plain     mixing
     Exchange-correlation= BEEF-VDW
                           (   1   4  43  14   2   0   0)

     celldm(1)=   1.889726  celldm(2)=   0.000000  celldm(3)=   0.000000
     celldm(4)=   0.000000  celldm(5)=   0.000000  celldm(6)=   0.000000

     crystal axes: (cart. coord. in units of alat)
               a(1) = (   6.579727   0.000000   0.000000 )
               a(2) = (  -0.000775   5.961596   0.000000 )
               a(3) = (   0.000000   0.000000  25.155947 )

     reciprocal axes: (cart. coord. in units 2 pi/alat)
               b(1) = (  0.151982  0.000020  0.000000 )
               b(2) = (  0.000000  0.167740  0.000000 )
               b(3) = (  0.000000  0.000000  0.039752 )

     PseudoPot. # 1 for Ti read from file:
     /storage/coda1/p-amedford6/0/shared/rich_project_chbe-medford/medford-share/data/pseudos_module/espresso/nninc/pbe/van/Ti.UPF
     MD5 check sum: 8e4df49b7f0d34bbd5052bf3f5ea0213
     Pseudo is Ultrasoft, Zval = 12.0
     Generated by new atomic code, or converted to UPF format
     Using radial grid of  851 points,  6 beta functions with:
                l(1) =   0
                l(2) =   0
                l(3) =   1
                l(4) =   1
                l(5) =   2
                l(6) =   2
     Q(r) pseudized with  8 coefficients,  rinner =    1.000   1.000   1.000
                                                       1.000   1.000

     PseudoPot. # 2 for O  read from file:
     /storage/coda1/p-amedford6/0/shared/rich_project_chbe-medford/medford-share/data/pseudos_module/espresso/nninc/pbe/van/O.UPF
     MD5 check sum: 78c19812648e8988a0fe644b0f25305e
     Pseudo is Ultrasoft, Zval =  6.0
     Generated by new atomic code, or converted to UPF format
     Using radial grid of  737 points,  4 beta functions with:
                l(1) =   0
                l(2) =   0
                l(3) =   1
                l(4) =   1
     Q(r) pseudized with  8 coefficients,  rinner =    0.800   0.800   0.800

     PseudoPot. # 3 for N  read from file:
     /storage/coda1/p-amedford6/0/shared/rich_project_chbe-medford/medford-share/data/pseudos_module/espresso/nninc/pbe/van/N.UPF
     MD5 check sum: 90d10febe142ad51ac9d5be1deb811c4
     Pseudo is Ultrasoft, Zval =  5.0
     Generated by new atomic code, or converted to UPF format
     Using radial grid of  729 points,  4 beta functions with:
                l(1) =   0
                l(2) =   0
                l(3) =   1
                l(4) =   1
     Q(r) pseudized with  8 coefficients,  rinner =    0.800   0.800   0.800

     PseudoPot. # 4 for C  read from file:
     /storage/coda1/p-amedford6/0/shared/rich_project_chbe-medford/medford-share/data/pseudos_module/espresso/nninc/pbe/van/C.UPF
     MD5 check sum: 1a69bf6b8db32088f5b2163dbdb77a27
     Pseudo is Ultrasoft, Zval =  4.0
     Generated by new atomic code, or converted to UPF format
     Using radial grid of  721 points,  4 beta functions with:
                l(1) =   0
                l(2) =   0
                l(3) =   1
                l(4) =   1
     Q(r) pseudized with  8 coefficients,  rinner =    0.800   0.800   0.800

     PseudoPot. # 5 for H  read from file:
     /storage/coda1/p-amedford6/0/shared/rich_project_chbe-medford/medford-share/data/pseudos_module/espresso/nninc/pbe/van/H.UPF
     MD5 check sum: b5ee9d7bfd3a09ee7748110bda690ff7
     Pseudo is Ultrasoft, Zval =  1.0
     Generated by new atomic code, or converted to UPF format
     Using radial grid of  615 points,  1 beta functions with:
                l(1) =   0
     Q(r) pseudized with  8 coefficients,  rinner =    0.800

     atomic species   valence    mass     pseudopotential
        Ti1           12.00    47.86700     Ti( 1.00)
        O1             6.00    15.99900     O ( 1.00)
        N1             5.00    14.00700     N ( 1.00)
        C1             4.00    12.01100     C ( 1.00)
        H1             1.00     1.00800     H ( 1.00)

     No symmetry found

   Cartesian axes

     site n.     atom                  positions (alat units)
         1           Ti1 tau(   1) = (   0.0004258   2.9801865   6.0000000  )
         2           Ti1 tau(   2) = (   3.2906075   1.4906267   6.0002472  )
         3           O1  tau(   3) = (   0.0006271   0.0005054   7.9858123  )
         4           O1  tau(   4) = (   3.2906025   0.0005020   7.3038282  )
         5           O1  tau(   5) = (   4.5942328   1.4918067   9.2879030  )
         6           O1  tau(   6) = (   1.9868534   1.4903216   9.2879459  )
         7           Ti1 tau(   7) = (   3.2907910   2.8959150   9.1758416  )
         8           Ti1 tau(   8) = (   0.0015273   1.4827037   9.2680791  )
         9           O1  tau(   9) = (   3.2935892   5.9488104  11.3374186  )
        10           O1  tau(  10) = (   0.0116148   5.9584955  10.6183126  )
        11           O1  tau(  11) = (   1.2908913   1.5070562  12.6495475  )
        12           O1  tau(  12) = (   5.3136790   1.4931969  12.6373367  )
        13           Ti1 tau(  13) = (   0.0127878   2.8868139  12.6015941  )
        14           Ti1 tau(  14) = (   3.2987545   1.3040885  12.7026746  )
        15           O1  tau(  15) = (   0.0175227   0.0240941  14.6538407  )
        16           O1  tau(  16) = (   3.3064676   0.0741613  13.9771881  )
        17           O1  tau(  17) = (   4.5827780   1.5498142  16.1449436  )
        18           O1  tau(  18) = (   2.0366442   1.5898792  16.0867183  )
        19           Ti1 tau(  19) = (   3.3102262   3.0030951  15.6784192  )
        20           Ti1 tau(  20) = (   0.0574396   1.3488835  16.0050117  )
        21           O1  tau(  21) = (   3.2904802   0.0005063   4.7018136  )
        22           O1  tau(  22) = (   0.0721820   0.0083530  17.1768217  )
        23           O1  tau(  23) = (   1.3043587   1.4918075   6.0039043  )
        24           O1  tau(  24) = (   5.2767064   1.4903225   6.0039473  )
        25           Ti1 tau(  25) = (   0.0000382   5.9609847   6.0000000  )
        26           Ti1 tau(  26) = (   3.2902200   4.4714249   6.0002472  )
        27           O1  tau(  27) = (   0.0002396   2.9813036   7.9858123  )
        28           O1  tau(  28) = (   3.2902150   2.9813002   7.3038282  )
        29           O1  tau(  29) = (   4.5938453   4.4726049   9.2879030  )
        30           O1  tau(  30) = (   1.9864658   4.4711199   9.2879459  )
        31           Ti1 tau(  31) = (   3.2891106   5.8743827   9.1763621  )
        32           Ti1 tau(  32) = (   0.0006254   4.4649316   9.2693709  )
        33           O1  tau(  33) = (   3.2934580   3.0155445  11.2926531  )
        34           O1  tau(  34) = (   0.0092240   2.9805883  10.6323155  )
        35           O1  tau(  35) = (   1.2931599   4.4792858  12.6478595  )
        36           O1  tau(  36) = (   5.3056662   4.4876152  12.6363886  )
        37           Ti1 tau(  37) = (   6.5746511   5.8741161  12.5153022  )
        38           Ti1 tau(  38) = (   3.2863760   4.3878630  12.4273393  )
        39           O1  tau(  39) = (   6.5684735   3.0099032  14.7382625  )
        40           O1  tau(  40) = (   3.3273571   2.9915841  13.8999870  )
        41           O1  tau(  41) = (   4.5754576   4.4629145  16.1269992  )
        42           O1  tau(  42) = (   2.0375947   4.4358961  16.0236521  )
        43           Ti1 tau(  43) = (   3.3857405   0.0156461  16.2930207  )
        44           Ti1 tau(  44) = (   0.0840152   4.5257857  15.8004899  )
        45           O1  tau(  45) = (   3.2900926   2.9813045   4.7018136  )
        46           O1  tau(  46) = (   1.3039711   4.4726057   6.0039043  )
        47           O1  tau(  47) = (   5.2763189   4.4711207   6.0039473  )
        48           N1  tau(  48) = (   6.4876325   3.2951735  18.6921505  )
        49           N1  tau(  49) = (   0.0139976   3.0420413  17.5569154  )
        50           C1  tau(  50) = (   6.3059459   3.6199554  19.9036174  )
        51           H1  tau(  51) = (   5.2963100   3.8231348  20.2372398  )
        52           H1  tau(  52) = (   0.5840524   3.7151184  20.5547593  )
        53           O1  tau(  53) = (   3.1058724   5.9363815  18.1230642  )
        54           H1  tau(  54) = (   2.1709728   0.0855973  18.3748350  )

     number of k points=    10  Fermi-Dirac smearing, width (Ry)=  0.0073
                       cart. coord. in units 2pi/alat
        k(    1) = (   0.0000000   0.0000000   0.0000000), wk =   0.1250000
        k(    2) = (   0.0000000   0.0419351   0.0000000), wk =   0.2500000
        k(    3) = (   0.0000000  -0.0838702   0.0000000), wk =   0.1250000
        k(    4) = (   0.0379955   0.0000049   0.0000000), wk =   0.2500000
        k(    5) = (   0.0379955   0.0419400   0.0000000), wk =   0.2500000
        k(    6) = (   0.0379955  -0.0838652   0.0000000), wk =   0.2500000
        k(    7) = (   0.0379955  -0.0419301   0.0000000), wk =   0.2500000
        k(    8) = (  -0.0759910  -0.0000099   0.0000000), wk =   0.1250000
        k(    9) = (  -0.0759910   0.0419252   0.0000000), wk =   0.2500000
        k(   10) = (  -0.0759910  -0.0838800   0.0000000), wk =   0.1250000

     Initial potential from superposition of free atoms

     starting charge  384.99916, renormalised to  401.00000

     negative rho (up, down):  1.407E-02 0.000E+00

     %%%%%%%%%%%%%%%%%%%%%%%%%%%%%%%%%%%%%%%%%%%%%%%%%%%%%%%%%%%%%%%%%%%%%%%%
     %                                                                      %
     % You are using vdW-DF, which was implemented by the Thonhauser group. %
     % Please cite the following two papers that made this development      %
     % possible and the two reviews that describe the various versions:     %
     %                                                                      %
     %   T. Thonhauser et al., PRL 115, 136402 (2015).                      %
     %   T. Thonhauser et al., PRB 76, 125112 (2007).                       %
     %   K. Berland et al., Rep. Prog. Phys. 78, 066501 (2015).             %
     %   D.C. Langreth et al., J. Phys.: Condens. Matter 21, 084203 (2009). %
     %                                                                      %
     %                                                                      %
     % If you are calculating the stress with vdW-DF, please also cite:     %
     %                                                                      %
     %   R. Sabatini et al., J. Phys.: Condens. Matter 24, 424209 (2012).   %
     %                                                                      %
     %%%%%%%%%%%%%%%%%%%%%%%%%%%%%%%%%%%%%%%%%%%%%%%%%%%%%%%%%%%%%%%%%%%%%%%%

     Adding external electric field

     Computed dipole along edir(3) :
        Dipole              -11.8213 Ry au,        -30.0468 Debye
        Dipole field         -0.0223 Ry au,

        Potential amp.        2.0680 Ry
        Total length         46.3494 bohr

     Starting wfcs are  303 atomic wfcs
  @ DRIVER MODE: Message from server: STATUS
  @ DRIVER MODE: Message from server: POSDATA
  @ DRIVER MODE: Reading and sharing cell
  @ DRIVER MODE: Reading and sharing positions
  @ DRIVER MODE: Received positions

     Self-consistent Calculation

     iteration #  1     ecut=    29.40 Ry     beta= 0.05
     Davidson diagonalization with overlap
     c_bands:  3 eigenvalues not converged
     c_bands:  4 eigenvalues not converged
     c_bands:  1 eigenvalues not converged
     c_bands:  4 eigenvalues not converged
     c_bands:  4 eigenvalues not converged
     c_bands:  1 eigenvalues not converged
     c_bands:  2 eigenvalues not converged
     ethr =  1.00E-05,  avg # of iterations = 22.9

[...]

     total energy              =   -2411.66869052 Ry
     estimated scf accuracy    <    6295.67253017 Ry

     iteration #  2     ecut=    29.40 Ry     beta= 0.05
     Davidson diagonalization with overlap
     ethr =  1.00E-02,  avg # of iterations = 23.1

[...]

     iteration # 45     ecut=    29.40 Ry     beta= 0.05
     Davidson diagonalization with overlap
     c_bands:  1 eigenvalues not converged
     ethr =  9.15E-07,  avg # of iterations = 10.4

[...]

     total energy              =   -2971.49158385 Ry
     estimated scf accuracy    <       0.00000008 Ry

     iteration # 69     ecut=    29.40 Ry     beta= 0.05
     Davidson diagonalization with overlap
     ethr =  1.94E-11,  avg # of iterations =  3.4

     negative rho (up, down):  1.460E-02 0.000E+00

     Adding external electric field

     Computed dipole along edir(3) :
        Dipole                1.0670 Ry au,          2.7121 Debye
        Dipole field          0.0020 Ry au,

        Potential amp.       -0.1867 Ry
        Total length         46.3494 bohr

     End of self-consistent calculation

          k = 0.0000 0.0000 0.0000 ( 18029 PWs)   bands (ev):

   -55.6905 -55.6565 -55.4751 -55.4727 -55.4413 -55.3325 -55.3147 -55.2806
   -55.2794 -55.2231 -55.1776 -55.0925 -55.0850 -54.9790 -54.5983 -54.5642
   -32.1645 -31.9858 -31.9837 -31.9277 -31.8432 -31.8157 -31.8099 -31.7905
   -31.7871 -31.7535 -31.7490 -31.7458 -31.7119 -31.6944 -31.6807 -31.6490
   -31.6454 -31.6098 -31.5828 -31.5767 -31.5739 -31.5502 -31.5409 -31.5372
   -31.4929 -31.4850 -31.4800 -31.4689 -31.4559 -31.4415 -31.4390 -31.4230
   -31.4222 -31.3660 -31.3617 -31.3593 -31.2915 -31.2802 -31.2558 -31.2284
   -31.2031 -31.1898 -31.0012 -30.9226 -30.8997 -30.8192 -30.7333 -30.6214
   -20.7419 -16.2363 -16.1694 -15.9642 -15.7871 -15.6356 -15.5834 -15.4436
   -15.3727 -15.2726 -15.1924 -15.0931 -15.0728 -15.0323 -14.9961 -14.9942
   -14.9654 -14.9339 -14.9337 -14.9096 -14.8936 -14.8459 -14.7863 -14.7689
   -14.7243 -14.6967 -14.6445 -14.6415 -14.6166 -14.5140 -14.2458 -14.2304
   -13.0962 -12.9811  -7.4036  -6.0924  -5.6751  -5.0447  -3.7621  -3.5784
    -3.5037  -3.3547  -3.2759  -3.1986  -3.0735  -2.9841  -2.9068  -2.7463
    -2.6609  -2.6336  -2.5825  -2.5266  -2.4613  -2.4349  -2.3939  -2.3710
    -2.2919  -2.2507  -2.2282  -2.2067  -2.1526  -2.1236  -2.0877  -2.0031
    -1.9744  -1.9395  -1.8656  -1.8564  -1.8317  -1.8220  -1.7810  -1.7624
    -1.7495  -1.7295  -1.5943  -1.5862  -1.5080  -1.4692  -1.3223  -1.1991
    -1.1339  -1.0648  -1.0498  -0.9679  -0.9318  -0.8508  -0.8320  -0.8026
    -0.7652  -0.6985  -0.6338  -0.6116  -0.5658  -0.5292  -0.3943  -0.3719
    -0.3247  -0.3180  -0.2976  -0.2308  -0.1623  -0.0823  -0.0686  -0.0039
     0.0163   0.0995   0.1809   0.1880   0.2380   0.2612   0.3153   0.3382
     0.3568   0.3901   0.4202   0.4890   0.5520   0.5997   0.6050   0.6385
     0.7053   0.7728   0.8131   0.8462   0.9966   1.0258   1.0400   1.1303
     1.1410   1.2494   1.4066   1.4280   1.6320   1.6339   1.9880   2.0304
     3.4562   3.5860   3.6199   3.6937   3.7793   3.9080   3.9163   4.0436
     4.1624   4.1681

[...]

          k = 0.0380-0.0419 0.0000 ( 17876 PWs)   bands (ev):

[...]

          k =-0.0760-0.0000 0.0000 ( 17886 PWs)   bands (ev):

[...]

          k =-0.0760-0.0839 0.0000 ( 17948 PWs)   bands (ev):

   -55.6740 -55.6730 -55.4719 -55.4594 -55.4568 -55.3262 -55.3010 -55.2929
   -55.2868 -55.2236 -55.1741 -55.0959 -55.0824 -54.9815 -54.5818 -54.5806
   -31.9803 -31.9798 -31.9699 -31.9692 -31.7946 -31.7933 -31.7808 -31.7752
   -31.7401 -31.7199 -31.6940 -31.6857 -31.6836 -31.6668 -31.6524 -31.6479
   -31.6298 -31.6161 -31.6153 -31.6090 -31.5922 -31.5506 -31.5457 -31.5232
   -31.5220 -31.5157 -31.5122 -31.5115 -31.5034 -31.4850 -31.4633 -31.4540
   -31.4268 -31.3862 -31.3726 -31.3515 -31.3379 -31.3244 -31.2949 -31.2843
   -31.2347 -31.1933 -30.9129 -30.9121 -30.8152 -30.8139 -30.7767 -30.7759
   -20.7408 -16.2083 -15.6156 -15.5484 -15.5272 -15.5181 -15.4040 -15.3713
   -15.2393 -15.2381 -15.2151 -15.1562 -15.1457 -15.1150 -15.1058 -15.0810
   -15.0483 -15.0238 -15.0006 -14.9702 -14.9600 -14.9168 -14.8901 -14.8865
   -14.8729 -14.8239 -14.7372 -14.6522 -14.6407 -14.5740 -14.4901 -14.3652
   -13.0837 -13.0830  -7.4043  -6.0959  -5.6779  -5.0223  -3.7357  -3.1080
    -2.8948  -2.7469  -2.7209  -2.5925  -2.5737  -2.4797  -2.4715  -2.4281
    -2.4146  -2.3748  -2.3478  -2.3307  -2.2883  -2.2708  -2.2557  -2.2512
    -2.2331  -2.2026  -2.1941  -2.1900  -2.1809  -2.1507  -2.1226  -2.1088
    -2.0920  -2.0463  -2.0188  -1.9192  -1.8149  -1.7896  -1.7164  -1.7121
    -1.7098  -1.6975  -1.6750  -1.6509  -1.5664  -1.4765  -1.4384  -1.3821
    -1.2071  -1.1933  -1.1711  -1.1491  -1.0925  -1.0438  -1.0159  -0.9640
    -0.9522  -0.9278  -0.8540  -0.7916  -0.7191  -0.6987  -0.6297  -0.5817
    -0.5645  -0.4737  -0.4601  -0.4275  -0.3868  -0.3728  -0.3432  -0.2900
    -0.2748  -0.2560  -0.2266  -0.1878  -0.1534   0.0157   0.1509   0.2144
     0.2308   0.2678   0.3218   0.3881   0.4118   0.5947   0.6074   0.6117
     0.6512   0.7096   0.7354   0.7526   0.8454   0.9599   0.9861   1.0225
     1.0495   1.0689   1.1500   1.2090   1.7989   1.8070   1.8500   1.8507
     3.4575   3.9929   4.0119   4.0134   4.0145   4.1096   4.1337   4.1420
     4.2066   4.2699

     the Fermi energy is     3.4502 ev

!    total energy              =   -2971.49160217 Ry
     estimated scf accuracy    <       0.00000004 Ry
     smearing contrib. (-TS)   =      -0.01886604 Ry
     internal energy E=F+TS    =   -2971.47273613 Ry

     The total energy is F=E-TS. E is the sum of the following terms:
     one-electron contribution =  -23617.72840166 Ry
     hartree contribution      =   11902.73248890 Ry
     xc contribution           =    -492.36469119 Ry
     ewald contribution        =    9235.88571927 Ry
     electric field correction =       0.00214855 Ry

     convergence has been achieved in  69 iterations

     Forces acting on atoms (cartesian axes, Ry/au):

     atom    1 type  1   force =     0.00001775   -0.00040193    0.09767696
     atom    2 type  1   force =    -0.00003852    0.00022294   -0.17210942
     atom    3 type  2   force =     0.00004960   -0.00005216   -0.02537087
     atom    4 type  2   force =     0.00001514   -0.00144572    0.04760349
     atom    5 type  2   force =    -0.00616594   -0.00240025   -0.00085926
     atom    6 type  2   force =     0.00778753   -0.00181745   -0.00152356
     atom    7 type  1   force =    -0.00008749   -0.00483912    0.01886839
     atom    8 type  1   force =     0.00022317    0.01221147    0.02699667
     atom    9 type  2   force =    -0.00010434   -0.00016282   -0.00011941
     atom   10 type  2   force =    -0.00111958    0.00132113   -0.02503982
     atom   11 type  2   force =     0.00014286   -0.00003450    0.00005961
     atom   12 type  2   force =     0.00005993   -0.00003967   -0.00001332
     atom   13 type  1   force =     0.00034804   -0.00021907   -0.00013307
     atom   14 type  1   force =     0.00005133   -0.00010392   -0.00017355
     atom   15 type  2   force =    -0.00030514   -0.00019782   -0.00030083
     atom   16 type  2   force =    -0.00002472   -0.00012411   -0.00039292
     atom   17 type  2   force =    -0.00013382   -0.00004642   -0.00005366
     atom   18 type  2   force =     0.00004350   -0.00012119   -0.00012843
     atom   19 type  1   force =    -0.00022386   -0.00001972   -0.00036929
     atom   20 type  1   force =    -0.00010295   -0.00026785    0.00022191
     atom   21 type  2   force =     0.00005813    0.00008834    0.10225854
     atom   22 type  2   force =    -0.00000487    0.00006878   -0.00026816
     atom   23 type  2   force =    -0.07353658   -0.00016086   -0.02809229
     atom   24 type  2   force =     0.07345398    0.00028082   -0.02816918
     atom   25 type  1   force =     0.00013824   -0.00033438    0.09747545
     atom   26 type  1   force =    -0.00004046   -0.00130686   -0.17224837
     atom   27 type  2   force =     0.00009273   -0.00030465   -0.02400417
     atom   28 type  2   force =     0.00004134    0.00031041    0.04322877
     atom   29 type  2   force =    -0.00505518    0.00403296   -0.00278569
     atom   30 type  2   force =     0.00656418    0.00442214   -0.00334188
     atom   31 type  1   force =     0.00000974    0.00579814    0.00690721
     atom   32 type  1   force =     0.00029103   -0.01518676    0.02657893
     atom   33 type  2   force =     0.00038239   -0.00003355    0.00009982
     atom   34 type  2   force =    -0.00138625    0.00099951   -0.02677771
     atom   35 type  2   force =     0.00037647    0.00005644    0.00003023
     atom   36 type  2   force =    -0.00028737   -0.00005682   -0.00008867
     atom   37 type  1   force =     0.00009893   -0.00052829   -0.00007805
     atom   38 type  1   force =     0.00024423    0.00010610    0.00011754
     atom   39 type  2   force =    -0.00013502   -0.00016220   -0.00011057
     atom   40 type  2   force =     0.00005798    0.00002438   -0.00019072
     atom   41 type  2   force =    -0.00015230    0.00005607   -0.00019580
     atom   42 type  2   force =    -0.00027074   -0.00014869   -0.00003869
     atom   43 type  1   force =    -0.00059346    0.00026269   -0.00022032
     atom   44 type  1   force =    -0.00020233    0.00045171    0.00019011
     atom   45 type  2   force =     0.00004877   -0.00008129    0.10204399
     atom   46 type  2   force =    -0.07357543   -0.00007774   -0.02812716
     atom   47 type  2   force =     0.07347929    0.00036233   -0.02817653
     atom   48 type  3   force =    -0.00061835    0.00028131    0.00028838
     atom   49 type  3   force =    -0.00012349   -0.00032101   -0.00030000
     atom   50 type  4   force =    -0.00033308   -0.00026352   -0.00012089
     atom   51 type  5   force =    -0.00002253   -0.00006960    0.00015419
     atom   52 type  5   force =    -0.00017294   -0.00003855    0.00002291
     atom   53 type  2   force =    -0.00398674    0.00120824    0.00140019
     atom   54 type  5   force =     0.00472721   -0.00119738   -0.00230103

     Total force =     0.365046     Total SCF correction =     0.000401
  @ DRIVER MODE: Message from server: STATUS
  @ DRIVER MODE: Message from server: GETFORCE
  @ DRIVER MODE: Returning v,forces,stress,ensemble

     Writing output data file ./calc.save/
  @ DRIVER MODE: Message from server: EXIT
  @ DRIVE MODE: Exiting

     General routines

     Parallel routines

   This run was terminated on:   4: 0:42  24Sep2021

   JOB DONE.