     Program PWSCF v.6.7GPU starts on  9Sep2021 at  0:37:27

     R & G space division:  proc/nbgrp/npool/nimage =      10
     Reading input from /storage/home/hcoda1/3/ntian30/research/carbon/CxH_vib/CH2_calc/ads_slab/CH2OH_a/out_0010/pw.inp
Warning: card &CELL ignored
Warning: card   CELL_DYNAMICS='IPI', ignored
Warning: card / ignored

     Current dimensions of program PWSCF are:
     Max number of different atomic species (ntypx) = 10
     Max number of k-points (npk) =  40000
     Max angular momentum in pseudopotentials (lmaxx) =  3
     Presently no symmetry can be used with electric field

     Message from routine cell_base_init:
     DEPRECATED: use true lattice parameter, not A to a.u. conversion factor

     IMPORTANT: XC functional enforced from input :
     Exchange-correlation= BEEF-VDW
                           (   1   4  43  14   2   0   0)
     Any further DFT definition will be discarded
     Please, verify this is what you really want

  @ DRIVER MODE: Connecting to
 qe_1139763_2767393.sched-torque.pace.gatech.eduhh4q18_s_scratch
  using UNIX socket
  @ DRIVER MODE: Message from server: STATUS
  @ DRIVER MODE: Message from server: INIT
  @ DRIVER MODE: Receiving replica           0          -1
  @ DRIVER MODE: Receiving encoded integer          25
  @ DRIVER MODE:  SCF:  T  FORCE:  T  STRESS:  F  VC:  F  ENSEMBLE:  F
  @ DRIVER MODE:  SCF:  T  FORCE:  T  STRESS:  F  VC:  F  ENSEMBLE:  F

     Using Slab Decomposition

     bravais-lattice index     =            0
     lattice parameter (alat)  =       1.8897  a.u.
     unit-cell volume          =    6658.9804 (a.u.)^3
     number of atoms/cell      =           52
     number of atomic types    =            4
     number of electrons       =       391.00
     number of Kohn-Sham states=          205
     kinetic-energy cutoff     =      29.3995  Ry
     charge density cutoff     =     293.9946  Ry
     scf convergence threshold =      7.3E-08
     mixing beta               =       0.0500
     number of iterations used =            8  plain     mixing
     Exchange-correlation= BEEF-VDW
                           (   1   4  43  14   2   0   0)

     celldm(1)=   1.889726  celldm(2)=   0.000000  celldm(3)=   0.000000
     celldm(4)=   0.000000  celldm(5)=   0.000000  celldm(6)=   0.000000

     crystal axes: (cart. coord. in units of alat)
               a(1) = (   6.579727   0.000000   0.000000 )
               a(2) = (  -0.000775   5.961596   0.000000 )
               a(3) = (   0.000000   0.000000  25.155947 )

     reciprocal axes: (cart. coord. in units 2 pi/alat)
               b(1) = (  0.151982  0.000020  0.000000 )
               b(2) = (  0.000000  0.167740  0.000000 )
               b(3) = (  0.000000  0.000000  0.039752 )

     PseudoPot. # 1 for Ti read from file:
     /storage/coda1/p-amedford6/0/shared/rich_project_chbe-medford/medford-share/data/pseudos_module/espresso/nninc/pbe/van/Ti.UPF
     MD5 check sum: 8e4df49b7f0d34bbd5052bf3f5ea0213
     Pseudo is Ultrasoft, Zval = 12.0
     Generated by new atomic code, or converted to UPF format
     Using radial grid of  851 points,  6 beta functions with:
                l(1) =   0
                l(2) =   0
                l(3) =   1
                l(4) =   1
                l(5) =   2
                l(6) =   2
     Q(r) pseudized with  8 coefficients,  rinner =    1.000   1.000   1.000
                                                       1.000   1.000

     PseudoPot. # 2 for O  read from file:
     /storage/coda1/p-amedford6/0/shared/rich_project_chbe-medford/medford-share/data/pseudos_module/espresso/nninc/pbe/van/O.UPF
     MD5 check sum: 78c19812648e8988a0fe644b0f25305e
     Pseudo is Ultrasoft, Zval =  6.0
     Generated by new atomic code, or converted to UPF format
     Using radial grid of  737 points,  4 beta functions with:
                l(1) =   0
                l(2) =   0
                l(3) =   1
                l(4) =   1
     Q(r) pseudized with  8 coefficients,  rinner =    0.800   0.800   0.800

     PseudoPot. # 3 for C  read from file:
     /storage/coda1/p-amedford6/0/shared/rich_project_chbe-medford/medford-share/data/pseudos_module/espresso/nninc/pbe/van/C.UPF
     MD5 check sum: 1a69bf6b8db32088f5b2163dbdb77a27
     Pseudo is Ultrasoft, Zval =  4.0
     Generated by new atomic code, or converted to UPF format
     Using radial grid of  721 points,  4 beta functions with:
                l(1) =   0
                l(2) =   0
                l(3) =   1
                l(4) =   1
     Q(r) pseudized with  8 coefficients,  rinner =    0.800   0.800   0.800

     PseudoPot. # 4 for H  read from file:
     /storage/coda1/p-amedford6/0/shared/rich_project_chbe-medford/medford-share/data/pseudos_module/espresso/nninc/pbe/van/H.UPF
     MD5 check sum: b5ee9d7bfd3a09ee7748110bda690ff7
     Pseudo is Ultrasoft, Zval =  1.0
     Generated by new atomic code, or converted to UPF format
     Using radial grid of  615 points,  1 beta functions with:
                l(1) =   0
     Q(r) pseudized with  8 coefficients,  rinner =    0.800

     atomic species   valence    mass     pseudopotential
        Ti1           12.00    47.86700     Ti( 1.00)
        O1             6.00    15.99900     O ( 1.00)
        C1             4.00    12.01100     C ( 1.00)
        H1             1.00     1.00800     H ( 1.00)

     No symmetry found

   Cartesian axes

     site n.     atom                  positions (alat units)
         1           Ti1 tau(   1) = (   0.0004258   2.9801865   6.0000000  )
         2           Ti1 tau(   2) = (   3.2906075   1.4906267   6.0002472  )
         3           O1  tau(   3) = (   0.0006271   0.0005054   7.9858123  )
         4           O1  tau(   4) = (   3.2906025   0.0005020   7.3038282  )
         5           O1  tau(   5) = (   4.5942328   1.4918067   9.2879030  )
         6           O1  tau(   6) = (   1.9868534   1.4903216   9.2879459  )
         7           Ti1 tau(   7) = (   3.2719207   3.0347534   9.1624208  )
         8           Ti1 tau(   8) = (   6.5479847   1.5485315   9.3114282  )
         9           O1  tau(   9) = (   3.3130468   5.9588651  11.3322545  )
        10           O1  tau(  10) = (   6.5779921   5.9597862  10.5854321  )
        11           O1  tau(  11) = (   1.2828316   1.4981946  12.5939292  )
        12           O1  tau(  12) = (   5.3076696   1.4616608  12.6584921  )
        13           Ti1 tau(  13) = (   0.0652608   2.9737989  12.6898254  )
        14           Ti1 tau(  14) = (   3.3390979   1.6191063  12.6104043  )
        15           O1  tau(  15) = (   0.1579450   5.9294946  14.6423442  )
        16           O1  tau(  16) = (   3.1680681   5.9402194  13.8972025  )
        17           O1  tau(  17) = (   4.6139792   1.3367142  15.8434034  )
        18           O1  tau(  18) = (   2.0781381   1.4994250  16.2203239  )
        19           Ti1 tau(  19) = (   3.3500823   2.9415657  15.9644494  )
        20           Ti1 tau(  20) = (   0.0003135   1.3236462  15.9137460  )
        21           O1  tau(  21) = (   3.2904802   0.0005063   4.7018136  )
        22           O1  tau(  22) = (   6.5745372   5.9170875  17.1494514  )
        23           O1  tau(  23) = (   1.3043587   1.4918075   6.0039043  )
        24           O1  tau(  24) = (   5.2767064   1.4903225   6.0039473  )
        25           Ti1 tau(  25) = (   0.0000382   5.9609847   6.0000000  )
        26           Ti1 tau(  26) = (   3.2902200   4.4714249   6.0002472  )
        27           O1  tau(  27) = (   0.0002396   2.9813036   7.9858123  )
        28           O1  tau(  28) = (   3.2902150   2.9813002   7.3038282  )
        29           O1  tau(  29) = (   4.5938453   4.4726049   9.2879030  )
        30           O1  tau(  30) = (   1.9864658   4.4711199   9.2879459  )
        31           Ti1 tau(  31) = (   3.2621523   0.0587977   9.1770015  )
        32           Ti1 tau(  32) = (   6.5480547   4.4734411   9.2675299  )
        33           O1  tau(  33) = (   3.3121001   2.9882390  11.3403144  )
        34           O1  tau(  34) = (   6.5676672   2.9758547  10.5865552  )
        35           O1  tau(  35) = (   1.2831373   4.4454538  12.5925867  )
        36           O1  tau(  36) = (   5.3039272   4.4828346  12.6569239  )
        37           Ti1 tau(  37) = (   0.0139245   5.9553196  12.4525254  )
        38           Ti1 tau(  38) = (   3.3396594   4.5312311  12.4471015  )
        39           O1  tau(  39) = (   0.0911754   2.9492527  14.7447760  )
        40           O1  tau(  40) = (   3.3148107   2.9226094  13.9462488  )
        41           O1  tau(  41) = (   4.6112453   4.5441982  15.8230962  )
        42           O1  tau(  42) = (   2.0803191   4.3866676  16.2083192  )
        43           Ti1 tau(  43) = (   3.2736722   5.9210238  15.6733724  )
        44           Ti1 tau(  44) = (   6.5729336   4.5444060  15.8763539  )
        45           O1  tau(  45) = (   3.2900926   2.9813045   4.7018136  )
        46           O1  tau(  46) = (   1.3039711   4.4726057   6.0039043  )
        47           O1  tau(  47) = (   5.2763189   4.4711207   6.0039473  )
        48           C1  tau(  48) = (   4.5191185   2.9521590  17.9045005  )
        49           O1  tau(  49) = (   5.9932199   2.9573452  17.4910416  )
        50           H1  tau(  50) = (   6.5492410   2.9805908  18.2871345  )
        51           H1  tau(  51) = (   4.3954453   2.0589761  18.5217578  )
        52           H1  tau(  52) = (   4.3955607   3.8562994  18.5052511  )

     number of k points=    10  Fermi-Dirac smearing, width (Ry)=  0.0073
                       cart. coord. in units 2pi/alat
        k(    1) = (   0.0000000   0.0000000   0.0000000), wk =   0.1250000
        k(    2) = (   0.0000000   0.0419351   0.0000000), wk =   0.2500000
        k(    3) = (   0.0000000  -0.0838702   0.0000000), wk =   0.1250000
        k(    4) = (   0.0379955   0.0000049   0.0000000), wk =   0.2500000
        k(    5) = (   0.0379955   0.0419400   0.0000000), wk =   0.2500000
        k(    6) = (   0.0379955  -0.0838652   0.0000000), wk =   0.2500000
        k(    7) = (   0.0379955  -0.0419301   0.0000000), wk =   0.2500000
        k(    8) = (  -0.0759910  -0.0000099   0.0000000), wk =   0.1250000
        k(    9) = (  -0.0759910   0.0419252   0.0000000), wk =   0.2500000
        k(   10) = (  -0.0759910  -0.0838800   0.0000000), wk =   0.1250000

     Initial potential from superposition of free atoms

     starting charge  374.99918, renormalised to  391.00000

     negative rho (up, down):  1.948E-02 0.000E+00

     %%%%%%%%%%%%%%%%%%%%%%%%%%%%%%%%%%%%%%%%%%%%%%%%%%%%%%%%%%%%%%%%%%%%%%%%
     %                                                                      %
     % You are using vdW-DF, which was implemented by the Thonhauser group. %
     % Please cite the following two papers that made this development      %
     % possible and the two reviews that describe the various versions:     %
     %                                                                      %
     %   T. Thonhauser et al., PRL 115, 136402 (2015).                      %
     %   T. Thonhauser et al., PRB 76, 125112 (2007).                       %
     %   K. Berland et al., Rep. Prog. Phys. 78, 066501 (2015).             %
     %   D.C. Langreth et al., J. Phys.: Condens. Matter 21, 084203 (2009). %
     %                                                                      %
     %                                                                      %
     % If you are calculating the stress with vdW-DF, please also cite:     %
     %                                                                      %
     %   R. Sabatini et al., J. Phys.: Condens. Matter 24, 424209 (2012).   %
     %                                                                      %
     %%%%%%%%%%%%%%%%%%%%%%%%%%%%%%%%%%%%%%%%%%%%%%%%%%%%%%%%%%%%%%%%%%%%%%%%

     Adding external electric field

     Computed dipole along edir(3) :
        Dipole               -5.2229 Ry au,        -13.2753 Debye
        Dipole field         -0.0099 Ry au,

        Potential amp.        0.9137 Ry
        Total length         46.3494 bohr

     Starting wfcs are  295 atomic wfcs
  @ DRIVER MODE: Message from server: STATUS
  @ DRIVER MODE: Message from server: POSDATA
  @ DRIVER MODE: Reading and sharing cell
  @ DRIVER MODE: Reading and sharing positions
  @ DRIVER MODE: Received positions

     Self-consistent Calculation

     iteration #  1     ecut=    29.40 Ry     beta= 0.05
     Davidson diagonalization with overlap
     c_bands:  1 eigenvalues not converged
     c_bands:  3 eigenvalues not converged
     c_bands:  2 eigenvalues not converged
     c_bands:  3 eigenvalues not converged
     c_bands:  4 eigenvalues not converged
     c_bands:  3 eigenvalues not converged
     c_bands:  1 eigenvalues not converged
     c_bands:  3 eigenvalues not converged
     ethr =  1.00E-05,  avg # of iterations = 19.6

[...]

     total energy              =   -2802.81180571 Ry
     estimated scf accuracy    <    1413.11522814 Ry

     iteration #  2     ecut=    29.40 Ry     beta= 0.05
     Davidson diagonalization with overlap
     ethr =  1.00E-02,  avg # of iterations = 16.5

[...]

     iteration # 42     ecut=    29.40 Ry     beta= 0.05
     Davidson diagonalization with overlap
     c_bands:  2 eigenvalues not converged
     ethr =  2.47E-08,  avg # of iterations = 14.7

[...]

     total energy              =   -2931.32995831 Ry
     estimated scf accuracy    <       0.00000012 Ry

     iteration # 56     ecut=    29.40 Ry     beta= 0.05
     Davidson diagonalization with overlap
     ethr =  2.96E-11,  avg # of iterations =  2.2

     negative rho (up, down):  1.893E-02 0.000E+00

     Adding external electric field

     Computed dipole along edir(3) :
        Dipole                0.9597 Ry au,          2.4393 Debye
        Dipole field          0.0018 Ry au,

        Potential amp.       -0.1679 Ry
        Total length         46.3494 bohr

     End of self-consistent calculation

          k = 0.0000 0.0000 0.0000 ( 18029 PWs)   bands (ev):

   -55.8484 -55.8093 -55.7661 -55.7515 -55.6970 -55.6875 -55.6783 -55.6679
   -55.6295 -55.6182 -55.5965 -55.5860 -55.5590 -55.5515 -54.8189 -54.7848
   -32.3695 -32.3202 -32.2353 -32.2134 -32.1575 -32.1301 -32.1177 -32.0850
   -32.0772 -32.0631 -32.0423 -32.0165 -32.0035 -31.9950 -31.9665 -31.9600
   -31.9422 -31.9406 -31.9220 -31.9093 -31.9079 -31.9015 -31.8769 -31.8570
   -31.8540 -31.8515 -31.8461 -31.8415 -31.8280 -31.8137 -31.8025 -31.8018
   -31.8002 -31.7937 -31.7841 -31.7836 -31.7605 -31.7431 -31.7412 -31.7281
   -31.6992 -31.6341 -31.2260 -31.1366 -31.1141 -31.0430 -30.9569 -30.8452
   -19.5705 -16.5534 -16.3316 -16.1534 -16.0562 -15.9938 -15.8302 -15.7484
   -15.5606 -15.4844 -15.4775 -15.4522 -15.3898 -15.3758 -15.3644 -15.3443
   -15.3433 -15.3125 -15.2492 -15.2366 -15.2296 -15.2004 -15.1303 -15.1204
   -14.9761 -14.9589 -14.9587 -14.9465 -14.8476 -14.7789 -13.3187 -13.2018
    -9.6184  -6.4683  -4.2171  -4.0138  -3.8653  -3.7623  -3.7550  -3.7196
    -3.5662  -3.4894  -3.2752  -3.1345  -3.0887  -3.0206  -2.9769  -2.9153
    -2.8340  -2.7664  -2.7204  -2.6746  -2.6611  -2.6358  -2.6244  -2.5755
    -2.5398  -2.5122  -2.4030  -2.3991  -2.3490  -2.2913  -2.2545  -2.2014
    -2.1633  -2.1445  -2.1218  -2.0921  -2.0622  -2.0433  -2.0232  -1.9688
    -1.9176  -1.8382  -1.8243  -1.5541  -1.4643  -1.3920  -1.3660  -1.2881
    -1.2625  -1.2410  -1.2107  -1.2073  -1.1830  -1.1046  -1.0988  -1.0061
    -0.9714  -0.8875  -0.8340  -0.7456  -0.7061  -0.6337  -0.6150  -0.5790
    -0.5607  -0.5445  -0.3994  -0.3804  -0.3552  -0.2360  -0.2170  -0.1610
    -0.1335  -0.0748  -0.0497   0.0152   0.0461   0.0930   0.1213   0.1406
     0.1620   0.1772   0.2226   0.3086   0.3850   0.4006   0.4256   0.4918
     0.6771   0.7068   0.8355   0.9008   1.1336   1.2062   1.2500   1.2967
     1.3920   1.7804   1.8357   3.3042   3.3591   3.4192   3.4242   3.4613
     3.5538   3.7350   3.7542   3.8084   3.8670

[...]

          k = 0.0380-0.0419 0.0000 ( 17876 PWs)   bands (ev):

[...]

          k =-0.0760-0.0000 0.0000 ( 17886 PWs)   bands (ev):

[...]

          k =-0.0760-0.0839 0.0000 ( 17948 PWs)   bands (ev):

   -55.8385 -55.8191 -55.7621 -55.7450 -55.7033 -55.6910 -55.6730 -55.6658
   -55.6235 -55.6207 -55.5944 -55.5860 -55.5696 -55.5537 -54.8019 -54.8017
   -32.2930 -32.1451 -32.1360 -32.1267 -32.1028 -32.0894 -32.0833 -32.0596
   -32.0216 -32.0093 -31.9968 -31.9912 -31.9776 -31.9711 -31.9675 -31.9640
   -31.9602 -31.9573 -31.9465 -31.9418 -31.9140 -31.9112 -31.8997 -31.8969
   -31.8914 -31.8857 -31.8827 -31.8726 -31.8653 -31.8633 -31.8548 -31.8343
   -31.8239 -31.8197 -31.8108 -31.8095 -31.7954 -31.7929 -31.7900 -31.7866
   -31.7788 -31.6355 -31.1270 -31.1265 -31.0396 -31.0385 -31.0000 -30.9994
   -19.5644 -16.1435 -15.9636 -15.8082 -15.7802 -15.7792 -15.6448 -15.6270
   -15.6055 -15.5719 -15.5334 -15.5051 -15.4797 -15.4736 -15.4299 -15.3746
   -15.3681 -15.3553 -15.3293 -15.2711 -15.2591 -15.2567 -15.2153 -15.1604
   -15.1379 -15.1282 -15.1203 -15.1065 -15.0767 -15.0547 -13.3059 -13.3012
    -9.6187  -6.4516  -4.2228  -3.8827  -3.2852  -3.2139  -3.0121  -3.0084
    -2.9257  -2.8864  -2.8751  -2.8334  -2.7670  -2.7608  -2.7427  -2.6746
    -2.6496  -2.6466  -2.6074  -2.5989  -2.5777  -2.5694  -2.5481  -2.5227
    -2.4880  -2.4485  -2.4316  -2.4220  -2.4034  -2.3946  -2.3883  -2.3456
    -2.3247  -2.2150  -2.1348  -2.0236  -2.0188  -1.9722  -1.9575  -1.9352
    -1.8996  -1.8851  -1.8792  -1.8439  -1.7627  -1.6189  -1.5196  -1.5006
    -1.4615  -1.4349  -1.4016  -1.3806  -1.2837  -1.2690  -1.2168  -1.1901
    -1.1842  -1.0691  -1.0597  -0.9627  -0.9264  -0.8175  -0.8087  -0.7823
    -0.7602  -0.7249  -0.7004  -0.6314  -0.6117  -0.5703  -0.5527  -0.4870
    -0.4488  -0.4323  -0.3553  -0.3163  -0.2546  -0.2050  -0.1722  -0.0212
     0.1593   0.1770   0.2085   0.3193   0.3575   0.4305   0.4866   0.5017
     0.5714   0.6050   0.6737   0.7048   0.7668   0.8063   1.2621   1.5671
     1.5776   1.6403   1.6539   3.5968   3.6446   3.7697   3.7859   3.8179
     3.8230   3.8337   3.8556   3.9171   3.9524

     the Fermi energy is     3.2944 ev

!    total energy              =   -2931.33002270 Ry
     estimated scf accuracy    <       0.00000004 Ry
     smearing contrib. (-TS)   =      -0.02177214 Ry
     internal energy E=F+TS    =   -2931.30825056 Ry

     The total energy is F=E-TS. E is the sum of the following terms:
     one-electron contribution =  -24940.46957740 Ry
     hartree contribution      =   12556.67530957 Ry
     xc contribution           =    -482.04582433 Ry
     ewald contribution        =    9934.53010357 Ry
     electric field correction =       0.00173803 Ry

     convergence has been achieved in  56 iterations

     Forces acting on atoms (cartesian axes, Ry/au):

     atom    1 type  1   force =     0.00041343   -0.00074577    0.09646721
     atom    2 type  1   force =     0.00022227   -0.00292623   -0.17613958
     atom    3 type  2   force =    -0.00037745   -0.00272675   -0.03077795
     atom    4 type  2   force =    -0.00049045    0.00065647    0.04967410
     atom    5 type  2   force =    -0.01530554   -0.00088693    0.00151706
     atom    6 type  2   force =     0.01484860    0.00155365    0.00315842
     atom    7 type  1   force =    -0.00060194   -0.00032075   -0.00011629
     atom    8 type  1   force =    -0.00056735    0.00060536    0.00063078
     atom    9 type  2   force =    -0.00018630    0.00026027    0.00048406
     atom   10 type  2   force =     0.00000281    0.00008188   -0.00066322
     atom   11 type  2   force =     0.00022202    0.00031409    0.00017568
     atom   12 type  2   force =    -0.00016962    0.00013928   -0.00020843
     atom   13 type  1   force =     0.00016420   -0.00018475    0.00052272
     atom   14 type  1   force =     0.00031805   -0.00058355    0.00041073
     atom   15 type  2   force =     0.00003145    0.00096819   -0.00025968
     atom   16 type  2   force =    -0.00015284   -0.00010806    0.00023150
     atom   17 type  2   force =     0.00023680    0.00018281    0.00032041
     atom   18 type  2   force =    -0.00009096    0.00017445    0.00019278
     atom   19 type  1   force =     0.00036362   -0.00026790    0.00112312
     atom   20 type  1   force =     0.00014133    0.00010854   -0.00000779
     atom   21 type  2   force =     0.00016274    0.00023208    0.10301541
     atom   22 type  2   force =     0.00024958    0.00120333   -0.00016244
     atom   23 type  2   force =    -0.07095500    0.00144459   -0.02886540
     atom   24 type  2   force =     0.07107786    0.00185890   -0.02888292
     atom   25 type  1   force =     0.00034463    0.00079148    0.11230883
     atom   26 type  1   force =    -0.00013110    0.00362983   -0.17642319
     atom   27 type  2   force =    -0.00014861    0.00020286   -0.02743859
     atom   28 type  2   force =    -0.00030890    0.00087676    0.04913352
     atom   29 type  2   force =    -0.01336249   -0.00250219    0.00128886
     atom   30 type  2   force =     0.01439596   -0.00068156    0.00299169
     atom   31 type  1   force =     0.00019155   -0.00031827    0.00020117
     atom   32 type  1   force =    -0.00074867    0.00068080   -0.00046399
     atom   33 type  2   force =    -0.00025927   -0.00029053   -0.00022997
     atom   34 type  2   force =     0.00012398    0.00016787    0.00001185
     atom   35 type  2   force =    -0.00016662   -0.00006526    0.00031093
     atom   36 type  2   force =     0.00023091   -0.00008777    0.00031200
     atom   37 type  1   force =    -0.00025584   -0.00019873    0.00034059
     atom   38 type  1   force =     0.00028289    0.00034108    0.00031633
     atom   39 type  2   force =     0.00017664    0.00022248   -0.00022358
     atom   40 type  2   force =    -0.00010106   -0.00056689   -0.00084796
     atom   41 type  2   force =    -0.00043266    0.00002389    0.00012531
     atom   42 type  2   force =     0.00007967   -0.00003475    0.00026703
     atom   43 type  1   force =     0.00031710    0.00021303    0.00012111
     atom   44 type  1   force =     0.00053677    0.00028177    0.00001274
     atom   45 type  2   force =     0.00015487    0.00016658    0.10344700
     atom   46 type  2   force =    -0.07076780   -0.00174576   -0.02885589
     atom   47 type  2   force =     0.07088285   -0.00133531   -0.02888043
     atom   48 type  3   force =    -0.00029906    0.00192592    0.00050456
     atom   49 type  2   force =    -0.00034902   -0.00284223   -0.00049111
     atom   50 type  4   force =     0.00066244    0.00010677    0.00039123
     atom   51 type  4   force =     0.00047084   -0.00014851   -0.00042280
     atom   52 type  4   force =    -0.00107730    0.00015345    0.00035247

     Total force =     0.369272     Total SCF correction =     0.000412
  @ DRIVER MODE: Message from server: STATUS
  @ DRIVER MODE: Message from server: GETFORCE
  @ DRIVER MODE: Returning v,forces,stress,ensemble

     Writing output data file ./calc.save/
  @ DRIVER MODE: Message from server: EXIT
  @ DRIVE MODE: Exiting

     General routines

     Parallel routines

   This run was terminated on:   0:53: 0   9Sep2021

   JOB DONE.