     Program PWSCF v.6.7GPU starts on 15Sep2021 at 22:13:16

     R & G space division:  proc/nbgrp/npool/nimage =      10
     Reading input from /storage/home/hcoda1/3/ntian30/research/carbon/CxH_vib/H2O_calc/ads_slab/CHN2H2O_c/out_0021/pw.inp
Warning: card &CELL ignored
Warning: card   CELL_DYNAMICS='IPI', ignored
Warning: card / ignored

     Current dimensions of program PWSCF are:
     Max number of different atomic species (ntypx) = 10
     Max number of k-points (npk) =  40000
     Max angular momentum in pseudopotentials (lmaxx) =  3
     Presently no symmetry can be used with electric field

     Message from routine cell_base_init:
     DEPRECATED: use true lattice parameter, not A to a.u. conversion factor

     IMPORTANT: XC functional enforced from input :
     Exchange-correlation= BEEF-VDW
                           (   1   4  43  14   2   0   0)
     Any further DFT definition will be discarded
     Please, verify this is what you really want

  @ DRIVER MODE: Connecting to
 qe_1139763_2852625.sched-torque.pace.gatech.eduqkgl9t7m_scratch
  using UNIX socket
  @ DRIVER MODE: Message from server: STATUS
  @ DRIVER MODE: Message from server: INIT
  @ DRIVER MODE: Receiving replica           0          -1
  @ DRIVER MODE: Receiving encoded integer          25
  @ DRIVER MODE:  SCF:  T  FORCE:  T  STRESS:  F  VC:  F  ENSEMBLE:  F
  @ DRIVER MODE:  SCF:  T  FORCE:  T  STRESS:  F  VC:  F  ENSEMBLE:  F

     Using Slab Decomposition

     bravais-lattice index     =            0
     lattice parameter (alat)  =       1.8897  a.u.
     unit-cell volume          =    6658.9804 (a.u.)^3
     number of atoms/cell      =           54
     number of atomic types    =            5
     number of electrons       =       401.00
     number of Kohn-Sham states=          210
     kinetic-energy cutoff     =      29.3995  Ry
     charge density cutoff     =     293.9946  Ry
     scf convergence threshold =      7.3E-08
     mixing beta               =       0.0500
     number of iterations used =            8  plain     mixing
     Exchange-correlation= BEEF-VDW
                           (   1   4  43  14   2   0   0)

     celldm(1)=   1.889726  celldm(2)=   0.000000  celldm(3)=   0.000000
     celldm(4)=   0.000000  celldm(5)=   0.000000  celldm(6)=   0.000000

     crystal axes: (cart. coord. in units of alat)
               a(1) = (   6.579727   0.000000   0.000000 )
               a(2) = (  -0.000775   5.961596   0.000000 )
               a(3) = (   0.000000   0.000000  25.155947 )

     reciprocal axes: (cart. coord. in units 2 pi/alat)
               b(1) = (  0.151982  0.000020  0.000000 )
               b(2) = (  0.000000  0.167740  0.000000 )
               b(3) = (  0.000000  0.000000  0.039752 )

     PseudoPot. # 1 for Ti read from file:
     /storage/coda1/p-amedford6/0/shared/rich_project_chbe-medford/medford-share/data/pseudos_module/espresso/nninc/pbe/van/Ti.UPF
     MD5 check sum: 8e4df49b7f0d34bbd5052bf3f5ea0213
     Pseudo is Ultrasoft, Zval = 12.0
     Generated by new atomic code, or converted to UPF format
     Using radial grid of  851 points,  6 beta functions with:
                l(1) =   0
                l(2) =   0
                l(3) =   1
                l(4) =   1
                l(5) =   2
                l(6) =   2
     Q(r) pseudized with  8 coefficients,  rinner =    1.000   1.000   1.000
                                                       1.000   1.000

     PseudoPot. # 2 for O  read from file:
     /storage/coda1/p-amedford6/0/shared/rich_project_chbe-medford/medford-share/data/pseudos_module/espresso/nninc/pbe/van/O.UPF
     MD5 check sum: 78c19812648e8988a0fe644b0f25305e
     Pseudo is Ultrasoft, Zval =  6.0
     Generated by new atomic code, or converted to UPF format
     Using radial grid of  737 points,  4 beta functions with:
                l(1) =   0
                l(2) =   0
                l(3) =   1
                l(4) =   1
     Q(r) pseudized with  8 coefficients,  rinner =    0.800   0.800   0.800

     PseudoPot. # 3 for C  read from file:
     /storage/coda1/p-amedford6/0/shared/rich_project_chbe-medford/medford-share/data/pseudos_module/espresso/nninc/pbe/van/C.UPF
     MD5 check sum: 1a69bf6b8db32088f5b2163dbdb77a27
     Pseudo is Ultrasoft, Zval =  4.0
     Generated by new atomic code, or converted to UPF format
     Using radial grid of  721 points,  4 beta functions with:
                l(1) =   0
                l(2) =   0
                l(3) =   1
                l(4) =   1
     Q(r) pseudized with  8 coefficients,  rinner =    0.800   0.800   0.800

     PseudoPot. # 4 for H  read from file:
     /storage/coda1/p-amedford6/0/shared/rich_project_chbe-medford/medford-share/data/pseudos_module/espresso/nninc/pbe/van/H.UPF
     MD5 check sum: b5ee9d7bfd3a09ee7748110bda690ff7
     Pseudo is Ultrasoft, Zval =  1.0
     Generated by new atomic code, or converted to UPF format
     Using radial grid of  615 points,  1 beta functions with:
                l(1) =   0
     Q(r) pseudized with  8 coefficients,  rinner =    0.800

     PseudoPot. # 5 for N  read from file:
     /storage/coda1/p-amedford6/0/shared/rich_project_chbe-medford/medford-share/data/pseudos_module/espresso/nninc/pbe/van/N.UPF
     MD5 check sum: 90d10febe142ad51ac9d5be1deb811c4
     Pseudo is Ultrasoft, Zval =  5.0
     Generated by new atomic code, or converted to UPF format
     Using radial grid of  729 points,  4 beta functions with:
                l(1) =   0
                l(2) =   0
                l(3) =   1
                l(4) =   1
     Q(r) pseudized with  8 coefficients,  rinner =    0.800   0.800   0.800

     atomic species   valence    mass     pseudopotential
        Ti1           12.00    47.86700     Ti( 1.00)
        O1             6.00    15.99900     O ( 1.00)
        C1             4.00    12.01100     C ( 1.00)
        H1             1.00     1.00800     H ( 1.00)
        N1             5.00    14.00700     N ( 1.00)

     No symmetry found

   Cartesian axes

     site n.     atom                  positions (alat units)
         1           Ti1 tau(   1) = (   0.0004258   2.9801865   6.0000000  )
         2           Ti1 tau(   2) = (   3.2906075   1.4906267   6.0002472  )
         3           O1  tau(   3) = (   0.0006271   0.0005054   7.9858123  )
         4           O1  tau(   4) = (   3.2906025   0.0005020   7.3038282  )
         5           O1  tau(   5) = (   4.5942328   1.4918067   9.2879030  )
         6           O1  tau(   6) = (   1.9868534   1.4903216   9.2879459  )
         7           Ti1 tau(   7) = (   3.2907910   2.8959150   9.1758416  )
         8           Ti1 tau(   8) = (   0.0015273   1.4827037   9.2680791  )
         9           O1  tau(   9) = (   3.2982821   5.9591942  11.3418950  )
        10           O1  tau(  10) = (   0.0116148   5.9584955  10.6183126  )
        11           O1  tau(  11) = (   1.2990089   1.4837789  12.6285733  )
        12           O1  tau(  12) = (   5.2904647   1.4888503  12.6163117  )
        13           Ti1 tau(  13) = (   0.0603338   2.9457994  12.6026339  )
        14           Ti1 tau(  14) = (   3.3706290   1.4705258  12.5092779  )
        15           O1  tau(  15) = (   6.5788109   0.0160518  14.6499261  )
        16           O1  tau(  16) = (   3.3158691   0.0087694  13.9605792  )
        17           O1  tau(  17) = (   4.5613999   1.5213109  16.0555727  )
        18           O1  tau(  18) = (   2.0390476   1.5587733  16.0026688  )
        19           Ti1 tau(  19) = (   3.2958454   3.0042652  15.6812246  )
        20           Ti1 tau(  20) = (   0.0477533   1.5223793  15.8108347  )
        21           O1  tau(  21) = (   3.2904802   0.0005063   4.7018136  )
        22           O1  tau(  22) = (   0.0778492   0.0082781  17.2116806  )
        23           O1  tau(  23) = (   1.3043587   1.4918075   6.0039043  )
        24           O1  tau(  24) = (   5.2767064   1.4903225   6.0039473  )
        25           Ti1 tau(  25) = (   0.0000382   5.9609847   6.0000000  )
        26           Ti1 tau(  26) = (   3.2902200   4.4714249   6.0002472  )
        27           O1  tau(  27) = (   0.0002396   2.9813036   7.9858123  )
        28           O1  tau(  28) = (   3.2902150   2.9813002   7.3038282  )
        29           O1  tau(  29) = (   4.5938453   4.4726049   9.2879030  )
        30           O1  tau(  30) = (   1.9864658   4.4711199   9.2879459  )
        31           Ti1 tau(  31) = (   3.2891106   5.8743827   9.1763621  )
        32           Ti1 tau(  32) = (   0.0006254   4.4649316   9.2693709  )
        33           O1  tau(  33) = (   3.3003553   2.9806904  11.3444413  )
        34           O1  tau(  34) = (   0.0092240   2.9805883  10.6323155  )
        35           O1  tau(  35) = (   1.2971990   4.4717445  12.6361083  )
        36           O1  tau(  36) = (   5.2938362   4.4783115  12.6231241  )
        37           Ti1 tau(  37) = (   0.0537182   5.9220384  12.5388396  )
        38           Ti1 tau(  38) = (   3.3696634   4.4695314  12.5002334  )
        39           O1  tau(  39) = (   0.0023790   2.9538485  14.6690360  )
        40           O1  tau(  40) = (   3.3142834   2.9899978  13.8932647  )
        41           O1  tau(  41) = (   4.5682027   4.4688565  16.0600133  )
        42           O1  tau(  42) = (   2.0418658   4.4415600  16.0251682  )
        43           Ti1 tau(  43) = (   3.3511655   0.0130708  15.8150828  )
        44           Ti1 tau(  44) = (   0.0311020   4.6533438  16.0685068  )
        45           O1  tau(  45) = (   3.2900926   2.9813045   4.7018136  )
        46           O1  tau(  46) = (   1.3039711   4.4726057   6.0039043  )
        47           O1  tau(  47) = (   5.2763189   4.4711207   6.0039473  )
        48           C1  tau(  48) = (   0.0453995   2.9433715  17.6444507  )
        49           H1  tau(  49) = (   0.9770157   2.9292850  18.2072415  )
        50           N1  tau(  50) = (   5.5932985   2.7872967  18.4085793  )
        51           N1  tau(  51) = (   4.6087457   2.6199947  18.9712495  )
        52           O1  tau(  52) = (   3.0556172   5.9408547  18.1262901  )
        53           H1  tau(  53) = (   3.4776725   0.7204629  18.5958315  )
        54           H1  tau(  54) = (   2.0935776   0.0631959  18.2589326  )

     number of k points=    10  Fermi-Dirac smearing, width (Ry)=  0.0073
                       cart. coord. in units 2pi/alat
        k(    1) = (   0.0000000   0.0000000   0.0000000), wk =   0.1250000
        k(    2) = (   0.0000000   0.0419351   0.0000000), wk =   0.2500000
        k(    3) = (   0.0000000  -0.0838702   0.0000000), wk =   0.1250000
        k(    4) = (   0.0379955   0.0000049   0.0000000), wk =   0.2500000
        k(    5) = (   0.0379955   0.0419400   0.0000000), wk =   0.2500000
        k(    6) = (   0.0379955  -0.0838652   0.0000000), wk =   0.2500000
        k(    7) = (   0.0379955  -0.0419301   0.0000000), wk =   0.2500000
        k(    8) = (  -0.0759910  -0.0000099   0.0000000), wk =   0.1250000
        k(    9) = (  -0.0759910   0.0419252   0.0000000), wk =   0.2500000
        k(   10) = (  -0.0759910  -0.0838800   0.0000000), wk =   0.1250000

     Initial potential from superposition of free atoms

     starting charge  384.99916, renormalised to  401.00000

     negative rho (up, down):  1.776E-02 0.000E+00

     %%%%%%%%%%%%%%%%%%%%%%%%%%%%%%%%%%%%%%%%%%%%%%%%%%%%%%%%%%%%%%%%%%%%%%%%
     %                                                                      %
     % You are using vdW-DF, which was implemented by the Thonhauser group. %
     % Please cite the following two papers that made this development      %
     % possible and the two reviews that describe the various versions:     %
     %                                                                      %
     %   T. Thonhauser et al., PRL 115, 136402 (2015).                      %
     %   T. Thonhauser et al., PRB 76, 125112 (2007).                       %
     %   K. Berland et al., Rep. Prog. Phys. 78, 066501 (2015).             %
     %   D.C. Langreth et al., J. Phys.: Condens. Matter 21, 084203 (2009). %
     %                                                                      %
     %                                                                      %
     % If you are calculating the stress with vdW-DF, please also cite:     %
     %                                                                      %
     %   R. Sabatini et al., J. Phys.: Condens. Matter 24, 424209 (2012).   %
     %                                                                      %
     %%%%%%%%%%%%%%%%%%%%%%%%%%%%%%%%%%%%%%%%%%%%%%%%%%%%%%%%%%%%%%%%%%%%%%%%

     Adding external electric field

     Computed dipole along edir(3) :
        Dipole              -11.5984 Ry au,        -29.4801 Debye
        Dipole field         -0.0219 Ry au,

        Potential amp.        2.0290 Ry
        Total length         46.3494 bohr

     Starting wfcs are  303 atomic wfcs
  @ DRIVER MODE: Message from server: STATUS
  @ DRIVER MODE: Message from server: POSDATA
  @ DRIVER MODE: Reading and sharing cell
  @ DRIVER MODE: Reading and sharing positions
  @ DRIVER MODE: Received positions

     Self-consistent Calculation

     iteration #  1     ecut=    29.40 Ry     beta= 0.05
     Davidson diagonalization with overlap
     c_bands:  3 eigenvalues not converged
     c_bands:  1 eigenvalues not converged
     c_bands:  3 eigenvalues not converged
     c_bands:  3 eigenvalues not converged
     c_bands:  5 eigenvalues not converged
     c_bands:  2 eigenvalues not converged
     c_bands:  3 eigenvalues not converged
     c_bands:  1 eigenvalues not converged
     c_bands:  5 eigenvalues not converged
     ethr =  1.00E-05,  avg # of iterations = 23.5

[...]

     total energy              =   -2415.42660337 Ry
     estimated scf accuracy    <    6267.18227552 Ry

     iteration #  2     ecut=    29.40 Ry     beta= 0.05
     Davidson diagonalization with overlap
     ethr =  1.00E-02,  avg # of iterations = 32.2

[...]

     iteration # 57     ecut=    29.40 Ry     beta= 0.05
     Davidson diagonalization with overlap
     c_bands:  1 eigenvalues not converged
     ethr =  2.98E-11,  avg # of iterations = 12.3

[...]

     total energy              =   -2971.50209761 Ry
     estimated scf accuracy    <       0.00000008 Ry

     iteration # 58     ecut=    29.40 Ry     beta= 0.05
     Davidson diagonalization with overlap
     ethr =  1.89E-11,  avg # of iterations =  9.4

     negative rho (up, down):  1.755E-02 0.000E+00

     Adding external electric field

     Computed dipole along edir(3) :
        Dipole                0.5777 Ry au,          1.4685 Debye
        Dipole field          0.0011 Ry au,

        Potential amp.       -0.1011 Ry
        Total length         46.3494 bohr

     End of self-consistent calculation

          k = 0.0000 0.0000 0.0000 ( 18029 PWs)   bands (ev):

   -55.8823 -55.8482 -55.8476 -55.8422 -55.8110 -55.7254 -55.6962 -55.6878
   -55.6624 -55.6621 -55.6525 -55.6286 -55.4150 -55.2233 -54.8640 -54.8300
   -32.3901 -32.3658 -32.2479 -32.2204 -32.1950 -32.1746 -32.1522 -32.1456
   -32.1259 -32.0734 -32.0683 -32.0660 -32.0345 -32.0279 -32.0229 -31.9969
   -31.9877 -31.9797 -31.9725 -31.9450 -31.9394 -31.9217 -31.9008 -31.8899
   -31.8869 -31.8751 -31.8745 -31.8608 -31.8544 -31.8494 -31.8382 -31.8351
   -31.8305 -31.8261 -31.8155 -31.8037 -31.7743 -31.6634 -31.6299 -31.4832
   -31.4679 -31.4362 -31.2713 -31.1825 -31.1601 -31.0880 -31.0015 -30.8905
   -20.4771 -18.7811 -16.5847 -16.3545 -16.1304 -16.0396 -15.9946 -15.7845
   -15.6753 -15.6198 -15.4960 -15.4332 -15.4240 -15.4165 -15.3956 -15.3854
   -15.3289 -15.3188 -15.3062 -15.3006 -15.2727 -15.2362 -15.2201 -15.2188
   -15.1474 -15.0439 -15.0230 -15.0001 -14.9977 -14.9398 -14.4995 -13.6071
   -13.3661 -13.2496  -6.6219  -5.8303  -4.7027  -4.4751  -3.9584  -3.8245
    -3.7892  -3.7530  -3.7169  -3.5219  -3.4871  -3.3772  -3.2271  -3.1316
    -3.0624  -3.0277  -2.9732  -2.8963  -2.8281  -2.7656  -2.7301  -2.6878
    -2.6785  -2.6427  -2.6363  -2.6184  -2.5976  -2.4981  -2.4624  -2.4144
    -2.3497  -2.2476  -2.2275  -2.1960  -2.1903  -2.1551  -2.1475  -2.1261
    -2.1090  -2.0994  -2.0239  -1.9278  -1.8786  -1.7862  -1.6736  -1.5368
    -1.5324  -1.4889  -1.3611  -1.3478  -1.3177  -1.2910  -1.2757  -1.2311
    -1.1441  -1.0879  -1.0417  -0.9783  -0.9051  -0.8160  -0.7736  -0.7222
    -0.6579  -0.6412  -0.6333  -0.6145  -0.5767  -0.4692  -0.4469  -0.3702
    -0.3672  -0.2812  -0.2502  -0.1895  -0.1591  -0.1209  -0.0822  -0.0087
     0.0115   0.0364   0.0544   0.0816   0.0904   0.1322   0.1650   0.1693
     0.3650   0.3907   0.4496   0.4593   0.5194   0.6405   0.6588   0.7730
     0.8902   1.0855   1.1585   1.2520   1.3503   1.7300   1.7759   1.7813
     3.2412   3.3389   3.3775   3.3864   3.4738   3.4855   3.7023   3.7484
     3.7559   3.8109

[...]

          k = 0.0380-0.0419 0.0000 ( 17876 PWs)   bands (ev):

[...]

          k =-0.0760-0.0000 0.0000 ( 17886 PWs)   bands (ev):

[...]

          k =-0.0760-0.0839 0.0000 ( 17948 PWs)   bands (ev):

   -55.8655 -55.8648 -55.8410 -55.8321 -55.8257 -55.7141 -55.6991 -55.6796
   -55.6782 -55.6540 -55.6475 -55.6438 -55.4136 -55.2245 -54.8471 -54.8468
   -32.2071 -32.1848 -32.1812 -32.1809 -32.1603 -32.1598 -32.1319 -32.1048
   -32.0922 -32.0649 -32.0567 -32.0521 -32.0386 -32.0083 -32.0005 -31.9937
   -31.9861 -31.9858 -31.9851 -31.9839 -31.9820 -31.9796 -31.9607 -31.9277
   -31.9153 -31.9104 -31.9028 -31.8814 -31.8808 -31.8775 -31.8702 -31.8627
   -31.8588 -31.8550 -31.8523 -31.8498 -31.7873 -31.6667 -31.6232 -31.5402
   -31.4855 -31.4592 -31.1729 -31.1727 -31.0842 -31.0839 -31.0449 -31.0447
   -20.4764 -18.7803 -16.0454 -15.9290 -15.8476 -15.8068 -15.7388 -15.7030
   -15.6556 -15.5912 -15.5612 -15.5579 -15.5031 -15.4871 -15.4465 -15.4323
   -15.4078 -15.4014 -15.3856 -15.3374 -15.3254 -15.3170 -15.3081 -15.3045
   -15.2642 -15.2296 -15.2044 -15.2000 -15.0940 -14.9636 -14.6742 -13.6159
   -13.3514 -13.3512  -6.6199  -5.8249  -4.6619  -4.4487  -3.6272  -3.3291
    -3.3192  -3.1055  -3.0476  -2.9929  -2.9847  -2.9419  -2.8194  -2.7916
    -2.7432  -2.7348  -2.6960  -2.6907  -2.6857  -2.6660  -2.6325  -2.6132
    -2.6080  -2.5570  -2.5512  -2.5443  -2.5267  -2.5161  -2.5087  -2.4841
    -2.4569  -2.4416  -2.4247  -2.3951  -2.3116  -2.2814  -2.1142  -2.0729
    -2.0252  -2.0167  -1.9857  -1.9648  -1.9531  -1.9318  -1.8882  -1.7307
    -1.6532  -1.5861  -1.5750  -1.5652  -1.4904  -1.4739  -1.3625  -1.3253
    -1.2926  -1.2580  -1.1836  -1.1058  -1.0974  -1.0756  -0.9715  -0.9640
    -0.9300  -0.8866  -0.8481  -0.8371  -0.8285  -0.7505  -0.6949  -0.6231
    -0.6169  -0.5927  -0.5797  -0.5532  -0.5282  -0.4338  -0.3672  -0.3107
    -0.2773  -0.1896  -0.1603   0.0618   0.0843   0.1941   0.2074   0.2752
     0.3164   0.4251   0.4334   0.4809   0.5043   0.5294   0.5915   0.6574
     0.6671   0.6943   0.8123   1.5217   1.5230   1.5955   1.5958   1.6956
     3.5601   3.5920   3.6246   3.6345   3.7441   3.7647   3.7848   3.7875
     3.9027   3.9231

     the Fermi energy is     3.2490 ev

!    total energy              =   -2971.50215215 Ry
     estimated scf accuracy    <       0.00000004 Ry
     smearing contrib. (-TS)   =      -0.02121210 Ry
     internal energy E=F+TS    =   -2971.48094005 Ry

     The total energy is F=E-TS. E is the sum of the following terms:
     one-electron contribution =  -24213.86745582 Ry
     hartree contribution      =   12197.59687287 Ry
     xc contribution           =    -492.39277667 Ry
     ewald contribution        =    9537.18178970 Ry
     electric field correction =       0.00062988 Ry

     convergence has been achieved in  58 iterations

     Forces acting on atoms (cartesian axes, Ry/au):

     atom    1 type  1   force =     0.00018947   -0.00030582    0.09591565
     atom    2 type  1   force =    -0.00003714   -0.00048734   -0.17570977
     atom    3 type  2   force =     0.00007422   -0.00014672   -0.02407281
     atom    4 type  2   force =     0.00006040   -0.00155552    0.05354352
     atom    5 type  2   force =    -0.01129714   -0.00084509    0.00337228
     atom    6 type  2   force =     0.01317441   -0.00018047    0.00286222
     atom    7 type  1   force =    -0.00060251    0.00053547   -0.00602853
     atom    8 type  1   force =     0.00021230    0.00882044    0.02325901
     atom    9 type  2   force =    -0.00020672    0.00013821   -0.00009287
     atom   10 type  2   force =    -0.00059810    0.00120457   -0.01586715
     atom   11 type  2   force =    -0.00017806    0.00013726   -0.00002526
     atom   12 type  2   force =    -0.00019033   -0.00008249   -0.00015446
     atom   13 type  1   force =     0.00000155    0.00057886    0.00016294
     atom   14 type  1   force =    -0.00004969    0.00004037   -0.00002487
     atom   15 type  2   force =    -0.00024886   -0.00005419   -0.00005306
     atom   16 type  2   force =    -0.00022486    0.00023945   -0.00011711
     atom   17 type  2   force =    -0.00026615   -0.00002169    0.00006155
     atom   18 type  2   force =    -0.00052294    0.00024060   -0.00005202
     atom   19 type  1   force =    -0.00009046   -0.00032678   -0.00011332
     atom   20 type  1   force =    -0.00027160   -0.00057858   -0.00004529
     atom   21 type  2   force =     0.00006413   -0.00004557    0.10323092
     atom   22 type  2   force =     0.00019883    0.00022413   -0.00027041
     atom   23 type  2   force =    -0.07143598   -0.00011057   -0.02767142
     atom   24 type  2   force =     0.07142148    0.00030287   -0.02770696
     atom   25 type  1   force =     0.00002847   -0.00024010    0.09568688
     atom   26 type  1   force =    -0.00015959   -0.00037348   -0.17585486
     atom   27 type  2   force =     0.00010077   -0.00019564   -0.02308570
     atom   28 type  2   force =     0.00012536   -0.00121571    0.05306200
     atom   29 type  2   force =    -0.01154626    0.00062446    0.00328283
     atom   30 type  2   force =     0.01328915    0.00093021    0.00278693
     atom   31 type  1   force =    -0.00047390    0.00378446   -0.01062420
     atom   32 type  1   force =     0.00008683   -0.01102930    0.02367590
     atom   33 type  2   force =     0.00011463   -0.00003772    0.00002341
     atom   34 type  2   force =     0.00007990    0.00062326   -0.02080380
     atom   35 type  2   force =    -0.00018860   -0.00022093    0.00001919
     atom   36 type  2   force =    -0.00038065    0.00002300   -0.00007840
     atom   37 type  1   force =     0.00032893   -0.00051467   -0.00008712
     atom   38 type  1   force =     0.00000930   -0.00000076   -0.00018036
     atom   39 type  2   force =    -0.00034836    0.00001098    0.00006234
     atom   40 type  2   force =     0.00003029   -0.00015587   -0.00028993
     atom   41 type  2   force =    -0.00033720   -0.00021048   -0.00006506
     atom   42 type  2   force =     0.00006417   -0.00005693   -0.00009075
     atom   43 type  1   force =     0.00027726   -0.00043534    0.00003247
     atom   44 type  1   force =    -0.00021007   -0.00023227    0.00026108
     atom   45 type  2   force =     0.00006156   -0.00008379    0.10321704
     atom   46 type  2   force =    -0.07144418   -0.00010704   -0.02769418
     atom   47 type  2   force =     0.07144526    0.00032550   -0.02771816
     atom   48 type  3   force =    -0.00053456    0.00074344    0.00075795
     atom   49 type  4   force =     0.00029392    0.00037911    0.00021112
     atom   50 type  5   force =    -0.00355319   -0.00246115    0.00230333
     atom   51 type  5   force =     0.00386704    0.00230186   -0.00286234
     atom   52 type  2   force =    -0.00078681   -0.00011425   -0.00025591
     atom   53 type  4   force =     0.00036062    0.00014223    0.00053843
     atom   54 type  4   force =     0.00022367    0.00007551   -0.00063291

     Total force =     0.366891     Total SCF correction =     0.000650
  @ DRIVER MODE: Message from server: STATUS
  @ DRIVER MODE: Message from server: GETFORCE
  @ DRIVER MODE: Returning v,forces,stress,ensemble

     Writing output data file ./calc.save/
  @ DRIVER MODE: Message from server: EXIT
  @ DRIVE MODE: Exiting

     General routines

     Parallel routines

   This run was terminated on:  22:29:51  15Sep2021

   JOB DONE.