     Program PWSCF v.6.7GPU starts on 18Oct2021 at 18: 0:23

     R & G space division:  proc/nbgrp/npool/nimage =       8
     Reading input from /storage/home/hcoda1/3/ntian30/research/carbon/CxH_vib/Thiel_calc/ads_slab/H3N_perslab/out_0013/pw.inp
Warning: card &CELL ignored
Warning: card   CELL_DYNAMICS='IPI', ignored
Warning: card / ignored

     Current dimensions of program PWSCF are:
     Max number of different atomic species (ntypx) = 10
     Max number of k-points (npk) =  40000
     Max angular momentum in pseudopotentials (lmaxx) =  3
     Presently no symmetry can be used with electric field

     Message from routine cell_base_init:
     DEPRECATED: use true lattice parameter, not A to a.u. conversion factor

     IMPORTANT: XC functional enforced from input :
     Exchange-correlation= BEEF-VDW
                           (   1   4  43  14   2   0   0)
     Any further DFT definition will be discarded
     Please, verify this is what you really want

  @ DRIVER MODE: Connecting to
 qe_1139763_3255141.sched-torque.pace.gatech.edu2uben40s_scratch
  using UNIX socket
  @ DRIVER MODE: Message from server: STATUS
  @ DRIVER MODE: Message from server: INIT
  @ DRIVER MODE: Receiving replica           0          -1
  @ DRIVER MODE: Receiving encoded integer          25
  @ DRIVER MODE:  SCF:  T  FORCE:  T  STRESS:  F  VC:  F  ENSEMBLE:  F
  @ DRIVER MODE:  SCF:  T  FORCE:  T  STRESS:  F  VC:  F  ENSEMBLE:  F

     Using Slab Decomposition

     bravais-lattice index     =            0
     lattice parameter (alat)  =       1.8897  a.u.
     unit-cell volume          =    9988.4706 (a.u.)^3
     number of atoms/cell      =           57
     number of atomic types    =            4
     number of electrons       =       434.00
     number of Kohn-Sham states=          227
     kinetic-energy cutoff     =      29.3995  Ry
     charge density cutoff     =     293.9946  Ry
     scf convergence threshold =      7.3E-08
     mixing beta               =       0.0500
     number of iterations used =            8  plain     mixing
     Exchange-correlation= BEEF-VDW
                           (   1   4  43  14   2   0   0)

     celldm(1)=   1.889726  celldm(2)=   0.000000  celldm(3)=   0.000000
     celldm(4)=   0.000000  celldm(5)=   0.000000  celldm(6)=   0.000000

     crystal axes: (cart. coord. in units of alat)
               a(1) = (   6.579727   0.000000   0.000000 )
               a(2) = (  -0.001163   8.942395   0.000000 )
               a(3) = (   0.000000   0.000000  25.155947 )

     reciprocal axes: (cart. coord. in units 2 pi/alat)
               b(1) = (  0.151982  0.000020  0.000000 )
               b(2) = (  0.000000  0.111827  0.000000 )
               b(3) = (  0.000000  0.000000  0.039752 )

     PseudoPot. # 1 for O  read from file:
     /storage/coda1/p-amedford6/0/shared/rich_project_chbe-medford/medford-share/data/pseudos_module/espresso/nninc/pbe/van/O.UPF
     MD5 check sum: 78c19812648e8988a0fe644b0f25305e
     Pseudo is Ultrasoft, Zval =  6.0
     Generated by new atomic code, or converted to UPF format
     Using radial grid of  737 points,  4 beta functions with:
                l(1) =   0
                l(2) =   0
                l(3) =   1
                l(4) =   1
     Q(r) pseudized with  8 coefficients,  rinner =    0.800   0.800   0.800

     PseudoPot. # 2 for Ti read from file:
     /storage/coda1/p-amedford6/0/shared/rich_project_chbe-medford/medford-share/data/pseudos_module/espresso/nninc/pbe/van/Ti.UPF
     MD5 check sum: 8e4df49b7f0d34bbd5052bf3f5ea0213
     Pseudo is Ultrasoft, Zval = 12.0
     Generated by new atomic code, or converted to UPF format
     Using radial grid of  851 points,  6 beta functions with:
                l(1) =   0
                l(2) =   0
                l(3) =   1
                l(4) =   1
                l(5) =   2
                l(6) =   2
     Q(r) pseudized with  8 coefficients,  rinner =    1.000   1.000   1.000
                                                       1.000   1.000

     PseudoPot. # 3 for N  read from file:
     /storage/coda1/p-amedford6/0/shared/rich_project_chbe-medford/medford-share/data/pseudos_module/espresso/nninc/pbe/van/N.UPF
     MD5 check sum: 90d10febe142ad51ac9d5be1deb811c4
     Pseudo is Ultrasoft, Zval =  5.0
     Generated by new atomic code, or converted to UPF format
     Using radial grid of  729 points,  4 beta functions with:
                l(1) =   0
                l(2) =   0
                l(3) =   1
                l(4) =   1
     Q(r) pseudized with  8 coefficients,  rinner =    0.800   0.800   0.800

     PseudoPot. # 4 for H  read from file:
     /storage/coda1/p-amedford6/0/shared/rich_project_chbe-medford/medford-share/data/pseudos_module/espresso/nninc/pbe/van/H.UPF
     MD5 check sum: b5ee9d7bfd3a09ee7748110bda690ff7
     Pseudo is Ultrasoft, Zval =  1.0
     Generated by new atomic code, or converted to UPF format
     Using radial grid of  615 points,  1 beta functions with:
                l(1) =   0
     Q(r) pseudized with  8 coefficients,  rinner =    0.800

     atomic species   valence    mass     pseudopotential
        O1             6.00    15.99900     O ( 1.00)
        Ti1           12.00    47.86700     Ti( 1.00)
        N1             5.00    14.00700     N ( 1.00)
        H1             1.00     1.00800     H ( 1.00)

     No symmetry found

   Cartesian axes

     site n.     atom                  positions (alat units)
         1           O1  tau(   1) = (   0.0007354   0.0005023  10.5931620  )
         2           O1  tau(   2) = (   3.2892737   8.9266665  13.9077113  )
         3           O1  tau(   3) = (   0.0003737   0.0634608  17.2091987  )
         4           O1  tau(   4) = (   0.0006271   0.0005054   7.9858123  )
         5           O1  tau(   5) = (   3.2894549   8.9236348  11.1922400  )
         6           O1  tau(   6) = (   0.0007594   0.0424130  14.5914122  )
         7           O1  tau(   7) = (   1.9868534   1.4903216   9.2879459  )
         8           O1  tau(   8) = (   5.2335215   1.6100056  12.5826540  )
         9           O1  tau(   9) = (   2.0120305   1.5790738  16.0735584  )
        10           Ti1 tau(  10) = (   0.0007404   1.4906270   9.2895810  )
        11           Ti1 tau(  11) = (   3.2904007   1.3515224  12.5049090  )
        12           Ti1 tau(  12) = (   0.0008134   1.3014534  15.8121839  )
        13           O1  tau(  13) = (   4.5942328   1.4918067   9.2879030  )
        14           O1  tau(  14) = (   1.3469525   1.6100319  12.5826758  )
        15           O1  tau(  15) = (   4.5681566   1.5786403  16.0735304  )
        16           Ti1 tau(  16) = (   3.2902859   2.9801868   9.2893338  )
        17           Ti1 tau(  17) = (   0.0004417   2.8262804  12.4730395  )
        18           Ti1 tau(  18) = (   3.2905157   2.9388596  15.7158142  )
        19           O1  tau(  19) = (   0.0003479   2.9813005  10.5931620  )
        20           O1  tau(  20) = (   3.2902015   2.9695883  13.9046685  )
        21           O1  tau(  21) = (   0.0002396   2.9813036   7.9858123  )
        22           O1  tau(  22) = (   3.2902718   2.9641339  11.1914307  )
        23           O1  tau(  23) = (  -0.0000899   3.0294973  14.7210216  )
        24           O1  tau(  24) = (   1.9864658   4.4711199   9.2879459  )
        25           O1  tau(  25) = (   5.2357187   4.5858611  12.5822034  )
        26           O1  tau(  26) = (   2.0270018   4.4833747  16.1008177  )
        27           Ti1 tau(  27) = (   0.0003529   4.4714252   9.2895810  )
        28           Ti1 tau(  28) = (   3.2904530   4.3245040  12.5108242  )
        29           Ti1 tau(  29) = (   0.0003810   4.5948835  15.7280669  )
        30           O1  tau(  30) = (   4.5938453   4.4726049   9.2879030  )
        31           O1  tau(  31) = (   1.3445752   4.5857260  12.5820564  )
        32           O1  tau(  32) = (   4.5522270   4.4834529  16.1006533  )
        33           Ti1 tau(  33) = (   3.2898983   5.9609850   9.2893338  )
        34           Ti1 tau(  34) = (   0.0007043   5.8101956  12.4536477  )
        35           Ti1 tau(  35) = (   3.2895928   5.9233606  15.7233983  )
        36           O1  tau(  36) = (  -0.0000397   5.9620987  10.5931620  )
        37           O1  tau(  37) = (   3.2897410   5.9500339  13.9181164  )
        38           O1  tau(  38) = (  -0.0004871   5.9201338  17.2318970  )
        39           O1  tau(  39) = (  -0.0001480   5.9621018   7.9858123  )
        40           O1  tau(  40) = (   3.2899950   5.9414595  11.1912600  )
        41           O1  tau(  41) = (   0.0000049   5.9985156  14.6402937  )
        42           O1  tau(  42) = (   1.9860782   7.4519181   9.2879459  )
        43           O1  tau(  43) = (   5.2353497   7.5549275  12.5688660  )
        44           O1  tau(  44) = (   2.0314850   7.4951575  16.0543809  )
        45           Ti1 tau(  45) = (  -0.0000347   7.4522234   9.2895810  )
        46           Ti1 tau(  46) = (   3.2900928   7.3055020  12.5043323  )
        47           Ti1 tau(  47) = (  -0.0004111   7.4010535  16.2820301  )
        48           O1  tau(  48) = (   4.5934577   7.4534031   9.2879030  )
        49           O1  tau(  49) = (   1.3438456   7.5546912  12.5687420  )
        50           O1  tau(  50) = (   4.5473438   7.4951267  16.0540408  )
        51           Ti1 tau(  51) = (   3.2895107   8.9417832   9.2893338  )
        52           Ti1 tau(  52) = (   0.0000527   8.7739242  12.4740011  )
        53           Ti1 tau(  53) = (   3.2894619   8.8771818  15.7086625  )
        54           N1  tau(  54) = (   6.5792827   2.9851808  17.9254469  )
        55           H1  tau(  55) = (   6.5791554   2.0483488  18.3259764  )
        56           H1  tau(  56) = (   5.7537502   3.4703839  18.2861980  )
        57           H1  tau(  57) = (   0.8147632   3.4704782  18.2867735  )

     number of k points=    10  Fermi-Dirac smearing, width (Ry)=  0.0073
                       cart. coord. in units 2pi/alat
        k(    1) = (   0.0000000   0.0000000   0.0000000), wk =   0.1250000
        k(    2) = (   0.0000000   0.0279567   0.0000000), wk =   0.2500000
        k(    3) = (   0.0000000  -0.0559134   0.0000000), wk =   0.1250000
        k(    4) = (   0.0379955   0.0000049   0.0000000), wk =   0.2500000
        k(    5) = (   0.0379955   0.0279617   0.0000000), wk =   0.2500000
        k(    6) = (   0.0379955  -0.0559085   0.0000000), wk =   0.2500000
        k(    7) = (   0.0379955  -0.0279518   0.0000000), wk =   0.2500000
        k(    8) = (  -0.0759910  -0.0000099   0.0000000), wk =   0.1250000
        k(    9) = (  -0.0759910   0.0279468   0.0000000), wk =   0.2500000
        k(   10) = (  -0.0759910  -0.0559233   0.0000000), wk =   0.1250000

     Initial potential from superposition of free atoms

     starting charge  415.99912, renormalised to  434.00000

     negative rho (up, down):  3.931E-02 0.000E+00

     %%%%%%%%%%%%%%%%%%%%%%%%%%%%%%%%%%%%%%%%%%%%%%%%%%%%%%%%%%%%%%%%%%%%%%%%
     %                                                                      %
     % You are using vdW-DF, which was implemented by the Thonhauser group. %
     % Please cite the following two papers that made this development      %
     % possible and the two reviews that describe the various versions:     %
     %                                                                      %
     %   T. Thonhauser et al., PRL 115, 136402 (2015).                      %
     %   T. Thonhauser et al., PRB 76, 125112 (2007).                       %
     %   K. Berland et al., Rep. Prog. Phys. 78, 066501 (2015).             %
     %   D.C. Langreth et al., J. Phys.: Condens. Matter 21, 084203 (2009). %
     %                                                                      %
     %                                                                      %
     % If you are calculating the stress with vdW-DF, please also cite:     %
     %                                                                      %
     %   R. Sabatini et al., J. Phys.: Condens. Matter 24, 424209 (2012).   %
     %                                                                      %
     %%%%%%%%%%%%%%%%%%%%%%%%%%%%%%%%%%%%%%%%%%%%%%%%%%%%%%%%%%%%%%%%%%%%%%%%

     Adding external electric field

     Computed dipole along edir(3) :
        Dipole               -2.8168 Ry au,         -7.1597 Debye
        Dipole field         -0.0035 Ry au,

        Potential amp.        0.3285 Ry
        Total length         46.3494 bohr

     Starting wfcs are  327 atomic wfcs
  @ DRIVER MODE: Message from server: STATUS
  @ DRIVER MODE: Message from server: POSDATA
  @ DRIVER MODE: Reading and sharing cell
  @ DRIVER MODE: Reading and sharing positions
  @ DRIVER MODE: Received positions

     Self-consistent Calculation

     iteration #  1     ecut=    29.40 Ry     beta= 0.05
     Davidson diagonalization with overlap
     c_bands:  2 eigenvalues not converged
     c_bands:  2 eigenvalues not converged
     c_bands:  2 eigenvalues not converged
     c_bands:  2 eigenvalues not converged
     c_bands:  5 eigenvalues not converged
     c_bands:  2 eigenvalues not converged
     c_bands:  1 eigenvalues not converged
     c_bands:  1 eigenvalues not converged
     c_bands:  2 eigenvalues not converged
     ethr =  1.00E-05,  avg # of iterations = 20.0

[...]

     total energy              =   -3273.63568697 Ry
     estimated scf accuracy    <      14.14033922 Ry

     iteration #  2     ecut=    29.40 Ry     beta= 0.05
     Davidson diagonalization with overlap
     ethr =  3.26E-03,  avg # of iterations =  1.0

[...]

     iteration # 50     ecut=    29.40 Ry     beta= 0.05
     Davidson diagonalization with overlap
     c_bands:  1 eigenvalues not converged
     ethr =  3.33E-08,  avg # of iterations = 11.2

[...]

     total energy              =   -3272.09272177 Ry
     estimated scf accuracy    <       0.00000011 Ry

     iteration # 64     ecut=    29.40 Ry     beta= 0.05
     Davidson diagonalization with overlap
     ethr =  2.58E-11,  avg # of iterations =  8.6

     negative rho (up, down):  3.696E-02 0.000E+00

     Adding external electric field

     Computed dipole along edir(3) :
        Dipole                1.2566 Ry au,          3.1939 Debye
        Dipole field          0.0016 Ry au,

        Potential amp.       -0.1465 Ry
        Total length         46.3494 bohr

     End of self-consistent calculation

          k = 0.0000 0.0000 0.0000 ( 26871 PWs)   bands (ev):

   -58.0028 -58.0002 -57.9778 -57.9773 -57.9768 -57.8741 -57.8243 -57.7997
   -57.7982 -57.7763 -57.7559 -57.7336 -57.6259 -57.5612 -57.4317 -57.0015
   -56.9784 -56.9706 -34.4043 -34.3820 -34.3815 -34.3713 -34.3677 -34.3361
   -34.3181 -34.3151 -34.3028 -34.2715 -34.2443 -34.2305 -34.2191 -34.1955
   -34.1951 -34.1851 -34.1699 -34.1588 -34.1267 -34.1229 -34.0993 -34.0990
   -34.0937 -34.0864 -34.0790 -34.0480 -34.0329 -34.0301 -34.0237 -34.0037
   -34.0005 -33.9927 -33.9815 -33.9798 -33.9763 -33.9705 -33.9471 -33.9402
   -33.9188 -33.8648 -33.8331 -33.7731 -33.7097 -33.7067 -33.6123 -33.3179
   -33.3166 -33.3084 -33.3027 -33.2957 -33.2265 -33.1655 -33.1569 -33.0257
   -18.8522 -18.4288 -18.2692 -18.2501 -18.2291 -18.2030 -18.0945 -18.0889
   -17.8490 -17.8183 -17.7894 -17.7822 -17.7198 -17.6818 -17.6720 -17.6622
   -17.6338 -17.6289 -17.6206 -17.5730 -17.5283 -17.4837 -17.4602 -17.4395
   -17.4232 -17.4213 -17.3739 -17.3254 -17.3141 -17.2564 -17.1162 -16.9531
   -16.8485 -15.4675 -15.4117 -15.4075  -7.5501  -7.4332  -6.1793  -5.9201
    -5.9079  -5.8294  -5.4570  -5.4462  -5.3563  -5.3504  -5.3349  -5.2660
    -5.2543  -5.2446  -5.2259  -5.1958  -5.1343  -5.1145  -5.0823  -4.9482
    -4.9461  -4.9191  -4.9016  -4.8449  -4.8068  -4.8015  -4.7782  -4.7576
    -4.7278  -4.6742  -4.6589  -4.6220  -4.6146  -4.5054  -4.4412  -4.3123
    -4.2952  -4.2911  -4.2719  -4.2244  -4.1866  -4.1592  -4.1319  -4.0798
    -4.0475  -3.9896  -3.9565  -3.9142  -3.8127  -3.7468  -3.7231  -3.6627
    -3.5671  -3.5292  -3.4202  -3.3975  -3.3323  -3.3154  -3.2518  -3.2384
    -3.1672  -3.1550  -3.1136  -3.0908  -3.0355  -2.9850  -2.9675  -2.9293
    -2.8866  -2.7701  -2.7586  -2.7502  -2.7268  -2.6936  -2.6689  -2.6386
    -2.6288  -2.5888  -2.5354  -2.4866  -2.4610  -2.4186  -2.4091  -2.3583
    -2.3091  -2.2988  -2.2252  -2.2050  -2.1816  -2.1588  -2.0703  -2.0157
    -1.8565  -1.8271  -1.8217  -1.7851  -1.7409  -1.6909  -1.6436  -1.4726
    -1.2337  -1.0316  -0.7446  -0.7042  -0.7028  -0.4453  -0.4394  -0.3129
     0.9721   1.2300   1.2635   1.4462   1.4507   1.5399   1.5886   1.5887
     1.6545   1.6850   1.7417

[...]

          k = 0.0380-0.0280 0.0000 ( 26873 PWs)   bands (ev):

[...]

          k =-0.0760-0.0000 0.0000 ( 26902 PWs)   bands (ev):

[...]

          k =-0.0760-0.0559 0.0000 ( 26868 PWs)   bands (ev):

   -57.9992 -57.9943 -57.9939 -57.9789 -57.9686 -57.8739 -57.8166 -57.8145
   -57.7906 -57.7731 -57.7613 -57.7316 -57.6257 -57.5614 -57.4316 -56.9958
   -56.9893 -56.9654 -34.4752 -34.4456 -34.3873 -34.3787 -34.3345 -34.3333
   -34.3287 -34.3282 -34.2793 -34.2422 -34.2063 -34.1909 -34.1905 -34.1741
   -34.1659 -34.1436 -34.1434 -34.1358 -34.1323 -34.1235 -34.1193 -34.0859
   -34.0757 -34.0710 -34.0681 -34.0620 -34.0554 -34.0393 -34.0312 -34.0268
   -34.0206 -34.0126 -34.0121 -33.9945 -33.9896 -33.9749 -33.9624 -33.9468
   -33.9173 -33.8376 -33.8199 -33.7771 -33.7106 -33.7079 -33.6423 -33.4043
   -33.3188 -33.3130 -33.2902 -33.2089 -33.2008 -33.1396 -33.1263 -33.1187
   -18.5338 -18.5180 -18.2096 -18.1240 -18.1083 -18.0840 -18.0708 -18.0212
   -17.9398 -17.8821 -17.8772 -17.8191 -17.7802 -17.7702 -17.7306 -17.7272
   -17.7108 -17.6993 -17.6681 -17.6395 -17.6377 -17.5378 -17.4531 -17.4216
   -17.4077 -17.3717 -17.3525 -17.3341 -17.2965 -17.2360 -17.1501 -17.0629
   -16.7434 -15.4675 -15.4624 -15.3472  -7.5588  -7.4478  -5.7894  -5.7793
    -5.7689  -5.7034  -5.3813  -5.3031  -5.2716  -5.2570  -5.1727  -5.1662
    -5.1641  -5.1506  -5.1475  -5.1242  -5.0958  -5.0831  -5.0301  -5.0207
    -5.0182  -4.9546  -4.9143  -4.9054  -4.8864  -4.8605  -4.7459  -4.7387
    -4.6345  -4.6054  -4.5457  -4.5116  -4.4992  -4.4691  -4.3926  -4.3874
    -4.3516  -4.3167  -4.1619  -4.1526  -4.1371  -4.1321  -4.0601  -4.0009
    -3.9748  -3.9420  -3.7091  -3.6515  -3.6417  -3.6316  -3.6181  -3.6105
    -3.5915  -3.5543  -3.5200  -3.4847  -3.4620  -3.4414  -3.4390  -3.3452
    -3.3065  -3.2656  -3.1643  -3.1421  -3.1341  -3.1053  -3.1007  -3.0753
    -3.0702  -3.0505  -3.0336  -2.9545  -2.9199  -2.9012  -2.8499  -2.7817
    -2.7646  -2.7603  -2.5880  -2.5372  -2.5273  -2.5074  -2.4721  -2.3787
    -2.3782  -2.2425  -2.2158  -2.1714  -2.1002  -2.0706  -2.0214  -2.0029
    -1.9896  -1.9689  -1.7778  -1.7603  -1.6861  -1.6273  -1.5761  -1.5552
    -1.5453  -1.3293  -0.9174  -0.6350  -0.6164  -0.5974  -0.4456  -0.4430
     1.1473   1.2041   1.2184   1.3208   1.3246   1.3371   1.3936   1.4532
     1.4836   1.5634   1.7070

     the Fermi energy is     1.0775 ev

!    total energy              =   -3272.09275042 Ry
     estimated scf accuracy    <       0.00000006 Ry
     smearing contrib. (-TS)   =      -0.03207413 Ry
     internal energy E=F+TS    =   -3272.06067629 Ry

     The total energy is F=E-TS. E is the sum of the following terms:
     one-electron contribution =  -34296.30578699 Ry
     hartree contribution      =   17208.13829940 Ry
     xc contribution           =    -536.10864216 Ry
     ewald contribution        =   14352.21346691 Ry
     electric field correction =       0.00198654 Ry

     convergence has been achieved in  64 iterations

     Forces acting on atoms (cartesian axes, Ry/au):

     atom    1 type  1   force =     0.00003272    0.00589451    0.05805188
     atom    2 type  1   force =    -0.00001493    0.00195123   -0.00321100
     atom    3 type  1   force =     0.00000131   -0.00331613   -0.00033283
     atom    4 type  1   force =     0.00005315   -0.00049473    0.10638147
     atom    5 type  1   force =    -0.00002198   -0.00000412    0.00970466
     atom    6 type  1   force =     0.00000811   -0.00104236    0.00077632
     atom    7 type  1   force =     0.06847927   -0.00032302   -0.02939868
     atom    8 type  1   force =     0.00472743   -0.02819022    0.00238428
     atom    9 type  1   force =     0.01006044   -0.02078656    0.00043634
     atom   10 type  2   force =    -0.00006660   -0.00346166   -0.18016949
     atom   11 type  2   force =     0.00008431    0.01996118   -0.00724825
     atom   12 type  2   force =    -0.00001309    0.02103872   -0.00317796
     atom   13 type  1   force =    -0.06857548   -0.00077472   -0.02937507
     atom   14 type  1   force =    -0.00464666   -0.02829921    0.00239382
     atom   15 type  1   force =    -0.01001866   -0.02076213    0.00046906
     atom   16 type  2   force =     0.00013506   -0.00169257    0.06500882
     atom   17 type  2   force =    -0.00016421    0.03517903    0.00381222
     atom   18 type  2   force =    -0.00006039    0.00992751   -0.00303698
     atom   19 type  1   force =     0.00001437    0.00479613    0.06364606
     atom   20 type  1   force =    -0.00000958    0.00174077   -0.00594365
     atom   21 type  1   force =     0.00005530    0.00136339    0.10696144
     atom   22 type  1   force =    -0.00001740   -0.00018204    0.00916110
     atom   23 type  1   force =     0.00001336   -0.00450764    0.00167976
     atom   24 type  1   force =     0.06775731   -0.00034056   -0.02931626
     atom   25 type  1   force =     0.00462015   -0.02914378    0.00294937
     atom   26 type  1   force =     0.00811253    0.00323935   -0.00409944
     atom   27 type  2   force =    -0.00008483   -0.00409981   -0.18528743
     atom   28 type  2   force =     0.00008905    0.02022728   -0.00748587
     atom   29 type  2   force =    -0.00002785   -0.00029820    0.01349426
     atom   30 type  1   force =    -0.06784898   -0.00079827   -0.02929376
     atom   31 type  1   force =    -0.00455846   -0.02922457    0.00296862
     atom   32 type  1   force =    -0.00807173    0.00322927   -0.00403926
     atom   33 type  2   force =     0.00011401   -0.00147430    0.06547865
     atom   34 type  2   force =    -0.00015056    0.03610221    0.00380943
     atom   35 type  2   force =    -0.00002425   -0.00241501    0.00353038
     atom   36 type  1   force =     0.00003804    0.00368383    0.05586835
     atom   37 type  1   force =    -0.00001809   -0.00001434   -0.00175192
     atom   38 type  1   force =     0.00000219   -0.00319020   -0.00056121
     atom   39 type  1   force =     0.00005325   -0.00022540    0.10719016
     atom   40 type  1   force =    -0.00002278    0.00004262    0.00942051
     atom   41 type  1   force =     0.00000892    0.00223603    0.00077810
     atom   42 type  1   force =     0.06797418   -0.00084811   -0.02925691
     atom   43 type  1   force =     0.00401905   -0.02908734    0.00272136
     atom   44 type  1   force =     0.01154740   -0.01067654    0.00418522
     atom   45 type  2   force =    -0.00008946    0.00395998   -0.18331670
     atom   46 type  2   force =     0.00007208    0.02028345   -0.00792787
     atom   47 type  2   force =     0.00000034    0.00997817   -0.01342757
     atom   48 type  1   force =    -0.06807196   -0.00129462   -0.02923816
     atom   49 type  1   force =    -0.00392196   -0.02917811    0.00272491
     atom   50 type  1   force =    -0.01154149   -0.01067980    0.00419454
     atom   51 type  2   force =     0.00011477   -0.00123618    0.06591354
     atom   52 type  2   force =    -0.00014889    0.03607941    0.00357834
     atom   53 type  2   force =    -0.00000322    0.02502539    0.00682467
     atom   54 type  3   force =    -0.01049836    0.00534748    0.00340010
     atom   55 type  4   force =     0.00004820    0.00009117    0.00003274
     atom   56 type  4   force =     0.01106639   -0.00469539   -0.00380035
     atom   57 type  4   force =    -0.00061087    0.00137955    0.00076616

     Total force =     0.453633     Total SCF correction =     0.000482
  @ DRIVER MODE: Message from server: STATUS
  @ DRIVER MODE: Message from server: GETFORCE
  @ DRIVER MODE: Returning v,forces,stress,ensemble

     Writing output data file ./calc.save/
  @ DRIVER MODE: Message from server: EXIT
  @ DRIVE MODE: Exiting

     General routines

     Parallel routines

   This run was terminated on:  18:31:59  18Oct2021

   JOB DONE.