     Program PWSCF v.6.7GPU starts on 22Sep2021 at 23: 6:58

     R & G space division:  proc/nbgrp/npool/nimage =      10
     Reading input from /storage/home/hcoda1/3/ntian30/research/carbon/CxH_vib/H2O_calc/ads_slab/CHNHNH2H2O_b/out_0020/pw.inp
Warning: card &CELL ignored
Warning: card   CELL_DYNAMICS='IPI', ignored
Warning: card / ignored

     Current dimensions of program PWSCF are:
     Max number of different atomic species (ntypx) = 10
     Max number of k-points (npk) =  40000
     Max angular momentum in pseudopotentials (lmaxx) =  3
     Presently no symmetry can be used with electric field

     Message from routine cell_base_init:
     DEPRECATED: use true lattice parameter, not A to a.u. conversion factor

     IMPORTANT: XC functional enforced from input :
     Exchange-correlation= BEEF-VDW
                           (   1   4  43  14   2   0   0)
     Any further DFT definition will be discarded
     Please, verify this is what you really want

  @ DRIVER MODE: Connecting to
 qe_1139763_2937312.sched-torque.pace.gatech.eduzz9kw_va_scratch
  using UNIX socket
  @ DRIVER MODE: Message from server: STATUS
  @ DRIVER MODE: Message from server: INIT
  @ DRIVER MODE: Receiving replica           0          -1
  @ DRIVER MODE: Receiving encoded integer          25
  @ DRIVER MODE:  SCF:  T  FORCE:  T  STRESS:  F  VC:  F  ENSEMBLE:  F
  @ DRIVER MODE:  SCF:  T  FORCE:  T  STRESS:  F  VC:  F  ENSEMBLE:  F

     Using Slab Decomposition

     bravais-lattice index     =            0
     lattice parameter (alat)  =       1.8897  a.u.
     unit-cell volume          =    6658.9804 (a.u.)^3
     number of atoms/cell      =           57
     number of atomic types    =            5
     number of electrons       =       404.00
     number of Kohn-Sham states=          212
     kinetic-energy cutoff     =      29.3995  Ry
     charge density cutoff     =     293.9946  Ry
     scf convergence threshold =      7.3E-08
     mixing beta               =       0.0500
     number of iterations used =            8  plain     mixing
     Exchange-correlation= BEEF-VDW
                           (   1   4  43  14   2   0   0)

     celldm(1)=   1.889726  celldm(2)=   0.000000  celldm(3)=   0.000000
     celldm(4)=   0.000000  celldm(5)=   0.000000  celldm(6)=   0.000000

     crystal axes: (cart. coord. in units of alat)
               a(1) = (   6.579727   0.000000   0.000000 )
               a(2) = (  -0.000775   5.961596   0.000000 )
               a(3) = (   0.000000   0.000000  25.155947 )

     reciprocal axes: (cart. coord. in units 2 pi/alat)
               b(1) = (  0.151982  0.000020  0.000000 )
               b(2) = (  0.000000  0.167740  0.000000 )
               b(3) = (  0.000000  0.000000  0.039752 )

     PseudoPot. # 1 for Ti read from file:
     /storage/coda1/p-amedford6/0/shared/rich_project_chbe-medford/medford-share/data/pseudos_module/espresso/nninc/pbe/van/Ti.UPF
     MD5 check sum: 8e4df49b7f0d34bbd5052bf3f5ea0213
     Pseudo is Ultrasoft, Zval = 12.0
     Generated by new atomic code, or converted to UPF format
     Using radial grid of  851 points,  6 beta functions with:
                l(1) =   0
                l(2) =   0
                l(3) =   1
                l(4) =   1
                l(5) =   2
                l(6) =   2
     Q(r) pseudized with  8 coefficients,  rinner =    1.000   1.000   1.000
                                                       1.000   1.000

     PseudoPot. # 2 for O  read from file:
     /storage/coda1/p-amedford6/0/shared/rich_project_chbe-medford/medford-share/data/pseudos_module/espresso/nninc/pbe/van/O.UPF
     MD5 check sum: 78c19812648e8988a0fe644b0f25305e
     Pseudo is Ultrasoft, Zval =  6.0
     Generated by new atomic code, or converted to UPF format
     Using radial grid of  737 points,  4 beta functions with:
                l(1) =   0
                l(2) =   0
                l(3) =   1
                l(4) =   1
     Q(r) pseudized with  8 coefficients,  rinner =    0.800   0.800   0.800

     PseudoPot. # 3 for N  read from file:
     /storage/coda1/p-amedford6/0/shared/rich_project_chbe-medford/medford-share/data/pseudos_module/espresso/nninc/pbe/van/N.UPF
     MD5 check sum: 90d10febe142ad51ac9d5be1deb811c4
     Pseudo is Ultrasoft, Zval =  5.0
     Generated by new atomic code, or converted to UPF format
     Using radial grid of  729 points,  4 beta functions with:
                l(1) =   0
                l(2) =   0
                l(3) =   1
                l(4) =   1
     Q(r) pseudized with  8 coefficients,  rinner =    0.800   0.800   0.800

     PseudoPot. # 4 for C  read from file:
     /storage/coda1/p-amedford6/0/shared/rich_project_chbe-medford/medford-share/data/pseudos_module/espresso/nninc/pbe/van/C.UPF
     MD5 check sum: 1a69bf6b8db32088f5b2163dbdb77a27
     Pseudo is Ultrasoft, Zval =  4.0
     Generated by new atomic code, or converted to UPF format
     Using radial grid of  721 points,  4 beta functions with:
                l(1) =   0
                l(2) =   0
                l(3) =   1
                l(4) =   1
     Q(r) pseudized with  8 coefficients,  rinner =    0.800   0.800   0.800

     PseudoPot. # 5 for H  read from file:
     /storage/coda1/p-amedford6/0/shared/rich_project_chbe-medford/medford-share/data/pseudos_module/espresso/nninc/pbe/van/H.UPF
     MD5 check sum: b5ee9d7bfd3a09ee7748110bda690ff7
     Pseudo is Ultrasoft, Zval =  1.0
     Generated by new atomic code, or converted to UPF format
     Using radial grid of  615 points,  1 beta functions with:
                l(1) =   0
     Q(r) pseudized with  8 coefficients,  rinner =    0.800

     atomic species   valence    mass     pseudopotential
        Ti1           12.00    47.86700     Ti( 1.00)
        O1             6.00    15.99900     O ( 1.00)
        N1             5.00    14.00700     N ( 1.00)
        C1             4.00    12.01100     C ( 1.00)
        H1             1.00     1.00800     H ( 1.00)

     No symmetry found

   Cartesian axes

     site n.     atom                  positions (alat units)
         1           Ti1 tau(   1) = (   0.0004258   2.9801865   6.0000000  )
         2           Ti1 tau(   2) = (   3.2906075   1.4906267   6.0002472  )
         3           O1  tau(   3) = (   0.0006271   0.0005054   7.9858123  )
         4           O1  tau(   4) = (   3.2906025   0.0005020   7.3038282  )
         5           O1  tau(   5) = (   4.5942328   1.4918067   9.2879030  )
         6           O1  tau(   6) = (   1.9868534   1.4903216   9.2879459  )
         7           Ti1 tau(   7) = (   3.2907910   2.8959150   9.1758416  )
         8           Ti1 tau(   8) = (   0.0015273   1.4827037   9.2680791  )
         9           O1  tau(   9) = (   3.3066417   5.9496923  11.3845403  )
        10           O1  tau(  10) = (   0.0116148   5.9584955  10.6183126  )
        11           O1  tau(  11) = (   1.3010148   1.4986442  12.6442229  )
        12           O1  tau(  12) = (   5.3085967   1.5001388  12.6592367  )
        13           Ti1 tau(  13) = (   0.0282779   2.9853959  12.5065338  )
        14           Ti1 tau(  14) = (   3.3279724   1.4707331  12.5413945  )
        15           O1  tau(  15) = (   0.0378505   0.0859181  14.6860672  )
        16           O1  tau(  16) = (   3.3018867   0.0259462  14.0338077  )
        17           O1  tau(  17) = (   4.5998927   1.5484098  16.1661054  )
        18           O1  tau(  18) = (   2.0454451   1.5021798  16.2221046  )
        19           Ti1 tau(  19) = (   3.3206312   2.9825829  15.7321521  )
        20           Ti1 tau(  20) = (   0.0140791   1.4435866  15.9983415  )
        21           O1  tau(  21) = (   3.2904802   0.0005063   4.7018136  )
        22           O1  tau(  22) = (   6.5273045   5.8164216  17.2577718  )
        23           O1  tau(  23) = (   1.3043587   1.4918075   6.0039043  )
        24           O1  tau(  24) = (   5.2767064   1.4903225   6.0039473  )
        25           Ti1 tau(  25) = (   0.0000382   5.9609847   6.0000000  )
        26           Ti1 tau(  26) = (   3.2902200   4.4714249   6.0002472  )
        27           O1  tau(  27) = (   0.0002396   2.9813036   7.9858123  )
        28           O1  tau(  28) = (   3.2902150   2.9813002   7.3038282  )
        29           O1  tau(  29) = (   4.5938453   4.4726049   9.2879030  )
        30           O1  tau(  30) = (   1.9864658   4.4711199   9.2879459  )
        31           Ti1 tau(  31) = (   3.2891106   5.8743827   9.1763621  )
        32           Ti1 tau(  32) = (   0.0006254   4.4649316   9.2693709  )
        33           O1  tau(  33) = (   3.3068470   2.9864458  11.3814114  )
        34           O1  tau(  34) = (   0.0092240   2.9805883  10.6323155  )
        35           O1  tau(  35) = (   1.2982948   4.4740332  12.6840172  )
        36           O1  tau(  36) = (   5.3097620   4.4704985  12.6972095  )
        37           Ti1 tau(  37) = (   0.0348817   0.0130325  12.4954113  )
        38           Ti1 tau(  38) = (   3.3270268   4.4633798  12.5435021  )
        39           O1  tau(  39) = (   0.0563025   2.9439880  14.9425960  )
        40           O1  tau(  40) = (   3.2900316   2.9661073  13.9503945  )
        41           O1  tau(  41) = (   4.5967999   4.4093095  16.0633277  )
        42           O1  tau(  42) = (   2.0412097   4.4536800  16.1303113  )
        43           Ti1 tau(  43) = (   3.2964201   5.9600488  15.8742613  )
        44           Ti1 tau(  44) = (   0.0241369   4.6516137  15.8518307  )
        45           O1  tau(  45) = (   3.2900926   2.9813045   4.7018136  )
        46           O1  tau(  46) = (   1.3039711   4.4726057   6.0039043  )
        47           O1  tau(  47) = (   5.2763189   4.4711207   6.0039473  )
        48           N1  tau(  48) = (   1.4509408   2.7109095  18.7602185  )
        49           N1  tau(  49) = (   0.0917387   2.5303350  18.2207845  )
        50           C1  tau(  50) = (   1.9503960   3.7723240  19.2784661  )
        51           H1  tau(  51) = (   1.1712915   4.5273475  19.4152495  )
        52           H1  tau(  52) = (   2.0208952   1.9183395  18.4664618  )
        53           H1  tau(  53) = (   6.1377449   3.3539424  18.4987646  )
        54           H1  tau(  54) = (   6.2616785   1.7135167  18.6767212  )
        55           O1  tau(  55) = (   3.7012217   5.9496235  18.2853534  )
        56           H1  tau(  56) = (   4.6684668   5.8470116  18.1670174  )
        57           H1  tau(  57) = (   3.3852657   5.1278045  18.7338684  )

     number of k points=    10  Fermi-Dirac smearing, width (Ry)=  0.0073
                       cart. coord. in units 2pi/alat
        k(    1) = (   0.0000000   0.0000000   0.0000000), wk =   0.1250000
        k(    2) = (   0.0000000   0.0419351   0.0000000), wk =   0.2500000
        k(    3) = (   0.0000000  -0.0838702   0.0000000), wk =   0.1250000
        k(    4) = (   0.0379955   0.0000049   0.0000000), wk =   0.2500000
        k(    5) = (   0.0379955   0.0419400   0.0000000), wk =   0.2500000
        k(    6) = (   0.0379955  -0.0838652   0.0000000), wk =   0.2500000
        k(    7) = (   0.0379955  -0.0419301   0.0000000), wk =   0.2500000
        k(    8) = (  -0.0759910  -0.0000099   0.0000000), wk =   0.1250000
        k(    9) = (  -0.0759910   0.0419252   0.0000000), wk =   0.2500000
        k(   10) = (  -0.0759910  -0.0838800   0.0000000), wk =   0.1250000

     Initial potential from superposition of free atoms

     starting charge  387.99913, renormalised to  404.00000

     negative rho (up, down):  1.598E-02 0.000E+00

     %%%%%%%%%%%%%%%%%%%%%%%%%%%%%%%%%%%%%%%%%%%%%%%%%%%%%%%%%%%%%%%%%%%%%%%%
     %                                                                      %
     % You are using vdW-DF, which was implemented by the Thonhauser group. %
     % Please cite the following two papers that made this development      %
     % possible and the two reviews that describe the various versions:     %
     %                                                                      %
     %   T. Thonhauser et al., PRL 115, 136402 (2015).                      %
     %   T. Thonhauser et al., PRB 76, 125112 (2007).                       %
     %   K. Berland et al., Rep. Prog. Phys. 78, 066501 (2015).             %
     %   D.C. Langreth et al., J. Phys.: Condens. Matter 21, 084203 (2009). %
     %                                                                      %
     %                                                                      %
     % If you are calculating the stress with vdW-DF, please also cite:     %
     %                                                                      %
     %   R. Sabatini et al., J. Phys.: Condens. Matter 24, 424209 (2012).   %
     %                                                                      %
     %%%%%%%%%%%%%%%%%%%%%%%%%%%%%%%%%%%%%%%%%%%%%%%%%%%%%%%%%%%%%%%%%%%%%%%%

     Adding external electric field

     Computed dipole along edir(3) :
        Dipole              -14.3585 Ry au,        -36.4957 Debye
        Dipole field         -0.0271 Ry au,

        Potential amp.        2.5118 Ry
        Total length         46.3494 bohr

     Starting wfcs are  306 atomic wfcs
  @ DRIVER MODE: Message from server: STATUS
  @ DRIVER MODE: Message from server: POSDATA
  @ DRIVER MODE: Reading and sharing cell
  @ DRIVER MODE: Reading and sharing positions
  @ DRIVER MODE: Received positions

     Self-consistent Calculation

     iteration #  1     ecut=    29.40 Ry     beta= 0.05
     Davidson diagonalization with overlap
     c_bands:  3 eigenvalues not converged
     c_bands:  4 eigenvalues not converged
     c_bands:  4 eigenvalues not converged
     c_bands:  4 eigenvalues not converged
     c_bands:  5 eigenvalues not converged
     c_bands:  3 eigenvalues not converged
     c_bands:  2 eigenvalues not converged
     c_bands:  4 eigenvalues not converged
     ethr =  1.00E-05,  avg # of iterations = 21.9

[...]

     total energy              =   -2220.92462162 Ry
     estimated scf accuracy    <    8587.37539622 Ry

     iteration #  2     ecut=    29.40 Ry     beta= 0.05
     Davidson diagonalization with overlap
     ethr =  1.00E-02,  avg # of iterations = 27.9

[...]

     iteration # 73     ecut=    29.40 Ry     beta= 0.05
     Davidson diagonalization with overlap
     ethr =  3.36E-11,  avg # of iterations =  2.6

[...]

     total energy              =   -2975.10523694 Ry
     estimated scf accuracy    <       0.00000008 Ry

     iteration # 74     ecut=    29.40 Ry     beta= 0.05
     Davidson diagonalization with overlap
     c_bands:  1 eigenvalues not converged
     ethr =  1.99E-11,  avg # of iterations = 13.6

     negative rho (up, down):  1.579E-02 0.000E+00

     Adding external electric field

     Computed dipole along edir(3) :
        Dipole                1.0248 Ry au,          2.6048 Debye
        Dipole field          0.0019 Ry au,

        Potential amp.       -0.1793 Ry
        Total length         46.3494 bohr

     End of self-consistent calculation

          k = 0.0000 0.0000 0.0000 ( 18029 PWs)   bands (ev):

   -55.3845 -55.3487 -55.3447 -55.3106 -55.3074 -55.3017 -55.2664 -55.2311
   -55.2162 -55.1813 -55.1745 -55.1593 -55.1407 -55.1117 -54.3760 -54.3419
   -31.9435 -31.8796 -31.8374 -31.7561 -31.7074 -31.7047 -31.6804 -31.6775
   -31.6334 -31.5976 -31.5906 -31.5892 -31.5822 -31.5788 -31.5607 -31.5585
   -31.5338 -31.5258 -31.5229 -31.5116 -31.4973 -31.4907 -31.4720 -31.4671
   -31.4588 -31.4458 -31.4450 -31.4163 -31.4020 -31.3981 -31.3950 -31.3729
   -31.3690 -31.3649 -31.3614 -31.3402 -31.3292 -31.3172 -31.3023 -31.3022
   -31.2920 -31.2855 -30.7854 -30.6909 -30.6688 -30.6018 -30.5150 -30.4041
   -18.8782 -18.4559 -16.2193 -15.9720 -15.8359 -15.7314 -15.5941 -15.4960
   -15.3868 -15.2735 -15.2504 -15.1566 -15.0824 -15.0784 -15.0412 -15.0155
   -14.9530 -14.9315 -14.9078 -14.9018 -14.8872 -14.8771 -14.8405 -14.8296
   -14.7965 -14.7857 -14.7684 -14.6471 -14.6257 -14.5511 -14.4805 -14.3435
   -12.8783 -12.7608  -9.8427  -6.9969  -6.3817  -6.0910  -4.4627  -3.7325
    -3.5430  -3.4095  -3.3312  -3.3021  -3.2848  -3.1533  -3.0606  -2.9014
    -2.8626  -2.8062  -2.6729  -2.5971  -2.5907  -2.5027  -2.4303  -2.4069
    -2.3740  -2.2649  -2.2585  -2.2088  -2.1913  -2.1682  -2.1590  -2.1123
    -2.0664  -2.0392  -1.9540  -1.8526  -1.8088  -1.7890  -1.7526  -1.7300
    -1.7253  -1.6816  -1.6754  -1.6517  -1.6129  -1.5886  -1.5431  -1.4311
    -1.3899  -1.2310  -1.1936  -1.0393  -1.0189  -0.9796  -0.9592  -0.9224
    -0.8928  -0.8764  -0.8608  -0.7714  -0.7131  -0.6470  -0.5829  -0.4922
    -0.4816  -0.4077  -0.3819  -0.3168  -0.2293  -0.1846  -0.1750  -0.1502
    -0.1468  -0.0331   0.0118   0.0720   0.0906   0.1481   0.1640   0.1861
     0.2561   0.3096   0.3791   0.4099   0.4889   0.5072   0.5423   0.5514
     0.5837   0.5943   0.6705   0.6853   0.7135   0.8162   0.9137   1.0074
     1.2174   1.2192   1.2620   1.5517   1.5538   1.6471   1.8304   2.2235
     2.2719   3.7053   3.7838   3.8333   3.8508   3.8553   3.9402   4.1949
     4.2091   4.2218   4.2281   4.2691

[...]

          k = 0.0380-0.0419 0.0000 ( 17876 PWs)   bands (ev):

[...]

          k =-0.0760-0.0000 0.0000 ( 17886 PWs)   bands (ev):

[...]

          k =-0.0760-0.0839 0.0000 ( 17948 PWs)   bands (ev):

   -55.3677 -55.3653 -55.3276 -55.3275 -55.3045 -55.3008 -55.2527 -55.2448
   -55.2018 -55.1952 -55.1611 -55.1585 -55.1568 -55.1134 -54.3589 -54.3588
   -31.7942 -31.7559 -31.7418 -31.6526 -31.6524 -31.6379 -31.6260 -31.6187
   -31.6186 -31.5977 -31.5928 -31.5895 -31.5667 -31.5589 -31.5470 -31.5331
   -31.5299 -31.5273 -31.5233 -31.5153 -31.5107 -31.5086 -31.5076 -31.4998
   -31.4679 -31.4665 -31.4474 -31.4473 -31.4468 -31.4420 -31.4391 -31.4347
   -31.4253 -31.4139 -31.4082 -31.3914 -31.3896 -31.3798 -31.3385 -31.3374
   -31.3369 -31.3181 -30.6815 -30.6815 -30.5980 -30.5978 -30.5584 -30.5584
   -18.8724 -18.4583 -15.8389 -15.6522 -15.5008 -15.4290 -15.4087 -15.3255
   -15.2701 -15.2669 -15.1938 -15.1758 -15.1633 -15.1418 -15.1320 -15.0847
   -15.0476 -15.0109 -14.9922 -14.9695 -14.9264 -14.9037 -14.9020 -14.8953
   -14.8875 -14.8472 -14.8420 -14.8387 -14.7470 -14.7451 -14.7064 -14.5586
   -12.8623 -12.8622  -9.8522  -6.9857  -6.3561  -6.0675  -4.4756  -3.6605
    -3.0233  -2.9103  -2.8998  -2.6709  -2.6524  -2.5914  -2.5789  -2.4909
    -2.4752  -2.4146  -2.3910  -2.3410  -2.3180  -2.2801  -2.2663  -2.2446
    -2.2235  -2.2098  -2.1833  -2.1671  -2.1504  -2.1306  -2.1195  -2.1081
    -2.0529  -2.0475  -2.0384  -2.0130  -1.9900  -1.9539  -1.9440  -1.9277
    -1.7722  -1.7565  -1.7351  -1.5996  -1.5953  -1.5612  -1.5211  -1.4935
    -1.4357  -1.4270  -1.3988  -1.3402  -1.1462  -1.1358  -1.1237  -1.1059
    -1.0349  -0.9792  -0.9653  -0.9474  -0.8937  -0.8156  -0.7814  -0.7292
    -0.6401  -0.5882  -0.5788  -0.5529  -0.4317  -0.4088  -0.3663  -0.3482
    -0.3320  -0.2976  -0.2960  -0.2386  -0.1860  -0.1504  -0.1275  -0.1132
    -0.0763   0.0786   0.1305   0.1469   0.2611   0.2905   0.4686   0.5113
     0.5331   0.6381   0.7215   0.7496   0.7639   0.8898   0.9117   0.9139
     0.9822   1.0045   1.0645   1.0703   1.2193   2.0031   2.0044   2.0917
     2.0920   3.8305   3.9532   3.9975   4.0333   4.1093   4.1620   4.2190
     4.2782   4.2899   4.2934   4.3605

     the Fermi energy is     3.7674 ev

!    total energy              =   -2975.10525236 Ry
     estimated scf accuracy    <       0.00000004 Ry
     smearing contrib. (-TS)   =      -0.03672064 Ry
     internal energy E=F+TS    =   -2975.06853172 Ry

     The total energy is F=E-TS. E is the sum of the following terms:
     one-electron contribution =  -23505.49592307 Ry
     hartree contribution      =   11848.77594925 Ry
     xc contribution           =    -494.92267910 Ry
     ewald contribution        =    9176.57213929 Ry
     electric field correction =       0.00198190 Ry

     convergence has been achieved in  74 iterations

     Forces acting on atoms (cartesian axes, Ry/au):

     atom    1 type  1   force =     0.00002837   -0.00024891    0.09308844
     atom    2 type  1   force =    -0.00019083   -0.00032240   -0.17839637
     atom    3 type  2   force =     0.00006054   -0.00017271   -0.02024878
     atom    4 type  2   force =     0.00001699   -0.00203656    0.05924161
     atom    5 type  2   force =    -0.01032890   -0.00110151    0.00808711
     atom    6 type  2   force =     0.01217053   -0.00054509    0.00816571
     atom    7 type  1   force =     0.00015192    0.00328604   -0.01112155
     atom    8 type  1   force =    -0.00030292    0.00053661   -0.00561672
     atom    9 type  2   force =     0.00004033    0.00017644   -0.00015253
     atom   10 type  2   force =    -0.00146452   -0.00003672   -0.00172364
     atom   11 type  2   force =     0.00037156   -0.00003741   -0.00006273
     atom   12 type  2   force =    -0.00009140    0.00010397   -0.00009278
     atom   13 type  1   force =    -0.00009189   -0.00017235   -0.00023797
     atom   14 type  1   force =    -0.00021385   -0.00035796    0.00034783
     atom   15 type  2   force =     0.00006960   -0.00048465    0.00007227
     atom   16 type  2   force =     0.00021788    0.00009229    0.00026131
     atom   17 type  2   force =     0.00034760   -0.00018185    0.00017480
     atom   18 type  2   force =    -0.00005582   -0.00014307   -0.00011688
     atom   19 type  1   force =    -0.00026445   -0.00045509    0.00005339
     atom   20 type  1   force =     0.00011561    0.00031905    0.00058132
     atom   21 type  2   force =    -0.00000400   -0.00007407    0.10403133
     atom   22 type  2   force =    -0.00007319   -0.00007164   -0.00001024
     atom   23 type  2   force =    -0.07035708   -0.00016527   -0.02684736
     atom   24 type  2   force =     0.07022537    0.00028148   -0.02692359
     atom   25 type  1   force =     0.00002342   -0.00015894    0.09275325
     atom   26 type  1   force =    -0.00015908   -0.00039813   -0.17833947
     atom   27 type  2   force =     0.00011146   -0.00030727   -0.01918863
     atom   28 type  2   force =     0.00004659   -0.00163356    0.05839096
     atom   29 type  2   force =    -0.01027930   -0.00064061    0.00729169
     atom   30 type  2   force =     0.01201366   -0.00030789    0.00742674
     atom   31 type  1   force =     0.00007605    0.00515366   -0.01466509
     atom   32 type  1   force =    -0.00013784   -0.00052168   -0.00595716
     atom   33 type  2   force =     0.00012769   -0.00039328   -0.00023786
     atom   34 type  2   force =    -0.00078830    0.00260936   -0.00103917
     atom   35 type  2   force =    -0.00007655   -0.00011228   -0.00012786
     atom   36 type  2   force =     0.00024013    0.00000570   -0.00015373
     atom   37 type  1   force =    -0.00043987    0.00008365    0.00002860
     atom   38 type  1   force =    -0.00003019   -0.00024574   -0.00024030
     atom   39 type  2   force =    -0.00030346   -0.00020110   -0.00016861
     atom   40 type  2   force =    -0.00013640   -0.00005894   -0.00003800
     atom   41 type  2   force =    -0.00014484   -0.00014121    0.00036897
     atom   42 type  2   force =    -0.00007066   -0.00024473    0.00015568
     atom   43 type  1   force =     0.00002075   -0.00029962    0.00009763
     atom   44 type  1   force =    -0.00000960   -0.00005505    0.00018646
     atom   45 type  2   force =     0.00001004   -0.00011004    0.10399972
     atom   46 type  2   force =    -0.07037898   -0.00011295   -0.02686682
     atom   47 type  2   force =     0.07022357    0.00032172   -0.02692728
     atom   48 type  3   force =     0.00038253    0.00176973    0.00085286
     atom   49 type  3   force =    -0.00114822   -0.00063634    0.00009739
     atom   50 type  4   force =     0.00697654   -0.00470991   -0.00067568
     atom   51 type  5   force =    -0.00650683    0.00426356    0.00039360
     atom   52 type  5   force =    -0.00012484   -0.00098824   -0.00016538
     atom   53 type  5   force =    -0.00013087    0.00001103   -0.00002800
     atom   54 type  5   force =     0.00021747    0.00056365   -0.00006064
     atom   55 type  2   force =     0.00008060   -0.00008762    0.00058733
     atom   56 type  5   force =     0.00024670   -0.00037972   -0.00041879
     atom   57 type  5   force =    -0.00030882   -0.00022585    0.00011361

     Total force =     0.366400     Total SCF correction =     0.000337
  @ DRIVER MODE: Message from server: STATUS
  @ DRIVER MODE: Message from server: GETFORCE
  @ DRIVER MODE: Returning v,forces,stress,ensemble

     Writing output data file ./calc.save/
  @ DRIVER MODE: Message from server: EXIT
  @ DRIVE MODE: Exiting

     General routines

     Parallel routines

   This run was terminated on:  23:28:27  22Sep2021

   JOB DONE.