     Program PWSCF v.6.7GPU starts on 26Sep2021 at 13: 7: 9

     R & G space division:  proc/nbgrp/npool/nimage =       8
     Reading input from /storage/home/hcoda1/3/ntian30/research/carbon/CxH_vib/CH_calc/ads_slab/CHONHNH2_b/out_0004/pw.inp
Warning: card &CELL ignored
Warning: card   CELL_DYNAMICS='IPI', ignored
Warning: card / ignored

     Current dimensions of program PWSCF are:
     Max number of different atomic species (ntypx) = 10
     Max number of k-points (npk) =  40000
     Max angular momentum in pseudopotentials (lmaxx) =  3
     Presently no symmetry can be used with electric field

     Message from routine cell_base_init:
     DEPRECATED: use true lattice parameter, not A to a.u. conversion factor

     IMPORTANT: XC functional enforced from input :
     Exchange-correlation= BEEF-VDW
                           (   1   4  43  14   2   0   0)
     Any further DFT definition will be discarded
     Please, verify this is what you really want

  @ DRIVER MODE: Connecting to
 qe_1139763_2982672.sched-torque.pace.gatech.edu3l9oplp1_scratch
  using UNIX socket
  @ DRIVER MODE: Message from server: STATUS
  @ DRIVER MODE: Message from server: INIT
  @ DRIVER MODE: Receiving replica           0          -1
  @ DRIVER MODE: Receiving encoded integer          25
  @ DRIVER MODE:  SCF:  T  FORCE:  T  STRESS:  F  VC:  F  ENSEMBLE:  F
  @ DRIVER MODE:  SCF:  T  FORCE:  T  STRESS:  F  VC:  F  ENSEMBLE:  F

     Using Slab Decomposition

     bravais-lattice index     =            0
     lattice parameter (alat)  =       1.8897  a.u.
     unit-cell volume          =    6658.9804 (a.u.)^3
     number of atoms/cell      =           55
     number of atomic types    =            5
     number of electrons       =       402.00
     number of Kohn-Sham states=          211
     kinetic-energy cutoff     =      29.3995  Ry
     charge density cutoff     =     293.9946  Ry
     scf convergence threshold =      7.3E-08
     mixing beta               =       0.0500
     number of iterations used =            8  plain     mixing
     Exchange-correlation= BEEF-VDW
                           (   1   4  43  14   2   0   0)

     celldm(1)=   1.889726  celldm(2)=   0.000000  celldm(3)=   0.000000
     celldm(4)=   0.000000  celldm(5)=   0.000000  celldm(6)=   0.000000

     crystal axes: (cart. coord. in units of alat)
               a(1) = (   6.579727   0.000000   0.000000 )
               a(2) = (  -0.000775   5.961596   0.000000 )
               a(3) = (   0.000000   0.000000  25.155947 )

     reciprocal axes: (cart. coord. in units 2 pi/alat)
               b(1) = (  0.151982  0.000020  0.000000 )
               b(2) = (  0.000000  0.167740  0.000000 )
               b(3) = (  0.000000  0.000000  0.039752 )

     PseudoPot. # 1 for O  read from file:
     /storage/coda1/p-amedford6/0/shared/rich_project_chbe-medford/medford-share/data/pseudos_module/espresso/nninc/pbe/van/O.UPF
     MD5 check sum: 78c19812648e8988a0fe644b0f25305e
     Pseudo is Ultrasoft, Zval =  6.0
     Generated by new atomic code, or converted to UPF format
     Using radial grid of  737 points,  4 beta functions with:
                l(1) =   0
                l(2) =   0
                l(3) =   1
                l(4) =   1
     Q(r) pseudized with  8 coefficients,  rinner =    0.800   0.800   0.800

     PseudoPot. # 2 for Ti read from file:
     /storage/coda1/p-amedford6/0/shared/rich_project_chbe-medford/medford-share/data/pseudos_module/espresso/nninc/pbe/van/Ti.UPF
     MD5 check sum: 8e4df49b7f0d34bbd5052bf3f5ea0213
     Pseudo is Ultrasoft, Zval = 12.0
     Generated by new atomic code, or converted to UPF format
     Using radial grid of  851 points,  6 beta functions with:
                l(1) =   0
                l(2) =   0
                l(3) =   1
                l(4) =   1
                l(5) =   2
                l(6) =   2
     Q(r) pseudized with  8 coefficients,  rinner =    1.000   1.000   1.000
                                                       1.000   1.000

     PseudoPot. # 3 for N  read from file:
     /storage/coda1/p-amedford6/0/shared/rich_project_chbe-medford/medford-share/data/pseudos_module/espresso/nninc/pbe/van/N.UPF
     MD5 check sum: 90d10febe142ad51ac9d5be1deb811c4
     Pseudo is Ultrasoft, Zval =  5.0
     Generated by new atomic code, or converted to UPF format
     Using radial grid of  729 points,  4 beta functions with:
                l(1) =   0
                l(2) =   0
                l(3) =   1
                l(4) =   1
     Q(r) pseudized with  8 coefficients,  rinner =    0.800   0.800   0.800

     PseudoPot. # 4 for H  read from file:
     /storage/coda1/p-amedford6/0/shared/rich_project_chbe-medford/medford-share/data/pseudos_module/espresso/nninc/pbe/van/H.UPF
     MD5 check sum: b5ee9d7bfd3a09ee7748110bda690ff7
     Pseudo is Ultrasoft, Zval =  1.0
     Generated by new atomic code, or converted to UPF format
     Using radial grid of  615 points,  1 beta functions with:
                l(1) =   0
     Q(r) pseudized with  8 coefficients,  rinner =    0.800

     PseudoPot. # 5 for C  read from file:
     /storage/coda1/p-amedford6/0/shared/rich_project_chbe-medford/medford-share/data/pseudos_module/espresso/nninc/pbe/van/C.UPF
     MD5 check sum: 1a69bf6b8db32088f5b2163dbdb77a27
     Pseudo is Ultrasoft, Zval =  4.0
     Generated by new atomic code, or converted to UPF format
     Using radial grid of  721 points,  4 beta functions with:
                l(1) =   0
                l(2) =   0
                l(3) =   1
                l(4) =   1
     Q(r) pseudized with  8 coefficients,  rinner =    0.800   0.800   0.800

     atomic species   valence    mass     pseudopotential
        O1             6.00    15.99900     O ( 1.00)
        Ti1           12.00    47.86700     Ti( 1.00)
        N1             5.00    14.00700     N ( 1.00)
        H1             1.00     1.00800     H ( 1.00)
        C1             4.00    12.01100     C ( 1.00)

     No symmetry found

   Cartesian axes

     site n.     atom                  positions (alat units)
         1           O1  tau(   1) = (   3.2904802   0.0005063   4.7018136  )
         2           O1  tau(   2) = (   3.2900926   2.9813045   4.7018136  )
         3           Ti1 tau(   3) = (   0.0004258   2.9801865   6.0000000  )
         4           Ti1 tau(   4) = (   0.0000382   5.9609847   6.0000000  )
         5           Ti1 tau(   5) = (   3.2906075   1.4906267   6.0002472  )
         6           Ti1 tau(   6) = (   3.2902200   4.4714249   6.0002472  )
         7           O1  tau(   7) = (   1.3043587   1.4918075   6.0039043  )
         8           O1  tau(   8) = (   1.3039711   4.4726057   6.0039043  )
         9           O1  tau(   9) = (   5.2767064   1.4903225   6.0039473  )
        10           O1  tau(  10) = (   5.2763189   4.4711207   6.0039473  )
        11           O1  tau(  11) = (   3.2906025   0.0005020   7.3038282  )
        12           O1  tau(  12) = (   3.2902150   2.9813002   7.3038282  )
        13           O1  tau(  13) = (   0.0006271   0.0005054   7.9858123  )
        14           O1  tau(  14) = (   0.0002396   2.9813036   7.9858123  )
        15           Ti1 tau(  15) = (   3.2907910   2.8959150   9.1758416  )
        16           Ti1 tau(  16) = (   3.2891106   5.8743827   9.1763621  )
        17           Ti1 tau(  17) = (   0.0015273   1.4827037   9.2680791  )
        18           Ti1 tau(  18) = (   0.0006254   4.4649316   9.2693709  )
        19           O1  tau(  19) = (   4.5942328   1.4918067   9.2879030  )
        20           O1  tau(  20) = (   4.5938453   4.4726049   9.2879030  )
        21           O1  tau(  21) = (   1.9868534   1.4903216   9.2879459  )
        22           O1  tau(  22) = (   1.9864658   4.4711199   9.2879459  )
        23           O1  tau(  23) = (   0.0116148   5.9584955  10.6183126  )
        24           O1  tau(  24) = (   0.0092240   2.9805883  10.6323155  )
        25           O1  tau(  25) = (   3.2729272   2.9749101  11.3358637  )
        26           O1  tau(  26) = (   3.2774458   5.9577983  11.3358029  )
        27           Ti1 tau(  27) = (   6.5123228   0.0223980  12.5466522  )
        28           Ti1 tau(  28) = (   6.5139447   2.9993280  12.6164542  )
        29           Ti1 tau(  29) = (   3.1950650   4.4673527  12.4897579  )
        30           Ti1 tau(  30) = (   3.1950454   1.4921031  12.4944583  )
        31           O1  tau(  31) = (   5.2839716   4.4726476  12.6140382  )
        32           O1  tau(  32) = (   1.2968206   4.4781603  12.6268461  )
        33           O1  tau(  33) = (   5.2856119   1.4917077  12.6233973  )
        34           O1  tau(  34) = (   1.2888650   1.4770595  12.6372879  )
        35           O1  tau(  35) = (   3.2788258   2.9629383  13.9230881  )
        36           O1  tau(  36) = (   3.2980453   5.9500611  13.9147740  )
        37           O1  tau(  37) = (   6.5334376   5.9389224  14.6738689  )
        38           O1  tau(  38) = (   6.5776160   3.0156023  14.6540868  )
        39           Ti1 tau(  39) = (   3.2542760   2.9504115  15.7371360  )
        40           Ti1 tau(  40) = (   3.3062714   5.9309079  15.7116640  )
        41           Ti1 tau(  41) = (   6.5650095   1.2976281  16.1142359  )
        42           Ti1 tau(  42) = (   0.0079766   4.4268374  15.8391656  )
        43           O1  tau(  43) = (   2.0280489   1.4492115  16.0660627  )
        44           O1  tau(  44) = (   4.5116609   1.4624326  16.0993158  )
        45           O1  tau(  45) = (   2.0244938   4.4513709  16.0356871  )
        46           O1  tau(  46) = (   4.5113612   4.4342832  16.0730653  )
        47           O1  tau(  47) = (   6.5716746   5.9215154  17.2308814  )
        48           N1  tau(  48) = (   5.9800345   3.0084367  18.5879729  )
        49           H1  tau(  49) = (   4.9797160   2.8240766  18.4383897  )
        50           H1  tau(  50) = (   1.6245422   1.3425840  19.0439533  )
        51           H1  tau(  51) = (   6.0578502   3.9810051  18.8619266  )
        52           N1  tau(  52) = (   2.1403542   1.9713023  19.6616680  )
        53           C1  tau(  53) = (   2.8938676   2.8537551  19.2737185  )
        54           H1  tau(  54) = (   3.3792091   3.5764479  19.9483559  )
        55           O1  tau(  55) = (   6.5521836   2.9666373  17.2729174  )

     number of k points=    10  Fermi-Dirac smearing, width (Ry)=  0.0073
                       cart. coord. in units 2pi/alat
        k(    1) = (   0.0000000   0.0000000   0.0000000), wk =   0.1250000
        k(    2) = (   0.0000000   0.0419351   0.0000000), wk =   0.2500000
        k(    3) = (   0.0000000  -0.0838702   0.0000000), wk =   0.1250000
        k(    4) = (   0.0379955   0.0000049   0.0000000), wk =   0.2500000
        k(    5) = (   0.0379955   0.0419400   0.0000000), wk =   0.2500000
        k(    6) = (   0.0379955  -0.0838652   0.0000000), wk =   0.2500000
        k(    7) = (   0.0379955  -0.0419301   0.0000000), wk =   0.2500000
        k(    8) = (  -0.0759910  -0.0000099   0.0000000), wk =   0.1250000
        k(    9) = (  -0.0759910   0.0419252   0.0000000), wk =   0.2500000
        k(   10) = (  -0.0759910  -0.0838800   0.0000000), wk =   0.1250000

     Initial potential from superposition of free atoms

     starting charge  385.99915, renormalised to  402.00000

     negative rho (up, down):  1.542E-02 0.000E+00

     %%%%%%%%%%%%%%%%%%%%%%%%%%%%%%%%%%%%%%%%%%%%%%%%%%%%%%%%%%%%%%%%%%%%%%%%
     %                                                                      %
     % You are using vdW-DF, which was implemented by the Thonhauser group. %
     % Please cite the following two papers that made this development      %
     % possible and the two reviews that describe the various versions:     %
     %                                                                      %
     %   T. Thonhauser et al., PRL 115, 136402 (2015).                      %
     %   T. Thonhauser et al., PRB 76, 125112 (2007).                       %
     %   K. Berland et al., Rep. Prog. Phys. 78, 066501 (2015).             %
     %   D.C. Langreth et al., J. Phys.: Condens. Matter 21, 084203 (2009). %
     %                                                                      %
     %                                                                      %
     % If you are calculating the stress with vdW-DF, please also cite:     %
     %                                                                      %
     %   R. Sabatini et al., J. Phys.: Condens. Matter 24, 424209 (2012).   %
     %                                                                      %
     %%%%%%%%%%%%%%%%%%%%%%%%%%%%%%%%%%%%%%%%%%%%%%%%%%%%%%%%%%%%%%%%%%%%%%%%

     Adding external electric field

     Computed dipole along edir(3) :
        Dipole              -12.8629 Ry au,        -32.6941 Debye
        Dipole field         -0.0243 Ry au,

        Potential amp.        2.2502 Ry
        Total length         46.3494 bohr

     Starting wfcs are  304 atomic wfcs
  @ DRIVER MODE: Message from server: STATUS
  @ DRIVER MODE: Message from server: POSDATA
  @ DRIVER MODE: Reading and sharing cell
  @ DRIVER MODE: Reading and sharing positions
  @ DRIVER MODE: Received positions

     Self-consistent Calculation

     iteration #  1     ecut=    29.40 Ry     beta= 0.05
     Davidson diagonalization with overlap
     c_bands:  5 eigenvalues not converged
     c_bands:  2 eigenvalues not converged
     c_bands:  2 eigenvalues not converged
     c_bands:  5 eigenvalues not converged
     c_bands:  3 eigenvalues not converged
     c_bands:  3 eigenvalues not converged
     c_bands:  2 eigenvalues not converged
     c_bands:  3 eigenvalues not converged
     c_bands:  1 eigenvalues not converged
     ethr =  1.00E-05,  avg # of iterations = 21.5

[...]

     total energy              =   -2369.72687461 Ry
     estimated scf accuracy    <    6837.12525675 Ry

     iteration #  2     ecut=    29.40 Ry     beta= 0.05
     Davidson diagonalization with overlap
     ethr =  1.00E-02,  avg # of iterations = 23.4

[...]

     iteration # 54     ecut=    29.40 Ry     beta= 0.05
     Davidson diagonalization with overlap
     c_bands:  1 eigenvalues not converged
     ethr =  2.34E-07,  avg # of iterations = 12.6

[...]

     total energy              =   -2972.58408164 Ry
     estimated scf accuracy    <       0.00000009 Ry

     iteration # 76     ecut=    29.40 Ry     beta= 0.05
     Davidson diagonalization with overlap
     ethr =  2.27E-11,  avg # of iterations =  6.9

     negative rho (up, down):  1.520E-02 0.000E+00

     Adding external electric field

     Computed dipole along edir(3) :
        Dipole                0.4787 Ry au,          1.2168 Debye
        Dipole field          0.0009 Ry au,

        Potential amp.       -0.0837 Ry
        Total length         46.3494 bohr

     End of self-consistent calculation

          k = 0.0000 0.0000 0.0000 ( 18029 PWs)   bands (ev):

   -55.8911 -55.8711 -55.8570 -55.8331 -55.7517 -55.7317 -55.7165 -55.7024
   -55.6899 -55.6683 -55.6669 -55.6330 -55.5193 -55.3077 -54.8701 -54.8361
   -32.4164 -32.3738 -32.2500 -32.2014 -32.1915 -32.1838 -32.1675 -32.1572
   -32.1344 -32.1016 -32.0562 -32.0457 -32.0433 -32.0407 -32.0251 -32.0043
   -31.9959 -31.9957 -31.9844 -31.9716 -31.9609 -31.9496 -31.9482 -31.9058
   -31.8988 -31.8935 -31.8917 -31.8818 -31.8713 -31.8671 -31.8628 -31.8428
   -31.8333 -31.8200 -31.8092 -31.7991 -31.7790 -31.7566 -31.7250 -31.5773
   -31.5394 -31.5216 -31.2773 -31.1888 -31.1664 -31.0940 -31.0075 -30.8964
   -18.6546 -16.6121 -16.3617 -16.1194 -16.0385 -16.0036 -15.8840 -15.8518
   -15.7295 -15.6187 -15.5241 -15.4485 -15.4291 -15.4280 -15.3883 -15.3765
   -15.3505 -15.3357 -15.3264 -15.3097 -15.2851 -15.2491 -15.2336 -15.2267
   -15.1357 -15.0590 -15.0256 -14.9781 -14.9724 -14.9486 -14.5607 -13.3726
   -13.2562 -12.2538  -8.1487  -5.3431  -4.9741  -4.5145  -3.9862  -3.8475
    -3.7972  -3.7292  -3.6858  -3.5101  -3.4000  -3.1450  -3.0709  -3.0511
    -3.0280  -2.9810  -2.8768  -2.7995  -2.7026  -2.6968  -2.6945  -2.6612
    -2.6515  -2.6348  -2.5925  -2.5724  -2.5050  -2.4336  -2.3955  -2.2904
    -2.2818  -2.2494  -2.2040  -2.1946  -2.1506  -2.1293  -2.1145  -2.1086
    -2.0950  -2.0572  -2.0247  -1.9153  -1.8783  -1.7970  -1.6838  -1.6080
    -1.5000  -1.4845  -1.3652  -1.3569  -1.3320  -1.3180  -1.2838  -1.2341
    -1.1793  -1.0761  -1.0479  -1.0177  -1.0112  -0.9114  -0.8527  -0.8280
    -0.7626  -0.6894  -0.6631  -0.6504  -0.6401  -0.6075  -0.3905  -0.3483
    -0.3290  -0.2968  -0.2501  -0.1960  -0.1587  -0.1113  -0.0722  -0.0056
     0.0031   0.0551   0.0792   0.0926   0.1086   0.1195   0.1360   0.2332
     0.3232   0.3608   0.3821   0.4584   0.4636   0.6359   0.7026   0.7648
     0.8766   1.0782   1.1520   1.2370   1.3441   1.7232   1.7690   1.7756
     3.2377   3.2396   3.3308   3.3731   3.3818   3.4822   3.5344   3.6945
     3.7278   3.7602   3.7973

[...]

          k = 0.0380-0.0419 0.0000 ( 17876 PWs)   bands (ev):

[...]

          k =-0.0760-0.0000 0.0000 ( 17886 PWs)   bands (ev):

[...]

          k =-0.0760-0.0839 0.0000 ( 17948 PWs)   bands (ev):

   -55.8745 -55.8735 -55.8584 -55.8456 -55.7378 -55.7303 -55.7225 -55.6989
   -55.6863 -55.6839 -55.6526 -55.6475 -55.5179 -55.3089 -54.8531 -54.8530
   -32.2267 -32.2136 -32.1894 -32.1887 -32.1696 -32.1687 -32.1199 -32.1115
   -32.0941 -32.0849 -32.0467 -32.0378 -32.0178 -32.0100 -32.0063 -32.0049
   -31.9987 -31.9941 -31.9930 -31.9905 -31.9868 -31.9837 -31.9490 -31.9469
   -31.9408 -31.9244 -31.9174 -31.9083 -31.8866 -31.8854 -31.8830 -31.8821
   -31.8771 -31.8669 -31.8636 -31.8614 -31.8557 -31.7543 -31.7282 -31.6483
   -31.5687 -31.5290 -31.1792 -31.1790 -31.0901 -31.0899 -31.0508 -31.0507
   -18.6395 -16.0309 -16.0097 -15.8856 -15.8465 -15.8100 -15.7703 -15.7586
   -15.6823 -15.6019 -15.5815 -15.5768 -15.4947 -15.4764 -15.4631 -15.4279
   -15.4148 -15.4043 -15.3986 -15.3596 -15.3483 -15.3391 -15.3308 -15.3232
   -15.2460 -15.2103 -15.2055 -15.1902 -15.0799 -14.9543 -14.7372 -13.3580
   -13.3579 -12.2664  -8.1493  -5.3370  -4.9811  -4.4396  -3.3175  -3.2849
    -3.1043  -3.0205  -3.0050  -2.9872  -2.8769  -2.8004  -2.7944  -2.7583
    -2.7274  -2.7201  -2.7100  -2.7071  -2.6833  -2.6730  -2.6227  -2.6016
    -2.5880  -2.5626  -2.5500  -2.5476  -2.5170  -2.5035  -2.4657  -2.4449
    -2.4253  -2.4137  -2.3920  -2.3246  -2.2069  -2.1241  -2.0926  -2.0334
    -2.0230  -1.9921  -1.9585  -1.9445  -1.9209  -1.8888  -1.8592  -1.7462
    -1.6370  -1.5818  -1.5797  -1.5051  -1.4681  -1.4250  -1.3771  -1.3237
    -1.2904  -1.2790  -1.2297  -1.1691  -1.1494  -1.0754  -1.0324  -1.0020
    -0.9593  -0.9361  -0.8642  -0.8515  -0.8489  -0.8161  -0.7267  -0.7094
    -0.6532  -0.6465  -0.6196  -0.5637  -0.5451  -0.5138  -0.3904  -0.3674
    -0.2416  -0.1753  -0.0871   0.0620   0.0851   0.1793   0.2177   0.2453
     0.3031   0.4051   0.4227   0.4355   0.4542   0.4857   0.5154   0.6387
     0.6527   0.6874   0.8075   1.5157   1.5162   1.5884   1.5889   1.6232
     3.2244   3.5702   3.5768   3.5970   3.6243   3.7569   3.7588   3.7767
     3.7781   3.9228   3.9314

     the Fermi energy is     3.2414 ev

!    total energy              =   -2972.58409419 Ry
     estimated scf accuracy    <       0.00000005 Ry
     smearing contrib. (-TS)   =      -0.03079793 Ry
     internal energy E=F+TS    =   -2972.55329626 Ry

     The total energy is F=E-TS. E is the sum of the following terms:
     one-electron contribution =  -23745.01579126 Ry
     hartree contribution      =   11963.81098321 Ry
     xc contribution           =    -493.07750045 Ry
     ewald contribution        =    9301.72857975 Ry
     electric field correction =       0.00043250 Ry

     convergence has been achieved in  76 iterations

     Forces acting on atoms (cartesian axes, Ry/au):

     atom    1 type  1   force =     0.00004388   -0.00002654    0.10324093
     atom    2 type  1   force =     0.00004863   -0.00004334    0.10327530
     atom    3 type  2   force =     0.00007890   -0.00022727    0.09624345
     atom    4 type  2   force =    -0.00001406   -0.00029549    0.09603096
     atom    5 type  2   force =     0.00002888   -0.00064132   -0.17552629
     atom    6 type  2   force =    -0.00002195   -0.00024519   -0.17549545
     atom    7 type  1   force =    -0.07156264   -0.00013963   -0.02767228
     atom    8 type  1   force =    -0.07154625   -0.00012782   -0.02764659
     atom    9 type  1   force =     0.07140580    0.00028837   -0.02773917
     atom   10 type  1   force =     0.07139319    0.00031531   -0.02770451
     atom   11 type  1   force =    -0.00005572   -0.00144937    0.05285833
     atom   12 type  1   force =    -0.00002794   -0.00125702    0.05320350
     atom   13 type  1   force =     0.00000630   -0.00000273   -0.02442639
     atom   14 type  1   force =     0.00009965   -0.00022901   -0.02346141
     atom   15 type  2   force =     0.00002716    0.00048027   -0.01062015
     atom   16 type  2   force =     0.00015094    0.00349188   -0.00994888
     atom   17 type  2   force =     0.00069660    0.01062122    0.02596233
     atom   18 type  2   force =     0.00084197   -0.01140146    0.02627433
     atom   19 type  1   force =    -0.01196315   -0.00051747    0.00382734
     atom   20 type  1   force =    -0.01230634   -0.00009068    0.00373713
     atom   21 type  1   force =     0.01292375   -0.00008731    0.00216724
     atom   22 type  1   force =     0.01316883    0.00048041    0.00212323
     atom   23 type  1   force =    -0.00431696    0.00133599   -0.01321434
     atom   24 type  1   force =    -0.00236863    0.00054988   -0.02179739
     atom   25 type  1   force =     0.00023969   -0.00090436    0.00016386
     atom   26 type  1   force =     0.00001552    0.00044087    0.00080776
     atom   27 type  2   force =    -0.00042519    0.00041369   -0.00003181
     atom   28 type  2   force =    -0.00067552   -0.00051859   -0.00003044
     atom   29 type  2   force =     0.00098362    0.00002365   -0.00019696
     atom   30 type  2   force =     0.00036923   -0.00073810   -0.00018990
     atom   31 type  1   force =     0.00084400    0.00012214    0.00023978
     atom   32 type  1   force =    -0.00044786   -0.00001643    0.00012409
     atom   33 type  1   force =     0.00040929   -0.00036654   -0.00002182
     atom   34 type  1   force =     0.00127164   -0.00021580   -0.00000782
     atom   35 type  1   force =     0.00030597   -0.00029679    0.00012384
     atom   36 type  1   force =     0.00026883    0.00026353   -0.00043581
     atom   37 type  1   force =     0.00019814    0.00002878   -0.00064877
     atom   38 type  1   force =     0.00020406    0.00013067   -0.00011972
     atom   39 type  2   force =    -0.00079833    0.00026232   -0.00038021
     atom   40 type  2   force =    -0.00070939    0.00000216    0.00049885
     atom   41 type  2   force =     0.00015636   -0.00023070   -0.00031387
     atom   42 type  2   force =     0.00080238   -0.00015811    0.00015605
     atom   43 type  1   force =     0.00031100    0.00027390   -0.00034827
     atom   44 type  1   force =     0.00023962   -0.00001629   -0.00010090
     atom   45 type  1   force =     0.00041159    0.00022654    0.00001031
     atom   46 type  1   force =     0.00008712    0.00048936    0.00011113
     atom   47 type  1   force =     0.00009559    0.00003641   -0.00013339
     atom   48 type  3   force =    -0.00474888   -0.01814088   -0.00589251
     atom   49 type  4   force =     0.00390805    0.00215477    0.00154515
     atom   50 type  4   force =     0.00008353   -0.00033509   -0.00057716
     atom   51 type  4   force =     0.00062250    0.01517323    0.00192313
     atom   52 type  3   force =    -0.00100836   -0.00115725   -0.00004144
     atom   53 type  5   force =     0.00099531    0.00165730    0.00039249
     atom   54 type  4   force =    -0.00068882   -0.00102398   -0.00112228
     atom   55 type  1   force =    -0.00005153    0.00163791    0.00080540

     Total force =     0.368166     Total SCF correction =     0.000689
  @ DRIVER MODE: Message from server: STATUS
  @ DRIVER MODE: Message from server: GETFORCE
  @ DRIVER MODE: Returning v,forces,stress,ensemble

     Writing output data file ./calc.save/
  @ DRIVER MODE: Message from server: EXIT
  @ DRIVE MODE: Exiting

     General routines

     Parallel routines

   This run was terminated on:  13:32: 2  26Sep2021

   JOB DONE.