     Program PWSCF v.6.7GPU starts on 15Sep2021 at 22: 6:25

     R & G space division:  proc/nbgrp/npool/nimage =      10
     Reading input from /storage/home/hcoda1/3/ntian30/research/carbon/CxH_vib/H2O_calc/ads_slab/CH2N2HH2O_a/out_0020/pw.inp
Warning: card &CELL ignored
Warning: card   CELL_DYNAMICS='IPI', ignored
Warning: card / ignored

     Current dimensions of program PWSCF are:
     Max number of different atomic species (ntypx) = 10
     Max number of k-points (npk) =  40000
     Max angular momentum in pseudopotentials (lmaxx) =  3
     Presently no symmetry can be used with electric field

     Message from routine cell_base_init:
     DEPRECATED: use true lattice parameter, not A to a.u. conversion factor

     IMPORTANT: XC functional enforced from input :
     Exchange-correlation= BEEF-VDW
                           (   1   4  43  14   2   0   0)
     Any further DFT definition will be discarded
     Please, verify this is what you really want

  @ DRIVER MODE: Connecting to
 qe_1139763_2852606.sched-torque.pace.gatech.edu7a2q4nyc_scratch
  using UNIX socket
  @ DRIVER MODE: Message from server: STATUS
  @ DRIVER MODE: Message from server: INIT
  @ DRIVER MODE: Receiving replica           0          -1
  @ DRIVER MODE: Receiving encoded integer          25
  @ DRIVER MODE:  SCF:  T  FORCE:  T  STRESS:  F  VC:  F  ENSEMBLE:  F
  @ DRIVER MODE:  SCF:  T  FORCE:  T  STRESS:  F  VC:  F  ENSEMBLE:  F

     Using Slab Decomposition

     bravais-lattice index     =            0
     lattice parameter (alat)  =       1.8897  a.u.
     unit-cell volume          =    6658.9804 (a.u.)^3
     number of atoms/cell      =           56
     number of atomic types    =            5
     number of electrons       =       403.00
     number of Kohn-Sham states=          211
     kinetic-energy cutoff     =      29.3995  Ry
     charge density cutoff     =     293.9946  Ry
     scf convergence threshold =      7.3E-08
     mixing beta               =       0.0500
     number of iterations used =            8  plain     mixing
     Exchange-correlation= BEEF-VDW
                           (   1   4  43  14   2   0   0)

     celldm(1)=   1.889726  celldm(2)=   0.000000  celldm(3)=   0.000000
     celldm(4)=   0.000000  celldm(5)=   0.000000  celldm(6)=   0.000000

     crystal axes: (cart. coord. in units of alat)
               a(1) = (   6.579727   0.000000   0.000000 )
               a(2) = (  -0.000775   5.961596   0.000000 )
               a(3) = (   0.000000   0.000000  25.155947 )

     reciprocal axes: (cart. coord. in units 2 pi/alat)
               b(1) = (  0.151982  0.000020  0.000000 )
               b(2) = (  0.000000  0.167740  0.000000 )
               b(3) = (  0.000000  0.000000  0.039752 )

     PseudoPot. # 1 for Ti read from file:
     /storage/coda1/p-amedford6/0/shared/rich_project_chbe-medford/medford-share/data/pseudos_module/espresso/nninc/pbe/van/Ti.UPF
     MD5 check sum: 8e4df49b7f0d34bbd5052bf3f5ea0213
     Pseudo is Ultrasoft, Zval = 12.0
     Generated by new atomic code, or converted to UPF format
     Using radial grid of  851 points,  6 beta functions with:
                l(1) =   0
                l(2) =   0
                l(3) =   1
                l(4) =   1
                l(5) =   2
                l(6) =   2
     Q(r) pseudized with  8 coefficients,  rinner =    1.000   1.000   1.000
                                                       1.000   1.000

     PseudoPot. # 2 for O  read from file:
     /storage/coda1/p-amedford6/0/shared/rich_project_chbe-medford/medford-share/data/pseudos_module/espresso/nninc/pbe/van/O.UPF
     MD5 check sum: 78c19812648e8988a0fe644b0f25305e
     Pseudo is Ultrasoft, Zval =  6.0
     Generated by new atomic code, or converted to UPF format
     Using radial grid of  737 points,  4 beta functions with:
                l(1) =   0
                l(2) =   0
                l(3) =   1
                l(4) =   1
     Q(r) pseudized with  8 coefficients,  rinner =    0.800   0.800   0.800

     PseudoPot. # 3 for N  read from file:
     /storage/coda1/p-amedford6/0/shared/rich_project_chbe-medford/medford-share/data/pseudos_module/espresso/nninc/pbe/van/N.UPF
     MD5 check sum: 90d10febe142ad51ac9d5be1deb811c4
     Pseudo is Ultrasoft, Zval =  5.0
     Generated by new atomic code, or converted to UPF format
     Using radial grid of  729 points,  4 beta functions with:
                l(1) =   0
                l(2) =   0
                l(3) =   1
                l(4) =   1
     Q(r) pseudized with  8 coefficients,  rinner =    0.800   0.800   0.800

     PseudoPot. # 4 for C  read from file:
     /storage/coda1/p-amedford6/0/shared/rich_project_chbe-medford/medford-share/data/pseudos_module/espresso/nninc/pbe/van/C.UPF
     MD5 check sum: 1a69bf6b8db32088f5b2163dbdb77a27
     Pseudo is Ultrasoft, Zval =  4.0
     Generated by new atomic code, or converted to UPF format
     Using radial grid of  721 points,  4 beta functions with:
                l(1) =   0
                l(2) =   0
                l(3) =   1
                l(4) =   1
     Q(r) pseudized with  8 coefficients,  rinner =    0.800   0.800   0.800

     PseudoPot. # 5 for H  read from file:
     /storage/coda1/p-amedford6/0/shared/rich_project_chbe-medford/medford-share/data/pseudos_module/espresso/nninc/pbe/van/H.UPF
     MD5 check sum: b5ee9d7bfd3a09ee7748110bda690ff7
     Pseudo is Ultrasoft, Zval =  1.0
     Generated by new atomic code, or converted to UPF format
     Using radial grid of  615 points,  1 beta functions with:
                l(1) =   0
     Q(r) pseudized with  8 coefficients,  rinner =    0.800

     atomic species   valence    mass     pseudopotential
        Ti1           12.00    47.86700     Ti( 1.00)
        O1             6.00    15.99900     O ( 1.00)
        N1             5.00    14.00700     N ( 1.00)
        C1             4.00    12.01100     C ( 1.00)
        H1             1.00     1.00800     H ( 1.00)

     No symmetry found

   Cartesian axes

     site n.     atom                  positions (alat units)
         1           Ti1 tau(   1) = (   0.0004258   2.9801865   6.0000000  )
         2           Ti1 tau(   2) = (   3.2906075   1.4906267   6.0002472  )
         3           O1  tau(   3) = (   0.0006271   0.0005054   7.9858123  )
         4           O1  tau(   4) = (   3.2906025   0.0005020   7.3038282  )
         5           O1  tau(   5) = (   4.5942328   1.4918067   9.2879030  )
         6           O1  tau(   6) = (   1.9868534   1.4903216   9.2879459  )
         7           Ti1 tau(   7) = (   3.2907910   2.8959150   9.1758416  )
         8           Ti1 tau(   8) = (   0.0015273   1.4827037   9.2680791  )
         9           O1  tau(   9) = (   3.2932810   5.9556063  11.3276769  )
        10           O1  tau(  10) = (   0.0116148   5.9584955  10.6183126  )
        11           O1  tau(  11) = (   1.2966828   1.5020869  12.6141357  )
        12           O1  tau(  12) = (   5.2995835   1.4923495  12.6341875  )
        13           Ti1 tau(  13) = (   6.5470072   2.9473109  12.5798724  )
        14           Ti1 tau(  14) = (   3.2302912   1.4573256  12.5082679  )
        15           O1  tau(  15) = (   0.0525813   0.0137714  14.6435187  )
        16           O1  tau(  16) = (   3.2708393   0.0302713  13.9228694  )
        17           O1  tau(  17) = (   4.5627544   1.5900677  16.0055000  )
        18           O1  tau(  18) = (   2.0437599   1.5040777  16.0764052  )
        19           Ti1 tau(  19) = (   3.3063064   2.9825517  15.6619520  )
        20           Ti1 tau(  20) = (   6.5607061   1.3194196  15.9785141  )
        21           O1  tau(  21) = (   3.2904802   0.0005063   4.7018136  )
        22           O1  tau(  22) = (   6.3855286   5.9589440  17.1610702  )
        23           O1  tau(  23) = (   1.3043587   1.4918075   6.0039043  )
        24           O1  tau(  24) = (   5.2767064   1.4903225   6.0039473  )
        25           Ti1 tau(  25) = (   0.0000382   5.9609847   6.0000000  )
        26           Ti1 tau(  26) = (   3.2902200   4.4714249   6.0002472  )
        27           O1  tau(  27) = (   0.0002396   2.9813036   7.9858123  )
        28           O1  tau(  28) = (   3.2902150   2.9813002   7.3038282  )
        29           O1  tau(  29) = (   4.5938453   4.4726049   9.2879030  )
        30           O1  tau(  30) = (   1.9864658   4.4711199   9.2879459  )
        31           Ti1 tau(  31) = (   3.2891106   5.8743827   9.1763621  )
        32           Ti1 tau(  32) = (   0.0006254   4.4649316   9.2693709  )
        33           O1  tau(  33) = (   3.2946552   2.9814125  11.3288906  )
        34           O1  tau(  34) = (   0.0092240   2.9805883  10.6323155  )
        35           O1  tau(  35) = (   1.2978438   4.4726441  12.6233041  )
        36           O1  tau(  36) = (   5.2969606   4.4732664  12.6435870  )
        37           Ti1 tau(  37) = (   6.5415350   5.9305516  12.5357152  )
        38           Ti1 tau(  38) = (   3.2303862   4.4559975  12.4807118  )
        39           O1  tau(  39) = (   0.0164246   2.9899045  14.7829194  )
        40           O1  tau(  40) = (   3.2688228   2.9752494  13.8698570  )
        41           O1  tau(  41) = (   4.5210259   4.4573316  15.9082071  )
        42           O1  tau(  42) = (   2.0412773   4.4882057  16.0214637  )
        43           Ti1 tau(  43) = (   3.2233344   5.9452837  15.7820064  )
        44           Ti1 tau(  44) = (   6.5355943   4.4735413  15.8975681  )
        45           O1  tau(  45) = (   3.2900926   2.9813045   4.7018136  )
        46           O1  tau(  46) = (   1.3039711   4.4726057   6.0039043  )
        47           O1  tau(  47) = (   5.2763189   4.4711207   6.0039473  )
        48           N1  tau(  48) = (   0.2167872   2.3688911  18.0161765  )
        49           C1  tau(  49) = (   0.4968348   1.8934616  19.1878903  )
        50           H1  tau(  50) = (   0.5617972   2.5522217  20.0513624  )
        51           H1  tau(  51) = (   0.6471857   0.8299532  19.2874115  )
        52           N1  tau(  52) = (   6.5661014   3.6386027  17.7750644  )
        53           H1  tau(  53) = (   0.0713089   4.2532688  18.5884219  )
        54           O1  tau(  54) = (   3.6608114   5.9026821  18.0962282  )
        55           H1  tau(  55) = (   4.6425638   0.0038819  18.0438526  )
        56           H1  tau(  56) = (   3.3558581   0.7595698  18.5153002  )

     number of k points=    10  Fermi-Dirac smearing, width (Ry)=  0.0073
                       cart. coord. in units 2pi/alat
        k(    1) = (   0.0000000   0.0000000   0.0000000), wk =   0.1250000
        k(    2) = (   0.0000000   0.0419351   0.0000000), wk =   0.2500000
        k(    3) = (   0.0000000  -0.0838702   0.0000000), wk =   0.1250000
        k(    4) = (   0.0379955   0.0000049   0.0000000), wk =   0.2500000
        k(    5) = (   0.0379955   0.0419400   0.0000000), wk =   0.2500000
        k(    6) = (   0.0379955  -0.0838652   0.0000000), wk =   0.2500000
        k(    7) = (   0.0379955  -0.0419301   0.0000000), wk =   0.2500000
        k(    8) = (  -0.0759910  -0.0000099   0.0000000), wk =   0.1250000
        k(    9) = (  -0.0759910   0.0419252   0.0000000), wk =   0.2500000
        k(   10) = (  -0.0759910  -0.0838800   0.0000000), wk =   0.1250000

     Initial potential from superposition of free atoms

     starting charge  386.99914, renormalised to  403.00000

     negative rho (up, down):  1.554E-02 0.000E+00

     %%%%%%%%%%%%%%%%%%%%%%%%%%%%%%%%%%%%%%%%%%%%%%%%%%%%%%%%%%%%%%%%%%%%%%%%
     %                                                                      %
     % You are using vdW-DF, which was implemented by the Thonhauser group. %
     % Please cite the following two papers that made this development      %
     % possible and the two reviews that describe the various versions:     %
     %                                                                      %
     %   T. Thonhauser et al., PRL 115, 136402 (2015).                      %
     %   T. Thonhauser et al., PRB 76, 125112 (2007).                       %
     %   K. Berland et al., Rep. Prog. Phys. 78, 066501 (2015).             %
     %   D.C. Langreth et al., J. Phys.: Condens. Matter 21, 084203 (2009). %
     %                                                                      %
     %                                                                      %
     % If you are calculating the stress with vdW-DF, please also cite:     %
     %                                                                      %
     %   R. Sabatini et al., J. Phys.: Condens. Matter 24, 424209 (2012).   %
     %                                                                      %
     %%%%%%%%%%%%%%%%%%%%%%%%%%%%%%%%%%%%%%%%%%%%%%%%%%%%%%%%%%%%%%%%%%%%%%%%

     Adding external electric field

     Computed dipole along edir(3) :
        Dipole              -12.7952 Ry au,        -32.5221 Debye
        Dipole field         -0.0241 Ry au,

        Potential amp.        2.2383 Ry
        Total length         46.3494 bohr

     Starting wfcs are  305 atomic wfcs
  @ DRIVER MODE: Message from server: STATUS
  @ DRIVER MODE: Message from server: POSDATA
  @ DRIVER MODE: Reading and sharing cell
  @ DRIVER MODE: Reading and sharing positions
  @ DRIVER MODE: Received positions

     Self-consistent Calculation

     iteration #  1     ecut=    29.40 Ry     beta= 0.05
     Davidson diagonalization with overlap
     c_bands:  3 eigenvalues not converged
     c_bands:  3 eigenvalues not converged
     c_bands:  4 eigenvalues not converged
     c_bands:  5 eigenvalues not converged
     c_bands:  1 eigenvalues not converged
     c_bands:  1 eigenvalues not converged
     c_bands:  4 eigenvalues not converged
     c_bands:  3 eigenvalues not converged
     ethr =  1.00E-05,  avg # of iterations = 27.5

[...]

     total energy              =   -2369.06219294 Ry
     estimated scf accuracy    <    6884.45214903 Ry

     iteration #  2     ecut=    29.40 Ry     beta= 0.05
     Davidson diagonalization with overlap
     ethr =  1.00E-02,  avg # of iterations = 25.3

[...]

     iteration # 42     ecut=    29.40 Ry     beta= 0.05
     Davidson diagonalization with overlap
     c_bands:  1 eigenvalues not converged
     ethr =  5.60E-07,  avg # of iterations = 14.9

[...]

     total energy              =   -2973.98332010 Ry
     estimated scf accuracy    <       0.00000010 Ry

     iteration # 63     ecut=    29.40 Ry     beta= 0.05
     Davidson diagonalization with overlap
     ethr =  2.40E-11,  avg # of iterations =  8.7

     negative rho (up, down):  1.541E-02 0.000E+00

     Adding external electric field

     Computed dipole along edir(3) :
        Dipole                0.9245 Ry au,          2.3499 Debye
        Dipole field          0.0017 Ry au,

        Potential amp.       -0.1617 Ry
        Total length         46.3494 bohr

     End of self-consistent calculation

          k = 0.0000 0.0000 0.0000 ( 18029 PWs)   bands (ev):

   -55.6134 -55.5855 -55.5793 -55.5474 -55.4946 -55.4836 -55.4530 -55.4308
   -55.3968 -55.3925 -55.3585 -55.3354 -55.0415 -54.9910 -54.5931 -54.5590
   -32.1295 -32.0974 -31.9854 -31.9306 -31.9174 -31.9052 -31.8837 -31.8709
   -31.8578 -31.8169 -31.7659 -31.7619 -31.7337 -31.7330 -31.7296 -31.7192
   -31.7148 -31.7115 -31.7085 -31.7060 -31.6754 -31.6708 -31.6617 -31.6341
   -31.6246 -31.6237 -31.6165 -31.6132 -31.5981 -31.5899 -31.5727 -31.5594
   -31.5471 -31.5407 -31.5357 -31.5058 -31.5035 -31.3051 -31.2658 -31.2424
   -31.1893 -31.1469 -30.9999 -30.9120 -30.8895 -30.8170 -30.7305 -30.6191
   -18.6672 -17.9057 -16.3333 -16.0910 -15.8515 -15.7743 -15.7418 -15.5282
   -15.4253 -15.3696 -15.2343 -15.1853 -15.1719 -15.1518 -15.1267 -15.0927
   -15.0664 -15.0529 -15.0458 -15.0294 -15.0040 -14.9774 -14.9569 -14.9531
   -14.9120 -14.8432 -14.7738 -14.7483 -14.6865 -14.6742 -14.2344 -13.0945
   -12.9781 -12.0731  -7.8468  -6.4516  -5.3050  -4.4949  -3.7070  -3.5690
    -3.5214  -3.4718  -3.4633  -3.2738  -3.1898  -3.0588  -2.8975  -2.8501
    -2.7797  -2.7419  -2.7029  -2.6402  -2.5994  -2.4934  -2.4557  -2.4261
    -2.4108  -2.3657  -2.3604  -2.3563  -2.2956  -2.2583  -2.1799  -2.1535
    -2.0744  -2.0041  -1.9759  -1.9495  -1.9275  -1.9105  -1.9066  -1.8576
    -1.8567  -1.8547  -1.7830  -1.7353  -1.6607  -1.6146  -1.5575  -1.4182
    -1.3767  -1.2670  -1.2211  -1.0997  -1.0957  -1.0735  -1.0487  -1.0098
    -1.0021  -0.8782  -0.7930  -0.7435  -0.7081  -0.6459  -0.5426  -0.5219
    -0.4331  -0.4276  -0.3737  -0.3605  -0.3452  -0.3157  -0.2372  -0.1246
    -0.1060  -0.0455   0.0036   0.0665   0.1100   0.1349   0.1729   0.2228
     0.2464   0.2876   0.3141   0.3251   0.3582   0.3959   0.4182   0.4963
     0.5692   0.6187   0.6679   0.7083   0.7126   0.8899   1.0023   1.0412
     1.1722   1.1952   1.3627   1.4303   1.5005   1.6221   2.0004   2.0461
     2.2167   3.4943   3.6080   3.6324   3.6424   3.7457   3.8789   3.9619
     4.0024   4.0270   4.0659

[...]

          k = 0.0380-0.0419 0.0000 ( 17876 PWs)   bands (ev):

[...]

          k =-0.0760-0.0000 0.0000 ( 17886 PWs)   bands (ev):

[...]

          k =-0.0760-0.0839 0.0000 ( 17948 PWs)   bands (ev):

   -55.5964 -55.5961 -55.5728 -55.5598 -55.4856 -55.4815 -55.4621 -55.4140
   -55.4130 -55.3781 -55.3730 -55.3374 -55.0346 -54.9977 -54.5761 -54.5758
   -31.9458 -31.9206 -31.9128 -31.9125 -31.8908 -31.8904 -31.8255 -31.8209
   -31.8126 -31.8075 -31.7891 -31.7387 -31.7350 -31.7318 -31.7228 -31.7212
   -31.7191 -31.7164 -31.7156 -31.7139 -31.7124 -31.6999 -31.6904 -31.6757
   -31.6730 -31.6684 -31.6472 -31.6182 -31.6172 -31.6077 -31.5989 -31.5947
   -31.5915 -31.5905 -31.5891 -31.5444 -31.5184 -31.2938 -31.2681 -31.2627
   -31.2464 -31.1904 -30.9024 -30.9021 -30.8129 -30.8125 -30.7738 -30.7737
   -18.6652 -17.8930 -15.7742 -15.6811 -15.5940 -15.5520 -15.4734 -15.4549
   -15.4010 -15.3359 -15.2976 -15.2792 -15.2377 -15.2091 -15.1646 -15.1523
   -15.1445 -15.1208 -15.0969 -15.0725 -15.0613 -15.0552 -15.0505 -15.0372
   -15.0035 -14.9717 -14.9349 -14.9310 -14.9025 -14.6600 -14.5837 -13.0800
   -13.0798 -12.0259  -7.7696  -6.4455  -5.3698  -4.5653  -3.1874  -3.0621
    -2.8914  -2.8512  -2.8039  -2.7502  -2.7423  -2.6881  -2.5636  -2.5545
    -2.5237  -2.4593  -2.4358  -2.4327  -2.4241  -2.4202  -2.3992  -2.3626
    -2.3616  -2.3066  -2.2979  -2.2867  -2.2814  -2.2627  -2.2458  -2.2428
    -2.2192  -2.1729  -2.1583  -2.1425  -2.0362  -1.9356  -1.8773  -1.8389
    -1.8079  -1.7620  -1.7572  -1.7368  -1.7216  -1.6832  -1.6671  -1.6112
    -1.4964  -1.4179  -1.3318  -1.3014  -1.2724  -1.2019  -1.1570  -1.0927
    -1.0522  -1.0466  -0.9631  -0.8485  -0.8356  -0.7984  -0.7705  -0.6940
    -0.6655  -0.6329  -0.5723  -0.5655  -0.5380  -0.5099  -0.4737  -0.3820
    -0.3641  -0.3578  -0.3280  -0.3192  -0.3080  -0.2672  -0.1944  -0.0952
    -0.0234  -0.0169   0.0890   0.2159   0.3132   0.4451   0.4734   0.5213
     0.5746   0.6083   0.6921   0.6998   0.7258   0.7897   0.8326   0.9008
     0.9248   0.9401   1.0256   1.0328   1.7942   1.7954   1.8661   1.8662
     2.1607   3.8587   3.8870   3.9076   3.9524   4.0299   4.0539   4.0546
     4.0606   4.1770   4.1844

     the Fermi energy is     3.5132 ev

!    total energy              =   -2973.98336230 Ry
     estimated scf accuracy    <       0.00000004 Ry
     smearing contrib. (-TS)   =      -0.02040597 Ry
     internal energy E=F+TS    =   -2973.96295633 Ry

     The total energy is F=E-TS. E is the sum of the following terms:
     one-electron contribution =  -24204.23848666 Ry
     hartree contribution      =   12196.74841274 Ry
     xc contribution           =    -494.25922018 Ry
     ewald contribution        =    9527.78472479 Ry
     electric field correction =       0.00161297 Ry

     convergence has been achieved in  63 iterations

     Forces acting on atoms (cartesian axes, Ry/au):

     atom    1 type  1   force =    -0.00005865   -0.00019481    0.09556060
     atom    2 type  1   force =     0.00002459   -0.00035816   -0.17555593
     atom    3 type  2   force =     0.00009486   -0.00012750   -0.02315147
     atom    4 type  2   force =     0.00000490   -0.00139055    0.05289053
     atom    5 type  2   force =    -0.00999866   -0.00075389    0.00325045
     atom    6 type  2   force =     0.01152764   -0.00009543    0.00282493
     atom    7 type  1   force =     0.00045614    0.00028322   -0.00663346
     atom    8 type  1   force =     0.00029291    0.00537226    0.01758673
     atom    9 type  2   force =    -0.00015062   -0.00015612   -0.00038839
     atom   10 type  2   force =    -0.00346487    0.00075064   -0.01265728
     atom   11 type  2   force =    -0.00081073   -0.00032973    0.00009274
     atom   12 type  2   force =     0.00032415   -0.00017247    0.00009717
     atom   13 type  1   force =    -0.00025052    0.00039942   -0.00021036
     atom   14 type  1   force =     0.00021565    0.00003864    0.00067124
     atom   15 type  2   force =    -0.00013365    0.00008094   -0.00037845
     atom   16 type  2   force =    -0.00003559   -0.00022735   -0.00005540
     atom   17 type  2   force =     0.00050299   -0.00013386   -0.00007565
     atom   18 type  2   force =    -0.00022670   -0.00039255   -0.00005106
     atom   19 type  1   force =    -0.00010769   -0.00011191    0.00028218
     atom   20 type  1   force =     0.00051592   -0.00001876   -0.00040263
     atom   21 type  2   force =     0.00007098    0.00003226    0.10316515
     atom   22 type  2   force =     0.00008581   -0.00000388   -0.00007320
     atom   23 type  2   force =    -0.07160654   -0.00013515   -0.02754471
     atom   24 type  2   force =     0.07153153    0.00036828   -0.02758384
     atom   25 type  1   force =     0.00018187   -0.00009178    0.09521406
     atom   26 type  1   force =     0.00008498   -0.00039522   -0.17572798
     atom   27 type  2   force =     0.00011153   -0.00024002   -0.02207288
     atom   28 type  2   force =     0.00002799   -0.00098952    0.05229248
     atom   29 type  2   force =    -0.01014658    0.00036924    0.00285766
     atom   30 type  2   force =     0.01154544    0.00074525    0.00247702
     atom   31 type  1   force =     0.00027694    0.00394980   -0.01130834
     atom   32 type  1   force =     0.00045585   -0.00672734    0.01788067
     atom   33 type  2   force =    -0.00008139    0.00004783   -0.00019643
     atom   34 type  2   force =    -0.00395725    0.00073821   -0.01213677
     atom   35 type  2   force =    -0.00021574    0.00008080   -0.00017025
     atom   36 type  2   force =    -0.00000313    0.00003276   -0.00007875
     atom   37 type  1   force =    -0.00003716   -0.00041660    0.00036598
     atom   38 type  1   force =     0.00005770    0.00001881    0.00040251
     atom   39 type  2   force =     0.00035742   -0.00035073    0.00023653
     atom   40 type  2   force =    -0.00050309    0.00026820   -0.00007431
     atom   41 type  2   force =     0.00005992    0.00009110   -0.00018128
     atom   42 type  2   force =     0.00032262    0.00019044    0.00023644
     atom   43 type  1   force =    -0.00011812   -0.00032789   -0.00006438
     atom   44 type  1   force =    -0.00014723   -0.00017909    0.00019832
     atom   45 type  2   force =     0.00006905   -0.00000448    0.10312396
     atom   46 type  2   force =    -0.07160709   -0.00003917   -0.02751700
     atom   47 type  2   force =     0.07153640    0.00035313   -0.02760617
     atom   48 type  3   force =     0.00050982   -0.00018150   -0.00023651
     atom   49 type  4   force =     0.00173753   -0.00156281    0.00058645
     atom   50 type  5   force =     0.00022770   -0.00017675    0.00040736
     atom   51 type  5   force =    -0.00044036    0.00138412   -0.00032270
     atom   52 type  3   force =    -0.00056079    0.00003931   -0.00027417
     atom   53 type  5   force =     0.00054476    0.00039591   -0.00009961
     atom   54 type  2   force =    -0.00060672   -0.00133571   -0.00061232
     atom   55 type  5   force =     0.00176516    0.00001537    0.00019247
     atom   56 type  5   force =    -0.00025191    0.00157477    0.00054807

     Total force =     0.364713     Total SCF correction =     0.000423
  @ DRIVER MODE: Message from server: STATUS
  @ DRIVER MODE: Message from server: GETFORCE
  @ DRIVER MODE: Returning v,forces,stress,ensemble

     Writing output data file ./calc.save/
  @ DRIVER MODE: Message from server: EXIT
  @ DRIVE MODE: Exiting

     General routines

     Parallel routines

   This run was terminated on:  22:25:40  15Sep2021

   JOB DONE.