     Program PWSCF v.6.7GPU starts on  9Sep2021 at  5:54:27

     R & G space division:  proc/nbgrp/npool/nimage =      10
     Reading input from /storage/home/hcoda1/3/ntian30/research/carbon/CxH_vib/CH3_calc/ads_slab/CH3NNHHH_a/out_0024/pw.inp
Warning: card &CELL ignored
Warning: card   CELL_DYNAMICS='IPI', ignored
Warning: card / ignored

     Current dimensions of program PWSCF are:
     Max number of different atomic species (ntypx) = 10
     Max number of k-points (npk) =  40000
     Max angular momentum in pseudopotentials (lmaxx) =  3
     Presently no symmetry can be used with electric field

     Message from routine cell_base_init:
     DEPRECATED: use true lattice parameter, not A to a.u. conversion factor

     IMPORTANT: XC functional enforced from input :
     Exchange-correlation= BEEF-VDW
                           (   1   4  43  14   2   0   0)
     Any further DFT definition will be discarded
     Please, verify this is what you really want

  @ DRIVER MODE: Connecting to
 qe_1139763_2767399.sched-torque.pace.gatech.eduvy7hdf_9_scratch
  using UNIX socket
  @ DRIVER MODE: Message from server: STATUS
  @ DRIVER MODE: Message from server: INIT
  @ DRIVER MODE: Receiving replica           0          -1
  @ DRIVER MODE: Receiving encoded integer          25
  @ DRIVER MODE:  SCF:  T  FORCE:  T  STRESS:  F  VC:  F  ENSEMBLE:  F
  @ DRIVER MODE:  SCF:  T  FORCE:  T  STRESS:  F  VC:  F  ENSEMBLE:  F

     Using Slab Decomposition

     bravais-lattice index     =            0
     lattice parameter (alat)  =       1.8897  a.u.
     unit-cell volume          =    6658.9804 (a.u.)^3
     number of atoms/cell      =           56
     number of atomic types    =            5
     number of electrons       =       398.00
     number of Kohn-Sham states=          209
     kinetic-energy cutoff     =      29.3995  Ry
     charge density cutoff     =     293.9946  Ry
     scf convergence threshold =      7.3E-08
     mixing beta               =       0.0500
     number of iterations used =            8  plain     mixing
     Exchange-correlation= BEEF-VDW
                           (   1   4  43  14   2   0   0)

     celldm(1)=   1.889726  celldm(2)=   0.000000  celldm(3)=   0.000000
     celldm(4)=   0.000000  celldm(5)=   0.000000  celldm(6)=   0.000000

     crystal axes: (cart. coord. in units of alat)
               a(1) = (   6.579727   0.000000   0.000000 )
               a(2) = (  -0.000775   5.961596   0.000000 )
               a(3) = (   0.000000   0.000000  25.155947 )

     reciprocal axes: (cart. coord. in units 2 pi/alat)
               b(1) = (  0.151982  0.000020  0.000000 )
               b(2) = (  0.000000  0.167740  0.000000 )
               b(3) = (  0.000000  0.000000  0.039752 )

     PseudoPot. # 1 for Ti read from file:
     /storage/coda1/p-amedford6/0/shared/rich_project_chbe-medford/medford-share/data/pseudos_module/espresso/nninc/pbe/van/Ti.UPF
     MD5 check sum: 8e4df49b7f0d34bbd5052bf3f5ea0213
     Pseudo is Ultrasoft, Zval = 12.0
     Generated by new atomic code, or converted to UPF format
     Using radial grid of  851 points,  6 beta functions with:
                l(1) =   0
                l(2) =   0
                l(3) =   1
                l(4) =   1
                l(5) =   2
                l(6) =   2
     Q(r) pseudized with  8 coefficients,  rinner =    1.000   1.000   1.000
                                                       1.000   1.000

     PseudoPot. # 2 for O  read from file:
     /storage/coda1/p-amedford6/0/shared/rich_project_chbe-medford/medford-share/data/pseudos_module/espresso/nninc/pbe/van/O.UPF
     MD5 check sum: 78c19812648e8988a0fe644b0f25305e
     Pseudo is Ultrasoft, Zval =  6.0
     Generated by new atomic code, or converted to UPF format
     Using radial grid of  737 points,  4 beta functions with:
                l(1) =   0
                l(2) =   0
                l(3) =   1
                l(4) =   1
     Q(r) pseudized with  8 coefficients,  rinner =    0.800   0.800   0.800

     PseudoPot. # 3 for N  read from file:
     /storage/coda1/p-amedford6/0/shared/rich_project_chbe-medford/medford-share/data/pseudos_module/espresso/nninc/pbe/van/N.UPF
     MD5 check sum: 90d10febe142ad51ac9d5be1deb811c4
     Pseudo is Ultrasoft, Zval =  5.0
     Generated by new atomic code, or converted to UPF format
     Using radial grid of  729 points,  4 beta functions with:
                l(1) =   0
                l(2) =   0
                l(3) =   1
                l(4) =   1
     Q(r) pseudized with  8 coefficients,  rinner =    0.800   0.800   0.800

     PseudoPot. # 4 for C  read from file:
     /storage/coda1/p-amedford6/0/shared/rich_project_chbe-medford/medford-share/data/pseudos_module/espresso/nninc/pbe/van/C.UPF
     MD5 check sum: 1a69bf6b8db32088f5b2163dbdb77a27
     Pseudo is Ultrasoft, Zval =  4.0
     Generated by new atomic code, or converted to UPF format
     Using radial grid of  721 points,  4 beta functions with:
                l(1) =   0
                l(2) =   0
                l(3) =   1
                l(4) =   1
     Q(r) pseudized with  8 coefficients,  rinner =    0.800   0.800   0.800

     PseudoPot. # 5 for H  read from file:
     /storage/coda1/p-amedford6/0/shared/rich_project_chbe-medford/medford-share/data/pseudos_module/espresso/nninc/pbe/van/H.UPF
     MD5 check sum: b5ee9d7bfd3a09ee7748110bda690ff7
     Pseudo is Ultrasoft, Zval =  1.0
     Generated by new atomic code, or converted to UPF format
     Using radial grid of  615 points,  1 beta functions with:
                l(1) =   0
     Q(r) pseudized with  8 coefficients,  rinner =    0.800

     atomic species   valence    mass     pseudopotential
        Ti1           12.00    47.86700     Ti( 1.00)
        O1             6.00    15.99900     O ( 1.00)
        N1             5.00    14.00700     N ( 1.00)
        C1             4.00    12.01100     C ( 1.00)
        H1             1.00     1.00800     H ( 1.00)

     No symmetry found

   Cartesian axes

     site n.     atom                  positions (alat units)
         1           Ti1 tau(   1) = (   0.0004258   2.9801865   6.0000000  )
         2           Ti1 tau(   2) = (   3.2906075   1.4906267   6.0002472  )
         3           O1  tau(   3) = (   0.0006271   0.0005054   7.9858123  )
         4           O1  tau(   4) = (   3.2906025   0.0005020   7.3038282  )
         5           O1  tau(   5) = (   4.5942328   1.4918067   9.2879030  )
         6           O1  tau(   6) = (   1.9868534   1.4903216   9.2879459  )
         7           Ti1 tau(   7) = (   3.2907910   2.8959150   9.1758416  )
         8           Ti1 tau(   8) = (   0.0015273   1.4827037   9.2680791  )
         9           O1  tau(   9) = (   3.3120675   0.0079458  11.3762204  )
        10           O1  tau(  10) = (   0.0116148   5.9584955  10.6183126  )
        11           O1  tau(  11) = (   1.3148726   1.5133626  12.6447579  )
        12           O1  tau(  12) = (   5.3140862   1.5122126  12.6508301  )
        13           Ti1 tau(  13) = (   0.0289753   2.9995974  12.5105963  )
        14           Ti1 tau(  14) = (   3.3300932   1.5144954  12.5190352  )
        15           O1  tau(  15) = (   0.0303621   0.0967028  14.6836000  )
        16           O1  tau(  16) = (   3.3188409   0.0235386  14.0025835  )
        17           O1  tau(  17) = (   4.5661268   1.5053193  16.2317874  )
        18           O1  tau(  18) = (   2.0488868   1.5039614  16.2002260  )
        19           Ti1 tau(  19) = (   3.3211226   2.9745325  15.7560014  )
        20           Ti1 tau(  20) = (   0.0641794   1.4487855  16.0607878  )
        21           O1  tau(  21) = (   3.2904802   0.0005063   4.7018136  )
        22           O1  tau(  22) = (   0.0207051   5.8381987  17.2232637  )
        23           O1  tau(  23) = (   1.3043587   1.4918075   6.0039043  )
        24           O1  tau(  24) = (   5.2767064   1.4903225   6.0039473  )
        25           Ti1 tau(  25) = (   0.0000382   5.9609847   6.0000000  )
        26           Ti1 tau(  26) = (   3.2902200   4.4714249   6.0002472  )
        27           O1  tau(  27) = (   0.0002396   2.9813036   7.9858123  )
        28           O1  tau(  28) = (   3.2902150   2.9813002   7.3038282  )
        29           O1  tau(  29) = (   4.5938453   4.4726049   9.2879030  )
        30           O1  tau(  30) = (   1.9864658   4.4711199   9.2879459  )
        31           Ti1 tau(  31) = (   3.2891106   5.8743827   9.1763621  )
        32           Ti1 tau(  32) = (   0.0006254   4.4649316   9.2693709  )
        33           O1  tau(  33) = (   3.3137607   3.0039157  11.3695003  )
        34           O1  tau(  34) = (   0.0092240   2.9805883  10.6323155  )
        35           O1  tau(  35) = (   1.3103219   4.4840529  12.6837359  )
        36           O1  tau(  36) = (   5.3166572   4.4842854  12.6901167  )
        37           Ti1 tau(  37) = (   0.0376818   0.0300362  12.4998423  )
        38           Ti1 tau(  38) = (   3.3279277   4.4933691  12.5326681  )
        39           O1  tau(  39) = (   0.0236785   2.9473731  14.9547601  )
        40           O1  tau(  40) = (   3.3158584   2.9778716  13.9675922  )
        41           O1  tau(  41) = (   4.5769684   4.4551829  16.1482216  )
        42           O1  tau(  42) = (   2.0574928   4.4544973  16.1629196  )
        43           Ti1 tau(  43) = (   3.3270828   0.0048838  15.7999907  )
        44           Ti1 tau(  44) = (   0.0216784   4.6657176  15.8371636  )
        45           O1  tau(  45) = (   3.2900926   2.9813045   4.7018136  )
        46           O1  tau(  46) = (   1.3039711   4.4726057   6.0039043  )
        47           O1  tau(  47) = (   5.2763189   4.4711207   6.0039473  )
        48           N1  tau(  48) = (   1.0300599   3.1028741  18.8625222  )
        49           N1  tau(  49) = (   6.4529598   2.6395754  18.1308714  )
        50           C1  tau(  50) = (   0.6566364   3.8075245  20.0867497  )
        51           H1  tau(  51) = (   6.5334193   4.6337433  19.9195685  )
        52           H1  tau(  52) = (   0.2127083   3.1054723  20.7945791  )
        53           H1  tau(  53) = (   1.5644534   4.2160081  20.5287796  )
        54           H1  tau(  54) = (   5.6912064   3.3271340  18.1715891  )
        55           H1  tau(  55) = (   6.1153184   1.7991689  18.5966666  )
        56           H1  tau(  56) = (   1.4989484   3.7555826  18.2384742  )

     number of k points=    10  Fermi-Dirac smearing, width (Ry)=  0.0073
                       cart. coord. in units 2pi/alat
        k(    1) = (   0.0000000   0.0000000   0.0000000), wk =   0.1250000
        k(    2) = (   0.0000000   0.0419351   0.0000000), wk =   0.2500000
        k(    3) = (   0.0000000  -0.0838702   0.0000000), wk =   0.1250000
        k(    4) = (   0.0379955   0.0000049   0.0000000), wk =   0.2500000
        k(    5) = (   0.0379955   0.0419400   0.0000000), wk =   0.2500000
        k(    6) = (   0.0379955  -0.0838652   0.0000000), wk =   0.2500000
        k(    7) = (   0.0379955  -0.0419301   0.0000000), wk =   0.2500000
        k(    8) = (  -0.0759910  -0.0000099   0.0000000), wk =   0.1250000
        k(    9) = (  -0.0759910   0.0419252   0.0000000), wk =   0.2500000
        k(   10) = (  -0.0759910  -0.0838800   0.0000000), wk =   0.1250000

     Initial potential from superposition of free atoms

     starting charge  381.99914, renormalised to  398.00000

     negative rho (up, down):  1.340E-02 0.000E+00

     %%%%%%%%%%%%%%%%%%%%%%%%%%%%%%%%%%%%%%%%%%%%%%%%%%%%%%%%%%%%%%%%%%%%%%%%
     %                                                                      %
     % You are using vdW-DF, which was implemented by the Thonhauser group. %
     % Please cite the following two papers that made this development      %
     % possible and the two reviews that describe the various versions:     %
     %                                                                      %
     %   T. Thonhauser et al., PRL 115, 136402 (2015).                      %
     %   T. Thonhauser et al., PRB 76, 125112 (2007).                       %
     %   K. Berland et al., Rep. Prog. Phys. 78, 066501 (2015).             %
     %   D.C. Langreth et al., J. Phys.: Condens. Matter 21, 084203 (2009). %
     %                                                                      %
     %                                                                      %
     % If you are calculating the stress with vdW-DF, please also cite:     %
     %                                                                      %
     %   R. Sabatini et al., J. Phys.: Condens. Matter 24, 424209 (2012).   %
     %                                                                      %
     %%%%%%%%%%%%%%%%%%%%%%%%%%%%%%%%%%%%%%%%%%%%%%%%%%%%%%%%%%%%%%%%%%%%%%%%

     Adding external electric field

     Computed dipole along edir(3) :
        Dipole              -11.7472 Ry au,        -29.8584 Debye
        Dipole field         -0.0222 Ry au,

        Potential amp.        2.0550 Ry
        Total length         46.3494 bohr

     Starting wfcs are  302 atomic wfcs
  @ DRIVER MODE: Message from server: STATUS
  @ DRIVER MODE: Message from server: POSDATA
  @ DRIVER MODE: Reading and sharing cell
  @ DRIVER MODE: Reading and sharing positions
  @ DRIVER MODE: Received positions

     Self-consistent Calculation

     iteration #  1     ecut=    29.40 Ry     beta= 0.05
     Davidson diagonalization with overlap
     c_bands:  1 eigenvalues not converged
     c_bands:  1 eigenvalues not converged
     c_bands:  1 eigenvalues not converged
     c_bands:  3 eigenvalues not converged
     c_bands:  3 eigenvalues not converged
     c_bands:  3 eigenvalues not converged
     c_bands:  4 eigenvalues not converged
     c_bands:  2 eigenvalues not converged
     ethr =  1.00E-05,  avg # of iterations = 21.6

[...]

     total energy              =   -2428.08515790 Ry
     estimated scf accuracy    <    5789.77665719 Ry

     iteration #  2     ecut=    29.40 Ry     beta= 0.05
     Davidson diagonalization with overlap
     ethr =  1.00E-02,  avg # of iterations = 22.0

[...]

     iteration # 69     ecut=    29.40 Ry     beta= 0.05
     Davidson diagonalization with overlap
     c_bands:  2 eigenvalues not converged
     c_bands:  1 eigenvalues not converged
     c_bands:  1 eigenvalues not converged
     ethr =  5.50E-11,  avg # of iterations = 17.7

[...]

     total energy              =   -2942.85975423 Ry
     estimated scf accuracy    <       0.00000013 Ry

     iteration # 73     ecut=    29.40 Ry     beta= 0.05
     Davidson diagonalization with overlap
     ethr =  3.29E-11,  avg # of iterations =  9.2

     negative rho (up, down):  1.464E-02 0.000E+00

     Adding external electric field

     Computed dipole along edir(3) :
        Dipole                1.2220 Ry au,          3.1060 Debye
        Dipole field          0.0023 Ry au,

        Potential amp.       -0.2138 Ry
        Total length         46.3494 bohr

     End of self-consistent calculation

          k = 0.0000 0.0000 0.0000 ( 18029 PWs)   bands (ev):

   -55.3489 -55.3119 -55.3008 -55.2699 -55.2667 -55.2326 -55.2254 -55.1901
   -55.1692 -55.1451 -55.1347 -55.1327 -55.0991 -55.0266 -54.3307 -54.2966
   -31.9174 -31.8015 -31.7933 -31.7140 -31.6644 -31.6586 -31.6516 -31.6384
   -31.5901 -31.5895 -31.5583 -31.5528 -31.5459 -31.5299 -31.5188 -31.5111
   -31.5041 -31.4887 -31.4862 -31.4664 -31.4533 -31.4455 -31.4187 -31.4146
   -31.4035 -31.4011 -31.4000 -31.3718 -31.3580 -31.3559 -31.3511 -31.3316
   -31.3283 -31.3200 -31.3190 -31.3171 -31.2829 -31.2686 -31.2611 -31.2440
   -31.2329 -31.2085 -30.7401 -30.6458 -30.6238 -30.5564 -30.4696 -30.3588
   -17.7996 -16.1850 -15.9174 -15.7774 -15.6676 -15.5487 -15.4301 -15.4105
   -15.2785 -15.1957 -15.0757 -15.0527 -15.0263 -15.0072 -14.9948 -14.9798
   -14.8942 -14.8883 -14.8708 -14.8436 -14.8372 -14.7945 -14.7871 -14.7474
   -14.7260 -14.7246 -14.5960 -14.5084 -14.4367 -14.2002 -13.1781 -12.8334
   -12.7160  -9.7377  -6.3722  -5.3923  -4.8984  -3.5341  -3.4884  -3.3688
    -3.2779  -3.2635  -3.2419  -3.1056  -2.9522  -2.7822  -2.7688  -2.7552
    -2.6388  -2.5611  -2.5549  -2.5300  -2.3786  -2.3571  -2.3061  -2.2406
    -2.2129  -2.1650  -2.1541  -2.1327  -2.1134  -2.0935  -2.0853  -1.9714
    -1.9205  -1.8277  -1.7719  -1.7444  -1.7089  -1.6811  -1.6659  -1.6386
    -1.6306  -1.5881  -1.5610  -1.5392  -1.4880  -1.3759  -1.2670  -1.2369
    -1.1394  -0.9872  -0.9542  -0.9413  -0.9299  -0.8533  -0.8362  -0.7880
    -0.7353  -0.7273  -0.6964  -0.5856  -0.5272  -0.4621  -0.3955  -0.3839
    -0.3371  -0.2753  -0.1629  -0.1387  -0.1162  -0.0911   0.0026   0.0421
     0.0870   0.1619   0.1812   0.1948   0.3016   0.3094   0.3893   0.4014
     0.4471   0.5336   0.5679   0.5902   0.5941   0.6075   0.6375   0.7046
     0.7289   0.7552   0.8303   0.9541   1.0190   1.1862   1.2492   1.2628
     1.5925   1.5968   1.6919   1.8757   2.2681   2.3163   3.7486   3.8181
     3.8930   3.8996   3.9116   3.9853   4.2225   4.2387   4.2513   4.2575
     4.2921

[...]

          k = 0.0380-0.0419 0.0000 ( 17876 PWs)   bands (ev):

[...]

          k =-0.0760-0.0000 0.0000 ( 17886 PWs)   bands (ev):

[...]

          k =-0.0760-0.0839 0.0000 ( 17948 PWs)   bands (ev):

   -55.3346 -55.3259 -55.2838 -55.2835 -55.2684 -55.2292 -55.2119 -55.2035
   -55.1536 -55.1498 -55.1484 -55.1162 -55.1158 -55.0279 -54.3136 -54.3135
   -31.7245 -31.7216 -31.7180 -31.6343 -31.6085 -31.6083 -31.6058 -31.5752
   -31.5752 -31.5571 -31.5497 -31.5474 -31.5413 -31.5114 -31.5045 -31.4865
   -31.4861 -31.4823 -31.4788 -31.4736 -31.4704 -31.4697 -31.4326 -31.4275
   -31.4254 -31.4207 -31.4164 -31.4052 -31.4035 -31.4033 -31.3964 -31.3871
   -31.3829 -31.3667 -31.3632 -31.3470 -31.3467 -31.3368 -31.2972 -31.2967
   -31.2863 -31.2377 -30.6364 -30.6363 -30.5526 -30.5525 -30.5131 -30.5130
   -17.7949 -15.7083 -15.5964 -15.5502 -15.3771 -15.3548 -15.3323 -15.3175
   -15.1895 -15.1711 -15.1432 -15.1167 -15.0917 -15.0641 -15.0529 -15.0479
   -14.9655 -14.9535 -14.9461 -14.9299 -14.8621 -14.8592 -14.8549 -14.8490
   -14.7983 -14.7957 -14.7151 -14.7018 -14.7003 -14.5025 -13.1791 -12.8175
   -12.8174  -9.7341  -6.3597  -5.3920  -4.9041  -3.4569  -2.8650  -2.8296
    -2.8060  -2.7845  -2.5926  -2.5545  -2.5176  -2.5051  -2.4060  -2.3639
    -2.3461  -2.3389  -2.2684  -2.2651  -2.2342  -2.2042  -2.1832  -2.1661
    -2.1523  -2.1304  -2.1056  -2.0763  -2.0703  -2.0550  -2.0010  -1.9984
    -1.9826  -1.9607  -1.9432  -1.9221  -1.9056  -1.8489  -1.7266  -1.7164
    -1.6623  -1.5559  -1.5514  -1.4712  -1.4660  -1.4220  -1.3942  -1.3821
    -1.3548  -1.1748  -1.1212  -1.0949  -1.0874  -1.0756  -0.9670  -0.9330
    -0.8749  -0.8592  -0.8331  -0.7353  -0.6847  -0.6803  -0.5987  -0.5672
    -0.5280  -0.4865  -0.3854  -0.3557  -0.3358  -0.3068  -0.3034  -0.2498
    -0.2444  -0.1677  -0.1199  -0.0839  -0.0694  -0.0384   0.1611   0.1707
     0.1890   0.3359   0.3588   0.4988   0.5428   0.5847   0.6455   0.6971
     0.7631   0.8038   0.9305   0.9585   0.9592   1.0292   1.0481   1.0516
     1.1077   1.1096   2.0484   2.0490   2.1362   2.1365   3.8915   3.9961
     4.0110   4.0564   4.1661   4.2400   4.2632   4.2900   4.3330   4.3358
     4.4071

     the Fermi energy is     3.8114 ev

!    total energy              =   -2942.85976892 Ry
     estimated scf accuracy    <       0.00000005 Ry
     smearing contrib. (-TS)   =      -0.03701520 Ry
     internal energy E=F+TS    =   -2942.82275372 Ry

     The total energy is F=E-TS. E is the sum of the following terms:
     one-electron contribution =  -23389.07930273 Ry
     hartree contribution      =   11787.07589166 Ry
     xc contribution           =    -487.75714728 Ry
     ewald contribution        =    9146.93498657 Ry
     electric field correction =       0.00281804 Ry

     convergence has been achieved in  73 iterations

     Forces acting on atoms (cartesian axes, Ry/au):

     atom    1 type  1   force =     0.00000155   -0.00025780    0.09309491
     atom    2 type  1   force =    -0.00014603   -0.00043314   -0.17825527
     atom    3 type  2   force =     0.00007435   -0.00008526   -0.02024630
     atom    4 type  2   force =     0.00001717   -0.00186667    0.05881785
     atom    5 type  2   force =    -0.01019730   -0.00054563    0.00774001
     atom    6 type  2   force =     0.01224861    0.00007253    0.00820018
     atom    7 type  1   force =     0.00038867    0.00328719   -0.01427305
     atom    8 type  1   force =    -0.00045694    0.00046157   -0.00457357
     atom    9 type  2   force =    -0.00002655   -0.00061730   -0.00035649
     atom   10 type  2   force =    -0.00059689    0.00091328   -0.00140984
     atom   11 type  2   force =    -0.00038070   -0.00012667    0.00024252
     atom   12 type  2   force =     0.00007092   -0.00007282    0.00005002
     atom   13 type  1   force =     0.00005327   -0.00031880    0.00018986
     atom   14 type  1   force =    -0.00036420    0.00013032    0.00044191
     atom   15 type  2   force =    -0.00015672    0.00079555    0.00024111
     atom   16 type  2   force =    -0.00008723   -0.00018774    0.00032539
     atom   17 type  2   force =    -0.00046087    0.00005745    0.00041391
     atom   18 type  2   force =     0.00014138   -0.00019436   -0.00007778
     atom   19 type  1   force =     0.00034467    0.00028022    0.00086200
     atom   20 type  1   force =    -0.00063883   -0.00070887    0.00028890
     atom   21 type  2   force =     0.00000329   -0.00010445    0.10392823
     atom   22 type  2   force =    -0.00019054    0.00002968   -0.00065862
     atom   23 type  2   force =    -0.07035149   -0.00022622   -0.02686397
     atom   24 type  2   force =     0.07024901    0.00019914   -0.02694442
     atom   25 type  1   force =     0.00001837   -0.00026775    0.09276137
     atom   26 type  1   force =    -0.00011804   -0.00044689   -0.17828908
     atom   27 type  2   force =     0.00013887   -0.00033235   -0.01927279
     atom   28 type  2   force =     0.00008284   -0.00155038    0.05821049
     atom   29 type  2   force =    -0.01021029   -0.00033203    0.00695915
     atom   30 type  2   force =     0.01216108   -0.00008996    0.00749372
     atom   31 type  1   force =     0.00040178    0.00495498   -0.01540921
     atom   32 type  1   force =    -0.00037758   -0.00033826   -0.00467447
     atom   33 type  2   force =    -0.00021811   -0.00047617    0.00016758
     atom   34 type  2   force =    -0.00014043    0.00363849   -0.00059709
     atom   35 type  2   force =     0.00002531   -0.00055492    0.00032857
     atom   36 type  2   force =    -0.00018315   -0.00052463   -0.00002156
     atom   37 type  1   force =    -0.00025958   -0.00049653    0.00050968
     atom   38 type  1   force =    -0.00019449   -0.00089990    0.00047374
     atom   39 type  2   force =    -0.00047705   -0.00052980    0.00052361
     atom   40 type  2   force =     0.00001529   -0.00048626   -0.00041176
     atom   41 type  2   force =    -0.00080283   -0.00012295   -0.00012635
     atom   42 type  2   force =     0.00030968   -0.00026469   -0.00031493
     atom   43 type  1   force =     0.00005526   -0.00031676   -0.00008795
     atom   44 type  1   force =    -0.00008042   -0.00062737    0.00070030
     atom   45 type  2   force =     0.00000965   -0.00014341    0.10391612
     atom   46 type  2   force =    -0.07040622   -0.00018203   -0.02688280
     atom   47 type  2   force =     0.07027135    0.00026016   -0.02695408
     atom   48 type  3   force =    -0.00009867    0.00277727   -0.00021677
     atom   49 type  3   force =    -0.00003176    0.00100893   -0.00038205
     atom   50 type  4   force =    -0.00061670   -0.00139633    0.00220380
     atom   51 type  5   force =    -0.00161645    0.00127051   -0.00228343
     atom   52 type  5   force =     0.00077492   -0.00064066    0.00045828
     atom   53 type  5   force =     0.00128105   -0.00012316    0.00099613
     atom   54 type  5   force =     0.00009774   -0.00059319   -0.00044692
     atom   55 type  5   force =     0.00054239   -0.00177263   -0.00031579
     atom   56 type  5   force =     0.00010759   -0.00088252   -0.00019299

     Total force =     0.366150     Total SCF correction =     0.000602
  @ DRIVER MODE: Message from server: STATUS
  @ DRIVER MODE: Message from server: GETFORCE
  @ DRIVER MODE: Returning v,forces,stress,ensemble

     Writing output data file ./calc.save/
  @ DRIVER MODE: Message from server: EXIT
  @ DRIVE MODE: Exiting

     General routines

     Parallel routines

   This run was terminated on:   6:14:12   9Sep2021

   JOB DONE.