     Program PWSCF v.6.7GPU starts on 16Jul2021 at  4: 2:12

     R & G space division:  proc/nbgrp/npool/nimage =      16
     Reading input from /storage/home/hcoda1/3/ntian30/research/carbon/15Jul_vib/ads_slab/CH3NH_b/out_0023/pw.inp
Warning: card &CELL ignored
Warning: card   CELL_DYNAMICS='IPI', ignored
Warning: card / ignored

     Current dimensions of program PWSCF are:
     Max number of different atomic species (ntypx) = 10
     Max number of k-points (npk) =  40000
     Max angular momentum in pseudopotentials (lmaxx) =  3
     Presently no symmetry can be used with electric field

     Message from routine cell_base_init:
     DEPRECATED: use true lattice parameter, not A to a.u. conversion factor

     IMPORTANT: XC functional enforced from input :
     Exchange-correlation= BEEF-VDW
                           (   1   4  43  14   2   0   0)
     Any further DFT definition will be discarded
     Please, verify this is what you really want

  @ DRIVER MODE: Connecting to
 qe_1139763_2351649.sched-torque.pace.gatech.edumygcgjcy_scratch
  using UNIX socket
  @ DRIVER MODE: Message from server: STATUS
  @ DRIVER MODE: Message from server: INIT
  @ DRIVER MODE: Receiving replica           0          -1
  @ DRIVER MODE: Receiving encoded integer          25
  @ DRIVER MODE:  SCF:  T  FORCE:  T  STRESS:  F  VC:  F  ENSEMBLE:  F
  @ DRIVER MODE:  SCF:  T  FORCE:  T  STRESS:  F  VC:  F  ENSEMBLE:  F

     Using Slab Decomposition

     bravais-lattice index     =            0
     lattice parameter (alat)  =       1.8897  a.u.
     unit-cell volume          =    6658.9804 (a.u.)^3
     number of atoms/cell      =           53
     number of atomic types    =            5
     number of electrons       =       391.00
     number of Kohn-Sham states=          205
     kinetic-energy cutoff     =      29.3995  Ry
     charge density cutoff     =     293.9946  Ry
     scf convergence threshold =      7.3E-08
     mixing beta               =       0.0500
     number of iterations used =            8  plain     mixing
     Exchange-correlation= BEEF-VDW
                           (   1   4  43  14   2   0   0)

     celldm(1)=   1.889726  celldm(2)=   0.000000  celldm(3)=   0.000000
     celldm(4)=   0.000000  celldm(5)=   0.000000  celldm(6)=   0.000000

     crystal axes: (cart. coord. in units of alat)
               a(1) = (   6.579727   0.000000   0.000000 )
               a(2) = (  -0.000775   5.961596   0.000000 )
               a(3) = (   0.000000   0.000000  25.155947 )

     reciprocal axes: (cart. coord. in units 2 pi/alat)
               b(1) = (  0.151982  0.000020  0.000000 )
               b(2) = (  0.000000  0.167740  0.000000 )
               b(3) = (  0.000000  0.000000  0.039752 )

     PseudoPot. # 1 for Ti read from file:
     /storage/coda1/p-amedford6/0/shared/rich_project_chbe-medford/medford-share/data/pseudos_module/espresso/nninc/pbe/van/Ti.UPF
     MD5 check sum: 8e4df49b7f0d34bbd5052bf3f5ea0213
     Pseudo is Ultrasoft, Zval = 12.0
     Generated by new atomic code, or converted to UPF format
     Using radial grid of  851 points,  6 beta functions with:
                l(1) =   0
                l(2) =   0
                l(3) =   1
                l(4) =   1
                l(5) =   2
                l(6) =   2
     Q(r) pseudized with  8 coefficients,  rinner =    1.000   1.000   1.000
                                                       1.000   1.000

     PseudoPot. # 2 for O  read from file:
     /storage/coda1/p-amedford6/0/shared/rich_project_chbe-medford/medford-share/data/pseudos_module/espresso/nninc/pbe/van/O.UPF
     MD5 check sum: 78c19812648e8988a0fe644b0f25305e
     Pseudo is Ultrasoft, Zval =  6.0
     Generated by new atomic code, or converted to UPF format
     Using radial grid of  737 points,  4 beta functions with:
                l(1) =   0
                l(2) =   0
                l(3) =   1
                l(4) =   1
     Q(r) pseudized with  8 coefficients,  rinner =    0.800   0.800   0.800

     PseudoPot. # 3 for H  read from file:
     /storage/coda1/p-amedford6/0/shared/rich_project_chbe-medford/medford-share/data/pseudos_module/espresso/nninc/pbe/van/H.UPF
     MD5 check sum: b5ee9d7bfd3a09ee7748110bda690ff7
     Pseudo is Ultrasoft, Zval =  1.0
     Generated by new atomic code, or converted to UPF format
     Using radial grid of  615 points,  1 beta functions with:
                l(1) =   0
     Q(r) pseudized with  8 coefficients,  rinner =    0.800

     PseudoPot. # 4 for N  read from file:
     /storage/coda1/p-amedford6/0/shared/rich_project_chbe-medford/medford-share/data/pseudos_module/espresso/nninc/pbe/van/N.UPF
     MD5 check sum: 90d10febe142ad51ac9d5be1deb811c4
     Pseudo is Ultrasoft, Zval =  5.0
     Generated by new atomic code, or converted to UPF format
     Using radial grid of  729 points,  4 beta functions with:
                l(1) =   0
                l(2) =   0
                l(3) =   1
                l(4) =   1
     Q(r) pseudized with  8 coefficients,  rinner =    0.800   0.800   0.800

     PseudoPot. # 5 for C  read from file:
     /storage/coda1/p-amedford6/0/shared/rich_project_chbe-medford/medford-share/data/pseudos_module/espresso/nninc/pbe/van/C.UPF
     MD5 check sum: 1a69bf6b8db32088f5b2163dbdb77a27
     Pseudo is Ultrasoft, Zval =  4.0
     Generated by new atomic code, or converted to UPF format
     Using radial grid of  721 points,  4 beta functions with:
                l(1) =   0
                l(2) =   0
                l(3) =   1
                l(4) =   1
     Q(r) pseudized with  8 coefficients,  rinner =    0.800   0.800   0.800

     atomic species   valence    mass     pseudopotential
        Ti1           12.00    47.86700     Ti( 1.00)
        O1             6.00    15.99900     O ( 1.00)
        H1             1.00     1.00800     H ( 1.00)
        N1             5.00    14.00700     N ( 1.00)
        C1             4.00    12.01100     C ( 1.00)

     Starting magnetic structure
     atomic species   magnetization
        Ti1          0.000
        O1           0.000
        H1           0.000
        N1           0.000
        C1           0.025

     No symmetry found

   Cartesian axes

     site n.     atom                  positions (alat units)
         1           Ti1 tau(   1) = (   0.0004258   2.9801865   6.0000000  )
         2           Ti1 tau(   2) = (   3.2906075   1.4906267   6.0002472  )
         3           O1  tau(   3) = (   0.0006271   0.0005054   7.9858123  )
         4           O1  tau(   4) = (   3.2906025   0.0005020   7.3038282  )
         5           O1  tau(   5) = (   4.5942328   1.4918067   9.2879030  )
         6           O1  tau(   6) = (   1.9868534   1.4903216   9.2879459  )
         7           Ti1 tau(   7) = (   3.2907910   2.8959150   9.1758416  )
         8           Ti1 tau(   8) = (   0.0015273   1.4827037   9.2680791  )
         9           O1  tau(   9) = (   3.2906183   5.9580730  11.3246990  )
        10           O1  tau(  10) = (   0.0116148   5.9584955  10.6183126  )
        11           O1  tau(  11) = (   1.3160896   1.4863360  12.6200149  )
        12           O1  tau(  12) = (   5.2947061   1.4800608  12.6053981  )
        13           Ti1 tau(  13) = (   6.5224157   2.9421717  12.6196007  )
        14           Ti1 tau(  14) = (   3.2076970   1.4879367  12.4696142  )
        15           O1  tau(  15) = (   6.5517659   0.0158556  14.6493665  )
        16           O1  tau(  16) = (   3.3109316   0.0069331  13.9179417  )
        17           O1  tau(  17) = (   4.5083530   1.5297238  16.0872293  )
        18           O1  tau(  18) = (   2.0274073   1.5273405  16.0409094  )
        19           Ti1 tau(  19) = (   3.2920608   3.0081397  15.6838061  )
        20           Ti1 tau(  20) = (   0.0536170   1.5416865  15.8648894  )
        21           O1  tau(  21) = (   3.2904802   0.0005063   4.7018136  )
        22           O1  tau(  22) = (   0.0122827   0.0301012  17.2134340  )
        23           O1  tau(  23) = (   1.3043587   1.4918075   6.0039043  )
        24           O1  tau(  24) = (   5.2767064   1.4903225   6.0039473  )
        25           Ti1 tau(  25) = (   0.0000382   5.9609847   6.0000000  )
        26           Ti1 tau(  26) = (   3.2902200   4.4714249   6.0002472  )
        27           O1  tau(  27) = (   0.0002396   2.9813036   7.9858123  )
        28           O1  tau(  28) = (   3.2902150   2.9813002   7.3038282  )
        29           O1  tau(  29) = (   4.5938453   4.4726049   9.2879030  )
        30           O1  tau(  30) = (   1.9864658   4.4711199   9.2879459  )
        31           Ti1 tau(  31) = (   3.2891106   5.8743827   9.1763621  )
        32           Ti1 tau(  32) = (   0.0006254   4.4649316   9.2693709  )
        33           O1  tau(  33) = (   3.2866862   2.9837957  11.3234553  )
        34           O1  tau(  34) = (   0.0092240   2.9805883  10.6323155  )
        35           O1  tau(  35) = (   1.3095649   4.4762946  12.6335636  )
        36           O1  tau(  36) = (   5.2963019   4.4650584  12.6194355  )
        37           Ti1 tau(  37) = (   6.5192018   5.9199268  12.5733442  )
        38           Ti1 tau(  38) = (   3.2055211   4.4685508  12.4747853  )
        39           O1  tau(  39) = (   6.5624772   2.9349094  14.6472044  )
        40           O1  tau(  40) = (   3.3065106   2.9879112  13.8942307  )
        41           O1  tau(  41) = (   4.5199725   4.4841037  16.0899424  )
        42           O1  tau(  42) = (   2.0389375   4.4882992  16.0664246  )
        43           Ti1 tau(  43) = (   3.3279474   0.0221627  15.7114356  )
        44           Ti1 tau(  44) = (   0.0314192   4.6578676  16.1055029  )
        45           O1  tau(  45) = (   3.2900926   2.9813045   4.7018136  )
        46           O1  tau(  46) = (   1.3039711   4.4726057   6.0039043  )
        47           O1  tau(  47) = (   5.2763189   4.4711207   6.0039473  )
        48           H1  tau(  48) = (   5.5751926   2.9245997  17.7795037  )
        49           N1  tau(  49) = (   6.5345126   2.9709300  17.4463781  )
        50           C1  tau(  50) = (   0.8205834   2.9192471  18.6315588  )
        51           H1  tau(  51) = (   0.6379014   3.7726647  19.2831901  )
        52           H1  tau(  52) = (   0.6616828   1.9903841  19.1881566  )
        53           H1  tau(  53) = (   1.8691752   2.9530840  18.3388921  )

     number of k points=    10  Fermi-Dirac smearing, width (Ry)=  0.0073
                       cart. coord. in units 2pi/alat
        k(    1) = (   0.0000000   0.0000000   0.0000000), wk =   0.0625000
        k(    2) = (   0.0000000   0.0419351   0.0000000), wk =   0.1250000
        k(    3) = (   0.0000000  -0.0838702   0.0000000), wk =   0.0625000
        k(    4) = (   0.0379955   0.0000049   0.0000000), wk =   0.1250000
        k(    5) = (   0.0379955   0.0419400   0.0000000), wk =   0.1250000
        k(    6) = (   0.0379955  -0.0838652   0.0000000), wk =   0.1250000
        k(    7) = (   0.0379955  -0.0419301   0.0000000), wk =   0.1250000
        k(    8) = (  -0.0759910  -0.0000099   0.0000000), wk =   0.0625000
[...]
        k(   10) = (  -0.0759910  -0.0838800   0.0000000), wk =   0.0625000

     Initial potential from superposition of free atoms

     starting charge  374.99916, renormalised to  391.00000

     negative rho (up, down):  8.895E-03 8.902E-03

     %%%%%%%%%%%%%%%%%%%%%%%%%%%%%%%%%%%%%%%%%%%%%%%%%%%%%%%%%%%%%%%%%%%%%%%%
     %                                                                      %
     % You are using vdW-DF, which was implemented by the Thonhauser group. %
     % Please cite the following two papers that made this development      %
     % possible and the two reviews that describe the various versions:     %
     %                                                                      %
     %   T. Thonhauser et al., PRL 115, 136402 (2015).                      %
     %   T. Thonhauser et al., PRB 76, 125112 (2007).                       %
     %   K. Berland et al., Rep. Prog. Phys. 78, 066501 (2015).             %
     %   D.C. Langreth et al., J. Phys.: Condens. Matter 21, 084203 (2009). %
     %                                                                      %
     %                                                                      %
     % If you are calculating the stress with vdW-DF, please also cite:     %
     %                                                                      %
     %   R. Sabatini et al., J. Phys.: Condens. Matter 24, 424209 (2012).   %
     %                                                                      %
     %%%%%%%%%%%%%%%%%%%%%%%%%%%%%%%%%%%%%%%%%%%%%%%%%%%%%%%%%%%%%%%%%%%%%%%%

     Adding external electric field

     Computed dipole along edir(3) :
        Dipole               -5.8154 Ry au,        -14.7814 Debye
        Dipole field         -0.0110 Ry au,

        Potential amp.        1.0173 Ry
        Total length         46.3494 bohr

[...]

     Starting wfcs are  296 atomic wfcs
  @ DRIVER MODE: Message from server: STATUS
  @ DRIVER MODE: Message from server: POSDATA
  @ DRIVER MODE: Reading and sharing cell
  @ DRIVER MODE: Reading and sharing positions
  @ DRIVER MODE: Received positions

     Self-consistent Calculation

     iteration #  1     ecut=    29.40 Ry     beta= 0.05
     Davidson diagonalization with overlap
     c_bands:  3 eigenvalues not converged
     c_bands:  1 eigenvalues not converged
     c_bands:  1 eigenvalues not converged
     c_bands:  2 eigenvalues not converged
     c_bands:  4 eigenvalues not converged
     c_bands:  2 eigenvalues not converged
     c_bands:  1 eigenvalues not converged
     c_bands:  1 eigenvalues not converged
     c_bands:  2 eigenvalues not converged
     c_bands:  3 eigenvalues not converged
     c_bands:  1 eigenvalues not converged
     c_bands:  1 eigenvalues not converged
     c_bands:  3 eigenvalues not converged
     c_bands:  4 eigenvalues not converged
     c_bands:  3 eigenvalues not converged
     c_bands:  1 eigenvalues not converged
     c_bands:  1 eigenvalues not converged
     c_bands:  2 eigenvalues not converged
     ethr =  1.00E-05,  avg # of iterations = 19.6

[...]

     total energy              =   -2770.82371699 Ry
     estimated scf accuracy    <    1639.71580127 Ry

     total magnetization       =     0.01 Bohr mag/cell
     absolute magnetization    =     0.03 Bohr mag/cell

     iteration #  2     ecut=    29.40 Ry     beta= 0.05
     Davidson diagonalization with overlap
     ethr =  1.00E-02,  avg # of iterations = 18.6

[...]

     iteration # 57     ecut=    29.40 Ry     beta= 0.05
     Davidson diagonalization with overlap
     c_bands:  1 eigenvalues not converged
     ethr =  3.21E-10,  avg # of iterations = 11.9

[...]

     total energy              =   -2920.42457159 Ry
     estimated scf accuracy    <       0.00000009 Ry

[...]

     iteration # 64     ecut=    29.40 Ry     beta= 0.05
     Davidson diagonalization with overlap
     ethr =  2.09E-11,  avg # of iterations =  4.5

     negative rho (up, down):  9.099E-03 9.099E-03

[...]

     Adding external electric field

     Computed dipole along edir(3) :
        Dipole                0.6850 Ry au,          1.7412 Debye
        Dipole field          0.0013 Ry au,

        Potential amp.       -0.1198 Ry
        Total length         46.3494 bohr

     Magnetic moment per site  (integrated on atomic sphere of radius R)
     atom   1 (R=0.715)  charge=  7.8452  magn= -0.0011
     atom   2 (R=0.715)  charge=  7.8287  magn= -0.0001
     atom   3 (R=0.715)  charge=  4.8552  magn=  0.0001
     atom   4 (R=0.715)  charge=  4.8904  magn=  0.0000
     atom   5 (R=0.715)  charge=  4.8609  magn=  0.0000
     atom   6 (R=0.715)  charge=  4.8616  magn=  0.0000
     atom   7 (R=0.715)  charge=  7.8276  magn= -0.0001
     atom   8 (R=0.715)  charge=  7.8194  magn= -0.0003
     atom   9 (R=0.715)  charge=  4.8766  magn=  0.0001
     atom  10 (R=0.715)  charge=  4.8485  magn=  0.0000
     atom  11 (R=0.715)  charge=  4.8624  magn=  0.0001
     atom  12 (R=0.715)  charge=  4.8618  magn=  0.0000
     atom  13 (R=0.715)  charge=  7.8170  magn= -0.0001
     atom  14 (R=0.715)  charge=  7.8304  magn= -0.0002
     atom  15 (R=0.715)  charge=  4.8497  magn=  0.0000
     atom  16 (R=0.715)  charge=  4.8722  magn=  0.0000
     atom  17 (R=0.715)  charge=  4.8476  magn=  0.0000
     atom  18 (R=0.715)  charge=  4.8546  magn=  0.0000
     atom  19 (R=0.715)  charge=  7.8557  magn= -0.0000
     atom  20 (R=0.715)  charge=  7.8308  magn= -0.0000
     atom  21 (R=0.715)  charge=  4.7478  magn=  0.0001
     atom  22 (R=0.715)  charge=  4.8259  magn=  0.0000
     atom  23 (R=0.715)  charge=  4.8532  magn=  0.0001
     atom  24 (R=0.715)  charge=  4.8532  magn=  0.0001
     atom  25 (R=0.715)  charge=  7.8452  magn= -0.0010
     atom  26 (R=0.715)  charge=  7.8288  magn= -0.0001
     atom  27 (R=0.715)  charge=  4.8545  magn=  0.0001
     atom  28 (R=0.715)  charge=  4.8906  magn=  0.0000
     atom  29 (R=0.715)  charge=  4.8616  magn=  0.0000
     atom  30 (R=0.715)  charge=  4.8623  magn=  0.0000
     atom  31 (R=0.715)  charge=  7.8277  magn= -0.0001
     atom  32 (R=0.715)  charge=  7.8194  magn= -0.0003
     atom  33 (R=0.715)  charge=  4.8755  magn=  0.0001
     atom  34 (R=0.715)  charge=  4.8372  magn=  0.0001
     atom  35 (R=0.715)  charge=  4.8620  magn=  0.0001
     atom  36 (R=0.715)  charge=  4.8623  magn=  0.0000
     atom  37 (R=0.715)  charge=  7.8196  magn= -0.0001
     atom  38 (R=0.715)  charge=  7.8303  magn= -0.0002
     atom  39 (R=0.715)  charge=  4.8446  magn=  0.0000
     atom  40 (R=0.715)  charge=  4.8783  magn=  0.0000
     atom  41 (R=0.715)  charge=  4.8510  magn= -0.0000
     atom  42 (R=0.715)  charge=  4.8519  magn=  0.0000
     atom  43 (R=0.715)  charge=  7.8536  magn= -0.0000
     atom  44 (R=0.715)  charge=  7.8554  magn= -0.0000
     atom  45 (R=0.715)  charge=  4.7478  magn=  0.0000
     atom  46 (R=0.715)  charge=  4.8532  magn=  0.0001
     atom  47 (R=0.715)  charge=  4.8532  magn=  0.0001
     atom  48 (R=0.419)  charge=  0.4545  magn=  0.0000
     atom  49 (R=0.419)  charge=  1.3289  magn= -0.0000
     atom  50 (R=0.449)  charge=  0.8470  magn=  0.0000
     atom  51 (R=0.419)  charge=  0.4454  magn= -0.0000
     atom  52 (R=0.419)  charge=  0.4411  magn= -0.0000
     atom  53 (R=0.419)  charge=  0.4478  magn= -0.0000

     End of self-consistent calculation

 ------ SPIN UP ------------

          k = 0.0000 0.0000 0.0000 ( 18029 PWs)   bands (ev):

   -55.9943 -55.9871 -55.9602 -55.9509 -55.9022 -55.8376 -55.8372 -55.8028
   -55.7984 -55.7645 -55.7590 -55.7253 -55.5383 -55.2717 -54.9675 -54.9335
   -32.5459 -32.4760 -32.3493 -32.3389 -32.3145 -32.2975 -32.2871 -32.2499
   -32.2352 -32.2350 -32.2109 -32.2035 -32.1695 -32.1460 -32.1389 -32.1334
   -32.1294 -32.0979 -32.0768 -32.0510 -32.0476 -32.0400 -32.0250 -31.9976
   -31.9907 -31.9900 -31.9847 -31.9767 -31.9622 -31.9567 -31.9529 -31.9428
   -31.9351 -31.9280 -31.9120 -31.9056 -31.8714 -31.8076 -31.7092 -31.5463
   -31.5415 -31.4664 -31.3742 -31.2864 -31.2639 -31.1909 -31.1045 -30.9934
   -16.7553 -16.4721 -16.2926 -16.1495 -16.1173 -16.0318 -15.8309 -15.7042
   -15.6920 -15.5882 -15.5553 -15.5291 -15.5224 -15.4960 -15.4911 -15.4299
   -15.4280 -15.4144 -15.4051 -15.3484 -15.3237 -15.2703 -15.1909 -15.1579
   -15.1525 -15.1249 -15.0430 -15.0379 -14.5849 -14.1784 -13.4700 -13.3537
    -8.9389  -4.3591  -4.1263  -3.9519  -3.9127  -3.8972  -3.8472  -3.5931
    -3.5781  -3.3504  -3.2290  -3.1957  -3.1776  -3.1687  -3.1482  -3.1372
    -2.8909  -2.8253  -2.8092  -2.7873  -2.7793  -2.7731  -2.7610  -2.7604
    -2.7209  -2.6585  -2.5328  -2.4979  -2.4193  -2.3821  -2.3518  -2.3043
    -2.2604  -2.2535  -2.2423  -2.2237  -2.2109  -2.1871  -2.1706  -2.0367
    -1.9707  -1.8357  -1.8007  -1.7813  -1.5954  -1.5369  -1.4720  -1.4331
    -1.4199  -1.4128  -1.3811  -1.2994  -1.2079  -1.1517  -1.1415  -1.0853
    -1.0079  -0.9964  -0.8886  -0.8832  -0.8553  -0.7660  -0.7554  -0.7443
    -0.7258  -0.6571  -0.5572  -0.4795  -0.4346  -0.4045  -0.3738  -0.3042
    -0.2741  -0.1718  -0.1562  -0.1083  -0.1029  -0.0615  -0.0163  -0.0068
     0.0021   0.0099   0.0353   0.1777   0.2886   0.3436   0.3838   0.3898
     0.5443   0.5715   0.6686   0.7572   0.9818   1.0546   1.1480   1.2474
     1.3224   1.6253   1.6707   3.1490   3.2283   3.2814   3.2900   3.3926
     3.3978   3.5985   3.6080   3.6209   3.6884

[...]

          k =-0.0760-0.0000 0.0000 ( 17886 PWs)   bands (ev):

[...]

 ------ SPIN DOWN ----------

[...]

          k = 0.0380-0.0419 0.0000 ( 17876 PWs)   bands (ev):

[...]

          k =-0.0760-0.0839 0.0000 ( 17948 PWs)   bands (ev):

   -55.9795 -55.9789 -55.9709 -55.9682 -55.8971 -55.8426 -55.8211 -55.8197
   -55.7827 -55.7809 -55.7429 -55.7418 -55.5373 -55.2726 -54.9506 -54.9505
   -32.3514 -32.3477 -32.2924 -32.2920 -32.2808 -32.2749 -32.2743 -32.2599
   -32.1980 -32.1970 -32.1920 -32.1876 -32.1641 -32.1330 -32.1183 -32.1141
   -32.1009 -32.0991 -32.0989 -32.0983 -32.0939 -32.0825 -32.0802 -32.0485
   -32.0407 -32.0396 -32.0100 -31.9990 -31.9795 -31.9791 -31.9755 -31.9745
   -31.9576 -31.9569 -31.9556 -31.9527 -31.8768 -31.8100 -31.7046 -31.6108
   -31.5434 -31.4911 -31.2769 -31.2768 -31.1872 -31.1870 -31.1479 -31.1478
   -16.2088 -16.1737 -15.9370 -15.9259 -15.9191 -15.9036 -15.7576 -15.7108
   -15.6992 -15.6922 -15.6694 -15.6464 -15.5886 -15.5600 -15.5307 -15.5222
   -15.5160 -15.5138 -15.4522 -15.4471 -15.4240 -15.4171 -15.3036 -15.2998
   -15.2902 -15.2141 -15.1596 -15.0198 -14.7466 -14.2018 -13.4554 -13.4553
    -8.9436  -4.3709  -3.5030  -3.4628  -3.3067  -3.2458  -3.1777  -3.1611
    -3.1376  -3.0688  -2.9048  -2.8878  -2.8764  -2.8611  -2.8190  -2.8128
    -2.8025  -2.7902  -2.7833  -2.7642  -2.7308  -2.6981  -2.6595  -2.6521
    -2.6435  -2.6186  -2.6076  -2.5860  -2.5742  -2.5432  -2.5342  -2.5165
    -2.4871  -2.2252  -2.2054  -2.1945  -2.1235  -2.1168  -2.0833  -2.0654
    -2.0558  -2.0426  -1.9854  -1.8816  -1.7248  -1.6931  -1.6833  -1.6680
    -1.5845  -1.5755  -1.4221  -1.4009  -1.3806  -1.3435  -1.2894  -1.2668
    -1.2262  -1.1677  -1.1502  -1.0865  -1.0700  -1.0106  -0.9551  -0.9534
    -0.9323  -0.8568  -0.7753  -0.7598  -0.7465  -0.7076  -0.6975  -0.6105
    -0.5869  -0.4935  -0.4793  -0.4209  -0.3966  -0.2954  -0.1352  -0.0107
     0.0430   0.0689   0.1266   0.2250   0.2693   0.2812   0.3252   0.3314
     0.3932   0.4331   0.5466   0.5525   0.6274   0.7187   1.2597   1.4190
     1.4197   1.4906   1.4908   3.4115   3.4167   3.4638   3.4931   3.6479
     3.6526   3.6744   3.6756   3.8014   3.8285

     the Fermi energy is     3.1414 ev

!    total energy              =   -2920.42461007 Ry
     estimated scf accuracy    <       0.00000005 Ry
     smearing contrib. (-TS)   =      -0.02203248 Ry
     internal energy E=F+TS    =   -2920.40257759 Ry

     The total energy is F=E-TS. E is the sum of the following terms:
     one-electron contribution =  -24702.27619336 Ry
     hartree contribution      =   12435.76030150 Ry
     xc contribution           =    -480.87656005 Ry
     ewald contribution        =    9826.98898871 Ry
     electric field correction =       0.00088561 Ry

     total magnetization       =    -0.00 Bohr mag/cell
     absolute magnetization    =     0.01 Bohr mag/cell

     convergence has been achieved in  64 iterations

     Forces acting on atoms (cartesian axes, Ry/au):

     atom    1 type  1   force =     0.00011117   -0.00026628    0.09690322
     atom    2 type  1   force =     0.00002043   -0.00055384   -0.17506879
     atom    3 type  2   force =     0.00013548   -0.00007883   -0.02546216
     atom    4 type  2   force =    -0.00000622   -0.00137077    0.05230461
     atom    5 type  2   force =    -0.01236299   -0.00013203    0.00302461
     atom    6 type  2   force =     0.01378256    0.00023446    0.00238627
     atom    7 type  1   force =     0.00059661    0.00033055   -0.01263560
     atom    8 type  1   force =     0.00047143    0.00593990    0.03106216
     atom    9 type  2   force =    -0.00033204    0.00023469    0.00040587
     atom   10 type  2   force =    -0.00269579    0.00069261   -0.01625735
     atom   11 type  2   force =    -0.00040592    0.00012482    0.00016455
     atom   12 type  2   force =     0.00013519    0.00013562    0.00019201
     atom   13 type  1   force =    -0.00013610    0.00022081    0.00025654
     atom   14 type  1   force =    -0.00002558   -0.00020612   -0.00014393
     atom   15 type  2   force =     0.00020156    0.00004663    0.00031683
     atom   16 type  2   force =    -0.00006450    0.00027044    0.00022959
     atom   17 type  2   force =    -0.00011061   -0.00022749   -0.00023768
     atom   18 type  2   force =     0.00036338   -0.00011464    0.00024228
     atom   19 type  1   force =    -0.00003441    0.00019353   -0.00004813
     atom   20 type  1   force =    -0.00006258    0.00011565   -0.00036334
     atom   21 type  2   force =     0.00006710   -0.00005702    0.10309249
     atom   22 type  2   force =    -0.00010381   -0.00001666    0.00036725
     atom   23 type  2   force =    -0.07165240   -0.00015923   -0.02784357
     atom   24 type  2   force =     0.07157731    0.00032623   -0.02790226
     atom   25 type  1   force =     0.00011521   -0.00024012    0.09669002
     atom   26 type  1   force =     0.00012122   -0.00031842   -0.17523961
     atom   27 type  2   force =     0.00013448   -0.00023430   -0.02454019
     atom   28 type  2   force =     0.00002838   -0.00112864    0.05222026
     atom   29 type  2   force =    -0.01248562    0.00014850    0.00267691
     atom   30 type  2   force =     0.01379381    0.00069475    0.00202019
     atom   31 type  1   force =     0.00050076    0.00289849   -0.01335561
     atom   32 type  1   force =     0.00030297   -0.00821169    0.03148072
     atom   33 type  2   force =    -0.00005667   -0.00005896   -0.00010741
     atom   34 type  2   force =    -0.00183892    0.00055987   -0.02457343
     atom   35 type  2   force =    -0.00013053    0.00010225    0.00004381
     atom   36 type  2   force =    -0.00025157    0.00020207    0.00011680
     atom   37 type  1   force =    -0.00007879    0.00028026    0.00025028
     atom   38 type  1   force =    -0.00022773   -0.00003529   -0.00016202
     atom   39 type  2   force =     0.00006275    0.00022419   -0.00016531
     atom   40 type  2   force =    -0.00016824    0.00027130   -0.00014867
     atom   41 type  2   force =     0.00004278    0.00007169    0.00024771
     atom   42 type  2   force =    -0.00010163   -0.00000553    0.00040843
     atom   43 type  1   force =    -0.00019040   -0.00016186    0.00046594
     atom   44 type  1   force =     0.00028820   -0.00035689    0.00003672
     atom   45 type  2   force =     0.00004940   -0.00006478    0.10310402
     atom   46 type  2   force =    -0.07166154   -0.00008687   -0.02784078
     atom   47 type  2   force =     0.07159393    0.00033559   -0.02791377
     atom   48 type  3   force =    -0.00049441    0.00021783    0.00003383
     atom   49 type  4   force =     0.00024341   -0.00115589   -0.00139749
     atom   50 type  5   force =     0.00255738   -0.00380017   -0.00487580
     atom   51 type  3   force =    -0.00150806    0.00353219    0.00514182
     atom   52 type  3   force =     0.00017276    0.00110304    0.00032806
     atom   53 type  3   force =    -0.00028264   -0.00046566    0.00006910

     Total force =     0.368504     Total SCF correction =     0.000494
  @ DRIVER MODE: Message from server: STATUS
  @ DRIVER MODE: Message from server: GETFORCE
  @ DRIVER MODE: Returning v,forces,stress,ensemble

     Writing output data file ./calc.save/
  @ DRIVER MODE: Message from server: EXIT
  @ DRIVE MODE: Exiting

     General routines

     Parallel routines

   This run was terminated on:   4:27:14  16Jul2021

   JOB DONE.