     Program PWSCF v.6.7GPU starts on 21Jul2021 at  3:37:22

     R & G space division:  proc/nbgrp/npool/nimage =      16
     Reading input from /storage/home/hcoda1/3/ntian30/research/carbon/15Jul_vib/ads_slab/CH3NHH_a/out_0023/pw.inp
Warning: card &CELL ignored
Warning: card   CELL_DYNAMICS='IPI', ignored
Warning: card / ignored

     Current dimensions of program PWSCF are:
     Max number of different atomic species (ntypx) = 10
     Max number of k-points (npk) =  40000
     Max angular momentum in pseudopotentials (lmaxx) =  3
     Presently no symmetry can be used with electric field

     Message from routine cell_base_init:
     DEPRECATED: use true lattice parameter, not A to a.u. conversion factor

     IMPORTANT: XC functional enforced from input :
     Exchange-correlation= BEEF-VDW
                           (   1   4  43  14   2   0   0)
     Any further DFT definition will be discarded
     Please, verify this is what you really want

  @ DRIVER MODE: Connecting to
 qe_1139763_2382402.sched-torque.pace.gatech.edut28iqfwm_scratch
  using UNIX socket
  @ DRIVER MODE: Message from server: STATUS
  @ DRIVER MODE: Message from server: INIT
  @ DRIVER MODE: Receiving replica           0          -1
  @ DRIVER MODE: Receiving encoded integer          25
  @ DRIVER MODE:  SCF:  T  FORCE:  T  STRESS:  F  VC:  F  ENSEMBLE:  F
  @ DRIVER MODE:  SCF:  T  FORCE:  T  STRESS:  F  VC:  F  ENSEMBLE:  F

     Using Slab Decomposition

     bravais-lattice index     =            0
     lattice parameter (alat)  =       1.8897  a.u.
     unit-cell volume          =    6658.9804 (a.u.)^3
     number of atoms/cell      =           54
     number of atomic types    =            5
     number of electrons       =       392.00
     number of Kohn-Sham states=          206
     kinetic-energy cutoff     =      29.3995  Ry
     charge density cutoff     =     293.9946  Ry
     scf convergence threshold =      7.3E-08
     mixing beta               =       0.0500
     number of iterations used =            8  plain     mixing
     Exchange-correlation= BEEF-VDW
                           (   1   4  43  14   2   0   0)

     celldm(1)=   1.889726  celldm(2)=   0.000000  celldm(3)=   0.000000
     celldm(4)=   0.000000  celldm(5)=   0.000000  celldm(6)=   0.000000

     crystal axes: (cart. coord. in units of alat)
               a(1) = (   6.579727   0.000000   0.000000 )
               a(2) = (  -0.000775   5.961596   0.000000 )
               a(3) = (   0.000000   0.000000  25.155947 )

     reciprocal axes: (cart. coord. in units 2 pi/alat)
               b(1) = (  0.151982  0.000020  0.000000 )
               b(2) = (  0.000000  0.167740  0.000000 )
               b(3) = (  0.000000  0.000000  0.039752 )

     PseudoPot. # 1 for Ti read from file:
     /storage/coda1/p-amedford6/0/shared/rich_project_chbe-medford/medford-share/data/pseudos_module/espresso/nninc/pbe/van/Ti.UPF
     MD5 check sum: 8e4df49b7f0d34bbd5052bf3f5ea0213
     Pseudo is Ultrasoft, Zval = 12.0
     Generated by new atomic code, or converted to UPF format
     Using radial grid of  851 points,  6 beta functions with:
                l(1) =   0
                l(2) =   0
                l(3) =   1
                l(4) =   1
                l(5) =   2
                l(6) =   2
     Q(r) pseudized with  8 coefficients,  rinner =    1.000   1.000   1.000
                                                       1.000   1.000

     PseudoPot. # 2 for O  read from file:
     /storage/coda1/p-amedford6/0/shared/rich_project_chbe-medford/medford-share/data/pseudos_module/espresso/nninc/pbe/van/O.UPF
     MD5 check sum: 78c19812648e8988a0fe644b0f25305e
     Pseudo is Ultrasoft, Zval =  6.0
     Generated by new atomic code, or converted to UPF format
     Using radial grid of  737 points,  4 beta functions with:
                l(1) =   0
                l(2) =   0
                l(3) =   1
                l(4) =   1
     Q(r) pseudized with  8 coefficients,  rinner =    0.800   0.800   0.800

     PseudoPot. # 3 for N  read from file:
     /storage/coda1/p-amedford6/0/shared/rich_project_chbe-medford/medford-share/data/pseudos_module/espresso/nninc/pbe/van/N.UPF
     MD5 check sum: 90d10febe142ad51ac9d5be1deb811c4
     Pseudo is Ultrasoft, Zval =  5.0
     Generated by new atomic code, or converted to UPF format
     Using radial grid of  729 points,  4 beta functions with:
                l(1) =   0
                l(2) =   0
                l(3) =   1
                l(4) =   1
     Q(r) pseudized with  8 coefficients,  rinner =    0.800   0.800   0.800

     PseudoPot. # 4 for C  read from file:
     /storage/coda1/p-amedford6/0/shared/rich_project_chbe-medford/medford-share/data/pseudos_module/espresso/nninc/pbe/van/C.UPF
     MD5 check sum: 1a69bf6b8db32088f5b2163dbdb77a27
     Pseudo is Ultrasoft, Zval =  4.0
     Generated by new atomic code, or converted to UPF format
     Using radial grid of  721 points,  4 beta functions with:
                l(1) =   0
                l(2) =   0
                l(3) =   1
                l(4) =   1
     Q(r) pseudized with  8 coefficients,  rinner =    0.800   0.800   0.800

     PseudoPot. # 5 for H  read from file:
     /storage/coda1/p-amedford6/0/shared/rich_project_chbe-medford/medford-share/data/pseudos_module/espresso/nninc/pbe/van/H.UPF
     MD5 check sum: b5ee9d7bfd3a09ee7748110bda690ff7
     Pseudo is Ultrasoft, Zval =  1.0
     Generated by new atomic code, or converted to UPF format
     Using radial grid of  615 points,  1 beta functions with:
                l(1) =   0
     Q(r) pseudized with  8 coefficients,  rinner =    0.800

     atomic species   valence    mass     pseudopotential
        Ti1           12.00    47.86700     Ti( 1.00)
        O1             6.00    15.99900     O ( 1.00)
        N1             5.00    14.00700     N ( 1.00)
        C1             4.00    12.01100     C ( 1.00)
        H1             1.00     1.00800     H ( 1.00)

     Starting magnetic structure
     atomic species   magnetization
        Ti1          0.000
        O1           0.000
        N1           0.000
        C1           0.025
        H1           0.000

     No symmetry found

   Cartesian axes

     site n.     atom                  positions (alat units)
         1           Ti1 tau(   1) = (   0.0004258   2.9801865   6.0000000  )
         2           Ti1 tau(   2) = (   3.2906075   1.4906267   6.0002472  )
         3           O1  tau(   3) = (   0.0006271   0.0005054   7.9858123  )
         4           O1  tau(   4) = (   3.2906025   0.0005020   7.3038282  )
         5           O1  tau(   5) = (   4.5942328   1.4918067   9.2879030  )
         6           O1  tau(   6) = (   1.9868534   1.4903216   9.2879459  )
         7           Ti1 tau(   7) = (   3.2907910   2.8959150   9.1758416  )
         8           Ti1 tau(   8) = (   0.0015273   1.4827037   9.2680791  )
         9           O1  tau(   9) = (   3.2893523   5.9576907  11.3759447  )
        10           O1  tau(  10) = (   0.0116148   5.9584955  10.6183126  )
        11           O1  tau(  11) = (   1.2892553   1.4862333  12.6941169  )
        12           O1  tau(  12) = (   5.2958346   1.4833122  12.6807028  )
        13           Ti1 tau(  13) = (   0.0095698   2.9692159  12.5083673  )
        14           Ti1 tau(  14) = (   3.3108451   1.4743585  12.5306019  )
        15           O1  tau(  15) = (   6.5736105   5.8801748  14.6991865  )
        16           O1  tau(  16) = (   3.2979610   5.9450902  14.0010558  )
        17           O1  tau(  17) = (   4.5273680   1.5185660  16.1654609  )
        18           O1  tau(  18) = (   2.0122787   1.5163527  16.1384539  )
        19           Ti1 tau(  19) = (   3.2802752   2.9921964  15.7561315  )
        20           Ti1 tau(  20) = (   0.0093588   1.3049760  15.8672178  )
        21           O1  tau(  21) = (   3.2904802   0.0005063   4.7018136  )
        22           O1  tau(  22) = (   6.5538635   0.1342075  17.2452287  )
        23           O1  tau(  23) = (   1.3043587   1.4918075   6.0039043  )
        24           O1  tau(  24) = (   5.2767064   1.4903225   6.0039473  )
        25           Ti1 tau(  25) = (   0.0000382   5.9609847   6.0000000  )
        26           Ti1 tau(  26) = (   3.2902200   4.4714249   6.0002472  )
        27           O1  tau(  27) = (   0.0002396   2.9813036   7.9858123  )
        28           O1  tau(  28) = (   3.2902150   2.9813002   7.3038282  )
        29           O1  tau(  29) = (   4.5938453   4.4726049   9.2879030  )
        30           O1  tau(  30) = (   1.9864658   4.4711199   9.2879459  )
        31           Ti1 tau(  31) = (   3.2891106   5.8743827   9.1763621  )
        32           Ti1 tau(  32) = (   0.0006254   4.4649316   9.2693709  )
        33           O1  tau(  33) = (   3.2933707   2.9638296  11.3700534  )
        34           O1  tau(  34) = (   0.0092240   2.9805883  10.6323155  )
        35           O1  tau(  35) = (   1.2923283   4.4540072  12.6594629  )
        36           O1  tau(  36) = (   5.2938616   4.4568750  12.6477176  )
        37           Ti1 tau(  37) = (   0.0202681   5.9396231  12.5027719  )
        38           Ti1 tau(  38) = (   3.3116628   4.4527548  12.5215617  )
        39           O1  tau(  39) = (   6.5466975   3.0260875  14.9671898  )
        40           O1  tau(  40) = (   3.2966604   2.9917109  13.9679302  )
        41           O1  tau(  41) = (   4.5116687   4.4737236  16.2360857  )
        42           O1  tau(  42) = (   2.0028912   4.4646324  16.2202640  )
        43           Ti1 tau(  43) = (   3.2937213   0.0113368  15.7972781  )
        44           Ti1 tau(  44) = (   0.0208052   4.5175143  16.0574476  )
        45           O1  tau(  45) = (   3.2900926   2.9813045   4.7018136  )
        46           O1  tau(  46) = (   1.3039711   4.4726057   6.0039043  )
        47           O1  tau(  47) = (   5.2763189   4.4711207   6.0039473  )
        48           N1  tau(  48) = (   6.3337458   3.3624127  18.1270434  )
        49           C1  tau(  49) = (   0.8795605   3.2639204  19.0799812  )
        50           H1  tau(  50) = (   1.4196110   4.2071110  19.0760701  )
        51           H1  tau(  51) = (   0.5395241   3.0459488  20.0857609  )
        52           H1  tau(  52) = (   1.5475163   2.4696122  18.7548312  )
        53           H1  tau(  53) = (   5.6940081   4.0973896  18.4182617  )
        54           H1  tau(  54) = (   5.7906660   2.4998151  18.1411682  )

     number of k points=    10  Fermi-Dirac smearing, width (Ry)=  0.0073
                       cart. coord. in units 2pi/alat
        k(    1) = (   0.0000000   0.0000000   0.0000000), wk =   0.0625000
        k(    2) = (   0.0000000   0.0419351   0.0000000), wk =   0.1250000
        k(    3) = (   0.0000000  -0.0838702   0.0000000), wk =   0.0625000
        k(    4) = (   0.0379955   0.0000049   0.0000000), wk =   0.1250000
        k(    5) = (   0.0379955   0.0419400   0.0000000), wk =   0.1250000
        k(    6) = (   0.0379955  -0.0838652   0.0000000), wk =   0.1250000
        k(    7) = (   0.0379955  -0.0419301   0.0000000), wk =   0.1250000
[...]
        k(   10) = (  -0.0759910  -0.0838800   0.0000000), wk =   0.0625000

     Initial potential from superposition of free atoms

     starting charge  375.99915, renormalised to  392.00000

     negative rho (up, down):  8.117E-03 8.124E-03

     %%%%%%%%%%%%%%%%%%%%%%%%%%%%%%%%%%%%%%%%%%%%%%%%%%%%%%%%%%%%%%%%%%%%%%%%
     %                                                                      %
     % You are using vdW-DF, which was implemented by the Thonhauser group. %
     % Please cite the following two papers that made this development      %
     % possible and the two reviews that describe the various versions:     %
     %                                                                      %
     %   T. Thonhauser et al., PRL 115, 136402 (2015).                      %
     %   T. Thonhauser et al., PRB 76, 125112 (2007).                       %
     %   K. Berland et al., Rep. Prog. Phys. 78, 066501 (2015).             %
     %   D.C. Langreth et al., J. Phys.: Condens. Matter 21, 084203 (2009). %
     %                                                                      %
     %                                                                      %
     % If you are calculating the stress with vdW-DF, please also cite:     %
     %                                                                      %
     %   R. Sabatini et al., J. Phys.: Condens. Matter 24, 424209 (2012).   %
     %                                                                      %
     %%%%%%%%%%%%%%%%%%%%%%%%%%%%%%%%%%%%%%%%%%%%%%%%%%%%%%%%%%%%%%%%%%%%%%%%

     Adding external electric field

     Computed dipole along edir(3) :
        Dipole               -7.5463 Ry au,        -19.1807 Debye
        Dipole field         -0.0142 Ry au,

        Potential amp.        1.3201 Ry
        Total length         46.3494 bohr

[...]

     Starting wfcs are  297 atomic wfcs
  @ DRIVER MODE: Message from server: STATUS
  @ DRIVER MODE: Message from server: POSDATA
  @ DRIVER MODE: Reading and sharing cell
  @ DRIVER MODE: Reading and sharing positions
  @ DRIVER MODE: Received positions

     Self-consistent Calculation

     iteration #  1     ecut=    29.40 Ry     beta= 0.05
     Davidson diagonalization with overlap
     c_bands:  1 eigenvalues not converged
     c_bands:  2 eigenvalues not converged
     c_bands:  1 eigenvalues not converged
     c_bands:  1 eigenvalues not converged
     c_bands:  1 eigenvalues not converged
     c_bands:  1 eigenvalues not converged
     c_bands:  1 eigenvalues not converged
     c_bands:  2 eigenvalues not converged
     c_bands:  1 eigenvalues not converged
     c_bands:  1 eigenvalues not converged
     c_bands:  1 eigenvalues not converged
     c_bands:  1 eigenvalues not converged
     ethr =  1.00E-05,  avg # of iterations = 19.6

[...]

     total energy              =   -2679.37999641 Ry
     estimated scf accuracy    <    2680.67126648 Ry

     total magnetization       =     0.00 Bohr mag/cell
     absolute magnetization    =     0.01 Bohr mag/cell

[...]

     iteration #  3     ecut=    29.40 Ry     beta= 0.05
     Davidson diagonalization with overlap
     ethr =  1.00E-02,  avg # of iterations = 16.1

[...]

     iteration # 72     ecut=    29.40 Ry     beta= 0.05
     Davidson diagonalization with overlap
     ethr =  2.29E-11,  avg # of iterations =  9.2

[...]

     total energy              =   -2921.63318647 Ry
     estimated scf accuracy    <       0.00000009 Ry

[...]

     iteration # 73     ecut=    29.40 Ry     beta= 0.05
     Davidson diagonalization with overlap
     c_bands:  1 eigenvalues not converged
     c_bands:  3 eigenvalues not converged
     ethr =  2.24E-11,  avg # of iterations =  9.7

     negative rho (up, down):  8.586E-03 8.588E-03

[...]

     Adding external electric field

     Computed dipole along edir(3) :
        Dipole                1.3016 Ry au,          3.3084 Debye
        Dipole field          0.0025 Ry au,

        Potential amp.       -0.2277 Ry
        Total length         46.3494 bohr

     Magnetic moment per site  (integrated on atomic sphere of radius R)
     atom   1 (R=0.738)  charge=  8.0426  magn=  0.0056
     atom   2 (R=0.738)  charge=  8.0243  magn=  0.0004
     atom   3 (R=0.738)  charge=  5.0120  magn= -0.0007
     atom   4 (R=0.738)  charge=  5.0489  magn= -0.0001
     atom   5 (R=0.738)  charge=  5.0182  magn= -0.0001
     atom   6 (R=0.738)  charge=  5.0186  magn= -0.0001
     atom   7 (R=0.738)  charge=  8.0245  magn=  0.0004
     atom   8 (R=0.738)  charge=  8.0256  magn=  0.0050
     atom   9 (R=0.738)  charge=  5.0260  magn=  0.0000
     atom  10 (R=0.738)  charge=  5.0261  magn= -0.0003
     atom  11 (R=0.738)  charge=  5.0131  magn= -0.0001
     atom  12 (R=0.738)  charge=  5.0142  magn= -0.0001
     atom  13 (R=0.738)  charge=  8.0323  magn=  0.0011
     atom  14 (R=0.738)  charge=  8.0300  magn=  0.0000
     atom  15 (R=0.738)  charge=  5.0262  magn= -0.0000
     atom  16 (R=0.738)  charge=  5.0222  magn=  0.0001
     atom  17 (R=0.738)  charge=  4.9995  magn=  0.0001
     atom  18 (R=0.738)  charge=  5.0035  magn=  0.0001
     atom  19 (R=0.738)  charge=  8.0637  magn= -0.0014
     atom  20 (R=0.738)  charge=  8.0765  magn= -0.0002
     atom  21 (R=0.738)  charge=  4.8972  magn= -0.0005
     atom  22 (R=0.738)  charge=  4.9760  magn=  0.0000
     atom  23 (R=0.738)  charge=  5.0093  magn= -0.0006
     atom  24 (R=0.738)  charge=  5.0094  magn= -0.0006
     atom  25 (R=0.738)  charge=  8.0427  magn=  0.0058
     atom  26 (R=0.738)  charge=  8.0244  magn=  0.0004
     atom  27 (R=0.738)  charge=  5.0118  magn= -0.0006
     atom  28 (R=0.738)  charge=  5.0493  magn= -0.0001
     atom  29 (R=0.738)  charge=  5.0191  magn= -0.0001
     atom  30 (R=0.738)  charge=  5.0194  magn= -0.0001
     atom  31 (R=0.738)  charge=  8.0246  magn=  0.0004
     atom  32 (R=0.738)  charge=  8.0257  magn=  0.0049
     atom  33 (R=0.738)  charge=  5.0254  magn=  0.0000
     atom  34 (R=0.738)  charge=  5.0228  magn= -0.0003
     atom  35 (R=0.738)  charge=  5.0162  magn= -0.0001
     atom  36 (R=0.738)  charge=  5.0179  magn= -0.0001
     atom  37 (R=0.738)  charge=  8.0280  magn=  0.0011
     atom  38 (R=0.738)  charge=  8.0303  magn= -0.0000
     atom  39 (R=0.738)  charge=  5.0062  magn=  0.0000
     atom  40 (R=0.738)  charge=  5.0343  magn=  0.0001
     atom  41 (R=0.738)  charge=  4.9975  magn=  0.0001
     atom  42 (R=0.738)  charge=  5.0021  magn=  0.0001
     atom  43 (R=0.738)  charge=  8.0613  magn= -0.0016
     atom  44 (R=0.738)  charge=  8.0414  magn= -0.0002
     atom  45 (R=0.738)  charge=  4.8972  magn= -0.0004
     atom  46 (R=0.738)  charge=  5.0093  magn= -0.0006
     atom  47 (R=0.738)  charge=  5.0094  magn= -0.0006
     atom  48 (R=0.420)  charge=  1.3385  magn= -0.0000
     atom  49 (R=0.447)  charge=  0.8397  magn=  0.0000
     atom  50 (R=0.420)  charge=  0.4443  magn= -0.0000
     atom  51 (R=0.420)  charge=  0.4509  magn= -0.0000
     atom  52 (R=0.420)  charge=  0.4441  magn= -0.0000
     atom  53 (R=0.420)  charge=  0.4504  magn=  0.0000
     atom  54 (R=0.420)  charge=  0.4502  magn=  0.0000

     End of self-consistent calculation

 ------ SPIN UP ------------

          k = 0.0000 0.0000 0.0000 ( 18029 PWs)   bands (ev):

   -55.4323 -55.3958 -55.3880 -55.3556 -55.3539 -55.3144 -55.3116 -55.2771
   -55.2521 -55.2352 -55.2180 -55.2176 -55.1843 -55.1148 -54.4127 -54.3786
   -32.0010 -31.8872 -31.8776 -31.7996 -31.7478 -31.7416 -31.7396 -31.7241
   -31.6775 -31.6731 -31.6430 -31.6410 -31.6333 -31.6175 -31.6021 -31.5977
   -31.5877 -31.5762 -31.5702 -31.5497 -31.5410 -31.5321 -31.5048 -31.4990
   -31.4889 -31.4846 -31.4828 -31.4546 -31.4459 -31.4422 -31.4348 -31.4174
   -31.4138 -31.4098 -31.4028 -31.3997 -31.3659 -31.3562 -31.3467 -31.3293
   -31.3210 -31.2982 -30.8218 -30.7277 -30.7056 -30.6382 -30.5514 -30.4404
   -16.2928 -16.1645 -15.9760 -15.8296 -15.7487 -15.6309 -15.5160 -15.4995
   -15.3631 -15.2809 -15.1621 -15.1371 -15.1179 -15.0951 -15.0837 -15.0673
   -14.9762 -14.9706 -14.9566 -14.9253 -14.9230 -14.8780 -14.8703 -14.8288
   -14.8091 -14.8059 -14.6826 -14.5911 -14.5181 -14.2800 -12.9143 -12.7968
   -10.2494  -6.2819  -4.8561  -3.9739  -3.6070  -3.4528  -3.3634  -3.3369
    -3.3239  -3.1893  -3.0431  -2.8958  -2.8456  -2.8385  -2.7197  -2.6464
    -2.6366  -2.6168  -2.4619  -2.4306  -2.3876  -2.3405  -2.2965  -2.2420
    -2.2230  -2.2169  -2.2018  -2.1801  -2.1694  -2.0526  -1.9994  -1.9160
    -1.8587  -1.8358  -1.7856  -1.7643  -1.7421  -1.7217  -1.7127  -1.6677
    -1.6570  -1.6268  -1.5712  -1.4607  -1.3612  -1.3083  -1.1906  -1.0690
    -1.0291  -1.0163  -0.9780  -0.9345  -0.9180  -0.8533  -0.8092  -0.7787
    -0.7205  -0.6623  -0.5999  -0.5515  -0.4810  -0.4667  -0.4189  -0.3654
    -0.2521  -0.2143  -0.1993  -0.1735  -0.0805  -0.0443   0.0004   0.0836
     0.0938   0.1094   0.2097   0.2231   0.2931   0.3392   0.3565   0.4494
     0.4874   0.4971   0.5026   0.5266   0.5533   0.6044   0.6422   0.6705
     0.7407   0.8660   1.0818   1.1561   1.1809   1.5072   1.5163   1.6109
     1.7942   2.1871   2.2351   3.6609   3.7354   3.8055   3.8151   3.8361
     3.9008   4.1403   4.1627   4.1680   4.1760   4.1985

[...]

          k =-0.0760-0.0000 0.0000 ( 17886 PWs)   bands (ev):

[...]

 ------ SPIN DOWN ----------

[...]

          k = 0.0380-0.0419 0.0000 ( 17876 PWs)   bands (ev):

[...]

          k =-0.0760-0.0839 0.0000 ( 17948 PWs)   bands (ev):

   -55.4173 -55.4109 -55.3613 -55.3606 -55.3544 -55.3135 -55.2944 -55.2907
   -55.2414 -55.2358 -55.2321 -55.1932 -55.1924 -55.1164 -54.3948 -54.3946
   -31.8076 -31.8052 -31.8028 -31.7188 -31.6935 -31.6887 -31.6883 -31.6514
   -31.6509 -31.6412 -31.6339 -31.6318 -31.6268 -31.5983 -31.5913 -31.5702
   -31.5686 -31.5645 -31.5625 -31.5617 -31.5580 -31.5538 -31.5152 -31.5139
   -31.5074 -31.5032 -31.5019 -31.4872 -31.4828 -31.4801 -31.4794 -31.4688
   -31.4651 -31.4486 -31.4449 -31.4308 -31.4275 -31.4247 -31.3784 -31.3734
   -31.3719 -31.3266 -30.7174 -30.7172 -30.6336 -30.6334 -30.5939 -30.5939
   -16.1353 -15.7778 -15.6861 -15.6386 -15.4653 -15.4362 -15.4196 -15.4044
   -15.2721 -15.2541 -15.2302 -15.2021 -15.1801 -15.1453 -15.1358 -15.1331
   -15.0536 -15.0393 -15.0324 -15.0165 -14.9505 -14.9407 -14.9384 -14.9311
   -14.8810 -14.8774 -14.8140 -14.7844 -14.7814 -14.5706 -12.8996 -12.8995
   -10.2525  -6.2527  -4.8536  -3.9367  -2.9571  -2.9333  -2.8931  -2.8885
    -2.6800  -2.6394  -2.6040  -2.5783  -2.4881  -2.4487  -2.4339  -2.4256
    -2.3540  -2.3376  -2.3196  -2.2744  -2.2682  -2.2546  -2.2326  -2.2027
    -2.1808  -2.1609  -2.1515  -2.1332  -2.0868  -2.0756  -2.0517  -2.0361
    -2.0329  -2.0155  -1.9868  -1.9406  -1.8135  -1.8054  -1.7385  -1.6386
    -1.6339  -1.5574  -1.5443  -1.5093  -1.4839  -1.4644  -1.4225  -1.2489
    -1.2053  -1.1784  -1.1689  -1.1128  -1.0474  -1.0240  -0.9539  -0.9382
    -0.9196  -0.8158  -0.7713  -0.7565  -0.6670  -0.6542  -0.5761  -0.5120
    -0.4669  -0.4405  -0.3954  -0.3883  -0.3860  -0.3383  -0.3307  -0.2496
    -0.2024  -0.1662  -0.1522  -0.1221   0.0746   0.0853   0.1117   0.2520
     0.2810   0.4043   0.4382   0.4903   0.5655   0.5981   0.6796   0.7150
     0.8444   0.8736   0.8752   0.9476   0.9590   1.0212   1.0307   1.9666
     1.9673   2.0543   2.0544   3.8208   3.8997   3.9277   3.9697   4.0813
     4.1563   4.1838   4.2041   4.2530   4.2558   4.3208

     the Fermi energy is     3.7294 ev

!    total energy              =   -2921.63320117 Ry
     estimated scf accuracy    <       0.00000006 Ry
     smearing contrib. (-TS)   =      -0.03708327 Ry
     internal energy E=F+TS    =   -2921.59611790 Ry

     The total energy is F=E-TS. E is the sum of the following terms:
     one-electron contribution =  -24029.06496362 Ry
     hartree contribution      =   12103.63127640 Ry
     xc contribution           =    -481.75673080 Ry
     ewald contribution        =    9485.59110281 Ry
     electric field correction =       0.00319731 Ry

     total magnetization       =     0.03 Bohr mag/cell
     absolute magnetization    =     0.05 Bohr mag/cell

     convergence has been achieved in  73 iterations

     Forces acting on atoms (cartesian axes, Ry/au):

     atom    1 type  1   force =     0.00003202   -0.00021597    0.09333803
     atom    2 type  1   force =    -0.00019052   -0.00036370   -0.17830023
     atom    3 type  2   force =     0.00002906   -0.00039367   -0.02022688
     atom    4 type  2   force =    -0.00002700   -0.00194877    0.05876851
     atom    5 type  2   force =    -0.01020506   -0.00112010    0.00776422
     atom    6 type  2   force =     0.01168289   -0.00040013    0.00693009
     atom    7 type  1   force =    -0.00049301    0.00210951   -0.01459377
     atom    8 type  1   force =     0.00024651   -0.00051000   -0.00482042
     atom    9 type  2   force =     0.00015214    0.00011337   -0.00005822
     atom   10 type  2   force =    -0.00113774    0.00137962    0.00053364
     atom   11 type  2   force =    -0.00011800    0.00015682    0.00005713
     atom   12 type  2   force =    -0.00001667    0.00036340    0.00023128
     atom   13 type  1   force =    -0.00005362   -0.00018797   -0.00018119
     atom   14 type  1   force =    -0.00014838    0.00011544    0.00028121
     atom   15 type  2   force =    -0.00020963   -0.00028142    0.00007795
     atom   16 type  2   force =    -0.00022349    0.00019464    0.00017451
     atom   17 type  2   force =     0.00012507   -0.00010675    0.00009320
     atom   18 type  2   force =    -0.00003337   -0.00019921    0.00018739
     atom   19 type  1   force =    -0.00029943    0.00031511    0.00042684
     atom   20 type  1   force =    -0.00001963   -0.00001013   -0.00034064
     atom   21 type  2   force =     0.00002836   -0.00006053    0.10392690
     atom   22 type  2   force =     0.00026222    0.00036941    0.00011175
     atom   23 type  2   force =    -0.07042654   -0.00015503   -0.02693024
     atom   24 type  2   force =     0.07026138    0.00028530   -0.02697372
     atom   25 type  1   force =    -0.00001183   -0.00015085    0.09286499
     atom   26 type  1   force =    -0.00021239   -0.00048795   -0.17831367
     atom   27 type  2   force =     0.00008555   -0.00027039   -0.01928830
     atom   28 type  2   force =     0.00004341   -0.00171619    0.05811239
     atom   29 type  2   force =    -0.01072850   -0.00111716    0.00832585
     atom   30 type  2   force =     0.01207271   -0.00084165    0.00744615
     atom   31 type  1   force =    -0.00039695    0.00595979   -0.01546125
     atom   32 type  1   force =     0.00022478   -0.00002966   -0.00519848
     atom   33 type  2   force =    -0.00007835    0.00001778    0.00008741
     atom   34 type  2   force =    -0.00101360   -0.00248474   -0.00001916
     atom   35 type  2   force =    -0.00006661    0.00023925   -0.00006441
     atom   36 type  2   force =    -0.00011633    0.00009427   -0.00000164
     atom   37 type  1   force =    -0.00003335    0.00006641   -0.00021904
     atom   38 type  1   force =    -0.00007781    0.00000506    0.00009708
     atom   39 type  2   force =     0.00022177   -0.00004220    0.00015500
     atom   40 type  2   force =    -0.00030399    0.00024461   -0.00003875
     atom   41 type  2   force =     0.00016251    0.00044717    0.00010127
     atom   42 type  2   force =    -0.00004996    0.00012369    0.00035795
     atom   43 type  1   force =    -0.00031623    0.00028366    0.00007717
     atom   44 type  1   force =    -0.00005598   -0.00035257    0.00011190
     atom   45 type  2   force =     0.00001816   -0.00007372    0.10390422
     atom   46 type  2   force =    -0.07039671   -0.00009856   -0.02688626
     atom   47 type  2   force =     0.07024782    0.00033007   -0.02693912
     atom   48 type  3   force =    -0.00021290   -0.00108251   -0.00131419
     atom   49 type  4   force =     0.00277652    0.00137515   -0.00985943
     atom   50 type  5   force =     0.00070928    0.00097807   -0.00005565
     atom   51 type  5   force =    -0.00286842   -0.00170618    0.01029733
     atom   52 type  5   force =     0.00032099   -0.00030384   -0.00027986
     atom   53 type  5   force =     0.00011761    0.00076037    0.00157974
     atom   54 type  5   force =     0.00072125    0.00038357   -0.00005655

     Total force =     0.366544     Total SCF correction =     0.000711
  @ DRIVER MODE: Message from server: STATUS
  @ DRIVER MODE: Message from server: GETFORCE
  @ DRIVER MODE: Returning v,forces,stress,ensemble

     Writing output data file ./calc.save/
  @ DRIVER MODE: Message from server: EXIT
  @ DRIVE MODE: Exiting

     General routines

     Parallel routines

   This run was terminated on:   4: 7:10  21Jul2021

   JOB DONE.