     Program PWSCF v.6.7GPU starts on 14Sep2021 at 23:18: 3

     R & G space division:  proc/nbgrp/npool/nimage =      10
     Reading input from /storage/home/hcoda1/3/ntian30/research/carbon/CxH_vib/CH2_calc/ads_slab/CH2OHN2_a/out_0028/pw.inp
Warning: card &CELL ignored
Warning: card   CELL_DYNAMICS='IPI', ignored
Warning: card / ignored

     Current dimensions of program PWSCF are:
     Max number of different atomic species (ntypx) = 10
     Max number of k-points (npk) =  40000
     Max angular momentum in pseudopotentials (lmaxx) =  3
     Presently no symmetry can be used with electric field

     Message from routine cell_base_init:
     DEPRECATED: use true lattice parameter, not A to a.u. conversion factor

     IMPORTANT: XC functional enforced from input :
     Exchange-correlation= BEEF-VDW
                           (   1   4  43  14   2   0   0)
     Any further DFT definition will be discarded
     Please, verify this is what you really want

  @ DRIVER MODE: Connecting to
 qe_1139763_2840440.sched-torque.pace.gatech.edu2jj3py6y_scratch
  using UNIX socket
  @ DRIVER MODE: Message from server: STATUS
  @ DRIVER MODE: Message from server: INIT
  @ DRIVER MODE: Receiving replica           0          -1
  @ DRIVER MODE: Receiving encoded integer          25
  @ DRIVER MODE:  SCF:  T  FORCE:  T  STRESS:  F  VC:  F  ENSEMBLE:  F
  @ DRIVER MODE:  SCF:  T  FORCE:  T  STRESS:  F  VC:  F  ENSEMBLE:  F

     Using Slab Decomposition

     bravais-lattice index     =            0
     lattice parameter (alat)  =       1.8897  a.u.
     unit-cell volume          =    6658.9804 (a.u.)^3
     number of atoms/cell      =           54
     number of atomic types    =            5
     number of electrons       =       401.00
     number of Kohn-Sham states=          210
     kinetic-energy cutoff     =      29.3995  Ry
     charge density cutoff     =     293.9946  Ry
     scf convergence threshold =      7.3E-08
     mixing beta               =       0.0500
     number of iterations used =            8  plain     mixing
     Exchange-correlation= BEEF-VDW
                           (   1   4  43  14   2   0   0)

     celldm(1)=   1.889726  celldm(2)=   0.000000  celldm(3)=   0.000000
     celldm(4)=   0.000000  celldm(5)=   0.000000  celldm(6)=   0.000000

     crystal axes: (cart. coord. in units of alat)
               a(1) = (   6.579727   0.000000   0.000000 )
               a(2) = (  -0.000775   5.961596   0.000000 )
               a(3) = (   0.000000   0.000000  25.155947 )

     reciprocal axes: (cart. coord. in units 2 pi/alat)
               b(1) = (  0.151982  0.000020  0.000000 )
               b(2) = (  0.000000  0.167740  0.000000 )
               b(3) = (  0.000000  0.000000  0.039752 )

     PseudoPot. # 1 for C  read from file:
     /storage/coda1/p-amedford6/0/shared/rich_project_chbe-medford/medford-share/data/pseudos_module/espresso/nninc/pbe/van/C.UPF
     MD5 check sum: 1a69bf6b8db32088f5b2163dbdb77a27
     Pseudo is Ultrasoft, Zval =  4.0
     Generated by new atomic code, or converted to UPF format
     Using radial grid of  721 points,  4 beta functions with:
                l(1) =   0
                l(2) =   0
                l(3) =   1
                l(4) =   1
     Q(r) pseudized with  8 coefficients,  rinner =    0.800   0.800   0.800

     PseudoPot. # 2 for H  read from file:
     /storage/coda1/p-amedford6/0/shared/rich_project_chbe-medford/medford-share/data/pseudos_module/espresso/nninc/pbe/van/H.UPF
     MD5 check sum: b5ee9d7bfd3a09ee7748110bda690ff7
     Pseudo is Ultrasoft, Zval =  1.0
     Generated by new atomic code, or converted to UPF format
     Using radial grid of  615 points,  1 beta functions with:
                l(1) =   0
     Q(r) pseudized with  8 coefficients,  rinner =    0.800

     PseudoPot. # 3 for O  read from file:
     /storage/coda1/p-amedford6/0/shared/rich_project_chbe-medford/medford-share/data/pseudos_module/espresso/nninc/pbe/van/O.UPF
     MD5 check sum: 78c19812648e8988a0fe644b0f25305e
     Pseudo is Ultrasoft, Zval =  6.0
     Generated by new atomic code, or converted to UPF format
     Using radial grid of  737 points,  4 beta functions with:
                l(1) =   0
                l(2) =   0
                l(3) =   1
                l(4) =   1
     Q(r) pseudized with  8 coefficients,  rinner =    0.800   0.800   0.800

     PseudoPot. # 4 for Ti read from file:
     /storage/coda1/p-amedford6/0/shared/rich_project_chbe-medford/medford-share/data/pseudos_module/espresso/nninc/pbe/van/Ti.UPF
     MD5 check sum: 8e4df49b7f0d34bbd5052bf3f5ea0213
     Pseudo is Ultrasoft, Zval = 12.0
     Generated by new atomic code, or converted to UPF format
     Using radial grid of  851 points,  6 beta functions with:
                l(1) =   0
                l(2) =   0
                l(3) =   1
                l(4) =   1
                l(5) =   2
                l(6) =   2
     Q(r) pseudized with  8 coefficients,  rinner =    1.000   1.000   1.000
                                                       1.000   1.000

     PseudoPot. # 5 for N  read from file:
     /storage/coda1/p-amedford6/0/shared/rich_project_chbe-medford/medford-share/data/pseudos_module/espresso/nninc/pbe/van/N.UPF
     MD5 check sum: 90d10febe142ad51ac9d5be1deb811c4
     Pseudo is Ultrasoft, Zval =  5.0
     Generated by new atomic code, or converted to UPF format
     Using radial grid of  729 points,  4 beta functions with:
                l(1) =   0
                l(2) =   0
                l(3) =   1
                l(4) =   1
     Q(r) pseudized with  8 coefficients,  rinner =    0.800   0.800   0.800

     atomic species   valence    mass     pseudopotential
        C1             4.00    12.01100     C ( 1.00)
        H1             1.00     1.00800     H ( 1.00)
        O1             6.00    15.99900     O ( 1.00)
        Ti1           12.00    47.86700     Ti( 1.00)
        N1             5.00    14.00700     N ( 1.00)

     No symmetry found

   Cartesian axes

     site n.     atom                  positions (alat units)
         1           C1  tau(   1) = (   5.1764158   1.5385028  19.8564928  )
         2           H1  tau(   2) = (   4.2418317   1.4168958  19.3325039  )
         3           H1  tau(   3) = (   6.1328006   2.9100337  18.2018079  )
         4           H1  tau(   4) = (   6.0297582   0.9181690  19.6386741  )
         5           O1  tau(   5) = (   0.0006271   0.0005054   7.9858123  )
         6           O1  tau(   6) = (   3.2906025   0.0005020   7.3038282  )
         7           O1  tau(   7) = (   4.5942328   1.4918067   9.2879030  )
         8           O1  tau(   8) = (   1.9868534   1.4903216   9.2879459  )
         9           O1  tau(   9) = (   3.2696825   0.0177092  11.3460806  )
        10           O1  tau(  10) = (   6.5743896   0.0111799  10.6115589  )
        11           O1  tau(  11) = (   1.2770957   1.5070501  12.6511825  )
        12           O1  tau(  12) = (   5.2749141   1.5057152  12.6378801  )
        13           O1  tau(  13) = (   6.5263050   0.0247340  14.7317399  )
        14           O1  tau(  14) = (   3.2747511   0.0213673  13.9312909  )
        15           O1  tau(  15) = (   4.4933390   1.5239927  16.1070736  )
        16           O1  tau(  16) = (   2.0026543   1.5217075  16.0711130  )
        17           O1  tau(  17) = (   3.2904802   0.0005063   4.7018136  )
        18           O1  tau(  18) = (   6.5469758   0.0421337  17.2556835  )
        19           O1  tau(  19) = (   1.3043587   1.4918075   6.0039043  )
        20           O1  tau(  20) = (   5.2767064   1.4903225   6.0039473  )
        21           O1  tau(  21) = (   0.0002396   2.9813036   7.9858123  )
        22           O1  tau(  22) = (   3.2902150   2.9813002   7.3038282  )
        23           O1  tau(  23) = (   4.5938453   4.4726049   9.2879030  )
        24           O1  tau(  24) = (   1.9864658   4.4711199   9.2879459  )
        25           O1  tau(  25) = (   3.2722311   3.0011533  11.3472759  )
        26           O1  tau(  26) = (   6.5787409   2.9955660  10.5677177  )
        27           O1  tau(  27) = (   1.2755865   4.4883074  12.6550720  )
        28           O1  tau(  28) = (   5.2773609   4.4903743  12.6413705  )
        29           O1  tau(  29) = (   6.5451067   2.9841024  14.7029789  )
        30           O1  tau(  30) = (   3.2773495   3.0062142  13.9304278  )
        31           O1  tau(  31) = (   4.4941242   4.5002890  16.1165364  )
        32           O1  tau(  32) = (   2.0016379   4.5015838  16.0818063  )
        33           O1  tau(  33) = (   3.2900926   2.9813045   4.7018136  )
        34           O1  tau(  34) = (   1.3039711   4.4726057   6.0039043  )
        35           O1  tau(  35) = (   5.2763189   4.4711207   6.0039473  )
        36           O1  tau(  36) = (   6.5536212   3.0044252  17.3297899  )
        37           Ti1 tau(  37) = (   0.0004258   2.9801865   6.0000000  )
        38           Ti1 tau(  38) = (   3.2906075   1.4906267   6.0002472  )
        39           Ti1 tau(  39) = (   3.3348906   3.0327224   9.1579215  )
        40           Ti1 tau(  40) = (   0.0203972   1.6099837   9.3624797  )
        41           Ti1 tau(  41) = (   6.5380572   3.0081639  12.8251979  )
        42           Ti1 tau(  42) = (   3.2225065   1.5141752  12.4854623  )
        43           Ti1 tau(  43) = (   3.2525775   3.0161725  15.7233172  )
        44           Ti1 tau(  44) = (   6.5465844   1.4469101  15.9770741  )
        45           Ti1 tau(  45) = (   0.0000382   5.9609847   6.0000000  )
        46           Ti1 tau(  46) = (   3.2902200   4.4714249   6.0002472  )
        47           Ti1 tau(  47) = (   3.2831171   0.0558662   9.1532617  )
        48           Ti1 tau(  48) = (   0.0294011   4.5318189   9.2743274  )
        49           Ti1 tau(  49) = (   6.5160019   0.0223579  12.5245727  )
        50           Ti1 tau(  50) = (   3.2207252   4.4944464  12.4919313  )
        51           Ti1 tau(  51) = (   3.2545639   0.0336594  15.7221480  )
        52           Ti1 tau(  52) = (   6.5427997   4.6204004  16.1309301  )
        53           N1  tau(  53) = (   5.0796009   2.6163306  22.0446247  )
        54           N1  tau(  54) = (   5.1188049   2.0915644  21.0330699  )

     number of k points=    10  Fermi-Dirac smearing, width (Ry)=  0.0073
                       cart. coord. in units 2pi/alat
        k(    1) = (   0.0000000   0.0000000   0.0000000), wk =   0.1250000
        k(    2) = (   0.0000000   0.0419351   0.0000000), wk =   0.2500000
        k(    3) = (   0.0000000  -0.0838702   0.0000000), wk =   0.1250000
        k(    4) = (   0.0379955   0.0000049   0.0000000), wk =   0.2500000
        k(    5) = (   0.0379955   0.0419400   0.0000000), wk =   0.2500000
        k(    6) = (   0.0379955  -0.0838652   0.0000000), wk =   0.2500000
        k(    7) = (   0.0379955  -0.0419301   0.0000000), wk =   0.2500000
        k(    8) = (  -0.0759910  -0.0000099   0.0000000), wk =   0.1250000
        k(    9) = (  -0.0759910   0.0419252   0.0000000), wk =   0.2500000
        k(   10) = (  -0.0759910  -0.0838800   0.0000000), wk =   0.1250000

     Initial potential from superposition of free atoms

     starting charge  384.99916, renormalised to  401.00000

     negative rho (up, down):  1.197E-02 0.000E+00

     %%%%%%%%%%%%%%%%%%%%%%%%%%%%%%%%%%%%%%%%%%%%%%%%%%%%%%%%%%%%%%%%%%%%%%%%
     %                                                                      %
     % You are using vdW-DF, which was implemented by the Thonhauser group. %
     % Please cite the following two papers that made this development      %
     % possible and the two reviews that describe the various versions:     %
     %                                                                      %
     %   T. Thonhauser et al., PRL 115, 136402 (2015).                      %
     %   T. Thonhauser et al., PRB 76, 125112 (2007).                       %
     %   K. Berland et al., Rep. Prog. Phys. 78, 066501 (2015).             %
     %   D.C. Langreth et al., J. Phys.: Condens. Matter 21, 084203 (2009). %
     %                                                                      %
     %                                                                      %
     % If you are calculating the stress with vdW-DF, please also cite:     %
     %                                                                      %
     %   R. Sabatini et al., J. Phys.: Condens. Matter 24, 424209 (2012).   %
     %                                                                      %
     %%%%%%%%%%%%%%%%%%%%%%%%%%%%%%%%%%%%%%%%%%%%%%%%%%%%%%%%%%%%%%%%%%%%%%%%

     Adding external electric field

     Computed dipole along edir(3) :
        Dipole              -14.0962 Ry au,        -35.8290 Debye
        Dipole field         -0.0266 Ry au,

        Potential amp.        2.4659 Ry
        Total length         46.3494 bohr

     Starting wfcs are  303 atomic wfcs
  @ DRIVER MODE: Message from server: STATUS
  @ DRIVER MODE: Message from server: POSDATA
  @ DRIVER MODE: Reading and sharing cell
  @ DRIVER MODE: Reading and sharing positions
  @ DRIVER MODE: Received positions

     Self-consistent Calculation

     iteration #  1     ecut=    29.40 Ry     beta= 0.05
     Davidson diagonalization with overlap
     c_bands:  4 eigenvalues not converged
     c_bands:  2 eigenvalues not converged
     c_bands:  4 eigenvalues not converged
     c_bands:  2 eigenvalues not converged
     c_bands:  4 eigenvalues not converged
     c_bands:  4 eigenvalues not converged
     c_bands:  4 eigenvalues not converged
     c_bands:  3 eigenvalues not converged
     c_bands:  5 eigenvalues not converged
     ethr =  1.00E-05,  avg # of iterations = 22.0

[...]

     total energy              =   -2410.42459121 Ry
     estimated scf accuracy    <    6378.92926089 Ry

     iteration #  2     ecut=    29.40 Ry     beta= 0.05
     Davidson diagonalization with overlap
     ethr =  1.00E-02,  avg # of iterations = 23.8

[...]

     iteration # 69     ecut=    29.40 Ry     beta= 0.05
     Davidson diagonalization with overlap
     c_bands:  1 eigenvalues not converged
     ethr =  1.74E-10,  avg # of iterations = 16.8

[...]

     total energy              =   -2971.53795410 Ry
     estimated scf accuracy    <       0.00000015 Ry

     iteration # 74     ecut=    29.40 Ry     beta= 0.05
     Davidson diagonalization with overlap
     ethr =  3.68E-11,  avg # of iterations = 10.7

     negative rho (up, down):  1.327E-02 0.000E+00

     Adding external electric field

     Computed dipole along edir(3) :
        Dipole                0.4392 Ry au,          1.1163 Debye
        Dipole field          0.0008 Ry au,

        Potential amp.       -0.0768 Ry
        Total length         46.3494 bohr

     End of self-consistent calculation

          k = 0.0000 0.0000 0.0000 ( 18029 PWs)   bands (ev):

   -55.7664 -55.7536 -55.7292 -55.7173 -55.6819 -55.6540 -55.6281 -55.5911
   -55.5910 -55.5703 -55.5394 -55.5163 -55.4827 -55.4164 -54.7768 -54.7427
   -32.3178 -32.2334 -32.2072 -32.1144 -32.0860 -32.0681 -32.0582 -32.0347
   -31.9961 -31.9917 -31.9777 -31.9690 -31.9632 -31.9346 -31.9282 -31.9267
   -31.9227 -31.8977 -31.8900 -31.8646 -31.8556 -31.8330 -31.8314 -31.8280
   -31.8053 -31.8023 -31.7812 -31.7778 -31.7703 -31.7692 -31.7577 -31.7554
   -31.7424 -31.7405 -31.7311 -31.6970 -31.6957 -31.6613 -31.6384 -31.6225
   -31.6051 -31.6022 -31.1865 -31.0896 -31.0672 -31.0031 -30.9171 -30.8059
   -20.7386 -16.9702 -16.5014 -16.2075 -16.0403 -15.9140 -15.8854 -15.7844
   -15.5935 -15.4601 -15.4453 -15.3687 -15.3339 -15.3256 -15.2952 -15.2855
   -15.2800 -15.2740 -15.2348 -15.1974 -15.1850 -15.1671 -15.1410 -15.0926
   -15.0420 -14.9701 -14.9228 -14.8824 -14.8734 -14.7637 -14.7448 -13.9417
   -13.2773 -13.1591  -6.5460  -5.5863  -4.9521  -4.5139  -3.8656  -3.6893
    -3.6711  -3.6535  -3.5705  -3.5095  -3.3276  -3.3117  -3.0121  -2.9364
    -2.9062  -2.9031  -2.8884  -2.7123  -2.6566  -2.6015  -2.5920  -2.5755
    -2.5735  -2.5503  -2.5287  -2.5198  -2.4943  -2.4705  -2.4613  -2.3251
    -2.2948  -2.1786  -2.1619  -2.1475  -2.0853  -2.0656  -2.0316  -2.0121
    -2.0054  -1.9884  -1.9672  -1.9323  -1.8467  -1.8226  -1.6981  -1.5929
    -1.5559  -1.4622  -1.3180  -1.2420  -1.2250  -1.1914  -1.1653  -1.1505
    -1.1034  -1.0787  -1.0250  -0.9656  -0.9618  -0.8556  -0.7808  -0.7427
    -0.6753  -0.6619  -0.6319  -0.5093  -0.4878  -0.4766  -0.3058  -0.2441
    -0.2317  -0.2274  -0.0995  -0.0581  -0.0233  -0.0144   0.0175   0.0489
     0.1002   0.1329   0.1968   0.2205   0.2278   0.2400   0.2611   0.2893
     0.4011   0.4211   0.4338   0.5496   0.5696   0.7593   0.7643   0.8839
     0.9834   1.1517   1.2477   1.3185   1.4187   1.7250   1.8365   1.8969
     3.4233   3.4548   3.4858   3.5038   3.5742   3.6967   3.8029   3.8607
     3.8818   3.9036

[...]

          k = 0.0380-0.0419 0.0000 ( 17876 PWs)   bands (ev):

[...]

          k =-0.0760-0.0000 0.0000 ( 17886 PWs)   bands (ev):

[...]

          k =-0.0760-0.0839 0.0000 ( 17948 PWs)   bands (ev):

   -55.7553 -55.7402 -55.7364 -55.7342 -55.6791 -55.6495 -55.6165 -55.6025
   -55.5956 -55.5729 -55.5367 -55.5003 -55.4988 -55.4188 -54.7602 -54.7591
   -32.1213 -32.1174 -32.1113 -32.0576 -32.0474 -32.0417 -32.0252 -32.0235
   -32.0167 -31.9811 -31.9564 -31.9484 -31.9452 -31.9143 -31.9120 -31.8979
   -31.8870 -31.8842 -31.8816 -31.8717 -31.8706 -31.8593 -31.8559 -31.8507
   -31.8497 -31.8240 -31.8192 -31.8127 -31.8072 -31.8045 -31.7973 -31.7807
   -31.7678 -31.7597 -31.7568 -31.7509 -31.7351 -31.7185 -31.7056 -31.6984
   -31.6468 -31.6116 -31.0806 -31.0793 -30.9998 -30.9990 -30.9606 -30.9597
   -20.7384 -16.9013 -15.9441 -15.9354 -15.6989 -15.6869 -15.6823 -15.6107
   -15.5347 -15.5030 -15.4849 -15.4802 -15.4319 -15.4158 -15.4072 -15.3405
   -15.3086 -15.2894 -15.2717 -15.2674 -15.2132 -15.2085 -15.1768 -15.1441
   -15.1189 -15.1139 -15.0921 -15.0879 -15.0731 -14.9875 -14.9182 -13.9416
   -13.2615 -13.2593  -6.5403  -5.5887  -4.8878  -4.5109  -3.5091  -3.2359
    -3.2253  -2.9675  -2.9106  -2.8976  -2.8144  -2.7543  -2.6883  -2.6475
    -2.6244  -2.6095  -2.6018  -2.5900  -2.5852  -2.5682  -2.5670  -2.5471
    -2.5270  -2.5164  -2.4599  -2.4393  -2.4193  -2.3953  -2.3875  -2.3762
    -2.3394  -2.3212  -2.3097  -2.2935  -2.2895  -2.2050  -2.0647  -2.0183
    -1.9291  -1.9061  -1.8951  -1.8498  -1.8280  -1.8114  -1.7965  -1.7421
    -1.7259  -1.5644  -1.4928  -1.4784  -1.4582  -1.4371  -1.3676  -1.2952
    -1.2444  -1.1764  -1.1708  -1.1269  -1.0673  -0.9950  -0.9723  -0.9296
    -0.8708  -0.8316  -0.7795  -0.7428  -0.7211  -0.7146  -0.6615  -0.6092
    -0.5676  -0.5093  -0.4829  -0.4204  -0.3789  -0.3413  -0.2870  -0.2655
    -0.2275  -0.1145  -0.0225   0.1161   0.2037   0.2700   0.2824   0.3041
     0.3164   0.4442   0.4667   0.5050   0.5500   0.6362   0.6846   0.7569
     0.7767   0.8047   0.8624   1.6082   1.6094   1.6986   1.7094   1.7284
     3.6207   3.6563   3.6749   3.7239   3.8817   3.8864   3.9050   3.9130
     3.9643   4.0445

     the Fermi energy is     3.3892 ev

!    total energy              =   -2971.53797152 Ry
     estimated scf accuracy    <       0.00000004 Ry
     smearing contrib. (-TS)   =      -0.02330190 Ry
     internal energy E=F+TS    =   -2971.51466961 Ry

     The total energy is F=E-TS. E is the sum of the following terms:
     one-electron contribution =  -22751.58731469 Ry
     hartree contribution      =   11466.86042145 Ry
     xc contribution           =    -492.33524706 Ry
     ewald contribution        =    8805.54710670 Ry
     electric field correction =       0.00036399 Ry

     convergence has been achieved in  74 iterations

     Forces acting on atoms (cartesian axes, Ry/au):

     atom    1 type  1   force =    -0.00069693    0.00088882    0.00084708
     atom    2 type  2   force =    -0.00046409    0.00085962   -0.00061705
     atom    3 type  2   force =    -0.00137921   -0.00057769   -0.00073559
     atom    4 type  2   force =     0.00081802   -0.00044679   -0.00021405
     atom    5 type  3   force =     0.00034303   -0.00680373   -0.03337972
     atom    6 type  3   force =    -0.00002273    0.00055738    0.04532215
     atom    7 type  3   force =    -0.02047448    0.00053273    0.00450819
     atom    8 type  3   force =     0.01815437   -0.00159737    0.00414007
     atom    9 type  3   force =     0.00013432    0.00002098   -0.00010118
     atom   10 type  3   force =    -0.00005399   -0.00004225    0.00035860
     atom   11 type  3   force =     0.00026340   -0.00030369   -0.00030547
     atom   12 type  3   force =     0.00046028   -0.00011900   -0.00015082
     atom   13 type  3   force =     0.00028573    0.00000472   -0.00026345
     atom   14 type  3   force =     0.00036772    0.00023131   -0.00010583
     atom   15 type  3   force =    -0.00000254   -0.00046141    0.00034950
     atom   16 type  3   force =     0.00000823   -0.00042343    0.00009288
     atom   17 type  3   force =     0.00003225    0.00006606    0.10416334
     atom   18 type  3   force =    -0.00010909    0.00294585    0.00377893
     atom   19 type  3   force =    -0.06902024    0.00070816   -0.02968400
     atom   20 type  3   force =     0.06879165    0.00127130   -0.02967489
     atom   21 type  3   force =     0.00038328    0.00379718   -0.02831620
     atom   22 type  3   force =     0.00085612    0.00085333    0.04702116
     atom   23 type  3   force =    -0.01799140    0.00142223    0.00375253
     atom   24 type  3   force =     0.01768966    0.00228164    0.00328014
     atom   25 type  3   force =    -0.00015867   -0.00019148    0.00004844
     atom   26 type  3   force =     0.00017164   -0.00002653    0.00031519
     atom   27 type  3   force =    -0.00022023    0.00005688    0.00026864
     atom   28 type  3   force =    -0.00003873    0.00003177    0.00059216
     atom   29 type  3   force =     0.00009480   -0.00160401   -0.00067161
     atom   30 type  3   force =    -0.00019988   -0.00035802    0.00041418
     atom   31 type  3   force =    -0.00040747    0.00047687    0.00000691
     atom   32 type  3   force =    -0.00003753    0.00035745   -0.00036693
     atom   33 type  3   force =     0.00004071    0.00004254    0.10423774
     atom   34 type  3   force =    -0.06860116   -0.00134881   -0.02972261
     atom   35 type  3   force =     0.06848025   -0.00097302   -0.02970143
     atom   36 type  3   force =     0.00116959    0.00089996   -0.00104113
     atom   37 type  4   force =    -0.00001072   -0.00157035    0.10641255
     atom   38 type  4   force =    -0.00015492    0.00074063   -0.17960994
     atom   39 type  4   force =    -0.00038998    0.00006778   -0.00014145
     atom   40 type  4   force =    -0.00000195    0.00014777   -0.00008584
     atom   41 type  4   force =    -0.00002485    0.00054524    0.00061075
     atom   42 type  4   force =    -0.00014154    0.00005117    0.00023679
     atom   43 type  4   force =    -0.00014308    0.00014516   -0.00039536
     atom   44 type  4   force =     0.00059954    0.00817372   -0.00061102
     atom   45 type  4   force =    -0.00001244    0.00122653    0.11837741
     atom   46 type  4   force =    -0.00000244   -0.00033287   -0.17988066
     atom   47 type  4   force =     0.00036004    0.00005044   -0.00025650
     atom   48 type  4   force =    -0.00002047    0.00021320   -0.00035297
     atom   49 type  4   force =     0.00052651    0.00057152   -0.00103933
     atom   50 type  4   force =     0.00014125    0.00009619   -0.00080029
     atom   51 type  4   force =     0.00039969   -0.00109770   -0.00013410
     atom   52 type  4   force =     0.00080060   -0.01202647   -0.00066792
     atom   53 type  5   force =     0.00066890    0.00134352    0.00005503
     atom   54 type  5   force =    -0.00126082   -0.00137503   -0.00016302

     Total force =     0.376913     Total SCF correction =     0.000671
  @ DRIVER MODE: Message from server: STATUS
  @ DRIVER MODE: Message from server: GETFORCE
  @ DRIVER MODE: Returning v,forces,stress,ensemble

     Writing output data file ./calc.save/
  @ DRIVER MODE: Message from server: EXIT
  @ DRIVE MODE: Exiting

     General routines

     Parallel routines

   This run was terminated on:  23:37:53  14Sep2021

   JOB DONE.