     Program PWSCF v.6.7GPU starts on  9Sep2021 at  7: 7:59

     R & G space division:  proc/nbgrp/npool/nimage =      10
     Reading input from /storage/home/hcoda1/3/ntian30/research/carbon/CxH_vib/CH3_calc/ads_slab/CH3NNH3_a/out_0028/pw.inp
Warning: card &CELL ignored
Warning: card   CELL_DYNAMICS='IPI', ignored
Warning: card / ignored

     Current dimensions of program PWSCF are:
     Max number of different atomic species (ntypx) = 10
     Max number of k-points (npk) =  40000
     Max angular momentum in pseudopotentials (lmaxx) =  3
     Presently no symmetry can be used with electric field

     Message from routine cell_base_init:
     DEPRECATED: use true lattice parameter, not A to a.u. conversion factor

     IMPORTANT: XC functional enforced from input :
     Exchange-correlation= BEEF-VDW
                           (   1   4  43  14   2   0   0)
     Any further DFT definition will be discarded
     Please, verify this is what you really want

  @ DRIVER MODE: Connecting to
 qe_1139763_2767402.sched-torque.pace.gatech.edu9x42vk7n_scratch
  using UNIX socket
  @ DRIVER MODE: Message from server: STATUS
  @ DRIVER MODE: Message from server: INIT
  @ DRIVER MODE: Receiving replica           0          -1
  @ DRIVER MODE: Receiving encoded integer          25
  @ DRIVER MODE:  SCF:  T  FORCE:  T  STRESS:  F  VC:  F  ENSEMBLE:  F
  @ DRIVER MODE:  SCF:  T  FORCE:  T  STRESS:  F  VC:  F  ENSEMBLE:  F

     Using Slab Decomposition

     bravais-lattice index     =            0
     lattice parameter (alat)  =       1.8897  a.u.
     unit-cell volume          =    6658.9804 (a.u.)^3
     number of atoms/cell      =           56
     number of atomic types    =            5
     number of electrons       =       398.00
     number of Kohn-Sham states=          209
     kinetic-energy cutoff     =      29.3995  Ry
     charge density cutoff     =     293.9946  Ry
     scf convergence threshold =      7.3E-08
     mixing beta               =       0.0500
     number of iterations used =            8  plain     mixing
     Exchange-correlation= BEEF-VDW
                           (   1   4  43  14   2   0   0)

     celldm(1)=   1.889726  celldm(2)=   0.000000  celldm(3)=   0.000000
     celldm(4)=   0.000000  celldm(5)=   0.000000  celldm(6)=   0.000000

     crystal axes: (cart. coord. in units of alat)
               a(1) = (   6.579727   0.000000   0.000000 )
               a(2) = (  -0.000775   5.961596   0.000000 )
               a(3) = (   0.000000   0.000000  25.155947 )

     reciprocal axes: (cart. coord. in units 2 pi/alat)
               b(1) = (  0.151982  0.000020  0.000000 )
               b(2) = (  0.000000  0.167740  0.000000 )
               b(3) = (  0.000000  0.000000  0.039752 )

     PseudoPot. # 1 for Ti read from file:
     /storage/coda1/p-amedford6/0/shared/rich_project_chbe-medford/medford-share/data/pseudos_module/espresso/nninc/pbe/van/Ti.UPF
     MD5 check sum: 8e4df49b7f0d34bbd5052bf3f5ea0213
     Pseudo is Ultrasoft, Zval = 12.0
     Generated by new atomic code, or converted to UPF format
     Using radial grid of  851 points,  6 beta functions with:
                l(1) =   0
                l(2) =   0
                l(3) =   1
                l(4) =   1
                l(5) =   2
                l(6) =   2
     Q(r) pseudized with  8 coefficients,  rinner =    1.000   1.000   1.000
                                                       1.000   1.000

     PseudoPot. # 2 for O  read from file:
     /storage/coda1/p-amedford6/0/shared/rich_project_chbe-medford/medford-share/data/pseudos_module/espresso/nninc/pbe/van/O.UPF
     MD5 check sum: 78c19812648e8988a0fe644b0f25305e
     Pseudo is Ultrasoft, Zval =  6.0
     Generated by new atomic code, or converted to UPF format
     Using radial grid of  737 points,  4 beta functions with:
                l(1) =   0
                l(2) =   0
                l(3) =   1
                l(4) =   1
     Q(r) pseudized with  8 coefficients,  rinner =    0.800   0.800   0.800

     PseudoPot. # 3 for N  read from file:
     /storage/coda1/p-amedford6/0/shared/rich_project_chbe-medford/medford-share/data/pseudos_module/espresso/nninc/pbe/van/N.UPF
     MD5 check sum: 90d10febe142ad51ac9d5be1deb811c4
     Pseudo is Ultrasoft, Zval =  5.0
     Generated by new atomic code, or converted to UPF format
     Using radial grid of  729 points,  4 beta functions with:
                l(1) =   0
                l(2) =   0
                l(3) =   1
                l(4) =   1
     Q(r) pseudized with  8 coefficients,  rinner =    0.800   0.800   0.800

     PseudoPot. # 4 for C  read from file:
     /storage/coda1/p-amedford6/0/shared/rich_project_chbe-medford/medford-share/data/pseudos_module/espresso/nninc/pbe/van/C.UPF
     MD5 check sum: 1a69bf6b8db32088f5b2163dbdb77a27
     Pseudo is Ultrasoft, Zval =  4.0
     Generated by new atomic code, or converted to UPF format
     Using radial grid of  721 points,  4 beta functions with:
                l(1) =   0
                l(2) =   0
                l(3) =   1
                l(4) =   1
     Q(r) pseudized with  8 coefficients,  rinner =    0.800   0.800   0.800

     PseudoPot. # 5 for H  read from file:
     /storage/coda1/p-amedford6/0/shared/rich_project_chbe-medford/medford-share/data/pseudos_module/espresso/nninc/pbe/van/H.UPF
     MD5 check sum: b5ee9d7bfd3a09ee7748110bda690ff7
     Pseudo is Ultrasoft, Zval =  1.0
     Generated by new atomic code, or converted to UPF format
     Using radial grid of  615 points,  1 beta functions with:
                l(1) =   0
     Q(r) pseudized with  8 coefficients,  rinner =    0.800

     atomic species   valence    mass     pseudopotential
        Ti1           12.00    47.86700     Ti( 1.00)
        O1             6.00    15.99900     O ( 1.00)
        N1             5.00    14.00700     N ( 1.00)
        C1             4.00    12.01100     C ( 1.00)
        H1             1.00     1.00800     H ( 1.00)

     No symmetry found

   Cartesian axes

     site n.     atom                  positions (alat units)
         1           Ti1 tau(   1) = (   0.0004258   2.9801865   6.0000000  )
         2           Ti1 tau(   2) = (   3.2906075   1.4906267   6.0002472  )
         3           O1  tau(   3) = (   0.0006271   0.0005054   7.9858123  )
         4           O1  tau(   4) = (   3.2906025   0.0005020   7.3038282  )
         5           O1  tau(   5) = (   4.5942328   1.4918067   9.2879030  )
         6           O1  tau(   6) = (   1.9868534   1.4903216   9.2879459  )
         7           Ti1 tau(   7) = (   3.2907910   2.8959150   9.1758416  )
         8           Ti1 tau(   8) = (   0.0015273   1.4827037   9.2680791  )
         9           O1  tau(   9) = (   3.2915376   0.0135470  11.3011085  )
        10           O1  tau(  10) = (   0.0116148   5.9584955  10.6183126  )
        11           O1  tau(  11) = (   1.3264285   1.5112823  12.6233503  )
        12           O1  tau(  12) = (   5.3038506   1.5117067  12.6402039  )
        13           Ti1 tau(  13) = (   6.4820107   2.9926285  12.7699842  )
        14           Ti1 tau(  14) = (   3.1705855   1.5046985  12.4703807  )
        15           O1  tau(  15) = (   0.0265921   0.0018185  14.6022993  )
        16           O1  tau(  16) = (   3.3077976   0.0231332  13.8844522  )
        17           O1  tau(  17) = (   4.5431088   1.5356983  16.0582573  )
        18           O1  tau(  18) = (   2.0919096   1.5355568  16.0602035  )
        19           Ti1 tau(  19) = (   3.3160089   3.0194793  15.6930983  )
        20           Ti1 tau(  20) = (   0.0166562   1.5958061  16.1043543  )
        21           O1  tau(  21) = (   3.2904802   0.0005063   4.7018136  )
        22           O1  tau(  22) = (   0.0292894   0.0555714  17.2141426  )
        23           O1  tau(  23) = (   1.3043587   1.4918075   6.0039043  )
        24           O1  tau(  24) = (   5.2767064   1.4903225   6.0039473  )
        25           Ti1 tau(  25) = (   0.0000382   5.9609847   6.0000000  )
        26           Ti1 tau(  26) = (   3.2902200   4.4714249   6.0002472  )
        27           O1  tau(  27) = (   0.0002396   2.9813036   7.9858123  )
        28           O1  tau(  28) = (   3.2902150   2.9813002   7.3038282  )
        29           O1  tau(  29) = (   4.5938453   4.4726049   9.2879030  )
        30           O1  tau(  30) = (   1.9864658   4.4711199   9.2879459  )
        31           Ti1 tau(  31) = (   3.2891106   5.8743827   9.1763621  )
        32           Ti1 tau(  32) = (   0.0006254   4.4649316   9.2693709  )
        33           O1  tau(  33) = (   3.2938734   2.9940915  11.3014364  )
        34           O1  tau(  34) = (   0.0092240   2.9805883  10.6323155  )
        35           O1  tau(  35) = (   1.3265148   4.4779228  12.6213786  )
        36           O1  tau(  36) = (   5.3043665   4.4729268  12.6387898  )
        37           Ti1 tau(  37) = (   6.5102921   0.0103953  12.7821347  )
        38           Ti1 tau(  38) = (   3.1702703   4.4844908  12.4724723  )
        39           O1  tau(  39) = (   0.0044238   2.9856840  14.6711682  )
        40           O1  tau(  40) = (   3.3052367   3.0047533  13.8869641  )
        41           O1  tau(  41) = (   4.5463945   4.5179403  16.0573015  )
        42           O1  tau(  42) = (   2.0913021   4.5186677  16.0620504  )
        43           Ti1 tau(  43) = (   3.3128124   0.0388915  15.6953448  )
        44           Ti1 tau(  44) = (   0.0191476   4.5695365  16.1495174  )
        45           O1  tau(  45) = (   3.2900926   2.9813045   4.7018136  )
        46           O1  tau(  46) = (   1.3039711   4.4726057   6.0039043  )
        47           O1  tau(  47) = (   5.2763189   4.4711207   6.0039473  )
        48           N1  tau(  48) = (   0.0657769   3.0188755  17.3428317  )
        49           N1  tau(  49) = (   6.3710133   2.5762042  22.6422586  )
        50           C1  tau(  50) = (   0.3130180   3.0007025  18.7658599  )
        51           H1  tau(  51) = (   0.2928038   4.0066326  19.1970245  )
        52           H1  tau(  52) = (   6.1505335   2.3945869  19.2855718  )
        53           H1  tau(  53) = (   1.2957935   2.5555442  18.9776258  )
        54           H1  tau(  54) = (   5.9555952   3.1943721  23.3306195  )
        55           H1  tau(  55) = (   0.0098814   1.7053999  23.1148127  )
        56           H1  tau(  56) = (   0.6724875   2.9916800  22.3598805  )

     number of k points=    10  Fermi-Dirac smearing, width (Ry)=  0.0073
                       cart. coord. in units 2pi/alat
        k(    1) = (   0.0000000   0.0000000   0.0000000), wk =   0.1250000
        k(    2) = (   0.0000000   0.0419351   0.0000000), wk =   0.2500000
        k(    3) = (   0.0000000  -0.0838702   0.0000000), wk =   0.1250000
        k(    4) = (   0.0379955   0.0000049   0.0000000), wk =   0.2500000
        k(    5) = (   0.0379955   0.0419400   0.0000000), wk =   0.2500000
        k(    6) = (   0.0379955  -0.0838652   0.0000000), wk =   0.2500000
        k(    7) = (   0.0379955  -0.0419301   0.0000000), wk =   0.2500000
        k(    8) = (  -0.0759910  -0.0000099   0.0000000), wk =   0.1250000
        k(    9) = (  -0.0759910   0.0419252   0.0000000), wk =   0.2500000
        k(   10) = (  -0.0759910  -0.0838800   0.0000000), wk =   0.1250000

     Initial potential from superposition of free atoms

     starting charge  381.99914, renormalised to  398.00000

     negative rho (up, down):  7.228E-03 0.000E+00

     %%%%%%%%%%%%%%%%%%%%%%%%%%%%%%%%%%%%%%%%%%%%%%%%%%%%%%%%%%%%%%%%%%%%%%%%
     %                                                                      %
     % You are using vdW-DF, which was implemented by the Thonhauser group. %
     % Please cite the following two papers that made this development      %
     % possible and the two reviews that describe the various versions:     %
     %                                                                      %
     %   T. Thonhauser et al., PRL 115, 136402 (2015).                      %
     %   T. Thonhauser et al., PRB 76, 125112 (2007).                       %
     %   K. Berland et al., Rep. Prog. Phys. 78, 066501 (2015).             %
     %   D.C. Langreth et al., J. Phys.: Condens. Matter 21, 084203 (2009). %
     %                                                                      %
     %                                                                      %
     % If you are calculating the stress with vdW-DF, please also cite:     %
     %                                                                      %
     %   R. Sabatini et al., J. Phys.: Condens. Matter 24, 424209 (2012).   %
     %                                                                      %
     %%%%%%%%%%%%%%%%%%%%%%%%%%%%%%%%%%%%%%%%%%%%%%%%%%%%%%%%%%%%%%%%%%%%%%%%

     Adding external electric field

     Computed dipole along edir(3) :
        Dipole              -12.0378 Ry au,        -30.5970 Debye
        Dipole field         -0.0227 Ry au,

        Potential amp.        2.1058 Ry
        Total length         46.3494 bohr

     Starting wfcs are  302 atomic wfcs
  @ DRIVER MODE: Message from server: STATUS
  @ DRIVER MODE: Message from server: POSDATA
  @ DRIVER MODE: Reading and sharing cell
  @ DRIVER MODE: Reading and sharing positions
  @ DRIVER MODE: Received positions

     Self-consistent Calculation

     iteration #  1     ecut=    29.40 Ry     beta= 0.05
     Davidson diagonalization with overlap
     c_bands:  1 eigenvalues not converged
     c_bands:  1 eigenvalues not converged
     c_bands:  1 eigenvalues not converged
     c_bands:  1 eigenvalues not converged
     c_bands:  1 eigenvalues not converged
     c_bands:  1 eigenvalues not converged
     c_bands:  1 eigenvalues not converged
     c_bands:  2 eigenvalues not converged
     c_bands:  1 eigenvalues not converged
     ethr =  1.00E-05,  avg # of iterations = 19.6

[...]

     total energy              =   -2520.03251415 Ry
     estimated scf accuracy    <    4725.42235114 Ry

     iteration #  2     ecut=    29.40 Ry     beta= 0.05
     Davidson diagonalization with overlap
     ethr =  1.00E-02,  avg # of iterations = 21.7

[...]

     iteration # 53     ecut=    29.40 Ry     beta= 0.05
     Davidson diagonalization with overlap
     c_bands:  1 eigenvalues not converged
     ethr =  1.58E-06,  avg # of iterations = 10.2

[...]

     total energy              =   -2942.90435522 Ry
     estimated scf accuracy    <       0.00000011 Ry

     iteration # 88     ecut=    29.40 Ry     beta= 0.05
     Davidson diagonalization with overlap
     ethr =  2.08E-11,  avg # of iterations =  5.0

     negative rho (up, down):  9.747E-03 0.000E+00

     Adding external electric field

     Computed dipole along edir(3) :
        Dipole                0.6802 Ry au,          1.7288 Debye
        Dipole field          0.0013 Ry au,

        Potential amp.       -0.1190 Ry
        Total length         46.3494 bohr

     End of self-consistent calculation

          k = 0.0000 0.0000 0.0000 ( 18029 PWs)   bands (ev):

   -56.5059 -56.4723 -55.6136 -55.6046 -55.5783 -55.5721 -55.4749 -55.4393
   -55.2598 -55.2247 -55.1692 -55.1617 -55.1353 -55.0489 -54.6089 -54.5656
   -32.9333 -32.7797 -32.7515 -32.6827 -32.5916 -32.5593 -32.0928 -32.0711
   -32.0163 -31.9014 -31.8603 -31.8209 -31.8187 -31.7851 -31.7562 -31.7548
   -31.7537 -31.7360 -31.7244 -31.7212 -31.7001 -31.6834 -31.6572 -31.6433
   -31.6304 -31.6102 -31.6035 -31.5796 -31.5614 -31.5076 -31.4914 -31.4835
   -31.4035 -31.3987 -31.3800 -31.3350 -31.3270 -31.2965 -31.2788 -31.2550
   -31.2358 -31.1858 -31.1360 -30.8532 -30.8296 -30.8123 -30.7872 -30.6671
   -16.6670 -16.2246 -15.9964 -15.8670 -15.7933 -15.7451 -15.6920 -15.5748
   -15.4981 -15.4957 -15.4589 -15.4215 -15.3524 -15.2098 -15.1120 -15.0549
   -15.0127 -14.8980 -14.8326 -14.8052 -14.7952 -14.7636 -14.7462 -14.5478
   -14.5042 -14.4135 -14.4047 -14.2678 -14.0647 -13.9969 -13.6678 -13.5578
   -12.6988  -7.4402  -4.2342  -4.0922  -4.0729  -3.7208  -3.4786  -3.3927
    -3.2894  -3.2777  -3.2032  -3.0848  -3.0314  -2.9857  -2.8710  -2.8679
    -2.7255  -2.6991  -2.6806  -2.6696  -2.6313  -2.5871  -2.5561  -2.5234
    -2.5031  -2.4942  -2.3420  -2.2431  -2.1758  -2.1481  -2.1327  -2.1037
    -2.0277  -2.0028  -1.9924  -1.9844  -1.8951  -1.7471  -1.7410  -1.7121
    -1.6680  -1.6669  -1.6247  -1.6117  -1.4706  -1.3957  -1.2855  -1.2802
    -1.2439  -1.1772  -1.1753  -1.0719  -1.0021  -0.9498  -0.9118  -0.8060
    -0.7615  -0.7351  -0.6495  -0.5791  -0.5454  -0.5291  -0.5061  -0.4093
    -0.3923  -0.3688  -0.2855  -0.2763  -0.2281  -0.1405  -0.1199  -0.1163
    -0.0280  -0.0196   0.0828   0.1187   0.1612   0.1890   0.2791   0.3078
     0.4090   0.4525   0.4685   0.5903   0.6078   0.6672   0.7427   0.8040
     0.8243   0.8522   0.8853   0.8956   0.9783   1.0972   1.1029   1.1365
     1.2056   1.2520   1.4062   1.4451   1.7331   1.7423   2.4136   2.7696
     2.9311   3.2297   3.4310   3.5378   3.7467   3.7602   3.7661   3.9436
     3.9940

[...]

          k = 0.0380-0.0419 0.0000 ( 17876 PWs)   bands (ev):

[...]

          k =-0.0760-0.0000 0.0000 ( 17886 PWs)   bands (ev):

[...]

          k =-0.0760-0.0839 0.0000 ( 17948 PWs)   bands (ev):

   -56.4892 -56.4888 -55.5955 -55.5947 -55.5918 -55.5863 -55.4591 -55.4550
   -55.2447 -55.2396 -55.1589 -55.1522 -55.1521 -55.0516 -54.5998 -54.5745
   -32.7655 -32.7652 -32.7502 -32.7500 -32.6358 -32.6355 -31.9215 -31.9192
   -31.8958 -31.8895 -31.8508 -31.8499 -31.8076 -31.8053 -31.8050 -31.8044
   -31.7821 -31.7802 -31.7787 -31.7751 -31.7103 -31.7068 -31.6615 -31.6558
   -31.5954 -31.5869 -31.5271 -31.5224 -31.4965 -31.4964 -31.4880 -31.4435
   -31.4425 -31.4111 -31.3778 -31.3776 -31.3724 -31.3385 -31.3384 -31.3305
   -31.2947 -31.2566 -30.9982 -30.9256 -30.8258 -30.7984 -30.7946 -30.7525
   -16.0139 -16.0119 -15.9822 -15.9818 -15.7075 -15.7039 -15.6560 -15.6540
   -15.4845 -15.4782 -15.2686 -15.2602 -15.2559 -15.2518 -15.1236 -15.1172
   -15.0584 -15.0409 -14.9575 -14.9533 -14.8917 -14.8815 -14.8456 -14.8272
   -14.5060 -14.4852 -14.3670 -14.3485 -14.2127 -13.9962 -13.6613 -13.6612
   -12.7153  -7.4308  -4.1029  -4.0768  -3.1141  -3.1135  -3.0426  -3.0416
    -2.9188  -2.9137  -2.8461  -2.8453  -2.7343  -2.7319  -2.6695  -2.6009
    -2.5982  -2.5958  -2.5764  -2.5691  -2.4470  -2.4371  -2.4246  -2.4061
    -2.3612  -2.3581  -2.3490  -2.2670  -2.2530  -2.2168  -2.1769  -2.0707
    -2.0587  -2.0435  -2.0140  -1.9538  -1.9432  -1.9280  -1.8788  -1.8633
    -1.7790  -1.7226  -1.6597  -1.5530  -1.5489  -1.5391  -1.5267  -1.3722
    -1.3328  -1.3045  -1.2987  -1.2894  -1.2450  -1.1470  -1.1395  -0.9970
    -0.9966  -0.9241  -0.8440  -0.8284  -0.7985  -0.6677  -0.6251  -0.5843
    -0.5778  -0.5555  -0.5311  -0.5113  -0.4784  -0.3325  -0.3203  -0.2897
    -0.2492  -0.2414  -0.1955  -0.1275  -0.0399   0.0229   0.0245   0.0894
     0.1526   0.2120   0.2930   0.3078   0.3125   0.5941   0.6769   0.7652
     0.8416   0.9095   0.9736   0.9957   1.0646   1.0965   1.1357   1.2326
     1.2366   1.2536   1.2539   1.3258   1.3277   1.7103   2.3054   3.3436
     3.3439   3.4119   3.4124   3.7363   3.7418   3.8522   3.8625   3.9732
     3.9770

     the Fermi energy is     2.6019 ev

!    total energy              =   -2942.90436088 Ry
     estimated scf accuracy    <       0.00000001 Ry
     smearing contrib. (-TS)   =      -0.00454075 Ry
     internal energy E=F+TS    =   -2942.89982013 Ry

     The total energy is F=E-TS. E is the sum of the following terms:
     one-electron contribution =  -23043.03044474 Ry
     hartree contribution      =   11612.13920931 Ry
     xc contribution           =    -487.44588428 Ry
     ewald contribution        =    8975.43642650 Ry
     electric field correction =       0.00087308 Ry

     convergence has been achieved in  88 iterations

     Forces acting on atoms (cartesian axes, Ry/au):

     atom    1 type  1   force =     0.00000883   -0.00050338    0.12498653
     atom    2 type  1   force =    -0.00013133   -0.00063100   -0.16059605
     atom    3 type  2   force =     0.00017136   -0.00022315   -0.06938366
     atom    4 type  2   force =    -0.00004176   -0.00027858    0.02761742
     atom    5 type  2   force =    -0.01718451    0.00222323   -0.00888855
     atom    6 type  2   force =     0.01886717    0.00287442   -0.00920987
     atom    7 type  1   force =     0.00088207   -0.00376430    0.02235839
     atom    8 type  1   force =    -0.00036577   -0.00327920    0.11355728
     atom    9 type  2   force =     0.00050328   -0.00039720    0.00001786
     atom   10 type  2   force =    -0.00234510    0.00260190   -0.07320883
     atom   11 type  2   force =     0.00014108   -0.00095118   -0.00011620
     atom   12 type  2   force =    -0.00000578   -0.00058148   -0.00003912
     atom   13 type  1   force =     0.00019697   -0.00018901   -0.00024723
     atom   14 type  1   force =    -0.00008114   -0.00053854   -0.00001780
     atom   15 type  2   force =    -0.00035854   -0.00100176    0.00079621
     atom   16 type  2   force =    -0.00013300   -0.00016807    0.00043195
     atom   17 type  2   force =     0.00086408   -0.00043107   -0.00034920
     atom   18 type  2   force =    -0.00056553   -0.00046263   -0.00030711
     atom   19 type  1   force =    -0.00024290    0.00006328   -0.00054454
     atom   20 type  1   force =     0.00053797   -0.00083475   -0.00082580
     atom   21 type  2   force =     0.00005226   -0.00006323    0.09968636
     atom   22 type  2   force =     0.00015424   -0.00038891   -0.00098083
     atom   23 type  2   force =    -0.07922160   -0.00005992   -0.03251489
     atom   24 type  2   force =     0.07907788    0.00037141   -0.03254233
     atom   25 type  1   force =     0.00002521   -0.00049785    0.12433070
     atom   26 type  1   force =    -0.00013043   -0.00048313   -0.16060823
     atom   27 type  2   force =     0.00028276   -0.00044498   -0.06838785
     atom   28 type  2   force =     0.00000377   -0.00013472    0.02747463
     atom   29 type  2   force =    -0.01764421    0.00173416   -0.00896269
     atom   30 type  2   force =     0.01921831    0.00199753   -0.00929985
     atom   31 type  1   force =     0.00080605   -0.00117199    0.02197933
     atom   32 type  1   force =    -0.00029447    0.00071101    0.11419505
     atom   33 type  2   force =    -0.00007789    0.00004025   -0.00060339
     atom   34 type  2   force =    -0.00201584    0.00206168   -0.07187305
     atom   35 type  2   force =     0.00002916   -0.00020930    0.00011905
     atom   36 type  2   force =    -0.00052491    0.00020550    0.00020960
     atom   37 type  1   force =     0.00087838    0.00095380   -0.00018116
     atom   38 type  1   force =    -0.00020910    0.00027102   -0.00014972
     atom   39 type  2   force =    -0.00002095   -0.00028890   -0.00005608
     atom   40 type  2   force =    -0.00001246   -0.00019366   -0.00027265
     atom   41 type  2   force =     0.00022306   -0.00042937   -0.00031741
     atom   42 type  2   force =     0.00000446   -0.00039077   -0.00037168
     atom   43 type  1   force =    -0.00036322    0.00007728   -0.00041383
     atom   44 type  1   force =     0.00007491    0.00091289    0.00040759
     atom   45 type  2   force =     0.00003883   -0.00007209    0.09970399
     atom   46 type  2   force =    -0.07922369   -0.00002750   -0.03251911
     atom   47 type  2   force =     0.07907908    0.00041657   -0.03252050
     atom   48 type  3   force =    -0.00046612    0.00090853   -0.00122884
     atom   49 type  3   force =    -0.00073817   -0.00084112    0.00014335
     atom   50 type  4   force =     0.00366931    0.00524697   -0.00073682
     atom   51 type  5   force =     0.00028626    0.00011696   -0.00092671
     atom   52 type  5   force =    -0.00405012   -0.00473375    0.00245860
     atom   53 type  5   force =    -0.00051421    0.00017078    0.00008874
     atom   54 type  5   force =     0.00050932   -0.00008259   -0.00012031
     atom   55 type  5   force =     0.00031210    0.00096337   -0.00054645
     atom   56 type  5   force =     0.00006459   -0.00017348   -0.00069431

     Total force =     0.426765     Total SCF correction =     0.000274
  @ DRIVER MODE: Message from server: STATUS
  @ DRIVER MODE: Message from server: GETFORCE
  @ DRIVER MODE: Returning v,forces,stress,ensemble

     Writing output data file ./calc.save/
  @ DRIVER MODE: Message from server: EXIT
  @ DRIVE MODE: Exiting

     General routines

     Parallel routines

   This run was terminated on:   7:29:42   9Sep2021

   JOB DONE.