     Program PWSCF v.6.7GPU starts on 10Sep2021 at 18: 2:14

     R & G space division:  proc/nbgrp/npool/nimage =      10
     Reading input from /storage/home/hcoda1/3/ntian30/research/carbon/CxH_vib/CH2_calc/ads_slab/CH2NHNH2_a/out_0001/pw.inp
Warning: card &CELL ignored
Warning: card   CELL_DYNAMICS='IPI', ignored
Warning: card / ignored

     Current dimensions of program PWSCF are:
     Max number of different atomic species (ntypx) = 10
     Max number of k-points (npk) =  40000
     Max angular momentum in pseudopotentials (lmaxx) =  3
     Presently no symmetry can be used with electric field

     Message from routine cell_base_init:
     DEPRECATED: use true lattice parameter, not A to a.u. conversion factor

     IMPORTANT: XC functional enforced from input :
     Exchange-correlation= BEEF-VDW
                           (   1   4  43  14   2   0   0)
     Any further DFT definition will be discarded
     Please, verify this is what you really want

  @ DRIVER MODE: Connecting to
 qe_1139763_2792044.sched-torque.pace.gatech.educlwene6__scratch
  using UNIX socket
  @ DRIVER MODE: Message from server: STATUS
  @ DRIVER MODE: Message from server: INIT
  @ DRIVER MODE: Receiving replica           0          -1
  @ DRIVER MODE: Receiving encoded integer          25
  @ DRIVER MODE:  SCF:  T  FORCE:  T  STRESS:  F  VC:  F  ENSEMBLE:  F
  @ DRIVER MODE:  SCF:  T  FORCE:  T  STRESS:  F  VC:  F  ENSEMBLE:  F

     Using Slab Decomposition

     bravais-lattice index     =            0
     lattice parameter (alat)  =       1.8897  a.u.
     unit-cell volume          =    6658.9804 (a.u.)^3
     number of atoms/cell      =           55
     number of atomic types    =            5
     number of electrons       =       397.00
     number of Kohn-Sham states=          208
     kinetic-energy cutoff     =      29.3995  Ry
     charge density cutoff     =     293.9946  Ry
     scf convergence threshold =      7.3E-08
     mixing beta               =       0.0500
     number of iterations used =            8  plain     mixing
     Exchange-correlation= BEEF-VDW
                           (   1   4  43  14   2   0   0)

     celldm(1)=   1.889726  celldm(2)=   0.000000  celldm(3)=   0.000000
     celldm(4)=   0.000000  celldm(5)=   0.000000  celldm(6)=   0.000000

     crystal axes: (cart. coord. in units of alat)
               a(1) = (   6.579727   0.000000   0.000000 )
               a(2) = (  -0.000775   5.961596   0.000000 )
               a(3) = (   0.000000   0.000000  25.155947 )

     reciprocal axes: (cart. coord. in units 2 pi/alat)
               b(1) = (  0.151982  0.000020  0.000000 )
               b(2) = (  0.000000  0.167740  0.000000 )
               b(3) = (  0.000000  0.000000  0.039752 )

     PseudoPot. # 1 for Ti read from file:
     /storage/coda1/p-amedford6/0/shared/rich_project_chbe-medford/medford-share/data/pseudos_module/espresso/nninc/pbe/van/Ti.UPF
     MD5 check sum: 8e4df49b7f0d34bbd5052bf3f5ea0213
     Pseudo is Ultrasoft, Zval = 12.0
     Generated by new atomic code, or converted to UPF format
     Using radial grid of  851 points,  6 beta functions with:
                l(1) =   0
                l(2) =   0
                l(3) =   1
                l(4) =   1
                l(5) =   2
                l(6) =   2
     Q(r) pseudized with  8 coefficients,  rinner =    1.000   1.000   1.000
                                                       1.000   1.000

     PseudoPot. # 2 for O  read from file:
     /storage/coda1/p-amedford6/0/shared/rich_project_chbe-medford/medford-share/data/pseudos_module/espresso/nninc/pbe/van/O.UPF
     MD5 check sum: 78c19812648e8988a0fe644b0f25305e
     Pseudo is Ultrasoft, Zval =  6.0
     Generated by new atomic code, or converted to UPF format
     Using radial grid of  737 points,  4 beta functions with:
                l(1) =   0
                l(2) =   0
                l(3) =   1
                l(4) =   1
     Q(r) pseudized with  8 coefficients,  rinner =    0.800   0.800   0.800

     PseudoPot. # 3 for N  read from file:
     /storage/coda1/p-amedford6/0/shared/rich_project_chbe-medford/medford-share/data/pseudos_module/espresso/nninc/pbe/van/N.UPF
     MD5 check sum: 90d10febe142ad51ac9d5be1deb811c4
     Pseudo is Ultrasoft, Zval =  5.0
     Generated by new atomic code, or converted to UPF format
     Using radial grid of  729 points,  4 beta functions with:
                l(1) =   0
                l(2) =   0
                l(3) =   1
                l(4) =   1
     Q(r) pseudized with  8 coefficients,  rinner =    0.800   0.800   0.800

     PseudoPot. # 4 for C  read from file:
     /storage/coda1/p-amedford6/0/shared/rich_project_chbe-medford/medford-share/data/pseudos_module/espresso/nninc/pbe/van/C.UPF
     MD5 check sum: 1a69bf6b8db32088f5b2163dbdb77a27
     Pseudo is Ultrasoft, Zval =  4.0
     Generated by new atomic code, or converted to UPF format
     Using radial grid of  721 points,  4 beta functions with:
                l(1) =   0
                l(2) =   0
                l(3) =   1
                l(4) =   1
     Q(r) pseudized with  8 coefficients,  rinner =    0.800   0.800   0.800

     PseudoPot. # 5 for H  read from file:
     /storage/coda1/p-amedford6/0/shared/rich_project_chbe-medford/medford-share/data/pseudos_module/espresso/nninc/pbe/van/H.UPF
     MD5 check sum: b5ee9d7bfd3a09ee7748110bda690ff7
     Pseudo is Ultrasoft, Zval =  1.0
     Generated by new atomic code, or converted to UPF format
     Using radial grid of  615 points,  1 beta functions with:
                l(1) =   0
     Q(r) pseudized with  8 coefficients,  rinner =    0.800

     atomic species   valence    mass     pseudopotential
        Ti1           12.00    47.86700     Ti( 1.00)
        O1             6.00    15.99900     O ( 1.00)
        N1             5.00    14.00700     N ( 1.00)
        C1             4.00    12.01100     C ( 1.00)
        H1             1.00     1.00800     H ( 1.00)

     No symmetry found

   Cartesian axes

     site n.     atom                  positions (alat units)
         1           Ti1 tau(   1) = (   0.0004258   2.9801865   6.0000000  )
         2           Ti1 tau(   2) = (   3.2906075   1.4906267   6.0002472  )
         3           O1  tau(   3) = (   0.0006271   0.0005054   7.9858123  )
         4           O1  tau(   4) = (   3.2906025   0.0005020   7.3038282  )
         5           O1  tau(   5) = (   4.5942328   1.4918067   9.2879030  )
         6           O1  tau(   6) = (   1.9868534   1.4903216   9.2879459  )
         7           Ti1 tau(   7) = (   3.2907910   2.8959150   9.1758416  )
         8           Ti1 tau(   8) = (   0.0015273   1.4827037   9.2680791  )
         9           O1  tau(   9) = (   3.2904964   5.9585769  11.3857690  )
        10           O1  tau(  10) = (   0.0116148   5.9584955  10.6183126  )
        11           O1  tau(  11) = (   1.2878431   1.4867815  12.6991744  )
        12           O1  tau(  12) = (   5.2968392   1.4897239  12.6840540  )
        13           Ti1 tau(  13) = (   0.0031652   2.9724310  12.5021289  )
        14           Ti1 tau(  14) = (   3.2974598   1.4750309  12.5411678  )
        15           O1  tau(  15) = (   6.5490940   5.8844369  14.7025010  )
        16           O1  tau(  16) = (   3.3056738   5.9474069  14.0077327  )
        17           O1  tau(  17) = (   4.5358307   1.5199601  16.1809847  )
        18           O1  tau(  18) = (   2.0145668   1.5037208  16.1256758  )
        19           Ti1 tau(  19) = (   3.2722398   2.9952086  15.7861162  )
        20           Ti1 tau(  20) = (   6.5630583   1.3046800  15.8709962  )
        21           O1  tau(  21) = (   3.2904802   0.0005063   4.7018136  )
        22           O1  tau(  22) = (   0.0019326   0.1554656  17.2922311  )
        23           O1  tau(  23) = (   1.3043587   1.4918075   6.0039043  )
        24           O1  tau(  24) = (   5.2767064   1.4903225   6.0039473  )
        25           Ti1 tau(  25) = (   0.0000382   5.9609847   6.0000000  )
        26           Ti1 tau(  26) = (   3.2902200   4.4714249   6.0002472  )
        27           O1  tau(  27) = (   0.0002396   2.9813036   7.9858123  )
        28           O1  tau(  28) = (   3.2902150   2.9813002   7.3038282  )
        29           O1  tau(  29) = (   4.5938453   4.4726049   9.2879030  )
        30           O1  tau(  30) = (   1.9864658   4.4711199   9.2879459  )
        31           Ti1 tau(  31) = (   3.2891106   5.8743827   9.1763621  )
        32           Ti1 tau(  32) = (   0.0006254   4.4649316   9.2693709  )
        33           O1  tau(  33) = (   3.2902589   2.9648534  11.3782866  )
        34           O1  tau(  34) = (   0.0092240   2.9805883  10.6323155  )
        35           O1  tau(  35) = (   1.2907939   4.4579819  12.6664495  )
        36           O1  tau(  36) = (   5.2949113   4.4550998  12.6520156  )
        37           Ti1 tau(  37) = (   0.0082621   5.9437129  12.5015890  )
        38           Ti1 tau(  38) = (   3.2989848   4.4491302  12.5337562  )
        39           O1  tau(  39) = (   6.5545586   3.0159292  14.9830317  )
        40           O1  tau(  40) = (   3.2960925   2.9977268  13.9872472  )
        41           O1  tau(  41) = (   4.5245867   4.4695491  16.2648171  )
        42           O1  tau(  42) = (   2.0004542   4.4779941  16.2115700  )
        43           Ti1 tau(  43) = (   3.2998562   0.0139781  15.8031611  )
        44           Ti1 tau(  44) = (   0.0298651   4.5190837  16.0363964  )
        45           O1  tau(  45) = (   3.2900926   2.9813045   4.7018136  )
        46           O1  tau(  46) = (   1.3039711   4.4726057   6.0039043  )
        47           O1  tau(  47) = (   5.2763189   4.4711207   6.0039473  )
        48           N1  tau(  48) = (   0.7390466   2.5008218  18.8353846  )
        49           N1  tau(  49) = (   6.4369825   3.4131575  18.1751453  )
        50           C1  tau(  50) = (   1.9829018   2.9174465  19.1941100  )
        51           H1  tau(  51) = (   2.1359794   3.9544348  19.4490303  )
        52           H1  tau(  52) = (   2.6935556   2.1521737  19.4548401  )
        53           H1  tau(  53) = (   0.6355624   1.5475814  18.4636284  )
        54           H1  tau(  54) = (   6.4936903   4.3158724  18.6511896  )
        55           H1  tau(  55) = (   5.4890587   3.0624770  18.3097170  )

     number of k points=    10  Fermi-Dirac smearing, width (Ry)=  0.0073
                       cart. coord. in units 2pi/alat
        k(    1) = (   0.0000000   0.0000000   0.0000000), wk =   0.1250000
        k(    2) = (   0.0000000   0.0419351   0.0000000), wk =   0.2500000
        k(    3) = (   0.0000000  -0.0838702   0.0000000), wk =   0.1250000
        k(    4) = (   0.0379955   0.0000049   0.0000000), wk =   0.2500000
        k(    5) = (   0.0379955   0.0419400   0.0000000), wk =   0.2500000
        k(    6) = (   0.0379955  -0.0838652   0.0000000), wk =   0.2500000
        k(    7) = (   0.0379955  -0.0419301   0.0000000), wk =   0.2500000
        k(    8) = (  -0.0759910  -0.0000099   0.0000000), wk =   0.1250000
        k(    9) = (  -0.0759910   0.0419252   0.0000000), wk =   0.2500000
        k(   10) = (  -0.0759910  -0.0838800   0.0000000), wk =   0.1250000

     Initial potential from superposition of free atoms

     starting charge  380.99914, renormalised to  397.00000

     negative rho (up, down):  1.606E-02 0.000E+00

     %%%%%%%%%%%%%%%%%%%%%%%%%%%%%%%%%%%%%%%%%%%%%%%%%%%%%%%%%%%%%%%%%%%%%%%%
     %                                                                      %
     % You are using vdW-DF, which was implemented by the Thonhauser group. %
     % Please cite the following two papers that made this development      %
     % possible and the two reviews that describe the various versions:     %
     %                                                                      %
     %   T. Thonhauser et al., PRL 115, 136402 (2015).                      %
     %   T. Thonhauser et al., PRB 76, 125112 (2007).                       %
     %   K. Berland et al., Rep. Prog. Phys. 78, 066501 (2015).             %
     %   D.C. Langreth et al., J. Phys.: Condens. Matter 21, 084203 (2009). %
     %                                                                      %
     %                                                                      %
     % If you are calculating the stress with vdW-DF, please also cite:     %
     %                                                                      %
     %   R. Sabatini et al., J. Phys.: Condens. Matter 24, 424209 (2012).   %
     %                                                                      %
     %%%%%%%%%%%%%%%%%%%%%%%%%%%%%%%%%%%%%%%%%%%%%%%%%%%%%%%%%%%%%%%%%%%%%%%%

     Adding external electric field

     Computed dipole along edir(3) :
        Dipole              -10.6770 Ry au,        -27.1381 Debye
        Dipole field         -0.0201 Ry au,

        Potential amp.        1.8678 Ry
        Total length         46.3494 bohr

     Starting wfcs are  301 atomic wfcs
  @ DRIVER MODE: Message from server: STATUS
  @ DRIVER MODE: Message from server: POSDATA
  @ DRIVER MODE: Reading and sharing cell
  @ DRIVER MODE: Reading and sharing positions
  @ DRIVER MODE: Received positions

     Self-consistent Calculation

     iteration #  1     ecut=    29.40 Ry     beta= 0.05
     Davidson diagonalization with overlap
     c_bands:  2 eigenvalues not converged
     c_bands:  3 eigenvalues not converged
     c_bands:  1 eigenvalues not converged
     c_bands:  4 eigenvalues not converged
     c_bands:  4 eigenvalues not converged
     c_bands:  4 eigenvalues not converged
     c_bands:  1 eigenvalues not converged
     c_bands:  2 eigenvalues not converged
     c_bands:  2 eigenvalues not converged
     ethr =  1.00E-05,  avg # of iterations = 20.0

[...]

     total energy              =   -2465.32525382 Ry
     estimated scf accuracy    <    5331.48449186 Ry

     iteration #  2     ecut=    29.40 Ry     beta= 0.05
     Davidson diagonalization with overlap
     ethr =  1.00E-02,  avg # of iterations = 23.4

[...]

     iteration # 66     ecut=    29.40 Ry     beta= 0.05
     Davidson diagonalization with overlap
     c_bands:  1 eigenvalues not converged
     ethr =  5.79E-11,  avg # of iterations = 12.8

[...]

     total energy              =   -2941.51038797 Ry
     estimated scf accuracy    <       0.00000024 Ry

     iteration # 67     ecut=    29.40 Ry     beta= 0.05
     Davidson diagonalization with overlap
     ethr =  5.79E-11,  avg # of iterations =  1.4

     negative rho (up, down):  1.517E-02 0.000E+00

     Adding external electric field

     Computed dipole along edir(3) :
        Dipole                1.1892 Ry au,          3.0227 Debye
        Dipole field          0.0022 Ry au,

        Potential amp.       -0.2080 Ry
        Total length         46.3494 bohr

     End of self-consistent calculation

          k = 0.0000 0.0000 0.0000 ( 18029 PWs)   bands (ev):

   -55.3927 -55.3558 -55.3470 -55.3129 -55.2745 -55.2682 -55.2398 -55.2212
   -55.1975 -55.1952 -55.1869 -55.1776 -55.1439 -55.0410 -54.3801 -54.3460
   -31.9555 -31.8404 -31.7871 -31.7618 -31.7103 -31.6998 -31.6944 -31.6841
   -31.6356 -31.6269 -31.6049 -31.5916 -31.5822 -31.5583 -31.5519 -31.5449
   -31.5325 -31.5164 -31.5149 -31.4996 -31.4989 -31.4618 -31.4617 -31.4517
   -31.4516 -31.4236 -31.4048 -31.4042 -31.4037 -31.3991 -31.3831 -31.3764
   -31.3754 -31.3695 -31.3690 -31.3666 -31.3345 -31.3107 -31.3055 -31.2891
   -31.2559 -31.2112 -30.7897 -30.6950 -30.6730 -30.6060 -30.5192 -30.4084
   -18.9091 -16.2243 -15.9705 -15.8230 -15.7155 -15.5992 -15.4900 -15.4352
   -15.3292 -15.2578 -15.1417 -15.0934 -15.0761 -15.0445 -15.0369 -15.0238
   -14.9456 -14.9391 -14.9212 -14.8983 -14.8927 -14.8506 -14.8389 -14.7981
   -14.7732 -14.7619 -14.6455 -14.5597 -14.4852 -14.3182 -14.2543 -12.8829
   -12.7654  -9.8326  -7.4537  -6.2592  -4.9319  -4.0027  -3.5933  -3.5568
    -3.4184  -3.3097  -3.2896  -3.2482  -3.1527  -2.9714  -2.8354  -2.7994
    -2.6856  -2.6050  -2.5917  -2.5610  -2.4362  -2.3990  -2.3595  -2.2941
    -2.2653  -2.2038  -2.1852  -2.1728  -2.1537  -2.1283  -2.1057  -2.0027
    -1.9661  -1.8702  -1.8301  -1.7970  -1.7557  -1.7388  -1.7176  -1.6879
    -1.6778  -1.6233  -1.6077  -1.5954  -1.5460  -1.4290  -1.3067  -1.2737
    -1.1834  -1.0383  -1.0004  -0.9804  -0.9200  -0.8883  -0.8641  -0.8323
    -0.7752  -0.7359  -0.6632  -0.6123  -0.5452  -0.5055  -0.4532  -0.4020
    -0.3872  -0.3023  -0.2123  -0.1778  -0.1646  -0.1442  -0.0464  -0.0114
     0.0448   0.1194   0.1219   0.1340   0.1807   0.2592   0.3363   0.3560
     0.3780   0.4818   0.4867   0.5294   0.5319   0.5524   0.5860   0.6218
     0.6708   0.6978   0.7854   0.8825   1.1103   1.2111   1.2125   1.5355
     1.5463   1.6425   1.8255   2.2191   2.2676   3.6992   3.7696   3.7901
     3.8469   3.8500   3.9199   3.9363   4.1822   4.2076   4.2080   4.2272

[...]

          k = 0.0380-0.0419 0.0000 ( 17876 PWs)   bands (ev):

[...]

          k =-0.0760-0.0000 0.0000 ( 17886 PWs)   bands (ev):

[...]

          k =-0.0760-0.0839 0.0000 ( 17948 PWs)   bands (ev):

   -55.3787 -55.3697 -55.3301 -55.3297 -55.2638 -55.2594 -55.2549 -55.2055
   -55.2022 -55.2006 -55.1941 -55.1613 -55.1603 -55.0431 -54.3631 -54.3629
   -31.7646 -31.7556 -31.6962 -31.6719 -31.6556 -31.6554 -31.6371 -31.6209
   -31.6208 -31.6044 -31.5964 -31.5880 -31.5726 -31.5408 -31.5384 -31.5341
   -31.5336 -31.5325 -31.5211 -31.5169 -31.4880 -31.4755 -31.4715 -31.4613
   -31.4556 -31.4525 -31.4498 -31.4494 -31.4467 -31.4379 -31.4352 -31.4182
   -31.4171 -31.4147 -31.3952 -31.3937 -31.3934 -31.3842 -31.3419 -31.3407
   -31.3048 -31.2577 -30.6857 -30.6855 -30.6023 -30.6021 -30.5626 -30.5626
   -18.9030 -15.7755 -15.6070 -15.5880 -15.4442 -15.4079 -15.3643 -15.3532
   -15.2587 -15.2231 -15.1973 -15.1669 -15.1455 -15.1103 -15.0976 -15.0781
   -15.0233 -15.0013 -14.9956 -14.9758 -14.9168 -14.9124 -14.9048 -14.9019
   -14.8472 -14.8440 -14.8340 -14.7534 -14.7505 -14.6233 -14.1865 -12.8668
   -12.8668  -9.8026  -7.4140  -6.2567  -5.0313  -3.9414  -3.6182  -2.8646
    -2.8579  -2.8448  -2.6602  -2.5768  -2.5544  -2.5485  -2.4587  -2.4217
    -2.3756  -2.3735  -2.3196  -2.3133  -2.2867  -2.2462  -2.2350  -2.2149
    -2.1962  -2.1865  -2.1509  -2.1287  -2.1189  -2.0880  -2.0570  -2.0399
    -2.0339  -2.0122  -1.9810  -1.9623  -1.9495  -1.8931  -1.7848  -1.7697
    -1.6723  -1.6079  -1.6036  -1.5301  -1.5053  -1.4620  -1.4542  -1.4316
    -1.3837  -1.2056  -1.1747  -1.1449  -1.1369  -1.0477  -0.9987  -0.9261
    -0.9194  -0.8956  -0.8529  -0.7655  -0.7297  -0.7108  -0.6335  -0.6124
    -0.5423  -0.4911  -0.4383  -0.4076  -0.3543  -0.3524  -0.3144  -0.3024
    -0.2613  -0.2136  -0.1685  -0.1339  -0.1215  -0.0890   0.1099   0.1205
     0.1357   0.2466   0.2861   0.4345   0.4495   0.5125   0.6181   0.6442
     0.7129   0.7379   0.8950   0.9059   0.9244   0.9745   0.9828   1.0523
     1.0617   1.9986   1.9991   2.0874   2.0877   3.6679   3.8865   3.9579
     3.9726   4.0053   4.1314   4.1986   4.2168   4.2851   4.2877   4.3171

     the Fermi energy is     3.7650 ev

!    total energy              =   -2941.51041586 Ry
     estimated scf accuracy    <       0.00000007 Ry
     smearing contrib. (-TS)   =      -0.04438216 Ry
     internal energy E=F+TS    =   -2941.46603370 Ry

     The total energy is F=E-TS. E is the sum of the following terms:
     one-electron contribution =  -23633.50113006 Ry
     hartree contribution      =   11908.93903471 Ry
     xc contribution           =    -486.88311281 Ry
     ewald contribution        =    9269.97650557 Ry
     electric field correction =       0.00266889 Ry

     convergence has been achieved in  67 iterations

     Forces acting on atoms (cartesian axes, Ry/au):

     atom    1 type  1   force =     0.00012547   -0.00018495    0.09305687
     atom    2 type  1   force =    -0.00008989   -0.00045995   -0.17839722
     atom    3 type  2   force =     0.00004407   -0.00036458   -0.02006148
     atom    4 type  2   force =    -0.00001012   -0.00201493    0.05931549
     atom    5 type  2   force =    -0.01031292   -0.00098702    0.00818364
     atom    6 type  2   force =     0.01174058   -0.00038834    0.00732450
     atom    7 type  1   force =    -0.00037402    0.00239722   -0.01418103
     atom    8 type  1   force =     0.00023803   -0.00124463   -0.00619212
     atom    9 type  2   force =    -0.00023224    0.00021541    0.00014086
     atom   10 type  2   force =    -0.00162901    0.00148907    0.00162947
     atom   11 type  2   force =    -0.00006258   -0.00015942    0.00007682
     atom   12 type  2   force =    -0.00016439   -0.00015908   -0.00002879
     atom   13 type  1   force =     0.00007103   -0.00027523    0.00007008
     atom   14 type  1   force =     0.00017030    0.00019526    0.00030273
     atom   15 type  2   force =    -0.00009576    0.00030019   -0.00031719
     atom   16 type  2   force =     0.00017487   -0.00021849    0.00004648
     atom   17 type  2   force =    -0.00010215   -0.00004305    0.00026566
     atom   18 type  2   force =    -0.00020851   -0.00013472   -0.00038702
     atom   19 type  1   force =    -0.00019008   -0.00011739    0.00070378
     atom   20 type  1   force =    -0.00007068   -0.00035263    0.00053710
     atom   21 type  2   force =     0.00005988   -0.00008283    0.10399078
     atom   22 type  2   force =     0.00000686   -0.00041577   -0.00123777
     atom   23 type  2   force =    -0.07032762   -0.00017660   -0.02686649
     atom   24 type  2   force =     0.07021147    0.00026899   -0.02689383
     atom   25 type  1   force =    -0.00002391   -0.00014248    0.09261817
     atom   26 type  1   force =    -0.00006235   -0.00039173   -0.17854624
     atom   27 type  2   force =     0.00009375   -0.00030890   -0.01914757
     atom   28 type  2   force =     0.00003845   -0.00178799    0.05865588
     atom   29 type  2   force =    -0.01081104   -0.00126290    0.00873251
     atom   30 type  2   force =     0.01216000   -0.00086185    0.00783455
     atom   31 type  1   force =    -0.00029425    0.00614577   -0.01441777
     atom   32 type  1   force =     0.00029272    0.00071140   -0.00651859
     atom   33 type  2   force =    -0.00022767   -0.00024638    0.00000077
     atom   34 type  2   force =    -0.00093709   -0.00223311   -0.00016584
     atom   35 type  2   force =    -0.00041590    0.00023181    0.00013518
     atom   36 type  2   force =     0.00012273    0.00019084   -0.00028928
     atom   37 type  1   force =     0.00017393   -0.00000480    0.00006012
     atom   38 type  1   force =     0.00032440    0.00019539    0.00012160
     atom   39 type  2   force =    -0.00025035    0.00021208   -0.00029097
     atom   40 type  2   force =    -0.00008203   -0.00015357   -0.00014587
     atom   41 type  2   force =    -0.00013958    0.00037989   -0.00023016
     atom   42 type  2   force =    -0.00022358    0.00018437   -0.00025174
     atom   43 type  1   force =     0.00043230   -0.00000452    0.00047983
     atom   44 type  1   force =     0.00016985   -0.00016317    0.00011930
     atom   45 type  2   force =     0.00004275   -0.00008925    0.10397501
     atom   46 type  2   force =    -0.07030222   -0.00009835   -0.02682362
     atom   47 type  2   force =     0.07017654    0.00031641   -0.02686140
     atom   48 type  3   force =     0.02089567    0.00137572    0.00754926
     atom   49 type  3   force =    -0.00415288    0.00110920   -0.00222433
     atom   50 type  4   force =    -0.01170828   -0.00255209   -0.00440107
     atom   51 type  5   force =     0.00021441   -0.00099712    0.00005594
     atom   52 type  5   force =    -0.00053062    0.00003067    0.00032468
     atom   53 type  5   force =    -0.00236233    0.00102683   -0.00093590
     atom   54 type  5   force =    -0.00019672    0.00109870    0.00036627
     atom   55 type  5   force =    -0.00138927    0.00100259   -0.00086005

     Total force =     0.367360     Total SCF correction =     0.000592
  @ DRIVER MODE: Message from server: STATUS
  @ DRIVER MODE: Message from server: GETFORCE
  @ DRIVER MODE: Returning v,forces,stress,ensemble

     Writing output data file ./calc.save/
  @ DRIVER MODE: Message from server: EXIT
  @ DRIVE MODE: Exiting

     General routines

     Parallel routines

   This run was terminated on:  18:21:22  10Sep2021

   JOB DONE.