     Program PWSCF v.6.7GPU starts on  8Sep2021 at 23:24: 9

     R & G space division:  proc/nbgrp/npool/nimage =      10
     Reading input from /storage/home/hcoda1/3/ntian30/research/carbon/CxH_vib/CH3_calc/ads_slab/CH3NNH3_a/out_0005/pw.inp
Warning: card &CELL ignored
Warning: card   CELL_DYNAMICS='IPI', ignored
Warning: card / ignored

     Current dimensions of program PWSCF are:
     Max number of different atomic species (ntypx) = 10
     Max number of k-points (npk) =  40000
     Max angular momentum in pseudopotentials (lmaxx) =  3
     Presently no symmetry can be used with electric field

     Message from routine cell_base_init:
     DEPRECATED: use true lattice parameter, not A to a.u. conversion factor

     IMPORTANT: XC functional enforced from input :
     Exchange-correlation= BEEF-VDW
                           (   1   4  43  14   2   0   0)
     Any further DFT definition will be discarded
     Please, verify this is what you really want

  @ DRIVER MODE: Connecting to
 qe_1139763_2767402.sched-torque.pace.gatech.edu16ibf2xo_scratch
  using UNIX socket
  @ DRIVER MODE: Message from server: STATUS
  @ DRIVER MODE: Message from server: INIT
  @ DRIVER MODE: Receiving replica           0          -1
  @ DRIVER MODE: Receiving encoded integer          25
  @ DRIVER MODE:  SCF:  T  FORCE:  T  STRESS:  F  VC:  F  ENSEMBLE:  F
  @ DRIVER MODE:  SCF:  T  FORCE:  T  STRESS:  F  VC:  F  ENSEMBLE:  F

     Using Slab Decomposition

     bravais-lattice index     =            0
     lattice parameter (alat)  =       1.8897  a.u.
     unit-cell volume          =    6658.9804 (a.u.)^3
     number of atoms/cell      =           56
     number of atomic types    =            5
     number of electrons       =       398.00
     number of Kohn-Sham states=          209
     kinetic-energy cutoff     =      29.3995  Ry
     charge density cutoff     =     293.9946  Ry
     scf convergence threshold =      7.3E-08
     mixing beta               =       0.0500
     number of iterations used =            8  plain     mixing
     Exchange-correlation= BEEF-VDW
                           (   1   4  43  14   2   0   0)

     celldm(1)=   1.889726  celldm(2)=   0.000000  celldm(3)=   0.000000
     celldm(4)=   0.000000  celldm(5)=   0.000000  celldm(6)=   0.000000

     crystal axes: (cart. coord. in units of alat)
               a(1) = (   6.579727   0.000000   0.000000 )
               a(2) = (  -0.000775   5.961596   0.000000 )
               a(3) = (   0.000000   0.000000  25.155947 )

     reciprocal axes: (cart. coord. in units 2 pi/alat)
               b(1) = (  0.151982  0.000020  0.000000 )
               b(2) = (  0.000000  0.167740  0.000000 )
               b(3) = (  0.000000  0.000000  0.039752 )

     PseudoPot. # 1 for Ti read from file:
     /storage/coda1/p-amedford6/0/shared/rich_project_chbe-medford/medford-share/data/pseudos_module/espresso/nninc/pbe/van/Ti.UPF
     MD5 check sum: 8e4df49b7f0d34bbd5052bf3f5ea0213
     Pseudo is Ultrasoft, Zval = 12.0
     Generated by new atomic code, or converted to UPF format
     Using radial grid of  851 points,  6 beta functions with:
                l(1) =   0
                l(2) =   0
                l(3) =   1
                l(4) =   1
                l(5) =   2
                l(6) =   2
     Q(r) pseudized with  8 coefficients,  rinner =    1.000   1.000   1.000
                                                       1.000   1.000

     PseudoPot. # 2 for O  read from file:
     /storage/coda1/p-amedford6/0/shared/rich_project_chbe-medford/medford-share/data/pseudos_module/espresso/nninc/pbe/van/O.UPF
     MD5 check sum: 78c19812648e8988a0fe644b0f25305e
     Pseudo is Ultrasoft, Zval =  6.0
     Generated by new atomic code, or converted to UPF format
     Using radial grid of  737 points,  4 beta functions with:
                l(1) =   0
                l(2) =   0
                l(3) =   1
                l(4) =   1
     Q(r) pseudized with  8 coefficients,  rinner =    0.800   0.800   0.800

     PseudoPot. # 3 for N  read from file:
     /storage/coda1/p-amedford6/0/shared/rich_project_chbe-medford/medford-share/data/pseudos_module/espresso/nninc/pbe/van/N.UPF
     MD5 check sum: 90d10febe142ad51ac9d5be1deb811c4
     Pseudo is Ultrasoft, Zval =  5.0
     Generated by new atomic code, or converted to UPF format
     Using radial grid of  729 points,  4 beta functions with:
                l(1) =   0
                l(2) =   0
                l(3) =   1
                l(4) =   1
     Q(r) pseudized with  8 coefficients,  rinner =    0.800   0.800   0.800

     PseudoPot. # 4 for C  read from file:
     /storage/coda1/p-amedford6/0/shared/rich_project_chbe-medford/medford-share/data/pseudos_module/espresso/nninc/pbe/van/C.UPF
     MD5 check sum: 1a69bf6b8db32088f5b2163dbdb77a27
     Pseudo is Ultrasoft, Zval =  4.0
     Generated by new atomic code, or converted to UPF format
     Using radial grid of  721 points,  4 beta functions with:
                l(1) =   0
                l(2) =   0
                l(3) =   1
                l(4) =   1
     Q(r) pseudized with  8 coefficients,  rinner =    0.800   0.800   0.800

     PseudoPot. # 5 for H  read from file:
     /storage/coda1/p-amedford6/0/shared/rich_project_chbe-medford/medford-share/data/pseudos_module/espresso/nninc/pbe/van/H.UPF
     MD5 check sum: b5ee9d7bfd3a09ee7748110bda690ff7
     Pseudo is Ultrasoft, Zval =  1.0
     Generated by new atomic code, or converted to UPF format
     Using radial grid of  615 points,  1 beta functions with:
                l(1) =   0
     Q(r) pseudized with  8 coefficients,  rinner =    0.800

     atomic species   valence    mass     pseudopotential
        Ti1           12.00    47.86700     Ti( 1.00)
        O1             6.00    15.99900     O ( 1.00)
        N1             5.00    14.00700     N ( 1.00)
        C1             4.00    12.01100     C ( 1.00)
        H1             1.00     1.00800     H ( 1.00)

     No symmetry found

   Cartesian axes

     site n.     atom                  positions (alat units)
         1           Ti1 tau(   1) = (   0.0004258   2.9801865   6.0000000  )
         2           Ti1 tau(   2) = (   3.2906075   1.4906267   6.0002472  )
         3           O1  tau(   3) = (   0.0006271   0.0005054   7.9858123  )
         4           O1  tau(   4) = (   3.2906025   0.0005020   7.3038282  )
         5           O1  tau(   5) = (   4.5942328   1.4918067   9.2879030  )
         6           O1  tau(   6) = (   1.9868534   1.4903216   9.2879459  )
         7           Ti1 tau(   7) = (   3.2907910   2.8959150   9.1758416  )
         8           Ti1 tau(   8) = (   0.0015273   1.4827037   9.2680791  )
         9           O1  tau(   9) = (   3.2915376   0.0135470  11.3011085  )
        10           O1  tau(  10) = (   0.0116148   5.9584955  10.6183126  )
        11           O1  tau(  11) = (   1.3264285   1.5112823  12.6233503  )
        12           O1  tau(  12) = (   5.3038506   1.5117067  12.6402039  )
        13           Ti1 tau(  13) = (   6.4820107   2.9926285  12.7699842  )
        14           Ti1 tau(  14) = (   3.1705855   1.5046985  12.4703807  )
        15           O1  tau(  15) = (   0.0265921   0.0018185  14.6022993  )
        16           O1  tau(  16) = (   3.3077976   0.0231332  13.8844522  )
        17           O1  tau(  17) = (   4.5431088   1.5356983  16.0582573  )
        18           O1  tau(  18) = (   2.0919096   1.5355568  16.0602035  )
        19           Ti1 tau(  19) = (   3.3160089   3.0194793  15.6930983  )
        20           Ti1 tau(  20) = (   0.0166562   1.5958061  16.1043543  )
        21           O1  tau(  21) = (   3.2904802   0.0005063   4.7018136  )
        22           O1  tau(  22) = (   0.0292894   0.0555714  17.2141426  )
        23           O1  tau(  23) = (   1.3043587   1.4918075   6.0039043  )
        24           O1  tau(  24) = (   5.2767064   1.4903225   6.0039473  )
        25           Ti1 tau(  25) = (   0.0000382   5.9609847   6.0000000  )
        26           Ti1 tau(  26) = (   3.2902200   4.4714249   6.0002472  )
        27           O1  tau(  27) = (   0.0002396   2.9813036   7.9858123  )
        28           O1  tau(  28) = (   3.2902150   2.9813002   7.3038282  )
        29           O1  tau(  29) = (   4.5938453   4.4726049   9.2879030  )
        30           O1  tau(  30) = (   1.9864658   4.4711199   9.2879459  )
        31           Ti1 tau(  31) = (   3.2891106   5.8743827   9.1763621  )
        32           Ti1 tau(  32) = (   0.0006254   4.4649316   9.2693709  )
        33           O1  tau(  33) = (   3.2938734   2.9940915  11.3014364  )
        34           O1  tau(  34) = (   0.0092240   2.9805883  10.6323155  )
        35           O1  tau(  35) = (   1.3265148   4.4779228  12.6213786  )
        36           O1  tau(  36) = (   5.3043665   4.4729268  12.6387898  )
        37           Ti1 tau(  37) = (   6.5102921   0.0103953  12.7821347  )
        38           Ti1 tau(  38) = (   3.1702703   4.4844908  12.4724723  )
        39           O1  tau(  39) = (   0.0044238   2.9856840  14.6711682  )
        40           O1  tau(  40) = (   3.3052367   3.0047533  13.8869641  )
        41           O1  tau(  41) = (   4.5463945   4.5179403  16.0573015  )
        42           O1  tau(  42) = (   2.0913021   4.5186677  16.0620504  )
        43           Ti1 tau(  43) = (   3.3128124   0.0388915  15.6953448  )
        44           Ti1 tau(  44) = (   0.0191476   4.5695365  16.1495174  )
        45           O1  tau(  45) = (   3.2900926   2.9813045   4.7018136  )
        46           O1  tau(  46) = (   1.3039711   4.4726057   6.0039043  )
        47           O1  tau(  47) = (   5.2763189   4.4711207   6.0039473  )
        48           N1  tau(  48) = (   0.0657769   3.0188755  17.3328317  )
        49           N1  tau(  49) = (   6.3710133   2.5762042  22.6422586  )
        50           C1  tau(  50) = (   0.3130180   3.0007025  18.7658599  )
        51           H1  tau(  51) = (   0.2928038   4.0066326  19.1970245  )
        52           H1  tau(  52) = (   6.1505335   2.3845869  19.2855718  )
        53           H1  tau(  53) = (   1.2957935   2.5555442  18.9776258  )
        54           H1  tau(  54) = (   5.9555952   3.1943721  23.3306195  )
        55           H1  tau(  55) = (   0.0098814   1.7053999  23.1148127  )
        56           H1  tau(  56) = (   0.6724875   2.9916800  22.3598805  )

     number of k points=    10  Fermi-Dirac smearing, width (Ry)=  0.0073
                       cart. coord. in units 2pi/alat
        k(    1) = (   0.0000000   0.0000000   0.0000000), wk =   0.1250000
        k(    2) = (   0.0000000   0.0419351   0.0000000), wk =   0.2500000
        k(    3) = (   0.0000000  -0.0838702   0.0000000), wk =   0.1250000
        k(    4) = (   0.0379955   0.0000049   0.0000000), wk =   0.2500000
        k(    5) = (   0.0379955   0.0419400   0.0000000), wk =   0.2500000
        k(    6) = (   0.0379955  -0.0838652   0.0000000), wk =   0.2500000
        k(    7) = (   0.0379955  -0.0419301   0.0000000), wk =   0.2500000
        k(    8) = (  -0.0759910  -0.0000099   0.0000000), wk =   0.1250000
        k(    9) = (  -0.0759910   0.0419252   0.0000000), wk =   0.2500000
        k(   10) = (  -0.0759910  -0.0838800   0.0000000), wk =   0.1250000

     Initial potential from superposition of free atoms

     starting charge  381.99914, renormalised to  398.00000

     negative rho (up, down):  7.225E-03 0.000E+00

     %%%%%%%%%%%%%%%%%%%%%%%%%%%%%%%%%%%%%%%%%%%%%%%%%%%%%%%%%%%%%%%%%%%%%%%%
     %                                                                      %
     % You are using vdW-DF, which was implemented by the Thonhauser group. %
     % Please cite the following two papers that made this development      %
     % possible and the two reviews that describe the various versions:     %
     %                                                                      %
     %   T. Thonhauser et al., PRL 115, 136402 (2015).                      %
     %   T. Thonhauser et al., PRB 76, 125112 (2007).                       %
     %   K. Berland et al., Rep. Prog. Phys. 78, 066501 (2015).             %
     %   D.C. Langreth et al., J. Phys.: Condens. Matter 21, 084203 (2009). %
     %                                                                      %
     %                                                                      %
     % If you are calculating the stress with vdW-DF, please also cite:     %
     %                                                                      %
     %   R. Sabatini et al., J. Phys.: Condens. Matter 24, 424209 (2012).   %
     %                                                                      %
     %%%%%%%%%%%%%%%%%%%%%%%%%%%%%%%%%%%%%%%%%%%%%%%%%%%%%%%%%%%%%%%%%%%%%%%%

     Adding external electric field

     Computed dipole along edir(3) :
        Dipole              -12.0338 Ry au,        -30.5870 Debye
        Dipole field         -0.0227 Ry au,

        Potential amp.        2.1051 Ry
        Total length         46.3494 bohr

     Starting wfcs are  302 atomic wfcs
  @ DRIVER MODE: Message from server: STATUS
  @ DRIVER MODE: Message from server: POSDATA
  @ DRIVER MODE: Reading and sharing cell
  @ DRIVER MODE: Reading and sharing positions
  @ DRIVER MODE: Received positions

     Self-consistent Calculation

     iteration #  1     ecut=    29.40 Ry     beta= 0.05
     Davidson diagonalization with overlap
     c_bands:  1 eigenvalues not converged
     c_bands:  1 eigenvalues not converged
     c_bands:  1 eigenvalues not converged
     c_bands:  2 eigenvalues not converged
     c_bands:  1 eigenvalues not converged
     c_bands:  1 eigenvalues not converged
     c_bands:  1 eigenvalues not converged
     c_bands:  2 eigenvalues not converged
     c_bands:  1 eigenvalues not converged
     ethr =  1.00E-05,  avg # of iterations = 19.6

[...]

     total energy              =   -2520.00240902 Ry
     estimated scf accuracy    <    4725.59367619 Ry

     iteration #  2     ecut=    29.40 Ry     beta= 0.05
     Davidson diagonalization with overlap
     ethr =  1.00E-02,  avg # of iterations = 22.0

[...]

     iteration # 72     ecut=    29.40 Ry     beta= 0.05
     Davidson diagonalization with overlap
     c_bands:  1 eigenvalues not converged
     ethr =  3.60E-07,  avg # of iterations =  8.3

[...]

     total energy              =   -2942.90426607 Ry
     estimated scf accuracy    <       0.00000008 Ry

     iteration # 90     ecut=    29.40 Ry     beta= 0.05
     Davidson diagonalization with overlap
     ethr =  2.12E-11,  avg # of iterations =  5.7

     negative rho (up, down):  9.754E-03 0.000E+00

     Adding external electric field

     Computed dipole along edir(3) :
        Dipole                0.6803 Ry au,          1.7292 Debye
        Dipole field          0.0013 Ry au,

        Potential amp.       -0.1190 Ry
        Total length         46.3494 bohr

     End of self-consistent calculation

          k = 0.0000 0.0000 0.0000 ( 18029 PWs)   bands (ev):

   -56.5123 -56.4787 -55.6134 -55.6044 -55.5782 -55.5719 -55.4679 -55.4324
   -55.2490 -55.2137 -55.1728 -55.1522 -55.1388 -55.0398 -54.5924 -54.5478
   -32.9393 -32.7856 -32.7575 -32.6893 -32.5983 -32.5654 -32.0926 -32.0709
   -32.0095 -31.9012 -31.8596 -31.8207 -31.8185 -31.7849 -31.7561 -31.7536
   -31.7480 -31.7357 -31.7210 -31.7135 -31.6999 -31.6762 -31.6499 -31.6354
   -31.6224 -31.6033 -31.5933 -31.5690 -31.5647 -31.5114 -31.4872 -31.4803
   -31.3943 -31.3877 -31.3834 -31.3253 -31.3159 -31.3000 -31.2698 -31.2457
   -31.2267 -31.1893 -31.1200 -30.8390 -30.8138 -30.7965 -30.7695 -30.6526
   -16.6711 -16.2226 -15.9923 -15.8718 -15.7932 -15.7499 -15.6942 -15.5641
   -15.4973 -15.4952 -15.4638 -15.4141 -15.3482 -15.2095 -15.1116 -15.0487
   -15.0055 -14.8901 -14.8323 -14.7960 -14.7844 -14.7509 -14.7346 -14.5398
   -14.4956 -14.4038 -14.4002 -14.2622 -14.0515 -14.0021 -13.6712 -13.5613
   -12.6255  -7.4581  -4.2389  -4.0974  -4.0782  -3.7196  -3.4735  -3.3909
    -3.2841  -3.2793  -3.1904  -3.0891  -3.0315  -2.9872  -2.8732  -2.8637
    -2.7261  -2.6916  -2.6859  -2.6702  -2.6310  -2.5709  -2.5504  -2.4980
    -2.4962  -2.4881  -2.3319  -2.2417  -2.1677  -2.1449  -2.1260  -2.1014
    -2.0214  -1.9967  -1.9920  -1.9855  -1.8839  -1.7521  -1.7315  -1.7039
    -1.6702  -1.6594  -1.6186  -1.6001  -1.4584  -1.3908  -1.2784  -1.2764
    -1.2399  -1.1788  -1.1757  -1.0662  -0.9986  -0.9401  -0.9118  -0.8089
    -0.7526  -0.7279  -0.6389  -0.5754  -0.5411  -0.5206  -0.5017  -0.4021
    -0.3965  -0.3631  -0.2792  -0.2696  -0.2259  -0.1411  -0.1189  -0.1142
    -0.0255  -0.0144   0.0903   0.1212   0.1693   0.1953   0.2884   0.3149
     0.4115   0.4579   0.4718   0.5960   0.6170   0.6696   0.7538   0.8086
     0.8263   0.8487   0.8887   0.8955   0.9872   1.0945   1.1062   1.1319
     1.2124   1.2581   1.4028   1.4416   1.7148   1.7487   2.4018   2.7639
     2.9262   3.2244   3.4300   3.5375   3.7423   3.7545   3.7608   3.9497
     3.9947

[...]

          k = 0.0380-0.0419 0.0000 ( 17876 PWs)   bands (ev):

[...]

          k =-0.0760-0.0000 0.0000 ( 17886 PWs)   bands (ev):

[...]

          k =-0.0760-0.0839 0.0000 ( 17948 PWs)   bands (ev):

   -56.4955 -56.4952 -55.5954 -55.5946 -55.5916 -55.5860 -55.4521 -55.4481
   -55.2340 -55.2286 -55.1558 -55.1557 -55.1495 -55.0425 -54.5837 -54.5565
   -32.7715 -32.7712 -32.7563 -32.7561 -32.6424 -32.6421 -31.9214 -31.9190
   -31.8956 -31.8892 -31.8487 -31.8478 -31.8052 -31.8043 -31.8025 -31.7999
   -31.7819 -31.7800 -31.7785 -31.7749 -31.7030 -31.6997 -31.6542 -31.6487
   -31.5852 -31.5765 -31.5162 -31.5112 -31.5003 -31.5001 -31.4789 -31.4326
   -31.4313 -31.4019 -31.3812 -31.3811 -31.3634 -31.3419 -31.3418 -31.3209
   -31.2857 -31.2473 -30.9811 -30.9085 -30.8102 -30.7858 -30.7764 -30.7391
   -16.0177 -16.0158 -15.9865 -15.9861 -15.7105 -15.7069 -15.6533 -15.6513
   -15.4797 -15.4734 -15.2681 -15.2591 -15.2533 -15.2495 -15.1209 -15.1146
   -15.0505 -15.0329 -14.9460 -14.9421 -14.8834 -14.8733 -14.8343 -14.8157
   -14.4955 -14.4770 -14.3620 -14.3420 -14.2000 -14.0014 -13.6648 -13.6647
   -12.6420  -7.4486  -4.1081  -4.0821  -3.1176  -3.1170  -3.0449  -3.0439
    -2.9148  -2.9097  -2.8504  -2.8497  -2.7321  -2.7297  -2.6615  -2.5972
    -2.5959  -2.5937  -2.5764  -2.5401  -2.4388  -2.4355  -2.4230  -2.4060
    -2.3646  -2.3618  -2.3410  -2.2597  -2.2459  -2.2097  -2.1698  -2.0621
    -2.0519  -2.0330  -2.0058  -1.9451  -1.9381  -1.9245  -1.8749  -1.8517
    -1.7673  -1.7126  -1.6514  -1.5510  -1.5482  -1.5331  -1.5193  -1.3702
    -1.3315  -1.3042  -1.3015  -1.2819  -1.2365  -1.1490  -1.1407  -0.9954
    -0.9943  -0.9172  -0.8397  -0.8245  -0.7949  -0.6641  -0.6213  -0.5810
    -0.5740  -0.5492  -0.5231  -0.5036  -0.4705  -0.3246  -0.3133  -0.2831
    -0.2413  -0.2334  -0.1875  -0.1198  -0.0372   0.0220   0.0243   0.0962
     0.1586   0.2192   0.2961   0.3099   0.3129   0.5963   0.6789   0.7701
     0.8498   0.9196   0.9811   1.0029   1.0725   1.1049   1.1310   1.2312
     1.2354   1.2498   1.2502   1.3297   1.3314   1.6883   2.2902   3.3386
     3.3390   3.4072   3.4077   3.7315   3.7369   3.8483   3.8586   3.9785
     3.9825

     the Fermi energy is     2.5921 ev

!    total energy              =   -2942.90427099 Ry
     estimated scf accuracy    <       0.00000003 Ry
     smearing contrib. (-TS)   =      -0.00438611 Ry
     internal energy E=F+TS    =   -2942.89988488 Ry

     The total energy is F=E-TS. E is the sum of the following terms:
     one-electron contribution =  -23045.64545593 Ry
     hartree contribution      =   11613.49443151 Ry
     xc contribution           =    -487.44070018 Ry
     ewald contribution        =    8976.69096633 Ry
     electric field correction =       0.00087340 Ry

     convergence has been achieved in  90 iterations

     Forces acting on atoms (cartesian axes, Ry/au):

     atom    1 type  1   force =     0.00001270   -0.00050734    0.12522651
     atom    2 type  1   force =    -0.00013363   -0.00062812   -0.16045291
     atom    3 type  2   force =     0.00017190   -0.00022850   -0.06975567
     atom    4 type  2   force =    -0.00004268   -0.00027135    0.02738544
     atom    5 type  2   force =    -0.01718639    0.00222796   -0.00897459
     atom    6 type  2   force =     0.01886802    0.00287964   -0.00929482
     atom    7 type  1   force =     0.00087633   -0.00377961    0.02276491
     atom    8 type  1   force =    -0.00036421   -0.00327004    0.11395802
     atom    9 type  2   force =     0.00050766   -0.00040044   -0.00025413
     atom   10 type  2   force =    -0.00233471    0.00259827   -0.07356834
     atom   11 type  2   force =     0.00020750   -0.00095856   -0.00022531
     atom   12 type  2   force =    -0.00004853   -0.00060086   -0.00014893
     atom   13 type  1   force =     0.00023199   -0.00018731    0.00049985
     atom   14 type  1   force =    -0.00010700   -0.00055029    0.00027012
     atom   15 type  2   force =    -0.00037399   -0.00110600   -0.00002614
     atom   16 type  2   force =    -0.00014621   -0.00017200    0.00020654
     atom   17 type  2   force =     0.00061581   -0.00051750   -0.00034818
     atom   18 type  2   force =    -0.00027992   -0.00058102   -0.00036189
     atom   19 type  1   force =    -0.00025426    0.00001651   -0.00043789
     atom   20 type  1   force =     0.00049914   -0.00316270   -0.00340231
     atom   21 type  2   force =     0.00005313   -0.00006218    0.09966081
     atom   22 type  2   force =     0.00013966   -0.00026588   -0.00068260
     atom   23 type  2   force =    -0.07931520   -0.00005817   -0.03255993
     atom   24 type  2   force =     0.07916916    0.00037193   -0.03258800
     atom   25 type  1   force =     0.00002452   -0.00050224    0.12458188
     atom   26 type  1   force =    -0.00013359   -0.00048167   -0.16046554
     atom   27 type  2   force =     0.00028378   -0.00044881   -0.06875835
     atom   28 type  2   force =     0.00000217   -0.00012650    0.02724499
     atom   29 type  2   force =    -0.01764637    0.00173978   -0.00904821
     atom   30 type  2   force =     0.01921915    0.00200459   -0.00938543
     atom   31 type  1   force =     0.00080064   -0.00118701    0.02238437
     atom   32 type  1   force =    -0.00028784    0.00070305    0.11459284
     atom   33 type  2   force =    -0.00007413    0.00003699   -0.00087531
     atom   34 type  2   force =    -0.00200402    0.00206076   -0.07226190
     atom   35 type  2   force =     0.00009966   -0.00020505    0.00000672
     atom   36 type  2   force =    -0.00057105    0.00022618    0.00009478
     atom   37 type  1   force =     0.00088205    0.00095285    0.00048933
     atom   38 type  1   force =    -0.00024380    0.00027456    0.00014377
     atom   39 type  2   force =    -0.00007090   -0.00024426   -0.00137912
     atom   40 type  2   force =    -0.00002797   -0.00018832   -0.00049501
     atom   41 type  2   force =     0.00003355   -0.00034117   -0.00030159
     atom   42 type  2   force =     0.00021810   -0.00027891   -0.00039431
     atom   43 type  1   force =    -0.00037035    0.00011844   -0.00033779
     atom   44 type  1   force =     0.00005815    0.00237718   -0.00148718
     atom   45 type  2   force =     0.00003849   -0.00007189    0.09968044
     atom   46 type  2   force =    -0.07931767   -0.00002760   -0.03256487
     atom   47 type  2   force =     0.07917146    0.00041610   -0.03256748
     atom   48 type  3   force =     0.00124325    0.00178681    0.01477709
     atom   49 type  3   force =    -0.00072419   -0.00084686    0.00016665
     atom   50 type  4   force =    -0.00084177    0.00020806   -0.00546073
     atom   51 type  5   force =    -0.00071959   -0.00062097   -0.00157468
     atom   52 type  5   force =    -0.00010708    0.00047253   -0.00136312
     atom   53 type  5   force =    -0.00060165    0.00069607   -0.00099690
     atom   54 type  5   force =     0.00049993   -0.00007139   -0.00010856
     atom   55 type  5   force =     0.00031982    0.00094972   -0.00053395
     atom   56 type  5   force =     0.00008101   -0.00016748   -0.00069335

     Total force =     0.427587     Total SCF correction =     0.000390
  @ DRIVER MODE: Message from server: STATUS
  @ DRIVER MODE: Message from server: GETFORCE
  @ DRIVER MODE: Returning v,forces,stress,ensemble

     Writing output data file ./calc.save/
  @ DRIVER MODE: Message from server: EXIT
  @ DRIVE MODE: Exiting

     General routines

     Parallel routines

   This run was terminated on:  23:46:17   8Sep2021

   JOB DONE.