     Program PWSCF v.6.7GPU starts on 18Aug2021 at 11: 0:31

     R & G space division:  proc/nbgrp/npool/nimage =       6
     Reading input from /storage/home/hcoda1/3/ntian30/research/carbon/CH3_vib_side_on/ads_slab/CH3_a/out_0000/pw.inp
Warning: card &CELL ignored
Warning: card   CELL_DYNAMICS='IPI', ignored
Warning: card / ignored

     Current dimensions of program PWSCF are:
     Max number of different atomic species (ntypx) = 10
     Max number of k-points (npk) =  40000
     Max angular momentum in pseudopotentials (lmaxx) =  3
     Presently no symmetry can be used with electric field

     Message from routine cell_base_init:
     DEPRECATED: use true lattice parameter, not A to a.u. conversion factor

     IMPORTANT: XC functional enforced from input :
     Exchange-correlation= BEEF-VDW
                           (   1   4  43  14   2   0   0)
     Any further DFT definition will be discarded
     Please, verify this is what you really want

  @ DRIVER MODE: Connecting to
 qe_1139763_2594175.sched-torque.pace.gatech.edupuj_ndt6_scratch
  using UNIX socket
  @ DRIVER MODE: Message from server: STATUS
  @ DRIVER MODE: Message from server: INIT
  @ DRIVER MODE: Receiving replica           0          -1
  @ DRIVER MODE: Receiving encoded integer          25
  @ DRIVER MODE:  SCF:  T  FORCE:  T  STRESS:  F  VC:  F  ENSEMBLE:  F
  @ DRIVER MODE:  SCF:  T  FORCE:  T  STRESS:  F  VC:  F  ENSEMBLE:  F

     Using Slab Decomposition

     bravais-lattice index     =            0
     lattice parameter (alat)  =       1.8897  a.u.
     unit-cell volume          =    6658.9804 (a.u.)^3
     number of atoms/cell      =           51
     number of atomic types    =            4
     number of electrons       =       385.00
     number of Kohn-Sham states=          202
     kinetic-energy cutoff     =      29.3995  Ry
     charge density cutoff     =     293.9946  Ry
     scf convergence threshold =      7.3E-08
     mixing beta               =       0.0500
     number of iterations used =            8  plain     mixing
     Exchange-correlation= BEEF-VDW
                           (   1   4  43  14   2   0   0)

     celldm(1)=   1.889726  celldm(2)=   0.000000  celldm(3)=   0.000000
     celldm(4)=   0.000000  celldm(5)=   0.000000  celldm(6)=   0.000000

     crystal axes: (cart. coord. in units of alat)
               a(1) = (   6.579727   0.000000   0.000000 )
               a(2) = (  -0.000775   5.961596   0.000000 )
               a(3) = (   0.000000   0.000000  25.155947 )

     reciprocal axes: (cart. coord. in units 2 pi/alat)
               b(1) = (  0.151982  0.000020  0.000000 )
               b(2) = (  0.000000  0.167740  0.000000 )
               b(3) = (  0.000000  0.000000  0.039752 )

     PseudoPot. # 1 for Ti read from file:
     /storage/coda1/p-amedford6/0/shared/rich_project_chbe-medford/medford-share/data/pseudos_module/espresso/nninc/pbe/van/Ti.UPF
     MD5 check sum: 8e4df49b7f0d34bbd5052bf3f5ea0213
     Pseudo is Ultrasoft, Zval = 12.0
     Generated by new atomic code, or converted to UPF format
     Using radial grid of  851 points,  6 beta functions with:
                l(1) =   0
                l(2) =   0
                l(3) =   1
                l(4) =   1
                l(5) =   2
                l(6) =   2
     Q(r) pseudized with  8 coefficients,  rinner =    1.000   1.000   1.000
                                                       1.000   1.000

     PseudoPot. # 2 for O  read from file:
     /storage/coda1/p-amedford6/0/shared/rich_project_chbe-medford/medford-share/data/pseudos_module/espresso/nninc/pbe/van/O.UPF
     MD5 check sum: 78c19812648e8988a0fe644b0f25305e
     Pseudo is Ultrasoft, Zval =  6.0
     Generated by new atomic code, or converted to UPF format
     Using radial grid of  737 points,  4 beta functions with:
                l(1) =   0
                l(2) =   0
                l(3) =   1
                l(4) =   1
     Q(r) pseudized with  8 coefficients,  rinner =    0.800   0.800   0.800

     PseudoPot. # 3 for C  read from file:
     /storage/coda1/p-amedford6/0/shared/rich_project_chbe-medford/medford-share/data/pseudos_module/espresso/nninc/pbe/van/C.UPF
     MD5 check sum: 1a69bf6b8db32088f5b2163dbdb77a27
     Pseudo is Ultrasoft, Zval =  4.0
     Generated by new atomic code, or converted to UPF format
     Using radial grid of  721 points,  4 beta functions with:
                l(1) =   0
                l(2) =   0
                l(3) =   1
                l(4) =   1
     Q(r) pseudized with  8 coefficients,  rinner =    0.800   0.800   0.800

     PseudoPot. # 4 for H  read from file:
     /storage/coda1/p-amedford6/0/shared/rich_project_chbe-medford/medford-share/data/pseudos_module/espresso/nninc/pbe/van/H.UPF
     MD5 check sum: b5ee9d7bfd3a09ee7748110bda690ff7
     Pseudo is Ultrasoft, Zval =  1.0
     Generated by new atomic code, or converted to UPF format
     Using radial grid of  615 points,  1 beta functions with:
                l(1) =   0
     Q(r) pseudized with  8 coefficients,  rinner =    0.800

     atomic species   valence    mass     pseudopotential
        Ti1           12.00    47.86700     Ti( 1.00)
        O1             6.00    15.99900     O ( 1.00)
        C1             4.00    12.01100     C ( 1.00)
        H1             1.00     1.00800     H ( 1.00)

     No symmetry found

   Cartesian axes

     site n.     atom                  positions (alat units)
         1           Ti1 tau(   1) = (   0.0004258   2.9801865   6.0000000  )
         2           Ti1 tau(   2) = (   3.2906075   1.4906267   6.0002472  )
         3           O1  tau(   3) = (   0.0006271   0.0005054   7.9858123  )
         4           O1  tau(   4) = (   3.2906025   0.0005020   7.3038282  )
         5           O1  tau(   5) = (   4.5942328   1.4918067   9.2879030  )
         6           O1  tau(   6) = (   1.9868534   1.4903216   9.2879459  )
         7           Ti1 tau(   7) = (   3.3226903   2.9514341   9.1576891  )
         8           Ti1 tau(   8) = (   0.0343464   1.5915341   9.3698150  )
         9           O1  tau(   9) = (   3.2914246   5.9565917  11.3520874  )
        10           O1  tau(  10) = (   0.0056322   0.0001635  10.6062760  )
        11           O1  tau(  11) = (   1.2817320   1.4815673  12.6483243  )
        12           O1  tau(  12) = (   5.2831613   1.4908443  12.6423163  )
        13           Ti1 tau(  13) = (   0.0382653   2.9371430  12.8126397  )
        14           Ti1 tau(  14) = (   3.3532929   1.4821923  12.4951370  )
        15           O1  tau(  15) = (   6.5662424   5.9331786  14.6600200  )
        16           O1  tau(  16) = (   3.2816364   5.9551084  13.9465949  )
        17           O1  tau(  17) = (   4.5315606   1.5040344  16.0986503  )
        18           O1  tau(  18) = (   2.0287349   1.4998145  16.0995964  )
        19           Ti1 tau(  19) = (   3.2668404   2.9769305  15.7222481  )
        20           Ti1 tau(  20) = (   6.5415330   1.4777109  16.1743724  )
        21           O1  tau(  21) = (   3.2904802   0.0005063   4.7018136  )
        22           O1  tau(  22) = (   6.5659521   0.0029676  17.1944956  )
        23           O1  tau(  23) = (   1.3043587   1.4918075   6.0039043  )
        24           O1  tau(  24) = (   5.2767064   1.4903225   6.0039473  )
        25           Ti1 tau(  25) = (   0.0000382   5.9609847   6.0000000  )
        26           Ti1 tau(  26) = (   3.2902200   4.4714249   6.0002472  )
        27           O1  tau(  27) = (   0.0002396   2.9813036   7.9858123  )
        28           O1  tau(  28) = (   3.2902150   2.9813002   7.3038282  )
        29           O1  tau(  29) = (   4.5938453   4.4726049   9.2879030  )
        30           O1  tau(  30) = (   1.9864658   4.4711199   9.2879459  )
        31           Ti1 tau(  31) = (   3.3086233   5.9367107   9.1526142  )
        32           Ti1 tau(  32) = (   0.0357814   4.5182409   9.2638332  )
        33           O1  tau(  33) = (   3.2921447   2.9709340  11.3500156  )
        34           O1  tau(  34) = (   0.0064783   2.9842416  10.5732297  )
        35           O1  tau(  35) = (   1.2836142   4.4569143  12.6423601  )
        36           O1  tau(  36) = (   5.2821634   4.4598214  12.6376843  )
        37           Ti1 tau(  37) = (   0.0453433   5.9192801  12.5257453  )
        38           Ti1 tau(  38) = (   3.3504828   4.4607682  12.4868234  )
        39           O1  tau(  39) = (   0.0004961   2.9772524  14.7247240  )
        40           O1  tau(  40) = (   3.2810368   2.9729593  13.9290527  )
        41           O1  tau(  41) = (   4.5304642   4.4591278  16.0913236  )
        42           O1  tau(  42) = (   2.0231910   4.4609068  16.0933517  )
        43           Ti1 tau(  43) = (   3.2586866   5.9546939  15.7393459  )
        44           Ti1 tau(  44) = (   6.5465221   4.6060206  15.8931146  )
        45           O1  tau(  45) = (   3.2900926   2.9813045   4.7018136  )
        46           O1  tau(  46) = (   1.3039711   4.4726057   6.0039043  )
        47           O1  tau(  47) = (   5.2763189   4.4711207   6.0039473  )
        48           C1  tau(  48) = (   6.5676456   2.8990966  17.8516705  )
        49           H1  tau(  49) = (   6.5659762   3.9554521  18.1205428  )
        50           H1  tau(  50) = (   0.8773746   2.4756544  18.3284787  )
        51           H1  tau(  51) = (   5.6845275   2.4719798  18.3396978  )

     number of k points=    10  Fermi-Dirac smearing, width (Ry)=  0.0073
                       cart. coord. in units 2pi/alat
        k(    1) = (   0.0000000   0.0000000   0.0000000), wk =   0.1250000
        k(    2) = (   0.0000000   0.0419351   0.0000000), wk =   0.2500000
        k(    3) = (   0.0000000  -0.0838702   0.0000000), wk =   0.1250000
        k(    4) = (   0.0379955   0.0000049   0.0000000), wk =   0.2500000
        k(    5) = (   0.0379955   0.0419400   0.0000000), wk =   0.2500000
        k(    6) = (   0.0379955  -0.0838652   0.0000000), wk =   0.2500000
        k(    7) = (   0.0379955  -0.0419301   0.0000000), wk =   0.2500000
        k(    8) = (  -0.0759910  -0.0000099   0.0000000), wk =   0.1250000
        k(    9) = (  -0.0759910   0.0419252   0.0000000), wk =   0.2500000
        k(   10) = (  -0.0759910  -0.0838800   0.0000000), wk =   0.1250000

     Initial potential from superposition of free atoms

     starting charge  368.99918, renormalised to  385.00000

     negative rho (up, down):  2.032E-02 0.000E+00

     %%%%%%%%%%%%%%%%%%%%%%%%%%%%%%%%%%%%%%%%%%%%%%%%%%%%%%%%%%%%%%%%%%%%%%%%
     %                                                                      %
     % You are using vdW-DF, which was implemented by the Thonhauser group. %
     % Please cite the following two papers that made this development      %
     % possible and the two reviews that describe the various versions:     %
     %                                                                      %
     %   T. Thonhauser et al., PRL 115, 136402 (2015).                      %
     %   T. Thonhauser et al., PRB 76, 125112 (2007).                       %
     %   K. Berland et al., Rep. Prog. Phys. 78, 066501 (2015).             %
     %   D.C. Langreth et al., J. Phys.: Condens. Matter 21, 084203 (2009). %
     %                                                                      %
     %                                                                      %
     % If you are calculating the stress with vdW-DF, please also cite:     %
     %                                                                      %
     %   R. Sabatini et al., J. Phys.: Condens. Matter 24, 424209 (2012).   %
     %                                                                      %
     %%%%%%%%%%%%%%%%%%%%%%%%%%%%%%%%%%%%%%%%%%%%%%%%%%%%%%%%%%%%%%%%%%%%%%%%

     Adding external electric field

     Computed dipole along edir(3) :
        Dipole               -1.9974 Ry au,         -5.0769 Debye
        Dipole field         -0.0038 Ry au,

        Potential amp.        0.3494 Ry
        Total length         46.3494 bohr

     Starting wfcs are  291 atomic wfcs
  @ DRIVER MODE: Message from server: STATUS
  @ DRIVER MODE: Message from server: POSDATA
  @ DRIVER MODE: Reading and sharing cell
  @ DRIVER MODE: Reading and sharing positions
  @ DRIVER MODE: Received positions

     Self-consistent Calculation

     iteration #  1     ecut=    29.40 Ry     beta= 0.05
     Davidson diagonalization with overlap
     ethr =  1.00E-02,  avg # of iterations =  2.0

[...]

     total energy              =   -2900.12226636 Ry
     estimated scf accuracy    <      13.76226506 Ry

[...]

     iteration #  3     ecut=    29.40 Ry     beta= 0.05
     Davidson diagonalization with overlap
     c_bands:  4 eigenvalues not converged
     ethr =  2.64E-03,  avg # of iterations =  6.0

[...]

     iteration # 40     ecut=    29.40 Ry     beta= 0.05
     Davidson diagonalization with overlap
     c_bands:  3 eigenvalues not converged
     ethr =  2.09E-10,  avg # of iterations = 15.6

[...]

     total energy              =   -2899.02563708 Ry
     estimated scf accuracy    <       0.00000011 Ry

     iteration # 44     ecut=    29.40 Ry     beta= 0.05
     Davidson diagonalization with overlap
     ethr =  2.74E-11,  avg # of iterations = 11.6

     negative rho (up, down):  1.950E-02 0.000E+00

     Adding external electric field

     Computed dipole along edir(3) :
        Dipole                0.4673 Ry au,          1.1877 Debye
        Dipole field          0.0009 Ry au,

        Potential amp.       -0.0817 Ry
        Total length         46.3494 bohr

     End of self-consistent calculation

          k = 0.0000 0.0000 0.0000 ( 18029 PWs)   bands (ev):

   -56.2367 -56.2159 -56.2002 -56.1797 -56.1265 -56.1252 -56.0887 -56.0734
   -56.0036 -55.9972 -55.9647 -55.9617 -55.8918 -55.8703 -55.2531 -55.2191
   -32.7804 -32.7043 -32.6036 -32.5745 -32.5418 -32.5276 -32.5041 -32.4734
   -32.4639 -32.4595 -32.4450 -32.4424 -32.4381 -32.3983 -32.3973 -32.3631
   -32.3601 -32.3575 -32.3423 -32.3265 -32.3061 -32.3021 -32.2913 -32.2756
   -32.2739 -32.2539 -32.2496 -32.2405 -32.2320 -32.2249 -32.2173 -32.1892
   -32.1652 -32.1569 -32.1385 -32.1314 -32.1097 -32.0979 -32.0908 -32.0798
   -32.0756 -31.9724 -31.6632 -31.5654 -31.5431 -31.4798 -31.3937 -31.2826
   -16.9846 -16.6857 -16.5416 -16.3929 -16.3650 -16.2462 -16.0642 -15.9287
   -15.9144 -15.8396 -15.8118 -15.8064 -15.7761 -15.7582 -15.7497 -15.7429
   -15.6896 -15.6855 -15.6501 -15.6399 -15.6098 -15.5360 -15.5124 -15.4527
   -15.4114 -15.3549 -15.2598 -15.2312 -15.1978 -13.7537 -13.6353  -9.4873
    -4.3412  -4.1724  -4.1469  -4.1279  -4.0435  -3.8050  -3.7870  -3.5401
    -3.4179  -3.3970  -3.3726  -3.3679  -3.3195  -3.1809  -3.0905  -3.0646
    -3.0629  -3.0505  -3.0223  -3.0151  -2.9833  -2.9801  -2.9481  -2.9254
    -2.8978  -2.7307  -2.6534  -2.6472  -2.5864  -2.5377  -2.5226  -2.5040
    -2.4675  -2.4581  -2.4430  -2.4273  -2.3745  -2.2882  -2.2420  -2.1460
    -2.0666  -2.0360  -1.9446  -1.8543  -1.7794  -1.6886  -1.6616  -1.6360
    -1.5591  -1.5534  -1.4862  -1.4405  -1.4245  -1.3308  -1.2664  -1.2343
    -1.1349  -1.0948  -1.0045  -0.9895  -0.9748  -0.9584  -0.9462  -0.7699
    -0.7214  -0.6988  -0.6903  -0.5705  -0.5575  -0.5324  -0.5012  -0.4430
    -0.4033  -0.3490  -0.3188  -0.2723  -0.2543  -0.2483  -0.2319  -0.2082
    -0.1278  -0.0489  -0.0305   0.0632   0.1150   0.2364   0.3027   0.4081
     0.4949   0.6738   0.7716   0.8128   0.8487   0.9395   1.3611   1.4235
     2.9522   2.9941   3.0189   3.0536   3.0658   3.2228   3.3283   3.4052
     3.4072   3.4470

[...]

          k = 0.0380-0.0419 0.0000 ( 17876 PWs)   bands (ev):

[...]

          k =-0.0760-0.0000 0.0000 ( 17886 PWs)   bands (ev):

[...]

          k =-0.0760-0.0839 0.0000 ( 17948 PWs)   bands (ev):

   -56.2250 -56.2118 -56.1985 -56.1968 -56.1201 -56.1151 -56.0987 -56.0795
   -55.9994 -55.9820 -55.9813 -55.9589 -55.8945 -55.8729 -55.2366 -55.2355
   -32.5839 -32.5812 -32.5276 -32.5169 -32.5133 -32.5096 -32.4956 -32.4884
   -32.4527 -32.4366 -32.4254 -32.4214 -32.3914 -32.3722 -32.3656 -32.3567
   -32.3543 -32.3515 -32.3431 -32.3401 -32.3259 -32.3198 -32.3145 -32.3102
   -32.2992 -32.2990 -32.2969 -32.2766 -32.2434 -32.2406 -32.2354 -32.2275
   -32.2010 -32.1845 -32.1835 -32.1750 -32.1637 -32.1350 -32.1271 -32.1192
   -32.0893 -32.0211 -31.5564 -31.5550 -31.4766 -31.4757 -31.4373 -31.4363
   -16.4198 -16.3948 -16.1657 -16.1563 -16.1485 -16.0840 -15.9988 -15.9769
   -15.9600 -15.9558 -15.9013 -15.8826 -15.8740 -15.8375 -15.7798 -15.7715
   -15.7641 -15.7406 -15.6892 -15.6830 -15.6280 -15.6026 -15.5874 -15.5835
   -15.5651 -15.5607 -15.4631 -15.4202 -15.3862 -13.7376 -13.7355  -9.5030
    -3.7123  -3.6807  -3.4168  -3.3708  -3.3655  -3.2870  -3.2043  -3.1730
    -3.1480  -3.1379  -3.0844  -3.0750  -3.0731  -3.0683  -3.0406  -3.0281
    -3.0052  -2.9924  -2.9876  -2.9743  -2.9296  -2.8658  -2.8573  -2.8569
    -2.8451  -2.7998  -2.7897  -2.7827  -2.7635  -2.7627  -2.7084  -2.5106
    -2.4911  -2.4355  -2.3774  -2.3580  -2.3309  -2.3212  -2.2954  -2.2711
    -2.2059  -2.1364  -2.0183  -1.9792  -1.9559  -1.9410  -1.8874  -1.8379
    -1.7225  -1.6820  -1.6553  -1.6368  -1.5710  -1.4977  -1.4728  -1.4576
    -1.3741  -1.3472  -1.3049  -1.2406  -1.2038  -1.1906  -1.1395  -1.1264
    -1.0405  -0.9803  -0.9447  -0.9020  -0.8904  -0.8570  -0.8084  -0.7576
    -0.7447  -0.6839  -0.6219  -0.5248  -0.3154  -0.2300  -0.2203  -0.1784
    -0.1208  -0.0953   0.0124   0.0466   0.0614   0.1554   0.2214   0.2875
     0.3049   0.3300   0.3976   0.8885   1.1316   1.1325   1.2240   1.2343
     3.1566   3.1666   3.1963   3.2635   3.4098   3.4159   3.4349   3.4407
     3.5334   3.5836

     the Fermi energy is     2.9195 ev

!    total energy              =   -2899.02581436 Ry
     estimated scf accuracy    <       0.00000007 Ry
     smearing contrib. (-TS)   =      -0.02330163 Ry
     internal energy E=F+TS    =   -2899.00251273 Ry

     The total energy is F=E-TS. E is the sum of the following terms:
     one-electron contribution =  -24814.63584456 Ry
     hartree contribution      =   12486.26221500 Ry
     xc contribution           =    -474.70123755 Ry
     ewald contribution        =    9904.07194237 Ry
     electric field correction =       0.00041202 Ry

     convergence has been achieved in  44 iterations

     Forces acting on atoms (cartesian axes, Ry/au):

     atom    1 type  1   force =    -0.00012779   -0.00194109    0.10693134
     atom    2 type  1   force =    -0.00037914    0.00069116   -0.18023208
     atom    3 type  2   force =     0.00035468   -0.00664602   -0.03349308
     atom    4 type  2   force =     0.00056952   -0.00063333    0.04568702
     atom    5 type  2   force =    -0.01961912   -0.00121470    0.00435271
     atom    6 type  2   force =     0.02144903   -0.00007074    0.00423736
     atom    7 type  1   force =    -0.00029198    0.00035130   -0.00016010
     atom    8 type  1   force =    -0.00049278    0.00049449    0.00014032
     atom    9 type  2   force =    -0.00004566   -0.00039324   -0.00053023
     atom   10 type  2   force =     0.00010234    0.00045532   -0.00037866
     atom   11 type  2   force =     0.00012141   -0.00002234   -0.00004004
     atom   12 type  2   force =     0.00027463   -0.00014648   -0.00004044
     atom   13 type  1   force =    -0.00056117    0.00008627    0.00066626
     atom   14 type  1   force =    -0.00057236    0.00015971    0.00002285
     atom   15 type  2   force =    -0.00003938    0.00027943   -0.00019771
     atom   16 type  2   force =    -0.00002784   -0.00003857    0.00050284
     atom   17 type  2   force =    -0.00089278   -0.00089529   -0.00019800
     atom   18 type  2   force =     0.00077642   -0.00079263   -0.00040185
     atom   19 type  1   force =    -0.00023260    0.00043082   -0.00032099
     atom   20 type  1   force =     0.00049809    0.00073291    0.00042867
     atom   21 type  2   force =     0.00000478    0.00003008    0.10436743
     atom   22 type  2   force =    -0.00009136   -0.00021186   -0.00069803
     atom   23 type  2   force =    -0.06878547    0.00083625   -0.02967266
     atom   24 type  2   force =     0.06854228    0.00129669   -0.02974764
     atom   25 type  1   force =    -0.00010744    0.00131147    0.11810202
     atom   26 type  1   force =    -0.00021368   -0.00066532   -0.18054789
     atom   27 type  2   force =     0.00055930    0.00239729   -0.02739748
     atom   28 type  2   force =     0.00073173   -0.00049073    0.04720217
     atom   29 type  2   force =    -0.01934950    0.00075376    0.00375200
     atom   30 type  2   force =     0.01929175    0.00249235    0.00343570
     atom   31 type  1   force =    -0.00008349   -0.00072958    0.00033246
     atom   32 type  1   force =    -0.00042063    0.00003757    0.00034349
     atom   33 type  2   force =    -0.00013212    0.00036556   -0.00071823
     atom   34 type  2   force =    -0.00007690    0.00003820   -0.00016544
     atom   35 type  2   force =     0.00040645    0.00022968   -0.00042484
     atom   36 type  2   force =    -0.00078459    0.00002525   -0.00041098
     atom   37 type  1   force =    -0.00055907    0.00051410    0.00061532
     atom   38 type  1   force =     0.00015225   -0.00042758    0.00034880
     atom   39 type  2   force =    -0.00030583   -0.00013916   -0.00021593
     atom   40 type  2   force =    -0.00003888    0.00077978    0.00060399
     atom   41 type  2   force =    -0.00019652    0.00122845   -0.00017741
     atom   42 type  2   force =     0.00041131    0.00128626   -0.00044015
     atom   43 type  1   force =    -0.00018221    0.00064511   -0.00021725
     atom   44 type  1   force =     0.00041425   -0.00001079    0.00008938
     atom   45 type  2   force =    -0.00000314    0.00005696    0.10436978
     atom   46 type  2   force =    -0.06832279   -0.00103467   -0.02973477
     atom   47 type  2   force =     0.06817775   -0.00064915   -0.02977554
     atom   48 type  3   force =    -0.00069187   -0.00125020    0.00062252
     atom   49 type  4   force =     0.00005406   -0.00073040   -0.00005775
     atom   50 type  4   force =    -0.00030118    0.00044937   -0.00023608
     atom   51 type  4   force =     0.00103723    0.00067828   -0.00052322

     Total force =     0.377447     Total SCF correction =     0.000513
  @ DRIVER MODE: Message from server: STATUS
  @ DRIVER MODE: Message from server: GETFORCE
  @ DRIVER MODE: Returning v,forces,stress,ensemble

     Writing output data file ./calc.save/
  @ DRIVER MODE: Message from server: EXIT
  @ DRIVE MODE: Exiting

     General routines

     Parallel routines

   This run was terminated on:  11:19:18  18Aug2021

   JOB DONE.