     Program PWSCF v.6.7GPU starts on  2Aug2021 at 15:51:10

     R & G space division:  proc/nbgrp/npool/nimage =      16
     Reading input from /storage/home/hcoda1/3/ntian30/research/carbon/02Aug_vib_paired/ads_slab/CH3N2H_a/out_0014/pw.inp
Warning: card &CELL ignored
Warning: card   CELL_DYNAMICS='IPI', ignored
Warning: card / ignored

     Current dimensions of program PWSCF are:
     Max number of different atomic species (ntypx) = 10
     Max number of k-points (npk) =  40000
     Max angular momentum in pseudopotentials (lmaxx) =  3
     Presently no symmetry can be used with electric field

     Message from routine cell_base_init:
     DEPRECATED: use true lattice parameter, not A to a.u. conversion factor

     IMPORTANT: XC functional enforced from input :
     Exchange-correlation= BEEF-VDW
                           (   1   4  43  14   2   0   0)
     Any further DFT definition will be discarded
     Please, verify this is what you really want

  @ DRIVER MODE: Connecting to
 qe_1139763_2482535.sched-torque.pace.gatech.edu6oxjm7ow_scratch
  using UNIX socket
  @ DRIVER MODE: Message from server: STATUS
  @ DRIVER MODE: Message from server: INIT
  @ DRIVER MODE: Receiving replica           0          -1
  @ DRIVER MODE: Receiving encoded integer          25
  @ DRIVER MODE:  SCF:  T  FORCE:  T  STRESS:  F  VC:  F  ENSEMBLE:  F
  @ DRIVER MODE:  SCF:  T  FORCE:  T  STRESS:  F  VC:  F  ENSEMBLE:  F

     Using Slab Decomposition

     bravais-lattice index     =            0
     lattice parameter (alat)  =       1.8897  a.u.
     unit-cell volume          =    6658.9804 (a.u.)^3
     number of atoms/cell      =           54
     number of atomic types    =            5
     number of electrons       =       396.00
     number of Kohn-Sham states=          208
     kinetic-energy cutoff     =      29.3995  Ry
     charge density cutoff     =     293.9946  Ry
     scf convergence threshold =      7.3E-08
     mixing beta               =       0.0500
     number of iterations used =            8  plain     mixing
     Exchange-correlation= BEEF-VDW
                           (   1   4  43  14   2   0   0)

     celldm(1)=   1.889726  celldm(2)=   0.000000  celldm(3)=   0.000000
     celldm(4)=   0.000000  celldm(5)=   0.000000  celldm(6)=   0.000000

     crystal axes: (cart. coord. in units of alat)
               a(1) = (   6.579727   0.000000   0.000000 )
               a(2) = (  -0.000775   5.961596   0.000000 )
               a(3) = (   0.000000   0.000000  25.155947 )

     reciprocal axes: (cart. coord. in units 2 pi/alat)
               b(1) = (  0.151982  0.000020  0.000000 )
               b(2) = (  0.000000  0.167740  0.000000 )
               b(3) = (  0.000000  0.000000  0.039752 )

     PseudoPot. # 1 for Ti read from file:
     /storage/coda1/p-amedford6/0/shared/rich_project_chbe-medford/medford-share/data/pseudos_module/espresso/nninc/pbe/van/Ti.UPF
     MD5 check sum: 8e4df49b7f0d34bbd5052bf3f5ea0213
     Pseudo is Ultrasoft, Zval = 12.0
     Generated by new atomic code, or converted to UPF format
     Using radial grid of  851 points,  6 beta functions with:
                l(1) =   0
                l(2) =   0
                l(3) =   1
                l(4) =   1
                l(5) =   2
                l(6) =   2
     Q(r) pseudized with  8 coefficients,  rinner =    1.000   1.000   1.000
                                                       1.000   1.000

     PseudoPot. # 2 for O  read from file:
     /storage/coda1/p-amedford6/0/shared/rich_project_chbe-medford/medford-share/data/pseudos_module/espresso/nninc/pbe/van/O.UPF
     MD5 check sum: 78c19812648e8988a0fe644b0f25305e
     Pseudo is Ultrasoft, Zval =  6.0
     Generated by new atomic code, or converted to UPF format
     Using radial grid of  737 points,  4 beta functions with:
                l(1) =   0
                l(2) =   0
                l(3) =   1
                l(4) =   1
     Q(r) pseudized with  8 coefficients,  rinner =    0.800   0.800   0.800

     PseudoPot. # 3 for N  read from file:
     /storage/coda1/p-amedford6/0/shared/rich_project_chbe-medford/medford-share/data/pseudos_module/espresso/nninc/pbe/van/N.UPF
     MD5 check sum: 90d10febe142ad51ac9d5be1deb811c4
     Pseudo is Ultrasoft, Zval =  5.0
     Generated by new atomic code, or converted to UPF format
     Using radial grid of  729 points,  4 beta functions with:
                l(1) =   0
                l(2) =   0
                l(3) =   1
                l(4) =   1
     Q(r) pseudized with  8 coefficients,  rinner =    0.800   0.800   0.800

     PseudoPot. # 4 for C  read from file:
     /storage/coda1/p-amedford6/0/shared/rich_project_chbe-medford/medford-share/data/pseudos_module/espresso/nninc/pbe/van/C.UPF
     MD5 check sum: 1a69bf6b8db32088f5b2163dbdb77a27
     Pseudo is Ultrasoft, Zval =  4.0
     Generated by new atomic code, or converted to UPF format
     Using radial grid of  721 points,  4 beta functions with:
                l(1) =   0
                l(2) =   0
                l(3) =   1
                l(4) =   1
     Q(r) pseudized with  8 coefficients,  rinner =    0.800   0.800   0.800

     PseudoPot. # 5 for H  read from file:
     /storage/coda1/p-amedford6/0/shared/rich_project_chbe-medford/medford-share/data/pseudos_module/espresso/nninc/pbe/van/H.UPF
     MD5 check sum: b5ee9d7bfd3a09ee7748110bda690ff7
     Pseudo is Ultrasoft, Zval =  1.0
     Generated by new atomic code, or converted to UPF format
     Using radial grid of  615 points,  1 beta functions with:
                l(1) =   0
     Q(r) pseudized with  8 coefficients,  rinner =    0.800

     atomic species   valence    mass     pseudopotential
        Ti1           12.00    47.86700     Ti( 1.00)
        O1             6.00    15.99900     O ( 1.00)
        N1             5.00    14.00700     N ( 1.00)
        C1             4.00    12.01100     C ( 1.00)
        H1             1.00     1.00800     H ( 1.00)

     No symmetry found

   Cartesian axes

     site n.     atom                  positions (alat units)
         1           Ti1 tau(   1) = (   0.0004258   2.9801865   6.0000000  )
         2           Ti1 tau(   2) = (   3.2906075   1.4906267   6.0002472  )
         3           O1  tau(   3) = (   0.0006271   0.0005054   7.9858123  )
         4           O1  tau(   4) = (   3.2906025   0.0005020   7.3038282  )
         5           O1  tau(   5) = (   4.5942328   1.4918067   9.2879030  )
         6           O1  tau(   6) = (   1.9868534   1.4903216   9.2879459  )
         7           Ti1 tau(   7) = (   3.2907910   2.8959150   9.1758416  )
         8           Ti1 tau(   8) = (   0.0015273   1.4827037   9.2680791  )
         9           O1  tau(   9) = (   3.3106937   0.0084137  11.2927479  )
        10           O1  tau(  10) = (   0.0116148   5.9584955  10.6183126  )
        11           O1  tau(  11) = (   1.3255326   1.5151957  12.5859258  )
        12           O1  tau(  12) = (   5.3246634   1.4871208  12.6441624  )
        13           Ti1 tau(  13) = (   6.5358624   2.9940264  12.7507449  )
        14           Ti1 tau(  14) = (   3.1828407   1.5032771  12.4528579  )
        15           O1  tau(  15) = (   0.1336207   0.0073438  14.6266748  )
        16           O1  tau(  16) = (   3.2550344   0.0288700  13.8306396  )
        17           O1  tau(  17) = (   4.6334483   1.5013943  15.9792279  )
        18           O1  tau(  18) = (   2.1409664   1.5470880  15.9954950  )
        19           Ti1 tau(  19) = (   3.4798582   3.0305884  15.6593850  )
        20           Ti1 tau(  20) = (   0.1386493   1.3724552  15.8613965  )
        21           O1  tau(  21) = (   3.2904802   0.0005063   4.7018136  )
        22           O1  tau(  22) = (   0.1429122   0.0333940  17.1908172  )
        23           O1  tau(  23) = (   1.3043587   1.4918075   6.0039043  )
        24           O1  tau(  24) = (   5.2767064   1.4903225   6.0039473  )
        25           Ti1 tau(  25) = (   0.0000382   5.9609847   6.0000000  )
        26           Ti1 tau(  26) = (   3.2902200   4.4714249   6.0002472  )
        27           O1  tau(  27) = (   0.0002396   2.9813036   7.9858123  )
        28           O1  tau(  28) = (   3.2902150   2.9813002   7.3038282  )
        29           O1  tau(  29) = (   4.5938453   4.4726049   9.2879030  )
        30           O1  tau(  30) = (   1.9864658   4.4711199   9.2879459  )
        31           Ti1 tau(  31) = (   3.2891106   5.8743827   9.1763621  )
        32           Ti1 tau(  32) = (   0.0006254   4.4649316   9.2693709  )
        33           O1  tau(  33) = (   3.3137399   2.9960163  11.2943833  )
        34           O1  tau(  34) = (   0.0092240   2.9805883  10.6323155  )
        35           O1  tau(  35) = (   1.3234708   4.4688006  12.5930975  )
        36           O1  tau(  36) = (   5.3222282   4.4932535  12.6449723  )
        37           Ti1 tau(  37) = (   6.5041614   0.0053836  12.5833808  )
        38           Ti1 tau(  38) = (   3.1843229   4.4812189  12.4522442  )
        39           O1  tau(  39) = (   0.0584892   2.9792810  14.6723703  )
        40           O1  tau(  40) = (   3.3232524   2.9928384  13.8523860  )
        41           O1  tau(  41) = (   4.6237859   4.5837569  15.7472905  )
        42           O1  tau(  42) = (   2.1882403   4.4693611  16.1038286  )
        43           Ti1 tau(  43) = (   3.3015484   0.0242660  15.6383815  )
        44           Ti1 tau(  44) = (   0.0181797   4.4930750  16.1931172  )
        45           O1  tau(  45) = (   3.2900926   2.9813045   4.7018136  )
        46           O1  tau(  46) = (   1.3039711   4.4726057   6.0039043  )
        47           O1  tau(  47) = (   5.2763189   4.4711207   6.0039473  )
        48           N1  tau(  48) = (   0.2677213   2.8760844  17.5655548  )
        49           C1  tau(  49) = (   1.2271684   2.7639891  18.6598760  )
        50           H1  tau(  50) = (   1.3030054   3.7106696  19.2072709  )
        51           H1  tau(  51) = (   0.8976878   1.9730418  19.3402421  )
        52           H1  tau(  52) = (   2.2102292   2.4972526  18.2850250  )
        53           N1  tau(  53) = (   5.6732178   3.4927010  17.8452151  )
        54           H1  tau(  54) = (   5.7345573   4.0058295  18.7343860  )

     number of k points=    10  Fermi-Dirac smearing, width (Ry)=  0.0073
                       cart. coord. in units 2pi/alat
        k(    1) = (   0.0000000   0.0000000   0.0000000), wk =   0.1250000
        k(    2) = (   0.0000000   0.0419351   0.0000000), wk =   0.2500000
        k(    3) = (   0.0000000  -0.0838702   0.0000000), wk =   0.1250000
        k(    4) = (   0.0379955   0.0000049   0.0000000), wk =   0.2500000
        k(    5) = (   0.0379955   0.0419400   0.0000000), wk =   0.2500000
        k(    6) = (   0.0379955  -0.0838652   0.0000000), wk =   0.2500000
        k(    7) = (   0.0379955  -0.0419301   0.0000000), wk =   0.2500000
        k(    8) = (  -0.0759910  -0.0000099   0.0000000), wk =   0.1250000
        k(    9) = (  -0.0759910   0.0419252   0.0000000), wk =   0.2500000
        k(   10) = (  -0.0759910  -0.0838800   0.0000000), wk =   0.1250000

     Initial potential from superposition of free atoms

     starting charge  379.99915, renormalised to  396.00000

     negative rho (up, down):  1.686E-02 0.000E+00

     %%%%%%%%%%%%%%%%%%%%%%%%%%%%%%%%%%%%%%%%%%%%%%%%%%%%%%%%%%%%%%%%%%%%%%%%
     %                                                                      %
     % You are using vdW-DF, which was implemented by the Thonhauser group. %
     % Please cite the following two papers that made this development      %
     % possible and the two reviews that describe the various versions:     %
     %                                                                      %
     %   T. Thonhauser et al., PRL 115, 136402 (2015).                      %
     %   T. Thonhauser et al., PRB 76, 125112 (2007).                       %
     %   K. Berland et al., Rep. Prog. Phys. 78, 066501 (2015).             %
     %   D.C. Langreth et al., J. Phys.: Condens. Matter 21, 084203 (2009). %
     %                                                                      %
     %                                                                      %
     % If you are calculating the stress with vdW-DF, please also cite:     %
     %                                                                      %
     %   R. Sabatini et al., J. Phys.: Condens. Matter 24, 424209 (2012).   %
     %                                                                      %
     %%%%%%%%%%%%%%%%%%%%%%%%%%%%%%%%%%%%%%%%%%%%%%%%%%%%%%%%%%%%%%%%%%%%%%%%

     Adding external electric field

     Computed dipole along edir(3) :
        Dipole               -8.2222 Ry au,        -20.8988 Debye
        Dipole field         -0.0155 Ry au,

        Potential amp.        1.4384 Ry
        Total length         46.3494 bohr

     Starting wfcs are  300 atomic wfcs
  @ DRIVER MODE: Message from server: STATUS
  @ DRIVER MODE: Message from server: POSDATA
  @ DRIVER MODE: Reading and sharing cell
  @ DRIVER MODE: Reading and sharing positions
  @ DRIVER MODE: Received positions

     Self-consistent Calculation

     iteration #  1     ecut=    29.40 Ry     beta= 0.05
     Davidson diagonalization with overlap
     c_bands:  1 eigenvalues not converged
     c_bands:  1 eigenvalues not converged
     c_bands:  1 eigenvalues not converged
     c_bands:  1 eigenvalues not converged
     c_bands:  4 eigenvalues not converged
     c_bands:  1 eigenvalues not converged
     c_bands:  4 eigenvalues not converged
     c_bands:  2 eigenvalues not converged
     c_bands:  1 eigenvalues not converged
     ethr =  1.00E-05,  avg # of iterations = 20.0

[...]

     total energy              =   -2607.33673222 Ry
     estimated scf accuracy    <    3677.89864900 Ry

     iteration #  2     ecut=    29.40 Ry     beta= 0.05
     Davidson diagonalization with overlap
     ethr =  1.00E-02,  avg # of iterations = 22.0

[...]

     iteration # 42     ecut=    29.40 Ry     beta= 0.05
     Davidson diagonalization with overlap
     c_bands:  1 eigenvalues not converged
     ethr =  1.70E-06,  avg # of iterations =  8.7

[...]

     total energy              =   -2940.35219410 Ry
     estimated scf accuracy    <       0.00000014 Ry

     iteration # 71     ecut=    29.40 Ry     beta= 0.05
     Davidson diagonalization with overlap
     ethr =  2.69E-11,  avg # of iterations =  6.1

     negative rho (up, down):  1.746E-02 0.000E+00

     Adding external electric field

     Computed dipole along edir(3) :
        Dipole                0.7367 Ry au,          1.8724 Debye
        Dipole field          0.0014 Ry au,

        Potential amp.       -0.1289 Ry
        Total length         46.3494 bohr

     End of self-consistent calculation

          k = 0.0000 0.0000 0.0000 ( 18029 PWs)   bands (ev):

   -56.0236 -55.9896 -55.8049 -55.7660 -55.7256 -55.6911 -55.6641 -55.6400
   -55.6299 -55.6053 -55.5762 -55.4966 -55.2417 -54.9198 -54.8858 -54.7896
   -32.4903 -32.3470 -32.3177 -32.2942 -32.1925 -32.1785 -32.1668 -32.1295
   -32.1131 -32.0997 -32.0845 -32.0458 -32.0221 -31.9826 -31.9763 -31.9738
   -31.9423 -31.9316 -31.9206 -31.8968 -31.8876 -31.8700 -31.8645 -31.8598
   -31.8403 -31.8380 -31.8299 -31.8255 -31.8200 -31.8023 -31.7947 -31.7941
   -31.7768 -31.7527 -31.6929 -31.6657 -31.6172 -31.4683 -31.4652 -31.3233
   -31.2440 -31.2210 -31.2070 -31.1406 -31.0546 -30.9942 -30.9433 -30.9141
   -17.3091 -16.5598 -16.3691 -16.0790 -15.9281 -15.9084 -15.7892 -15.6921
   -15.6145 -15.5149 -15.4617 -15.4071 -15.3952 -15.3696 -15.3109 -15.2889
   -15.2476 -15.2301 -15.1875 -15.1767 -15.1309 -15.1088 -15.0863 -15.0520
   -14.9872 -14.9167 -14.9041 -14.7478 -14.6084 -14.4557 -13.4209 -13.3060
   -11.5504  -8.3372  -5.0199  -4.0088  -3.9464  -3.8766  -3.8371  -3.7748
    -3.6935  -3.4420  -3.4178  -3.3581  -3.0714  -3.0239  -3.0000  -2.9954
    -2.8975  -2.7582  -2.7273  -2.6674  -2.6617  -2.6409  -2.6211  -2.6042
    -2.5470  -2.4910  -2.4739  -2.4317  -2.2986  -2.2720  -2.2682  -2.2461
    -2.1761  -2.1668  -2.1023  -2.0848  -2.0621  -2.0436  -2.0065  -1.8736
    -1.8400  -1.7751  -1.6936  -1.6050  -1.5250  -1.4891  -1.4010  -1.3872
    -1.3402  -1.2614  -1.2546  -1.1787  -1.1465  -1.0701  -1.0454  -1.0077
    -0.8990  -0.8718  -0.8132  -0.7561  -0.7112  -0.6984  -0.6567  -0.6322
    -0.6265  -0.6120  -0.5990  -0.4043  -0.3747  -0.2320  -0.1862  -0.1617
    -0.1210  -0.0982  -0.0397  -0.0163  -0.0109   0.0288   0.0469   0.0898
     0.1456   0.1605   0.1863   0.2802   0.3122   0.3671   0.4934   0.5070
     0.5949   0.6619   0.7679   0.7806   0.8321   0.9635   1.0592   1.0814
     1.1025   1.3078   1.4128   1.6666   1.7090   3.0240   3.1698   3.2651
     3.3738   3.4942   3.5695   3.6076   3.7830   3.8204   3.8621   3.9203

[...]

          k = 0.0380-0.0419 0.0000 ( 17876 PWs)   bands (ev):

[...]

          k =-0.0760-0.0000 0.0000 ( 17886 PWs)   bands (ev):

[...]

          k =-0.0760-0.0839 0.0000 ( 17948 PWs)   bands (ev):

   -56.0075 -56.0055 -55.7928 -55.7780 -55.7120 -55.7045 -55.6487 -55.6453
   -55.6266 -55.6186 -55.5723 -55.5004 -55.2411 -54.9028 -54.9027 -54.7901
   -32.3067 -32.3057 -32.3035 -32.3017 -32.1545 -32.1423 -32.1305 -32.1283
   -32.0509 -32.0382 -32.0279 -32.0242 -32.0173 -32.0145 -31.9713 -31.9658
   -31.9563 -31.9442 -31.9136 -31.9031 -31.8910 -31.8866 -31.8820 -31.8809
   -31.8761 -31.8721 -31.8564 -31.8507 -31.8447 -31.8413 -31.8362 -31.8176
   -31.7980 -31.7949 -31.7653 -31.7069 -31.6076 -31.4707 -31.4647 -31.2571
   -31.2338 -31.2338 -31.1366 -31.1364 -31.0977 -31.0977 -31.0062 -30.9180
   -17.2899 -15.9769 -15.9485 -15.8413 -15.8219 -15.7333 -15.7199 -15.6053
   -15.5975 -15.5846 -15.5183 -15.4727 -15.4621 -15.3796 -15.3528 -15.3414
   -15.3169 -15.3072 -15.3007 -15.2898 -15.2770 -15.1977 -15.1924 -15.1900
   -15.1148 -15.0921 -14.9060 -14.8627 -14.6648 -14.6192 -13.4085 -13.4081
   -11.5539  -8.3170  -5.0262  -3.9105  -3.8281  -3.2790  -3.2429  -3.0273
    -3.0013  -2.9809  -2.9517  -2.7668  -2.7530  -2.7468  -2.7294  -2.7164
    -2.6792  -2.6601  -2.6470  -2.5812  -2.5716  -2.5514  -2.5465  -2.5361
    -2.5178  -2.5022  -2.4944  -2.4751  -2.4602  -2.4152  -2.3610  -2.3386
    -2.2883  -2.1942  -2.0878  -2.0441  -2.0304  -2.0223  -1.9993  -1.9901
    -1.9495  -1.9368  -1.8509  -1.6660  -1.6188  -1.5580  -1.5520  -1.5415
    -1.4849  -1.4284  -1.3888  -1.3123  -1.2452  -1.1929  -1.1636  -1.1394
    -1.1046  -1.0382  -0.9718  -0.9522  -0.9396  -0.9105  -0.9074  -0.8885
    -0.8107  -0.7272  -0.6865  -0.6563  -0.6336  -0.6196  -0.6040  -0.5810
    -0.4742  -0.4060  -0.3581  -0.3127  -0.2703  -0.2283  -0.1097  -0.0949
     0.0998   0.1657   0.1908   0.2696   0.3663   0.3918   0.4021   0.4669
     0.5421   0.6047   0.6394   0.6940   0.7091   0.7304   0.7975   1.0131
     1.0680   1.4766   1.4782   1.5272   1.5282   2.9882   3.6703   3.6777
     3.6811   3.6912   3.7121   3.7354   3.7879   3.8226   3.9241   3.9446

     the Fermi energy is     3.1343 ev

!    total energy              =   -2940.35221116 Ry
     estimated scf accuracy    <       0.00000003 Ry
     smearing contrib. (-TS)   =      -0.01868650 Ry
     internal energy E=F+TS    =   -2940.33352466 Ry

     The total energy is F=E-TS. E is the sum of the following terms:
     one-electron contribution =  -24661.64356315 Ry
     hartree contribution      =   12419.94973649 Ry
     xc contribution           =    -486.04966162 Ry
     ewald contribution        =    9787.40893950 Ry
     electric field correction =       0.00102412 Ry

     convergence has been achieved in  71 iterations

     Forces acting on atoms (cartesian axes, Ry/au):

     atom    1 type  1   force =     0.00026589   -0.00036268    0.10153522
     atom    2 type  1   force =     0.00003619   -0.00086492   -0.17137469
     atom    3 type  2   force =     0.00029160    0.00021777   -0.03325885
     atom    4 type  2   force =     0.00003370   -0.00078536    0.04480217
     atom    5 type  2   force =    -0.01194669   -0.00020783   -0.00233676
     atom    6 type  2   force =     0.01438348    0.00038544   -0.00114032
     atom    7 type  1   force =     0.00140130   -0.00129179   -0.00428287
     atom    8 type  1   force =    -0.00078607    0.02219255    0.05621291
     atom    9 type  2   force =     0.00003019   -0.00032503    0.00046140
     atom   10 type  2   force =    -0.00266551    0.00207358   -0.02593848
     atom   11 type  2   force =     0.00002144    0.00024596   -0.00006613
     atom   12 type  2   force =     0.00010382    0.00073708    0.00001131
     atom   13 type  1   force =    -0.00005322    0.00013690    0.00026670
     atom   14 type  1   force =     0.00028282    0.00028313    0.00000559
     atom   15 type  2   force =     0.00019755   -0.00021685   -0.00000673
     atom   16 type  2   force =    -0.00001937   -0.00013811    0.00073635
     atom   17 type  2   force =    -0.00009645   -0.00077507    0.00002588
     atom   18 type  2   force =     0.00050633   -0.00073785    0.00021718
     atom   19 type  1   force =    -0.00010580   -0.00050746    0.00025471
     atom   20 type  1   force =     0.00003484    0.00009108   -0.00017562
     atom   21 type  2   force =     0.00006725   -0.00000937    0.10211363
     atom   22 type  2   force =    -0.00002332   -0.00030180    0.00032057
     atom   23 type  2   force =    -0.07328994   -0.00015511   -0.02888250
     atom   24 type  2   force =     0.07324311    0.00033458   -0.02893146
     atom   25 type  1   force =    -0.00029276   -0.00032643    0.10197960
     atom   26 type  1   force =     0.00002661   -0.00017334   -0.17137018
     atom   27 type  2   force =     0.00036509   -0.00022917   -0.03198697
     atom   28 type  2   force =     0.00009187   -0.00057143    0.04541331
     atom   29 type  2   force =    -0.01209561    0.00213466   -0.00289202
     atom   30 type  2   force =     0.01440942    0.00229402   -0.00163928
     atom   31 type  1   force =     0.00159856    0.00093242   -0.00561473
     atom   32 type  1   force =    -0.00059206   -0.02474639    0.05727148
     atom   33 type  2   force =     0.00015163    0.00035838    0.00062378
     atom   34 type  2   force =    -0.00420744    0.00212202   -0.04833310
     atom   35 type  2   force =     0.00061219   -0.00058908    0.00000072
     atom   36 type  2   force =    -0.00038939   -0.00074764    0.00012988
     atom   37 type  1   force =     0.00005670    0.00060627   -0.00003832
     atom   38 type  1   force =     0.00003074   -0.00014047   -0.00009833
     atom   39 type  2   force =     0.00018801   -0.00002628   -0.00068971
     atom   40 type  2   force =    -0.00008288   -0.00003437   -0.00036168
     atom   41 type  2   force =     0.00006522    0.00048545   -0.00006544
     atom   42 type  2   force =     0.00002040    0.00037385    0.00071032
     atom   43 type  1   force =    -0.00024774   -0.00010417    0.00017465
     atom   44 type  1   force =    -0.00003212    0.00016539    0.00025431
     atom   45 type  2   force =     0.00004498   -0.00005104    0.10217588
     atom   46 type  2   force =    -0.07330229   -0.00009599   -0.02885718
     atom   47 type  2   force =     0.07325367    0.00028209   -0.02889347
     atom   48 type  3   force =    -0.00007197    0.00114417    0.00122953
     atom   49 type  4   force =     0.00152203   -0.00021830    0.00004893
     atom   50 type  5   force =    -0.00194460   -0.00057461   -0.00054899
     atom   51 type  5   force =    -0.00052068   -0.00011881    0.00071368
     atom   52 type  5   force =    -0.00033374   -0.00136655   -0.00030795
     atom   53 type  3   force =    -0.00022454   -0.00039206    0.00083420
     atom   54 type  5   force =    -0.00001244   -0.00041141   -0.00043215

     Total force =     0.377793     Total SCF correction =     0.000410
  @ DRIVER MODE: Message from server: STATUS
  @ DRIVER MODE: Message from server: GETFORCE
  @ DRIVER MODE: Returning v,forces,stress,ensemble

     Writing output data file ./calc.save/
  @ DRIVER MODE: Message from server: EXIT
  @ DRIVE MODE: Exiting

     General routines

     Parallel routines

   This run was terminated on:  16: 7:11   2Aug2021

   JOB DONE.