     Program PWSCF v.6.7GPU starts on 18Oct2021 at 22:37:42

     R & G space division:  proc/nbgrp/npool/nimage =       8
     Reading input from /storage/home/hcoda1/3/ntian30/research/carbon/CxH_vib/Thiel_calc/ads_slab/N2HH_perslab/out_0022/pw.inp
Warning: card &CELL ignored
Warning: card   CELL_DYNAMICS='IPI', ignored
Warning: card / ignored

     Current dimensions of program PWSCF are:
     Max number of different atomic species (ntypx) = 10
     Max number of k-points (npk) =  40000
     Max angular momentum in pseudopotentials (lmaxx) =  3
     Presently no symmetry can be used with electric field

     Message from routine cell_base_init:
     DEPRECATED: use true lattice parameter, not A to a.u. conversion factor

     IMPORTANT: XC functional enforced from input :
     Exchange-correlation= BEEF-VDW
                           (   1   4  43  14   2   0   0)
     Any further DFT definition will be discarded
     Please, verify this is what you really want

  @ DRIVER MODE: Connecting to
 qe_1139763_3255130.sched-torque.pace.gatech.eduvvmhfh6e_scratch
  using UNIX socket
  @ DRIVER MODE: Message from server: STATUS
  @ DRIVER MODE: Message from server: INIT
  @ DRIVER MODE: Receiving replica           0          -1
  @ DRIVER MODE: Receiving encoded integer          25
  @ DRIVER MODE:  SCF:  T  FORCE:  T  STRESS:  F  VC:  F  ENSEMBLE:  F
  @ DRIVER MODE:  SCF:  T  FORCE:  T  STRESS:  F  VC:  F  ENSEMBLE:  F

     Using Slab Decomposition

     bravais-lattice index     =            0
     lattice parameter (alat)  =       1.8897  a.u.
     unit-cell volume          =    9988.4706 (a.u.)^3
     number of atoms/cell      =           57
     number of atomic types    =            4
     number of electrons       =       438.00
     number of Kohn-Sham states=          229
     kinetic-energy cutoff     =      29.3995  Ry
     charge density cutoff     =     293.9946  Ry
     scf convergence threshold =      7.3E-08
     mixing beta               =       0.0500
     number of iterations used =            8  plain     mixing
     Exchange-correlation= BEEF-VDW
                           (   1   4  43  14   2   0   0)

     celldm(1)=   1.889726  celldm(2)=   0.000000  celldm(3)=   0.000000
     celldm(4)=   0.000000  celldm(5)=   0.000000  celldm(6)=   0.000000

     crystal axes: (cart. coord. in units of alat)
               a(1) = (   6.579727   0.000000   0.000000 )
               a(2) = (  -0.001163   8.942395   0.000000 )
               a(3) = (   0.000000   0.000000  25.155947 )

     reciprocal axes: (cart. coord. in units 2 pi/alat)
               b(1) = (  0.151982  0.000020  0.000000 )
               b(2) = (  0.000000  0.111827  0.000000 )
               b(3) = (  0.000000  0.000000  0.039752 )

     PseudoPot. # 1 for O  read from file:
     /storage/coda1/p-amedford6/0/shared/rich_project_chbe-medford/medford-share/data/pseudos_module/espresso/nninc/pbe/van/O.UPF
     MD5 check sum: 78c19812648e8988a0fe644b0f25305e
     Pseudo is Ultrasoft, Zval =  6.0
     Generated by new atomic code, or converted to UPF format
     Using radial grid of  737 points,  4 beta functions with:
                l(1) =   0
                l(2) =   0
                l(3) =   1
                l(4) =   1
     Q(r) pseudized with  8 coefficients,  rinner =    0.800   0.800   0.800

     PseudoPot. # 2 for Ti read from file:
     /storage/coda1/p-amedford6/0/shared/rich_project_chbe-medford/medford-share/data/pseudos_module/espresso/nninc/pbe/van/Ti.UPF
     MD5 check sum: 8e4df49b7f0d34bbd5052bf3f5ea0213
     Pseudo is Ultrasoft, Zval = 12.0
     Generated by new atomic code, or converted to UPF format
     Using radial grid of  851 points,  6 beta functions with:
                l(1) =   0
                l(2) =   0
                l(3) =   1
                l(4) =   1
                l(5) =   2
                l(6) =   2
     Q(r) pseudized with  8 coefficients,  rinner =    1.000   1.000   1.000
                                                       1.000   1.000

     PseudoPot. # 3 for H  read from file:
     /storage/coda1/p-amedford6/0/shared/rich_project_chbe-medford/medford-share/data/pseudos_module/espresso/nninc/pbe/van/H.UPF
     MD5 check sum: b5ee9d7bfd3a09ee7748110bda690ff7
     Pseudo is Ultrasoft, Zval =  1.0
     Generated by new atomic code, or converted to UPF format
     Using radial grid of  615 points,  1 beta functions with:
                l(1) =   0
     Q(r) pseudized with  8 coefficients,  rinner =    0.800

     PseudoPot. # 4 for N  read from file:
     /storage/coda1/p-amedford6/0/shared/rich_project_chbe-medford/medford-share/data/pseudos_module/espresso/nninc/pbe/van/N.UPF
     MD5 check sum: 90d10febe142ad51ac9d5be1deb811c4
     Pseudo is Ultrasoft, Zval =  5.0
     Generated by new atomic code, or converted to UPF format
     Using radial grid of  729 points,  4 beta functions with:
                l(1) =   0
                l(2) =   0
                l(3) =   1
                l(4) =   1
     Q(r) pseudized with  8 coefficients,  rinner =    0.800   0.800   0.800

     atomic species   valence    mass     pseudopotential
        O1             6.00    15.99900     O ( 1.00)
        Ti1           12.00    47.86700     Ti( 1.00)
        H1             1.00     1.00800     H ( 1.00)
        N1             5.00    14.00700     N ( 1.00)

     No symmetry found

   Cartesian axes

     site n.     atom                  positions (alat units)
         1           O1  tau(   1) = (   0.0007354   0.0005023  10.5931620  )
         2           O1  tau(   2) = (   3.3150156   8.9360210  13.9574341  )
         3           O1  tau(   3) = (   6.5771809   0.1322222  17.3752006  )
         4           O1  tau(   4) = (   0.0006271   0.0005054   7.9858123  )
         5           O1  tau(   5) = (   3.2854428   8.9395983  11.2048121  )
         6           O1  tau(   6) = (   6.5534721   0.0059909  14.6304568  )
         7           O1  tau(   7) = (   1.9868534   1.4903216   9.2879459  )
         8           O1  tau(   8) = (   5.2434221   1.6171961  12.5999149  )
         9           O1  tau(   9) = (   1.9662201   1.5518754  16.1237639  )
        10           Ti1 tau(  10) = (   0.0007404   1.4906270   9.2895810  )
        11           Ti1 tau(  11) = (   3.2893977   1.3594553  12.5356033  )
        12           Ti1 tau(  12) = (   0.0178951   1.3769434  15.7441411  )
        13           O1  tau(  13) = (   4.5942328   1.4918067   9.2879030  )
        14           O1  tau(  14) = (   1.3385959   1.6247007  12.6234478  )
        15           O1  tau(  15) = (   4.5909775   1.5586907  16.1788856  )
        16           Ti1 tau(  16) = (   3.2902859   2.9801868   9.2893338  )
        17           Ti1 tau(  17) = (   6.5767353   2.8476438  12.4354253  )
        18           Ti1 tau(  18) = (   3.2855622   3.0003959  15.7804328  )
        19           O1  tau(  19) = (   0.0003479   2.9813005  10.5931620  )
        20           O1  tau(  20) = (   3.3036998   2.9877085  13.9702655  )
        21           O1  tau(  21) = (   0.0002396   2.9813036   7.9858123  )
        22           O1  tau(  22) = (   3.2849372   2.9737507  11.2063419  )
        23           O1  tau(  23) = (   6.5394694   3.0167582  14.8135819  )
        24           O1  tau(  24) = (   1.9864658   4.4711199   9.2879459  )
        25           O1  tau(  25) = (   5.2427600   4.5794291  12.6037842  )
        26           O1  tau(  26) = (   1.9458942   4.4597853  16.1214517  )
        27           Ti1 tau(  27) = (   0.0003529   4.4714252   9.2895810  )
        28           Ti1 tau(  28) = (   3.2810590   4.3307370  12.5385870  )
        29           Ti1 tau(  29) = (   6.5544800   4.6619433  15.7291082  )
        30           O1  tau(  30) = (   4.5938453   4.4726049   9.2879030  )
        31           O1  tau(  31) = (   1.3254974   4.5864429  12.6215760  )
        32           O1  tau(  32) = (   4.5799584   4.4820416  16.1880388  )
        33           Ti1 tau(  33) = (   3.2898983   5.9609850   9.2893338  )
        34           Ti1 tau(  34) = (   6.5675573   5.8255355  12.4420054  )
        35           Ti1 tau(  35) = (   3.2444431   5.9917870  15.7690220  )
        36           O1  tau(  36) = (  -0.0000397   5.9620987  10.5931620  )
        37           O1  tau(  37) = (   3.2928066   5.9693490  13.9649938  )
        38           O1  tau(  38) = (   6.5603845   5.9023223  17.3786232  )
        39           O1  tau(  39) = (  -0.0001480   5.9621018   7.9858123  )
        40           O1  tau(  40) = (   3.2839194   5.9454927  11.2056182  )
        41           O1  tau(  41) = (   6.5420590   6.0665053  14.6296390  )
        42           O1  tau(  42) = (   1.9860782   7.4519181   9.2879459  )
        43           O1  tau(  43) = (   5.2396418   7.5574700  12.5673505  )
        44           O1  tau(  44) = (   1.9576089   7.5211923  16.0792554  )
        45           Ti1 tau(  45) = (  -0.0000347   7.4522234   9.2895810  )
        46           Ti1 tau(  46) = (   3.2826699   7.3152331  12.5262848  )
        47           Ti1 tau(  47) = (   0.0069763   7.4761561  16.0760502  )
        48           O1  tau(  48) = (   4.5934577   7.4534031   9.2879030  )
        49           O1  tau(  49) = (   1.3370172   7.5712087  12.5877691  )
        50           O1  tau(  50) = (   4.5576284   7.4668559  16.1934357  )
        51           Ti1 tau(  51) = (   3.2895107   8.9417832   9.2893338  )
        52           Ti1 tau(  52) = (   6.5702701   8.7900240  12.4479541  )
        53           Ti1 tau(  53) = (   3.3076380   0.0053799  15.7629688  )
        54           H1  tau(  54) = (   5.7681615   5.8474147  17.9327380  )
        55           H1  tau(  55) = (   5.8019348   0.2260023  17.9463436  )
        56           N1  tau(  56) = (   6.2964029   3.7918275  19.8857669  )
        57           N1  tau(  57) = (   6.3580303   2.9748886  19.1553858  )

     number of k points=    10  Fermi-Dirac smearing, width (Ry)=  0.0073
                       cart. coord. in units 2pi/alat
        k(    1) = (   0.0000000   0.0000000   0.0000000), wk =   0.1250000
        k(    2) = (   0.0000000   0.0279567   0.0000000), wk =   0.2500000
        k(    3) = (   0.0000000  -0.0559134   0.0000000), wk =   0.1250000
        k(    4) = (   0.0379955   0.0000049   0.0000000), wk =   0.2500000
        k(    5) = (   0.0379955   0.0279617   0.0000000), wk =   0.2500000
        k(    6) = (   0.0379955  -0.0559085   0.0000000), wk =   0.2500000
        k(    7) = (   0.0379955  -0.0279518   0.0000000), wk =   0.2500000
        k(    8) = (  -0.0759910  -0.0000099   0.0000000), wk =   0.1250000
        k(    9) = (  -0.0759910   0.0279468   0.0000000), wk =   0.2500000
        k(   10) = (  -0.0759910  -0.0559233   0.0000000), wk =   0.1250000

     Initial potential from superposition of free atoms

     starting charge  419.99912, renormalised to  438.00000

     negative rho (up, down):  3.691E-02 0.000E+00

     %%%%%%%%%%%%%%%%%%%%%%%%%%%%%%%%%%%%%%%%%%%%%%%%%%%%%%%%%%%%%%%%%%%%%%%%
     %                                                                      %
     % You are using vdW-DF, which was implemented by the Thonhauser group. %
     % Please cite the following two papers that made this development      %
     % possible and the two reviews that describe the various versions:     %
     %                                                                      %
     %   T. Thonhauser et al., PRL 115, 136402 (2015).                      %
     %   T. Thonhauser et al., PRB 76, 125112 (2007).                       %
     %   K. Berland et al., Rep. Prog. Phys. 78, 066501 (2015).             %
     %   D.C. Langreth et al., J. Phys.: Condens. Matter 21, 084203 (2009). %
     %                                                                      %
     %                                                                      %
     % If you are calculating the stress with vdW-DF, please also cite:     %
     %                                                                      %
     %   R. Sabatini et al., J. Phys.: Condens. Matter 24, 424209 (2012).   %
     %                                                                      %
     %%%%%%%%%%%%%%%%%%%%%%%%%%%%%%%%%%%%%%%%%%%%%%%%%%%%%%%%%%%%%%%%%%%%%%%%

     Adding external electric field

     Computed dipole along edir(3) :
        Dipole               -6.4270 Ry au,        -16.3359 Debye
        Dipole field         -0.0081 Ry au,

        Potential amp.        0.7495 Ry
        Total length         46.3494 bohr

     Starting wfcs are  330 atomic wfcs
  @ DRIVER MODE: Message from server: STATUS
  @ DRIVER MODE: Message from server: POSDATA
  @ DRIVER MODE: Reading and sharing cell
  @ DRIVER MODE: Reading and sharing positions
  @ DRIVER MODE: Received positions

     Self-consistent Calculation

     iteration #  1     ecut=    29.40 Ry     beta= 0.05
     Davidson diagonalization with overlap
     c_bands:  2 eigenvalues not converged
     c_bands:  2 eigenvalues not converged
     c_bands:  5 eigenvalues not converged
     c_bands:  2 eigenvalues not converged
     c_bands:  4 eigenvalues not converged
     c_bands:  5 eigenvalues not converged
     c_bands:  4 eigenvalues not converged
     c_bands:  3 eigenvalues not converged
     c_bands:  4 eigenvalues not converged
     c_bands:  4 eigenvalues not converged
     ethr =  1.00E-05,  avg # of iterations = 20.0

[...]

     total energy              =   -3266.98899845 Ry
     estimated scf accuracy    <     308.67368791 Ry

[...]

     iteration #  3     ecut=    29.40 Ry     beta= 0.05
     Davidson diagonalization with overlap
     ethr =  1.00E-02,  avg # of iterations = 13.5

[...]

     iteration # 28     ecut=    29.40 Ry     beta= 0.05
     Davidson diagonalization with overlap
     ethr =  2.11E-07,  avg # of iterations =  9.3

[...]

     total energy              =   -3290.82319704 Ry
     estimated scf accuracy    <       0.00000012 Ry

     iteration # 47     ecut=    29.40 Ry     beta= 0.05
     Davidson diagonalization with overlap
     c_bands:  2 eigenvalues not converged
     ethr =  2.74E-11,  avg # of iterations = 10.4

     negative rho (up, down):  3.514E-02 0.000E+00

     Adding external electric field

     Computed dipole along edir(3) :
        Dipole                1.4986 Ry au,          3.8090 Debye
        Dipole field          0.0019 Ry au,

        Potential amp.       -0.1748 Ry
        Total length         46.3494 bohr

     End of self-consistent calculation

          k = 0.0000 0.0000 0.0000 ( 26871 PWs)   bands (ev):

   -57.5927 -57.5676 -57.5662 -57.5025 -57.4803 -57.4631 -57.4380 -57.4357
   -57.4169 -57.4111 -57.3941 -57.3835 -57.3758 -57.3529 -57.3489 -56.7193
   -56.6956 -56.6895 -33.9847 -33.9829 -33.9663 -33.9618 -33.9419 -33.9290
   -33.9115 -33.8997 -33.8959 -33.8887 -33.8862 -33.8738 -33.8413 -33.8340
   -33.8164 -33.7909 -33.7621 -33.7383 -33.7334 -33.7318 -33.7182 -33.7147
   -33.7117 -33.7052 -33.6947 -33.6943 -33.6904 -33.6896 -33.6702 -33.6638
   -33.6371 -33.6338 -33.6293 -33.6254 -33.6192 -33.6120 -33.5975 -33.5948
   -33.5801 -33.5579 -33.5319 -33.5289 -33.5237 -33.4923 -33.4792 -33.0397
   -33.0316 -33.0255 -33.0102 -33.0050 -32.9496 -32.8882 -32.8813 -32.7486
   -23.8417 -19.5290 -19.3971 -18.4784 -18.1072 -17.9357 -17.9237 -17.9012
   -17.8673 -17.7231 -17.6972 -17.6535 -17.6240 -17.6074 -17.4582 -17.4385
   -17.4219 -17.4187 -17.3722 -17.3673 -17.3611 -17.3319 -17.3251 -17.3134
   -17.2900 -17.2625 -17.1620 -17.1430 -17.1379 -17.1054 -17.0664 -17.0646
   -16.7602 -15.1834 -15.1236 -15.1189  -8.9038  -7.2140  -7.0814  -6.9210
    -6.8965  -5.7996  -5.6857  -5.6139  -5.5566  -5.4247  -5.1277  -5.0893
    -5.0551  -5.0348  -5.0183  -4.9655  -4.9143  -4.9056  -4.8873  -4.8573
    -4.8510  -4.7872  -4.7695  -4.7550  -4.6652  -4.6293  -4.6224  -4.5872
    -4.5650  -4.5006  -4.4890  -4.4687  -4.4315  -4.4230  -4.3966  -4.3797
    -4.2654  -4.1550  -4.1341  -4.0906  -4.0726  -3.9625  -3.9469  -3.9112
    -3.8904  -3.8305  -3.7936  -3.7727  -3.7559  -3.6873  -3.6334  -3.6099
    -3.5723  -3.5182  -3.4676  -3.4450  -3.4238  -3.4073  -3.3479  -3.2923
    -3.2569  -3.1892  -3.1393  -3.0506  -3.0457  -2.9595  -2.9085  -2.7773
    -2.7405  -2.6812  -2.6632  -2.6148  -2.5931  -2.4474  -2.4345  -2.4191
    -2.4157  -2.3818  -2.3273  -2.3068  -2.3043  -2.2827  -2.2537  -2.2055
    -2.1880  -2.1213  -2.0801  -2.0566  -2.0413  -2.0075  -1.9447  -1.9182
    -1.8383  -1.7777  -1.7563  -1.6611  -1.5468  -1.5292  -1.5288  -1.4165
    -1.3926  -1.0192  -0.7923  -0.4949  -0.4294  -0.4273  -0.1427  -0.1374
     0.0010   1.3450   1.4182   1.5898   1.6127   1.6785   1.8185   1.8419
     1.9216   1.9606   1.9787   1.9915   1.9995

[...]

          k = 0.0380-0.0280 0.0000 ( 26873 PWs)   bands (ev):

[...]

          k =-0.0760-0.0000 0.0000 ( 26902 PWs)   bands (ev):

[...]

          k =-0.0760-0.0559 0.0000 ( 26868 PWs)   bands (ev):

   -57.5848 -57.5832 -57.5584 -57.4990 -57.4862 -57.4604 -57.4342 -57.4338
   -57.4227 -57.4145 -57.3919 -57.3818 -57.3696 -57.3658 -57.3427 -56.7135
   -56.7071 -56.6837 -34.0779 -34.0249 -33.9811 -33.9674 -33.9472 -33.9241
   -33.9081 -33.9040 -33.9015 -33.8828 -33.8596 -33.8157 -33.8077 -33.7928
   -33.7906 -33.7454 -33.7357 -33.7338 -33.7331 -33.7213 -33.7155 -33.7027
   -33.7016 -33.6811 -33.6724 -33.6697 -33.6664 -33.6661 -33.6628 -33.6597
   -33.6574 -33.6540 -33.6496 -33.6389 -33.6332 -33.6274 -33.6189 -33.5985
   -33.5771 -33.5725 -33.5695 -33.5585 -33.5563 -33.5085 -33.4919 -33.1272
   -33.0270 -33.0214 -32.9989 -32.9317 -32.9245 -32.8634 -32.8491 -32.8419
   -23.8417 -19.5110 -19.4044 -18.1300 -18.0967 -17.9770 -17.9146 -17.7945
   -17.7774 -17.6974 -17.6840 -17.6754 -17.6399 -17.6018 -17.5626 -17.5473
   -17.4698 -17.4398 -17.4137 -17.4023 -17.3926 -17.3858 -17.3791 -17.3645
   -17.2587 -17.2565 -17.2518 -17.2217 -17.1541 -17.1003 -17.0478 -17.0322
   -16.7925 -15.1809 -15.1755 -15.0600  -8.9036  -7.2539  -7.0554  -6.9215
    -6.9011  -5.6684  -5.3985  -5.3367  -5.3152  -5.2678  -5.1680  -5.0999
    -5.0564  -4.9988  -4.9389  -4.8874  -4.8547  -4.7912  -4.7774  -4.7648
    -4.7538  -4.7051  -4.6642  -4.6474  -4.6329  -4.6172  -4.6007  -4.5725
    -4.5620  -4.5303  -4.4631  -4.4239  -4.3358  -4.3276  -4.2970  -4.2606
    -4.2355  -4.2148  -4.1567  -4.1411  -4.1111  -4.0877  -3.9687  -3.8522
    -3.8378  -3.8026  -3.7965  -3.7665  -3.7275  -3.7213  -3.6196  -3.5447
    -3.4079  -3.3814  -3.3780  -3.3653  -3.3452  -3.2774  -3.2678  -3.2322
    -3.1995  -3.1848  -3.1640  -3.1093  -3.0813  -3.0030  -2.9713  -2.9130
    -2.8596  -2.8275  -2.7687  -2.7579  -2.7352  -2.7241  -2.7193  -2.7077
    -2.6880  -2.6414  -2.6317  -2.4827  -2.4484  -2.4440  -2.4295  -2.3197
    -2.3015  -2.2035  -2.1939  -2.1600  -2.1489  -2.0608  -2.0417  -1.9348
    -1.9151  -1.8563  -1.8091  -1.7606  -1.4477  -1.4363  -1.4079  -1.3749
    -1.2890  -1.2824  -1.0321  -0.6302  -0.3712  -0.3518  -0.3062  -0.1344
    -0.1325   1.4703   1.5376   1.5622   1.5798   1.6777   1.6905   1.7155
     1.7313   1.7682   1.7807   1.8862   1.9505

     the Fermi energy is     1.4896 ev

!    total energy              =   -3290.82333076 Ry
     estimated scf accuracy    <       0.00000006 Ry
     smearing contrib. (-TS)   =      -0.05467629 Ry
     internal energy E=F+TS    =   -3290.76865447 Ry

     The total energy is F=E-TS. E is the sum of the following terms:
     one-electron contribution =  -33575.99812513 Ry
     hartree contribution      =   16851.71649416 Ry
     xc contribution           =    -540.41181117 Ry
     ewald contribution        =   13973.92196227 Ry
     electric field correction =       0.00282539 Ry

     convergence has been achieved in  47 iterations

     Forces acting on atoms (cartesian axes, Ry/au):

     atom    1 type  1   force =     0.00049199    0.00768088    0.05388001
     atom    2 type  1   force =     0.00022614    0.00347129    0.00203092
     atom    3 type  1   force =    -0.00215571   -0.00154340   -0.00166912
     atom    4 type  1   force =     0.00004337    0.00062819    0.10809955
     atom    5 type  1   force =     0.00011893   -0.00052507    0.01008149
     atom    6 type  1   force =    -0.00049815   -0.00865460   -0.00248353
     atom    7 type  1   force =     0.06411810    0.00022166   -0.02868996
     atom    8 type  1   force =     0.00332240   -0.02902234    0.00414707
     atom    9 type  1   force =     0.01264216   -0.00964530   -0.00135146
     atom   10 type  2   force =     0.00006245   -0.00637197   -0.19201656
     atom   11 type  2   force =    -0.00024682    0.01995868   -0.01153894
     atom   12 type  2   force =    -0.00131755    0.01557870    0.01032992
     atom   13 type  1   force =    -0.06425281   -0.00020934   -0.02810697
     atom   14 type  1   force =    -0.00398154   -0.02856323    0.00377784
     atom   15 type  1   force =    -0.01068814   -0.01194237    0.00085425
     atom   16 type  2   force =    -0.00027691   -0.00086387    0.07233725
     atom   17 type  2   force =     0.00033281    0.03631708    0.00478637
     atom   18 type  2   force =    -0.00022402    0.00084473   -0.00735622
     atom   19 type  1   force =     0.00076798    0.00326516    0.05939982
     atom   20 type  1   force =    -0.00031772    0.00182117   -0.00317310
     atom   21 type  1   force =     0.00006767    0.00073390    0.10922849
     atom   22 type  1   force =     0.00005648   -0.00032726    0.01010605
     atom   23 type  1   force =    -0.00002512    0.00083236    0.00147715
     atom   24 type  1   force =     0.06378468   -0.00057875   -0.02865594
     atom   25 type  1   force =     0.00305335   -0.02881855    0.00379993
     atom   26 type  1   force =     0.01002492    0.01239506    0.00073021
     atom   27 type  2   force =     0.00002982    0.00226139   -0.19417365
     atom   28 type  2   force =     0.00014611    0.01852034   -0.01071199
     atom   29 type  2   force =     0.00011007   -0.01690737    0.00899026
     atom   30 type  1   force =    -0.06394468   -0.00100855   -0.02802790
     atom   31 type  1   force =    -0.00267666   -0.02913985    0.00377515
     atom   32 type  1   force =    -0.01239955    0.00754897   -0.00160032
     atom   33 type  2   force =    -0.00026373   -0.00103007    0.07253465
     atom   34 type  2   force =    -0.00011104    0.03450438    0.00419051
     atom   35 type  2   force =     0.00289528   -0.01383064   -0.00300982
     atom   36 type  1   force =     0.00026259    0.00300322    0.05372374
     atom   37 type  1   force =    -0.00022945    0.00131079    0.00207074
     atom   38 type  1   force =    -0.00060551    0.00094616   -0.00067826
     atom   39 type  1   force =     0.00007894   -0.00111930    0.10847930
     atom   40 type  1   force =     0.00000217   -0.00027308    0.00993882
     atom   41 type  1   force =     0.00093280    0.00810422   -0.00133249
     atom   42 type  1   force =     0.06452839   -0.00058556   -0.02831723
     atom   43 type  1   force =     0.00209715   -0.02819308    0.00291246
     atom   44 type  1   force =     0.01355441   -0.00750278    0.00866885
     atom   45 type  2   force =     0.00016146    0.00153400   -0.18905028
     atom   46 type  2   force =    -0.00007089    0.01914868   -0.01213640
     atom   47 type  2   force =     0.00035240    0.00390041   -0.00960289
     atom   48 type  1   force =    -0.06470059   -0.00107476   -0.02775255
     atom   49 type  1   force =    -0.00261847   -0.02847509    0.00285565
     atom   50 type  1   force =    -0.01367999    0.00198806    0.00424141
     atom   51 type  2   force =    -0.00026371   -0.00042085    0.07293637
     atom   52 type  2   force =     0.00056032    0.03495170    0.00443152
     atom   53 type  2   force =    -0.00219165    0.01510368   -0.00250892
     atom   54 type  3   force =     0.00183684    0.00030594   -0.00125816
     atom   55 type  3   force =     0.00093768   -0.00011041   -0.00044677
     atom   56 type  4   force =    -0.00230958    0.03026172    0.02900397
     atom   57 type  4   force =     0.00245013   -0.03040506   -0.02817024

     Total force =     0.466584     Total SCF correction =     0.000518
  @ DRIVER MODE: Message from server: STATUS
  @ DRIVER MODE: Message from server: GETFORCE
  @ DRIVER MODE: Returning v,forces,stress,ensemble

     Writing output data file ./calc.save/
  @ DRIVER MODE: Message from server: EXIT
  @ DRIVE MODE: Exiting

     General routines

     Parallel routines

   This run was terminated on:  23: 3:21  18Oct2021

   JOB DONE.