     Program PWSCF v.6.7GPU starts on 15Sep2021 at 16:30:59

     R & G space division:  proc/nbgrp/npool/nimage =      10
     Reading input from /storage/home/hcoda1/3/ntian30/research/carbon/CxH_vib/H2O_calc/ads_slab/CHOH2O_a/out_0003/pw.inp
Warning: card &CELL ignored
Warning: card   CELL_DYNAMICS='IPI', ignored
Warning: card / ignored

     Current dimensions of program PWSCF are:
     Max number of different atomic species (ntypx) = 10
     Max number of k-points (npk) =  40000
     Max angular momentum in pseudopotentials (lmaxx) =  3
     Presently no symmetry can be used with electric field

     Message from routine cell_base_init:
     DEPRECATED: use true lattice parameter, not A to a.u. conversion factor

     IMPORTANT: XC functional enforced from input :
     Exchange-correlation= BEEF-VDW
                           (   1   4  43  14   2   0   0)
     Any further DFT definition will be discarded
     Please, verify this is what you really want

  @ DRIVER MODE: Connecting to
 qe_1139763_2852631.sched-torque.pace.gatech.edu3r0zt0gl_scratch
  using UNIX socket
  @ DRIVER MODE: Message from server: STATUS
  @ DRIVER MODE: Message from server: INIT
  @ DRIVER MODE: Receiving replica           0          -1
  @ DRIVER MODE: Receiving encoded integer          25
  @ DRIVER MODE:  SCF:  T  FORCE:  T  STRESS:  F  VC:  F  ENSEMBLE:  F
  @ DRIVER MODE:  SCF:  T  FORCE:  T  STRESS:  F  VC:  F  ENSEMBLE:  F

     Using Slab Decomposition

     bravais-lattice index     =            0
     lattice parameter (alat)  =       1.8897  a.u.
     unit-cell volume          =    6658.9804 (a.u.)^3
     number of atoms/cell      =           53
     number of atomic types    =            4
     number of electrons       =       397.00
     number of Kohn-Sham states=          208
     kinetic-energy cutoff     =      29.3995  Ry
     charge density cutoff     =     293.9946  Ry
     scf convergence threshold =      7.3E-08
     mixing beta               =       0.0500
     number of iterations used =            8  plain     mixing
     Exchange-correlation= BEEF-VDW
                           (   1   4  43  14   2   0   0)

     celldm(1)=   1.889726  celldm(2)=   0.000000  celldm(3)=   0.000000
     celldm(4)=   0.000000  celldm(5)=   0.000000  celldm(6)=   0.000000

     crystal axes: (cart. coord. in units of alat)
               a(1) = (   6.579727   0.000000   0.000000 )
               a(2) = (  -0.000775   5.961596   0.000000 )
               a(3) = (   0.000000   0.000000  25.155947 )

     reciprocal axes: (cart. coord. in units 2 pi/alat)
               b(1) = (  0.151982  0.000020  0.000000 )
               b(2) = (  0.000000  0.167740  0.000000 )
               b(3) = (  0.000000  0.000000  0.039752 )

     PseudoPot. # 1 for O  read from file:
     /storage/coda1/p-amedford6/0/shared/rich_project_chbe-medford/medford-share/data/pseudos_module/espresso/nninc/pbe/van/O.UPF
     MD5 check sum: 78c19812648e8988a0fe644b0f25305e
     Pseudo is Ultrasoft, Zval =  6.0
     Generated by new atomic code, or converted to UPF format
     Using radial grid of  737 points,  4 beta functions with:
                l(1) =   0
                l(2) =   0
                l(3) =   1
                l(4) =   1
     Q(r) pseudized with  8 coefficients,  rinner =    0.800   0.800   0.800

     PseudoPot. # 2 for Ti read from file:
     /storage/coda1/p-amedford6/0/shared/rich_project_chbe-medford/medford-share/data/pseudos_module/espresso/nninc/pbe/van/Ti.UPF
     MD5 check sum: 8e4df49b7f0d34bbd5052bf3f5ea0213
     Pseudo is Ultrasoft, Zval = 12.0
     Generated by new atomic code, or converted to UPF format
     Using radial grid of  851 points,  6 beta functions with:
                l(1) =   0
                l(2) =   0
                l(3) =   1
                l(4) =   1
                l(5) =   2
                l(6) =   2
     Q(r) pseudized with  8 coefficients,  rinner =    1.000   1.000   1.000
                                                       1.000   1.000

     PseudoPot. # 3 for C  read from file:
     /storage/coda1/p-amedford6/0/shared/rich_project_chbe-medford/medford-share/data/pseudos_module/espresso/nninc/pbe/van/C.UPF
     MD5 check sum: 1a69bf6b8db32088f5b2163dbdb77a27
     Pseudo is Ultrasoft, Zval =  4.0
     Generated by new atomic code, or converted to UPF format
     Using radial grid of  721 points,  4 beta functions with:
                l(1) =   0
                l(2) =   0
                l(3) =   1
                l(4) =   1
     Q(r) pseudized with  8 coefficients,  rinner =    0.800   0.800   0.800

     PseudoPot. # 4 for H  read from file:
     /storage/coda1/p-amedford6/0/shared/rich_project_chbe-medford/medford-share/data/pseudos_module/espresso/nninc/pbe/van/H.UPF
     MD5 check sum: b5ee9d7bfd3a09ee7748110bda690ff7
     Pseudo is Ultrasoft, Zval =  1.0
     Generated by new atomic code, or converted to UPF format
     Using radial grid of  615 points,  1 beta functions with:
                l(1) =   0
     Q(r) pseudized with  8 coefficients,  rinner =    0.800

     atomic species   valence    mass     pseudopotential
        O1             6.00    15.99900     O ( 1.00)
        Ti1           12.00    47.86700     Ti( 1.00)
        C1             4.00    12.01100     C ( 1.00)
        H1             1.00     1.00800     H ( 1.00)

     No symmetry found

   Cartesian axes

     site n.     atom                  positions (alat units)
         1           O1  tau(   1) = (   3.2904802   0.0005063   4.7018136  )
         2           O1  tau(   2) = (   3.2900926   2.9813045   4.7018136  )
         3           Ti1 tau(   3) = (   0.0004258   2.9801865   6.0000000  )
         4           Ti1 tau(   4) = (   0.0000382   5.9609847   6.0000000  )
         5           Ti1 tau(   5) = (   3.2906075   1.4906267   6.0002472  )
         6           Ti1 tau(   6) = (   3.2902200   4.4714249   6.0002472  )
         7           O1  tau(   7) = (   1.3043587   1.4918075   6.0039043  )
         8           O1  tau(   8) = (   1.3039711   4.4726057   6.0039043  )
         9           O1  tau(   9) = (   5.2767064   1.4903225   6.0039473  )
        10           O1  tau(  10) = (   5.2763189   4.4711207   6.0039473  )
        11           O1  tau(  11) = (   3.2906025   0.0005020   7.3038282  )
        12           O1  tau(  12) = (   3.2902150   2.9813002   7.3038282  )
        13           O1  tau(  13) = (   0.0006271   0.0005054   7.9858123  )
        14           O1  tau(  14) = (   0.0002396   2.9813036   7.9858123  )
        15           Ti1 tau(  15) = (   3.2898052   0.0549011   9.1556235  )
        16           Ti1 tau(  16) = (   3.3203827   3.0319468   9.1649589  )
        17           Ti1 tau(  17) = (   0.0233352   4.5284096   9.2575609  )
        18           Ti1 tau(  18) = (   0.0173867   1.6076536   9.3607995  )
        19           O1  tau(  19) = (   4.5942328   1.4918067   9.2879030  )
        20           O1  tau(  20) = (   4.5938453   4.4726049   9.2879030  )
        21           O1  tau(  21) = (   1.9868534   1.4903216   9.2879459  )
        22           O1  tau(  22) = (   1.9864658   4.4711199   9.2879459  )
        23           O1  tau(  23) = (   0.0034721   0.0125384  10.6021848  )
        24           O1  tau(  24) = (   0.0020335   2.9928551  10.5785608  )
        25           O1  tau(  25) = (   3.2937812   2.9995440  11.3622203  )
        26           O1  tau(  26) = (   3.2898347   0.0201518  11.3605052  )
        27           Ti1 tau(  27) = (   0.0300534   0.0302837  12.4945235  )
        28           Ti1 tau(  28) = (   3.3347356   4.5017157  12.5123549  )
        29           Ti1 tau(  29) = (   3.3349302   1.5071924  12.5110355  )
        30           Ti1 tau(  30) = (   0.0295963   3.0145660  12.7881340  )
        31           O1  tau(  31) = (   1.2797855   4.4923438  12.6426172  )
        32           O1  tau(  32) = (   1.2799313   1.5104473  12.6443552  )
        33           O1  tau(  33) = (   5.2866386   4.4922094  12.6434695  )
        34           O1  tau(  34) = (   5.2866683   1.5083124  12.6439979  )
        35           O1  tau(  35) = (   3.2814828   3.0070543  13.9178409  )
        36           O1  tau(  36) = (   3.2867003   0.0227894  13.9786966  )
        37           O1  tau(  37) = (   0.0021618   0.0175046  14.6784646  )
        38           O1  tau(  38) = (   0.0002945   3.0143855  14.7103493  )
        39           Ti1 tau(  39) = (   3.2869621   3.0144872  15.7052805  )
        40           Ti1 tau(  40) = (   3.3044863   0.0423327  15.8215216  )
        41           Ti1 tau(  41) = (   0.0135451   4.5796903  15.9522020  )
        42           Ti1 tau(  42) = (   0.0105102   1.3838334  15.9764479  )
        43           O1  tau(  43) = (   4.5519026   4.4709862  16.0573678  )
        44           O1  tau(  44) = (   4.5564327   1.5473262  16.0430495  )
        45           O1  tau(  45) = (   2.0152543   1.5518810  16.0555283  )
        46           O1  tau(  46) = (   2.0123771   4.4621050  16.0713562  )
        47           O1  tau(  47) = (   0.0008539   0.0298781  17.1953024  )
        48           O1  tau(  48) = (   6.5358978   3.0250243  17.4695059  )
        49           C1  tau(  49) = (   6.3916590   3.0774531  18.7359330  )
        50           H1  tau(  50) = (   6.4332689   2.0249999  19.1325638  )
        51           O1  tau(  51) = (   3.2941481   0.0813851  18.1811625  )
        52           H1  tau(  52) = (   4.0521942   5.5777154  18.5714528  )
        53           H1  tau(  53) = (   2.4879692   5.6555715  18.5615442  )

     number of k points=    10  Fermi-Dirac smearing, width (Ry)=  0.0073
                       cart. coord. in units 2pi/alat
        k(    1) = (   0.0000000   0.0000000   0.0000000), wk =   0.1250000
        k(    2) = (   0.0000000   0.0419351   0.0000000), wk =   0.2500000
        k(    3) = (   0.0000000  -0.0838702   0.0000000), wk =   0.1250000
        k(    4) = (   0.0379955   0.0000049   0.0000000), wk =   0.2500000
        k(    5) = (   0.0379955   0.0419400   0.0000000), wk =   0.2500000
        k(    6) = (   0.0379955  -0.0838652   0.0000000), wk =   0.2500000
        k(    7) = (   0.0379955  -0.0419301   0.0000000), wk =   0.2500000
        k(    8) = (  -0.0759910  -0.0000099   0.0000000), wk =   0.1250000
        k(    9) = (  -0.0759910   0.0419252   0.0000000), wk =   0.2500000
        k(   10) = (  -0.0759910  -0.0838800   0.0000000), wk =   0.1250000

     Initial potential from superposition of free atoms

     starting charge  380.99918, renormalised to  397.00000

     negative rho (up, down):  1.752E-02 0.000E+00

     %%%%%%%%%%%%%%%%%%%%%%%%%%%%%%%%%%%%%%%%%%%%%%%%%%%%%%%%%%%%%%%%%%%%%%%%
     %                                                                      %
     % You are using vdW-DF, which was implemented by the Thonhauser group. %
     % Please cite the following two papers that made this development      %
     % possible and the two reviews that describe the various versions:     %
     %                                                                      %
     %   T. Thonhauser et al., PRL 115, 136402 (2015).                      %
     %   T. Thonhauser et al., PRB 76, 125112 (2007).                       %
     %   K. Berland et al., Rep. Prog. Phys. 78, 066501 (2015).             %
     %   D.C. Langreth et al., J. Phys.: Condens. Matter 21, 084203 (2009). %
     %                                                                      %
     %                                                                      %
     % If you are calculating the stress with vdW-DF, please also cite:     %
     %                                                                      %
     %   R. Sabatini et al., J. Phys.: Condens. Matter 24, 424209 (2012).   %
     %                                                                      %
     %%%%%%%%%%%%%%%%%%%%%%%%%%%%%%%%%%%%%%%%%%%%%%%%%%%%%%%%%%%%%%%%%%%%%%%%

     Adding external electric field

     Computed dipole along edir(3) :
        Dipole               -8.9490 Ry au,        -22.7462 Debye
        Dipole field         -0.0169 Ry au,

        Potential amp.        1.5655 Ry
        Total length         46.3494 bohr

     Starting wfcs are  299 atomic wfcs
  @ DRIVER MODE: Message from server: STATUS
  @ DRIVER MODE: Message from server: POSDATA
  @ DRIVER MODE: Reading and sharing cell
  @ DRIVER MODE: Reading and sharing positions
  @ DRIVER MODE: Received positions

     Self-consistent Calculation

     iteration #  1     ecut=    29.40 Ry     beta= 0.05
     Davidson diagonalization with overlap
     c_bands:  1 eigenvalues not converged
     c_bands:  1 eigenvalues not converged
     c_bands:  1 eigenvalues not converged
     c_bands:  1 eigenvalues not converged
     c_bands:  2 eigenvalues not converged
     ethr =  1.00E-05,  avg # of iterations = 19.3

[...]

     total energy              =   -2583.16019757 Ry
     estimated scf accuracy    <    4233.82932452 Ry

     iteration #  2     ecut=    29.40 Ry     beta= 0.05
     Davidson diagonalization with overlap
     ethr =  1.00E-02,  avg # of iterations = 23.6

[...]

     iteration # 65     ecut=    29.40 Ry     beta= 0.05
     Davidson diagonalization with overlap
     ethr =  6.07E-11,  avg # of iterations = 13.3

[...]

     total energy              =   -2963.67529628 Ry
     estimated scf accuracy    <       0.00000010 Ry

     iteration # 67     ecut=    29.40 Ry     beta= 0.05
     Davidson diagonalization with overlap
     c_bands:  1 eigenvalues not converged
     ethr =  2.55E-11,  avg # of iterations = 10.9

     negative rho (up, down):  1.624E-02 0.000E+00

     Adding external electric field

     Computed dipole along edir(3) :
        Dipole                0.4591 Ry au,          1.1670 Debye
        Dipole field          0.0009 Ry au,

        Potential amp.       -0.0803 Ry
        Total length         46.3494 bohr

     End of self-consistent calculation

          k = 0.0000 0.0000 0.0000 ( 18029 PWs)   bands (ev):

   -56.0161 -55.9796 -55.9792 -55.9577 -55.9435 -55.8994 -55.8654 -55.8353
   -55.7988 -55.7939 -55.7832 -55.7556 -55.7496 -55.6894 -55.0249 -54.9908
   -32.5327 -32.4868 -32.4108 -32.3762 -32.3664 -32.3118 -32.2924 -32.2811
   -32.2617 -32.2487 -32.2103 -32.2032 -32.1934 -32.1746 -32.1732 -32.1618
   -32.1358 -32.1218 -32.1087 -32.1080 -32.0884 -32.0793 -32.0741 -32.0675
   -32.0553 -32.0477 -32.0423 -32.0306 -32.0144 -32.0047 -32.0008 -31.9870
   -31.9680 -31.9613 -31.9586 -31.9553 -31.9277 -31.9097 -31.9016 -31.8887
   -31.8758 -31.8719 -31.4344 -31.3385 -31.3161 -31.2509 -31.1647 -31.0537
   -19.4266 -19.1147 -16.7368 -16.4757 -16.3156 -16.1973 -16.1486 -15.9321
   -15.8484 -15.7983 -15.7108 -15.6347 -15.6059 -15.5885 -15.5555 -15.5411
   -15.5348 -15.5130 -15.4616 -15.4448 -15.4227 -15.4175 -15.4059 -15.3866
   -15.3054 -15.2319 -15.1699 -15.1377 -15.0653 -15.0258 -14.9883 -13.5263
   -13.4084  -7.8892  -6.9212  -4.6459  -4.0949  -3.9519  -3.9325  -3.9040
    -3.8333  -3.6580  -3.6186  -3.4729  -3.3137  -3.3054  -3.1875  -3.1510
    -3.1284  -3.0567  -3.0403  -2.9781  -2.8528  -2.8382  -2.8274  -2.8093
    -2.7987  -2.7547  -2.7324  -2.6969  -2.6560  -2.5803  -2.5159  -2.4842
    -2.4187  -2.4131  -2.3752  -2.3197  -2.3130  -2.2890  -2.2750  -2.2491
    -2.1986  -2.1842  -2.1723  -2.0693  -1.9820  -1.8700  -1.7090  -1.6824
    -1.6795  -1.5565  -1.5084  -1.4493  -1.4215  -1.4196  -1.3700  -1.3215
    -1.2751  -1.2565  -1.1515  -1.0379  -1.0057  -0.9449  -0.9180  -0.7932
    -0.7436  -0.7378  -0.7287  -0.7195  -0.6968  -0.6266  -0.5127  -0.4398
    -0.4310  -0.3398  -0.3171  -0.3047  -0.2460  -0.2368  -0.2159  -0.1611
    -0.1157  -0.0690  -0.0521  -0.0222   0.0151   0.0199   0.1504   0.1999
     0.2284   0.2492   0.2871   0.4562   0.5002   0.6303   0.7358   0.9063
     0.9987   1.0635   1.1732   1.5842   1.6415   2.8406   3.1610   3.2055
     3.2189   3.2332   3.2960   3.3979   3.5436   3.6145   3.6286   3.6638

[...]

          k = 0.0380-0.0419 0.0000 ( 17876 PWs)   bands (ev):

[...]

          k =-0.0760-0.0000 0.0000 ( 17886 PWs)   bands (ev):

[...]

          k =-0.0760-0.0839 0.0000 ( 17948 PWs)   bands (ev):

   -56.0047 -55.9905 -55.9627 -55.9603 -55.9556 -55.8874 -55.8774 -55.8314
   -55.7956 -55.7956 -55.7683 -55.7648 -55.7595 -55.6921 -55.0083 -55.0072
   -32.3476 -32.3270 -32.3234 -32.3108 -32.2983 -32.2952 -32.2753 -32.2483
   -32.2396 -32.2288 -32.2193 -32.2124 -32.1709 -32.1603 -32.1526 -32.1423
   -32.1291 -32.1251 -32.1200 -32.1185 -32.1146 -32.1132 -32.0956 -32.0912
   -32.0908 -32.0842 -32.0782 -32.0534 -32.0371 -32.0284 -32.0200 -32.0184
   -32.0102 -31.9972 -31.9857 -31.9795 -31.9750 -31.9743 -31.9638 -31.9514
   -31.9163 -31.8857 -31.3295 -31.3281 -31.2478 -31.2469 -31.2083 -31.2074
   -19.4181 -19.1141 -16.1892 -16.0822 -16.0730 -15.8983 -15.8842 -15.8618
   -15.8193 -15.8097 -15.7164 -15.7140 -15.6702 -15.6569 -15.6308 -15.5967
   -15.5917 -15.5310 -15.5299 -15.5257 -15.4704 -15.4648 -15.4429 -15.4278
   -15.4064 -15.3961 -15.3508 -15.3393 -15.2761 -15.2067 -15.1943 -13.5109
   -13.5085  -7.8901  -6.9144  -4.5905  -3.7237  -3.4712  -3.3228  -3.2840
    -3.2317  -3.1343  -3.1082  -3.0701  -3.0209  -2.9815  -2.9321  -2.8732
    -2.8488  -2.8456  -2.8348  -2.8287  -2.8095  -2.8028  -2.7634  -2.7389
    -2.7069  -2.6783  -2.6599  -2.6369  -2.6313  -2.6089  -2.5847  -2.5776
    -2.5647  -2.5550  -2.4868  -2.4491  -2.3332  -2.3235  -2.2459  -2.2127
    -2.1520  -2.1448  -2.1225  -2.0802  -2.0714  -2.0564  -1.8811  -1.8568
    -1.7488  -1.7414  -1.7204  -1.6909  -1.5999  -1.5334  -1.4964  -1.4783
    -1.4264  -1.4080  -1.3331  -1.2717  -1.2111  -1.1754  -1.1071  -1.0759
    -1.0599  -0.9820  -0.9726  -0.9360  -0.9114  -0.8934  -0.7744  -0.7676
    -0.7319  -0.6964  -0.6656  -0.6124  -0.5645  -0.5479  -0.5108  -0.4583
    -0.3862  -0.3616  -0.1727   0.0089   0.0158   0.0452   0.1359   0.1751
     0.2933   0.3263   0.3315   0.3661   0.4069   0.5007   0.5233   0.5308
     0.6044   1.3589   1.3599   1.4463   1.4574   2.7062   3.3510   3.4102
     3.4744   3.5102   3.6150   3.6324   3.6470   3.6582   3.6950   3.7952

     the Fermi energy is     3.1345 ev

!    total energy              =   -2963.67532157 Ry
     estimated scf accuracy    <       0.00000007 Ry
     smearing contrib. (-TS)   =      -0.02584847 Ry
     internal energy E=F+TS    =   -2963.64947310 Ry

     The total energy is F=E-TS. E is the sum of the following terms:
     one-electron contribution =  -24422.87405553 Ry
     hartree contribution      =   12298.82920282 Ry
     xc contribution           =    -489.18897236 Ry
     ewald contribution        =    9649.58395419 Ry
     electric field correction =       0.00039778 Ry

     convergence has been achieved in  67 iterations

     Forces acting on atoms (cartesian axes, Ry/au):

     atom    1 type  1   force =    -0.00006543    0.00007025    0.10403395
     atom    2 type  1   force =    -0.00005692    0.00005417    0.10406708
     atom    3 type  2   force =    -0.00018209   -0.00196007    0.10278206
     atom    4 type  2   force =    -0.00008328    0.00160809    0.11468589
     atom    5 type  2   force =    -0.00026118    0.00155643   -0.17902223
     atom    6 type  2   force =    -0.00014171   -0.00104950   -0.17939547
     atom    7 type  1   force =    -0.06953981    0.00066064   -0.02928571
     atom    8 type  1   force =    -0.06908072   -0.00122712   -0.02933042
     atom    9 type  1   force =     0.06921676    0.00119074   -0.02933993
     atom   10 type  1   force =     0.06884026   -0.00085755   -0.02941140
     atom   11 type  1   force =     0.00006052    0.00064067    0.04735803
     atom   12 type  1   force =     0.00063926    0.00090210    0.04972249
     atom   13 type  1   force =     0.00021886   -0.00563119   -0.03309694
     atom   14 type  1   force =     0.00028289    0.00397858   -0.02649924
     atom   15 type  2   force =    -0.00016037   -0.00004942   -0.00071002
     atom   16 type  2   force =    -0.00019973   -0.00006080   -0.00075522
     atom   17 type  2   force =     0.00009025   -0.00092663   -0.00007032
     atom   18 type  2   force =     0.00011473    0.00110710   -0.00009770
     atom   19 type  1   force =    -0.01879652   -0.00005872    0.00452085
     atom   20 type  1   force =    -0.01689509    0.00164481    0.00397492
     atom   21 type  1   force =     0.01837549   -0.00109628    0.00450372
     atom   22 type  1   force =     0.01748740    0.00197466    0.00383253
     atom   23 type  1   force =     0.00018093    0.00006044   -0.00073416
     atom   24 type  1   force =     0.00011416   -0.00022795   -0.00026057
     atom   25 type  1   force =    -0.00031747    0.00016122   -0.00070836
     atom   26 type  1   force =    -0.00019551   -0.00004757   -0.00087461
     atom   27 type  2   force =    -0.00021698    0.00043202    0.00032450
     atom   28 type  2   force =     0.00027026    0.00065156    0.00081944
     atom   29 type  2   force =     0.00028348   -0.00012209    0.00100621
     atom   30 type  2   force =    -0.00019601   -0.00026028    0.00007470
     atom   31 type  1   force =     0.00023695   -0.00009468   -0.00036103
     atom   32 type  1   force =     0.00002802    0.00013494   -0.00009720
     atom   33 type  1   force =    -0.00008292   -0.00019156   -0.00072774
     atom   34 type  1   force =     0.00005516    0.00013085   -0.00043046
     atom   35 type  1   force =     0.00010343   -0.00002425   -0.00120271
     atom   36 type  1   force =     0.00012478   -0.00056161    0.00028836
     atom   37 type  1   force =    -0.00020268   -0.00078722    0.00005860
     atom   38 type  1   force =     0.00018227    0.00008323   -0.00040863
     atom   39 type  2   force =    -0.00008189   -0.00067925    0.00088593
     atom   40 type  2   force =     0.00003307   -0.00055679    0.00011176
     atom   41 type  2   force =     0.00020814   -0.00030703    0.00024331
     atom   42 type  2   force =     0.00003406    0.00106766    0.00036765
     atom   43 type  1   force =    -0.00063653   -0.00051781    0.00020223
     atom   44 type  1   force =    -0.00040404   -0.00026405   -0.00011285
     atom   45 type  1   force =     0.00031144   -0.00039106    0.00002314
     atom   46 type  1   force =     0.00054620   -0.00021882    0.00011538
     atom   47 type  1   force =    -0.00030244   -0.00057354   -0.00000295
     atom   48 type  1   force =     0.00015265    0.00334832   -0.00143960
     atom   49 type  3   force =     0.00014488   -0.00208354   -0.00113569
     atom   50 type  4   force =    -0.00076612    0.00097812    0.00088362
     atom   51 type  1   force =    -0.00016272   -0.00005668   -0.00113083
     atom   52 type  4   force =     0.00093198   -0.00117042    0.00120550
     atom   53 type  4   force =    -0.00024010   -0.00038307    0.00055014

     Total force =     0.374386     Total SCF correction =     0.000682
  @ DRIVER MODE: Message from server: STATUS
  @ DRIVER MODE: Message from server: GETFORCE
  @ DRIVER MODE: Returning v,forces,stress,ensemble

     Writing output data file ./calc.save/
  @ DRIVER MODE: Message from server: EXIT
  @ DRIVE MODE: Exiting

     General routines

     Parallel routines

   This run was terminated on:  16:49: 4  15Sep2021

   JOB DONE.