     Program PWSCF v.6.7GPU starts on 24Sep2021 at  4:43: 4

     R & G space division:  proc/nbgrp/npool/nimage =       8
     Reading input from /storage/home/hcoda1/3/ntian30/research/carbon/CxH_vib/H2O_calc/ads_slab/CH3NHHHO_a/out_0044/pw.inp
Warning: card &CELL ignored
Warning: card   CELL_DYNAMICS='IPI', ignored
Warning: card / ignored

     Current dimensions of program PWSCF are:
     Max number of different atomic species (ntypx) = 10
     Max number of k-points (npk) =  40000
     Max angular momentum in pseudopotentials (lmaxx) =  3
     Presently no symmetry can be used with electric field

     Message from routine cell_base_init:
     DEPRECATED: use true lattice parameter, not A to a.u. conversion factor

     IMPORTANT: XC functional enforced from input :
     Exchange-correlation= BEEF-VDW
                           (   1   4  43  14   2   0   0)
     Any further DFT definition will be discarded
     Please, verify this is what you really want

  @ DRIVER MODE: Connecting to
 qe_1139763_2947311.sched-torque.pace.gatech.edui_4ca4ol_scratch
  using UNIX socket
  @ DRIVER MODE: Message from server: STATUS
  @ DRIVER MODE: Message from server: INIT
  @ DRIVER MODE: Receiving replica           0          -1
  @ DRIVER MODE: Receiving encoded integer          25
  @ DRIVER MODE:  SCF:  T  FORCE:  T  STRESS:  F  VC:  F  ENSEMBLE:  F
  @ DRIVER MODE:  SCF:  T  FORCE:  T  STRESS:  F  VC:  F  ENSEMBLE:  F

     Using Slab Decomposition

     bravais-lattice index     =            0
     lattice parameter (alat)  =       1.8897  a.u.
     unit-cell volume          =    6658.9804 (a.u.)^3
     number of atoms/cell      =           56
     number of atomic types    =            5
     number of electrons       =       399.00
     number of Kohn-Sham states=          209
     kinetic-energy cutoff     =      29.3995  Ry
     charge density cutoff     =     293.9946  Ry
     scf convergence threshold =      7.3E-08
     mixing beta               =       0.0500
     number of iterations used =            8  plain     mixing
     Exchange-correlation= BEEF-VDW
                           (   1   4  43  14   2   0   0)

     celldm(1)=   1.889726  celldm(2)=   0.000000  celldm(3)=   0.000000
     celldm(4)=   0.000000  celldm(5)=   0.000000  celldm(6)=   0.000000

     crystal axes: (cart. coord. in units of alat)
               a(1) = (   6.579727   0.000000   0.000000 )
               a(2) = (  -0.000775   5.961596   0.000000 )
               a(3) = (   0.000000   0.000000  25.155947 )

     reciprocal axes: (cart. coord. in units 2 pi/alat)
               b(1) = (  0.151982  0.000020  0.000000 )
               b(2) = (  0.000000  0.167740  0.000000 )
               b(3) = (  0.000000  0.000000  0.039752 )

     PseudoPot. # 1 for Ti read from file:
     /storage/coda1/p-amedford6/0/shared/rich_project_chbe-medford/medford-share/data/pseudos_module/espresso/nninc/pbe/van/Ti.UPF
     MD5 check sum: 8e4df49b7f0d34bbd5052bf3f5ea0213
     Pseudo is Ultrasoft, Zval = 12.0
     Generated by new atomic code, or converted to UPF format
     Using radial grid of  851 points,  6 beta functions with:
                l(1) =   0
                l(2) =   0
                l(3) =   1
                l(4) =   1
                l(5) =   2
                l(6) =   2
     Q(r) pseudized with  8 coefficients,  rinner =    1.000   1.000   1.000
                                                       1.000   1.000

     PseudoPot. # 2 for O  read from file:
     /storage/coda1/p-amedford6/0/shared/rich_project_chbe-medford/medford-share/data/pseudos_module/espresso/nninc/pbe/van/O.UPF
     MD5 check sum: 78c19812648e8988a0fe644b0f25305e
     Pseudo is Ultrasoft, Zval =  6.0
     Generated by new atomic code, or converted to UPF format
     Using radial grid of  737 points,  4 beta functions with:
                l(1) =   0
                l(2) =   0
                l(3) =   1
                l(4) =   1
     Q(r) pseudized with  8 coefficients,  rinner =    0.800   0.800   0.800

     PseudoPot. # 3 for N  read from file:
     /storage/coda1/p-amedford6/0/shared/rich_project_chbe-medford/medford-share/data/pseudos_module/espresso/nninc/pbe/van/N.UPF
     MD5 check sum: 90d10febe142ad51ac9d5be1deb811c4
     Pseudo is Ultrasoft, Zval =  5.0
     Generated by new atomic code, or converted to UPF format
     Using radial grid of  729 points,  4 beta functions with:
                l(1) =   0
                l(2) =   0
                l(3) =   1
                l(4) =   1
     Q(r) pseudized with  8 coefficients,  rinner =    0.800   0.800   0.800

     PseudoPot. # 4 for C  read from file:
     /storage/coda1/p-amedford6/0/shared/rich_project_chbe-medford/medford-share/data/pseudos_module/espresso/nninc/pbe/van/C.UPF
     MD5 check sum: 1a69bf6b8db32088f5b2163dbdb77a27
     Pseudo is Ultrasoft, Zval =  4.0
     Generated by new atomic code, or converted to UPF format
     Using radial grid of  721 points,  4 beta functions with:
                l(1) =   0
                l(2) =   0
                l(3) =   1
                l(4) =   1
     Q(r) pseudized with  8 coefficients,  rinner =    0.800   0.800   0.800

     PseudoPot. # 5 for H  read from file:
     /storage/coda1/p-amedford6/0/shared/rich_project_chbe-medford/medford-share/data/pseudos_module/espresso/nninc/pbe/van/H.UPF
     MD5 check sum: b5ee9d7bfd3a09ee7748110bda690ff7
     Pseudo is Ultrasoft, Zval =  1.0
     Generated by new atomic code, or converted to UPF format
     Using radial grid of  615 points,  1 beta functions with:
                l(1) =   0
     Q(r) pseudized with  8 coefficients,  rinner =    0.800

     atomic species   valence    mass     pseudopotential
        Ti1           12.00    47.86700     Ti( 1.00)
        O1             6.00    15.99900     O ( 1.00)
        N1             5.00    14.00700     N ( 1.00)
        C1             4.00    12.01100     C ( 1.00)
        H1             1.00     1.00800     H ( 1.00)

     No symmetry found

   Cartesian axes

     site n.     atom                  positions (alat units)
         1           Ti1 tau(   1) = (   0.0004258   2.9801865   6.0000000  )
         2           Ti1 tau(   2) = (   3.2906075   1.4906267   6.0002472  )
         3           O1  tau(   3) = (   0.0006271   0.0005054   7.9858123  )
         4           O1  tau(   4) = (   3.2906025   0.0005020   7.3038282  )
         5           O1  tau(   5) = (   4.5942328   1.4918067   9.2879030  )
         6           O1  tau(   6) = (   1.9868534   1.4903216   9.2879459  )
         7           Ti1 tau(   7) = (   3.2907910   2.8959150   9.1758416  )
         8           Ti1 tau(   8) = (   0.0015273   1.4827037   9.2680791  )
         9           O1  tau(   9) = (   3.2949530   5.9481847  11.3666340  )
        10           O1  tau(  10) = (   0.0116148   5.9584955  10.6183126  )
        11           O1  tau(  11) = (   1.2732546   1.4916747  12.6876809  )
        12           O1  tau(  12) = (   5.3119445   1.4892451  12.6851550  )
        13           Ti1 tau(  13) = (   6.5688325   2.9465269  12.5174317  )
        14           Ti1 tau(  14) = (   3.2996026   1.2975375  12.7241829  )
        15           O1  tau(  15) = (   0.0172205   5.8793003  14.6619373  )
        16           O1  tau(  16) = (   3.2917661   0.0702926  14.0149596  )
        17           O1  tau(  17) = (   4.5643074   1.5920826  16.1346482  )
        18           O1  tau(  18) = (   2.0131957   1.5841813  16.0575481  )
        19           Ti1 tau(  19) = (   3.2662748   3.0407108  15.6947786  )
        20           Ti1 tau(  20) = (   0.0618610   1.3206105  15.7998127  )
        21           O1  tau(  21) = (   3.2904802   0.0005063   4.7018136  )
        22           O1  tau(  22) = (   0.0233933   0.1570098  17.1842078  )
        23           O1  tau(  23) = (   1.3043587   1.4918075   6.0039043  )
        24           O1  tau(  24) = (   5.2767064   1.4903225   6.0039473  )
        25           Ti1 tau(  25) = (   0.0000382   5.9609847   6.0000000  )
        26           Ti1 tau(  26) = (   3.2902200   4.4714249   6.0002472  )
        27           O1  tau(  27) = (   0.0002396   2.9813036   7.9858123  )
        28           O1  tau(  28) = (   3.2902150   2.9813002   7.3038282  )
        29           O1  tau(  29) = (   4.5938453   4.4726049   9.2879030  )
        30           O1  tau(  30) = (   1.9864658   4.4711199   9.2879459  )
        31           Ti1 tau(  31) = (   3.2891106   5.8743827   9.1763621  )
        32           Ti1 tau(  32) = (   0.0006254   4.4649316   9.2693709  )
        33           O1  tau(  33) = (   3.2948289   2.9949798  11.3176834  )
        34           O1  tau(  34) = (   0.0092240   2.9805883  10.6323155  )
        35           O1  tau(  35) = (   1.2828652   4.4571597  12.6432593  )
        36           O1  tau(  36) = (   5.3079144   4.4605214  12.6419564  )
        37           Ti1 tau(  37) = (   0.0266940   5.9154698  12.5044250  )
        38           Ti1 tau(  38) = (   3.3008436   4.3760658  12.4353554  )
        39           O1  tau(  39) = (   6.5507285   3.0461080  14.9005035  )
        40           O1  tau(  40) = (   3.2938476   3.0131494  13.9233183  )
        41           O1  tau(  41) = (   4.5350990   4.4864192  16.1518712  )
        42           O1  tau(  42) = (   1.9883536   4.4285065  16.1690201  )
        43           Ti1 tau(  43) = (   3.3916644   0.0784854  16.2809578  )
        44           Ti1 tau(  44) = (   0.0590441   4.5159846  16.0209683  )
        45           O1  tau(  45) = (   3.2900926   2.9813045   4.7018136  )
        46           O1  tau(  46) = (   1.3039711   4.4726057   6.0039043  )
        47           O1  tau(  47) = (   5.2763189   4.4711207   6.0039473  )
        48           N1  tau(  48) = (   6.2706434   3.3837210  18.0754458  )
        49           C1  tau(  49) = (   0.7642246   3.1223808  19.0622891  )
        50           H1  tau(  50) = (   1.3158356   4.0410886  19.2409436  )
        51           H1  tau(  51) = (   0.3597117   2.7583523  20.0089400  )
        52           H1  tau(  52) = (   1.4517744   2.3810259  18.6668870  )
        53           H1  tau(  53) = (   5.6745199   4.1349376  18.4206214  )
        54           H1  tau(  54) = (   5.6587021   2.5696541  18.0151127  )
        55           O1  tau(  55) = (   3.2072372   0.0910451  18.1323504  )
        56           H1  tau(  56) = (   2.2767176   0.1080423  18.4377142  )

     number of k points=    10  Fermi-Dirac smearing, width (Ry)=  0.0073
                       cart. coord. in units 2pi/alat
        k(    1) = (   0.0000000   0.0000000   0.0000000), wk =   0.1250000
        k(    2) = (   0.0000000   0.0419351   0.0000000), wk =   0.2500000
        k(    3) = (   0.0000000  -0.0838702   0.0000000), wk =   0.1250000
        k(    4) = (   0.0379955   0.0000049   0.0000000), wk =   0.2500000
        k(    5) = (   0.0379955   0.0419400   0.0000000), wk =   0.2500000
        k(    6) = (   0.0379955  -0.0838652   0.0000000), wk =   0.2500000
        k(    7) = (   0.0379955  -0.0419301   0.0000000), wk =   0.2500000
        k(    8) = (  -0.0759910  -0.0000099   0.0000000), wk =   0.1250000
        k(    9) = (  -0.0759910   0.0419252   0.0000000), wk =   0.2500000
        k(   10) = (  -0.0759910  -0.0838800   0.0000000), wk =   0.1250000

     Initial potential from superposition of free atoms

     starting charge  382.99914, renormalised to  399.00000

     negative rho (up, down):  1.588E-02 0.000E+00

     %%%%%%%%%%%%%%%%%%%%%%%%%%%%%%%%%%%%%%%%%%%%%%%%%%%%%%%%%%%%%%%%%%%%%%%%
     %                                                                      %
     % You are using vdW-DF, which was implemented by the Thonhauser group. %
     % Please cite the following two papers that made this development      %
     % possible and the two reviews that describe the various versions:     %
     %                                                                      %
     %   T. Thonhauser et al., PRL 115, 136402 (2015).                      %
     %   T. Thonhauser et al., PRB 76, 125112 (2007).                       %
     %   K. Berland et al., Rep. Prog. Phys. 78, 066501 (2015).             %
     %   D.C. Langreth et al., J. Phys.: Condens. Matter 21, 084203 (2009). %
     %                                                                      %
     %                                                                      %
     % If you are calculating the stress with vdW-DF, please also cite:     %
     %                                                                      %
     %   R. Sabatini et al., J. Phys.: Condens. Matter 24, 424209 (2012).   %
     %                                                                      %
     %%%%%%%%%%%%%%%%%%%%%%%%%%%%%%%%%%%%%%%%%%%%%%%%%%%%%%%%%%%%%%%%%%%%%%%%

     Adding external electric field

     Computed dipole along edir(3) :
        Dipole              -10.6962 Ry au,        -27.1870 Debye
        Dipole field         -0.0202 Ry au,

        Potential amp.        1.8711 Ry
        Total length         46.3494 bohr

     Starting wfcs are  302 atomic wfcs
  @ DRIVER MODE: Message from server: STATUS
  @ DRIVER MODE: Message from server: POSDATA
  @ DRIVER MODE: Reading and sharing cell
  @ DRIVER MODE: Reading and sharing positions
  @ DRIVER MODE: Received positions

     Self-consistent Calculation

     iteration #  1     ecut=    29.40 Ry     beta= 0.05
     Davidson diagonalization with overlap
     c_bands:  3 eigenvalues not converged
     c_bands:  2 eigenvalues not converged
     c_bands:  2 eigenvalues not converged
     c_bands:  5 eigenvalues not converged
     c_bands:  2 eigenvalues not converged
     c_bands:  5 eigenvalues not converged
     c_bands:  4 eigenvalues not converged
     c_bands:  3 eigenvalues not converged
     ethr =  1.00E-05,  avg # of iterations = 21.6

[...]

     total energy              =   -2438.25983619 Ry
     estimated scf accuracy    <    5770.54053230 Ry

     iteration #  2     ecut=    29.40 Ry     beta= 0.05
     Davidson diagonalization with overlap
     ethr =  1.00E-02,  avg # of iterations = 23.7

[...]

     iteration # 55     ecut=    29.40 Ry     beta= 0.05
     Davidson diagonalization with overlap
     c_bands:  1 eigenvalues not converged
     c_bands:  1 eigenvalues not converged
     c_bands:  1 eigenvalues not converged
     c_bands:  3 eigenvalues not converged
     c_bands:  1 eigenvalues not converged
     c_bands:  2 eigenvalues not converged
     ethr =  8.56E-07,  avg # of iterations = 19.1

[...]

     total energy              =   -2955.26276811 Ry
     estimated scf accuracy    <       0.00000011 Ry

     iteration # 78     ecut=    29.40 Ry     beta= 0.05
     Davidson diagonalization with overlap
     ethr =  2.80E-11,  avg # of iterations =  9.1

     negative rho (up, down):  1.647E-02 0.000E+00

     Adding external electric field

     Computed dipole along edir(3) :
        Dipole                0.9754 Ry au,          2.4793 Debye
        Dipole field          0.0018 Ry au,

        Potential amp.       -0.1706 Ry
        Total length         46.3494 bohr

     End of self-consistent calculation

          k = 0.0000 0.0000 0.0000 ( 18029 PWs)   bands (ev):

   -55.6802 -55.6359 -55.6018 -55.5119 -55.5011 -55.4659 -55.4650 -55.4628
   -55.4309 -55.4174 -55.3666 -55.2712 -55.2267 -55.2107 -54.6118 -54.5777
   -32.1214 -32.0177 -32.0115 -31.9873 -31.9678 -31.9541 -31.9266 -31.9006
   -31.8928 -31.8819 -31.8817 -31.7885 -31.7885 -31.7738 -31.7483 -31.7449
   -31.7433 -31.7419 -31.7415 -31.7048 -31.6934 -31.6641 -31.6608 -31.6551
   -31.6498 -31.6432 -31.6352 -31.6050 -31.6036 -31.5974 -31.5921 -31.5886
   -31.5778 -31.5626 -31.5477 -31.5228 -31.4628 -31.4536 -31.4457 -31.4224
   -31.4174 -31.4127 -31.0178 -30.9314 -30.9090 -30.8353 -30.7490 -30.6371
   -16.4679 -16.2919 -16.1460 -15.9777 -15.8385 -15.8098 -15.7684 -15.5981
   -15.5053 -15.4416 -15.2415 -15.2202 -15.1746 -15.1642 -15.1580 -15.1350
   -15.1253 -15.0804 -15.0618 -15.0584 -15.0486 -15.0308 -14.9945 -14.9521
   -14.9094 -14.8876 -14.7756 -14.7191 -14.6785 -14.4661 -14.4004 -13.1101
   -12.9937  -9.9895  -6.0188  -4.5889  -4.0393  -3.7631  -3.6438  -3.5460
    -3.5346  -3.4153  -3.4055  -3.1646  -3.0414  -2.9829  -2.9038  -2.7817
    -2.7502  -2.6784  -2.6387  -2.5872  -2.5678  -2.5317  -2.4915  -2.4478
    -2.4224  -2.3943  -2.3614  -2.3052  -2.2937  -2.1954  -2.1809  -2.1580
    -2.0526  -2.0119  -1.9713  -1.9534  -1.9485  -1.9293  -1.8907  -1.8843
    -1.8643  -1.7864  -1.7170  -1.6708  -1.6366  -1.6088  -1.3311  -1.2456
    -1.2021  -1.1871  -1.0834  -1.0597  -1.0315  -1.0184  -0.9824  -0.9646
    -0.8530  -0.8368  -0.7674  -0.7184  -0.7045  -0.6661  -0.5477  -0.5112
    -0.4617  -0.4196  -0.3700  -0.3518  -0.3473  -0.2517  -0.2256  -0.1911
    -0.0827  -0.0656  -0.0032   0.0820   0.0918   0.1425   0.1675   0.2265
     0.2313   0.2860   0.3158   0.3379   0.3913   0.4238   0.4599   0.4933
     0.5100   0.6127   0.6876   0.7007   0.7974   0.8706   0.9246   1.0297
     1.0971   1.3614   1.4149   1.4387   1.6069   1.9822   2.0276   3.4458
     3.5949   3.6103   3.6854   3.6978   3.7749   3.9353   3.9597   4.0951
     4.1338

[...]

          k = 0.0380-0.0419 0.0000 ( 17876 PWs)   bands (ev):

[...]

          k =-0.0760-0.0000 0.0000 ( 17886 PWs)   bands (ev):

[...]

          k =-0.0760-0.0839 0.0000 ( 17948 PWs)   bands (ev):

   -55.6792 -55.6190 -55.6186 -55.5107 -55.4899 -55.4740 -55.4667 -55.4486
   -55.4469 -55.4110 -55.3731 -55.2665 -55.2277 -55.2153 -54.5952 -54.5942
   -31.9506 -31.9429 -31.9368 -31.9365 -31.9292 -31.9123 -31.9118 -31.8953
   -31.8511 -31.8101 -31.7921 -31.7793 -31.7757 -31.7737 -31.7520 -31.7426
   -31.7389 -31.7383 -31.7279 -31.7242 -31.7169 -31.7156 -31.7006 -31.6767
   -31.6706 -31.6668 -31.6571 -31.6466 -31.6319 -31.6302 -31.6282 -31.6229
   -31.6214 -31.5958 -31.5951 -31.5536 -31.5292 -31.4954 -31.4671 -31.4617
   -31.4481 -31.4167 -30.9221 -30.9213 -30.8312 -30.8300 -30.7926 -30.7918
   -16.4307 -15.9390 -15.8574 -15.7437 -15.6207 -15.6075 -15.4961 -15.4132
   -15.4100 -15.3786 -15.3487 -15.3211 -15.3115 -15.2938 -15.2484 -15.2038
   -15.1686 -15.1409 -15.1388 -15.0931 -15.0859 -15.0744 -15.0620 -15.0397
   -15.0056 -14.9562 -14.9418 -14.9034 -14.7647 -14.6905 -14.5882 -13.0958
   -13.0953  -9.9915  -5.9987  -4.5864  -3.9999  -3.7240  -3.0556  -2.9589
    -2.8472  -2.7235  -2.7156  -2.7004  -2.6417  -2.6108  -2.5847  -2.5434
    -2.4860  -2.4676  -2.4460  -2.4293  -2.4075  -2.3897  -2.3808  -2.3758
    -2.3392  -2.3215  -2.3131  -2.2720  -2.2644  -2.2485  -2.2276  -2.2105
    -2.1799  -2.1756  -2.1458  -2.0949  -2.0455  -1.9715  -1.8783  -1.7971
    -1.7859  -1.7675  -1.7180  -1.7114  -1.6659  -1.6585  -1.6335  -1.5479
    -1.4360  -1.3861  -1.2745  -1.2547  -1.2280  -1.1889  -1.1355  -1.1213
    -1.0758  -1.0452  -0.9847  -0.8847  -0.8545  -0.7992  -0.6858  -0.6483
    -0.6096  -0.5898  -0.5777  -0.5531  -0.5359  -0.4962  -0.4679  -0.4204
    -0.3803  -0.3464  -0.3198  -0.2942  -0.2500  -0.1453  -0.0522  -0.0138
     0.0880   0.1340   0.1752   0.2080   0.2681   0.4045   0.4317   0.5275
     0.5421   0.5712   0.6728   0.6829   0.7833   0.8075   0.8465   0.8874
     0.9122   0.9330   0.9529   1.7766   1.7851   1.8480   1.8481   3.7389
     3.9312   3.9465   3.9626   4.0072   4.0145   4.0417   4.0472   4.1138
     4.1252

     the Fermi energy is     3.4847 ev

!    total energy              =   -2955.26277712 Ry
     estimated scf accuracy    <       0.00000006 Ry
     smearing contrib. (-TS)   =      -0.01952853 Ry
     internal energy E=F+TS    =   -2955.24324859 Ry

     The total energy is F=E-TS. E is the sum of the following terms:
     one-electron contribution =  -23741.49306754 Ry
     hartree contribution      =   11962.87051338 Ry
     xc contribution           =    -489.72922197 Ry
     ewald contribution        =    9313.10673204 Ry
     electric field correction =       0.00179550 Ry

     convergence has been achieved in  78 iterations

     Forces acting on atoms (cartesian axes, Ry/au):

     atom    1 type  1   force =     0.00009505   -0.00029936    0.09412631
     atom    2 type  1   force =    -0.00003882    0.00043107   -0.17543755
     atom    3 type  2   force =     0.00003879   -0.00033424   -0.02112457
     atom    4 type  2   force =     0.00002192   -0.00197662    0.05461454
     atom    5 type  2   force =    -0.00673991   -0.00245339    0.00301879
     atom    6 type  2   force =     0.00834190   -0.00187726    0.00243883
     atom    7 type  1   force =    -0.00017916   -0.00404774    0.00900858
     atom    8 type  1   force =     0.00031739    0.00082713    0.00312648
     atom    9 type  2   force =    -0.00058245    0.00057156   -0.00020997
     atom   10 type  2   force =    -0.00139283    0.00173206   -0.00925928
     atom   11 type  2   force =     0.00003124   -0.00015327    0.00039655
     atom   12 type  2   force =    -0.00004492   -0.00010676   -0.00029245
     atom   13 type  1   force =    -0.00049971   -0.00025804    0.00004086
     atom   14 type  1   force =     0.00001993   -0.00041989    0.00000966
     atom   15 type  2   force =    -0.00030066   -0.00002271   -0.00012416
     atom   16 type  2   force =     0.00033338   -0.00051627   -0.00066995
     atom   17 type  2   force =     0.00057129    0.00003067   -0.00105260
     atom   18 type  2   force =    -0.00045998   -0.00001452    0.00016527
     atom   19 type  1   force =     0.00075298   -0.00060923    0.00065206
     atom   20 type  1   force =     0.00032900    0.00034294    0.00034220
     atom   21 type  2   force =     0.00007517    0.00004613    0.10323862
     atom   22 type  2   force =    -0.00030975    0.00036429    0.00035075
     atom   23 type  2   force =    -0.07192289   -0.00019119   -0.02721956
     atom   24 type  2   force =     0.07184989    0.00024996   -0.02726198
     atom   25 type  1   force =     0.00002479   -0.00024100    0.09380092
     atom   26 type  1   force =    -0.00006180   -0.00132837   -0.17561757
     atom   27 type  2   force =     0.00015415   -0.00011571   -0.01988702
     atom   28 type  2   force =     0.00006853   -0.00032226    0.04988894
     atom   29 type  2   force =    -0.00613210    0.00232178    0.00252428
     atom   30 type  2   force =     0.00762162    0.00268653    0.00197334
     atom   31 type  1   force =     0.00002140    0.00839676   -0.00272006
     atom   32 type  1   force =     0.00011360   -0.00235335    0.00260478
     atom   33 type  2   force =     0.00004883   -0.00000513   -0.00007389
     atom   34 type  2   force =    -0.00211737   -0.00248905   -0.01003268
     atom   35 type  2   force =    -0.00014665   -0.00002433    0.00054755
     atom   36 type  2   force =    -0.00006947    0.00006566   -0.00006507
     atom   37 type  1   force =     0.00016112   -0.00008335   -0.00025493
     atom   38 type  1   force =     0.00006049   -0.00011626    0.00025943
     atom   39 type  2   force =    -0.00008929    0.00009071   -0.00026532
     atom   40 type  2   force =     0.00015104   -0.00025030   -0.00005588
     atom   41 type  2   force =    -0.00025870   -0.00092827    0.00037890
     atom   42 type  2   force =     0.00054711    0.00024301    0.00009332
     atom   43 type  1   force =    -0.00021155   -0.00064612   -0.00054609
     atom   44 type  1   force =     0.00020958    0.00042168   -0.00030683
     atom   45 type  2   force =     0.00006778   -0.00007180    0.10302538
     atom   46 type  2   force =    -0.07194007   -0.00004189   -0.02725156
     atom   47 type  2   force =     0.07190238    0.00039823   -0.02730193
     atom   48 type  3   force =    -0.00006495    0.00032790    0.00030736
     atom   49 type  4   force =     0.00055849    0.00037239    0.00046920
     atom   50 type  5   force =     0.00051386    0.00087462   -0.00015987
     atom   51 type  5   force =    -0.00006966    0.00071189    0.00014145
     atom   52 type  5   force =     0.00032553   -0.00019957   -0.00068915
     atom   53 type  5   force =    -0.00037375    0.00056359   -0.00070500
     atom   54 type  5   force =     0.00032178   -0.00001932    0.00000138
     atom   55 type  2   force =    -0.01795104    0.00066590    0.00676165
     atom   56 type  5   force =     0.01630745   -0.00021990   -0.00572245

     Total force =     0.363129     Total SCF correction =     0.000557
  @ DRIVER MODE: Message from server: STATUS
  @ DRIVER MODE: Message from server: GETFORCE
  @ DRIVER MODE: Returning v,forces,stress,ensemble

     Writing output data file ./calc.save/
  @ DRIVER MODE: Message from server: EXIT
  @ DRIVE MODE: Exiting

     General routines

     Parallel routines

   This run was terminated on:   5: 8: 2  24Sep2021

   JOB DONE.