     Program PWSCF v.6.7GPU starts on 16Sep2021 at  4:49:13

     R & G space division:  proc/nbgrp/npool/nimage =      10
     Reading input from /storage/home/hcoda1/3/ntian30/research/carbon/CxH_vib/H2O_calc/ads_slab/CHNHHH2O_a/out_0041/pw.inp
Warning: card &CELL ignored
Warning: card   CELL_DYNAMICS='IPI', ignored
Warning: card / ignored

     Current dimensions of program PWSCF are:
     Max number of different atomic species (ntypx) = 10
     Max number of k-points (npk) =  40000
     Max angular momentum in pseudopotentials (lmaxx) =  3
     Presently no symmetry can be used with electric field

     Message from routine cell_base_init:
     DEPRECATED: use true lattice parameter, not A to a.u. conversion factor

     IMPORTANT: XC functional enforced from input :
     Exchange-correlation= BEEF-VDW
                           (   1   4  43  14   2   0   0)
     Any further DFT definition will be discarded
     Please, verify this is what you really want

  @ DRIVER MODE: Connecting to
 qe_1139763_2852629.sched-torque.pace.gatech.eduilks53eo_scratch
  using UNIX socket
  @ DRIVER MODE: Message from server: STATUS
  @ DRIVER MODE: Message from server: INIT
  @ DRIVER MODE: Receiving replica           0          -1
  @ DRIVER MODE: Receiving encoded integer          25
  @ DRIVER MODE:  SCF:  T  FORCE:  T  STRESS:  F  VC:  F  ENSEMBLE:  F
  @ DRIVER MODE:  SCF:  T  FORCE:  T  STRESS:  F  VC:  F  ENSEMBLE:  F

     Using Slab Decomposition

     bravais-lattice index     =            0
     lattice parameter (alat)  =       1.8897  a.u.
     unit-cell volume          =    6658.9804 (a.u.)^3
     number of atoms/cell      =           55
     number of atomic types    =            5
     number of electrons       =       398.00
     number of Kohn-Sham states=          209
     kinetic-energy cutoff     =      29.3995  Ry
     charge density cutoff     =     293.9946  Ry
     scf convergence threshold =      7.3E-08
     mixing beta               =       0.0500
     number of iterations used =            8  plain     mixing
     Exchange-correlation= BEEF-VDW
                           (   1   4  43  14   2   0   0)

     celldm(1)=   1.889726  celldm(2)=   0.000000  celldm(3)=   0.000000
     celldm(4)=   0.000000  celldm(5)=   0.000000  celldm(6)=   0.000000

     crystal axes: (cart. coord. in units of alat)
               a(1) = (   6.579727   0.000000   0.000000 )
               a(2) = (  -0.000775   5.961596   0.000000 )
               a(3) = (   0.000000   0.000000  25.155947 )

     reciprocal axes: (cart. coord. in units 2 pi/alat)
               b(1) = (  0.151982  0.000020  0.000000 )
               b(2) = (  0.000000  0.167740  0.000000 )
               b(3) = (  0.000000  0.000000  0.039752 )

     PseudoPot. # 1 for Ti read from file:
     /storage/coda1/p-amedford6/0/shared/rich_project_chbe-medford/medford-share/data/pseudos_module/espresso/nninc/pbe/van/Ti.UPF
     MD5 check sum: 8e4df49b7f0d34bbd5052bf3f5ea0213
     Pseudo is Ultrasoft, Zval = 12.0
     Generated by new atomic code, or converted to UPF format
     Using radial grid of  851 points,  6 beta functions with:
                l(1) =   0
                l(2) =   0
                l(3) =   1
                l(4) =   1
                l(5) =   2
                l(6) =   2
     Q(r) pseudized with  8 coefficients,  rinner =    1.000   1.000   1.000
                                                       1.000   1.000

     PseudoPot. # 2 for O  read from file:
     /storage/coda1/p-amedford6/0/shared/rich_project_chbe-medford/medford-share/data/pseudos_module/espresso/nninc/pbe/van/O.UPF
     MD5 check sum: 78c19812648e8988a0fe644b0f25305e
     Pseudo is Ultrasoft, Zval =  6.0
     Generated by new atomic code, or converted to UPF format
     Using radial grid of  737 points,  4 beta functions with:
                l(1) =   0
                l(2) =   0
                l(3) =   1
                l(4) =   1
     Q(r) pseudized with  8 coefficients,  rinner =    0.800   0.800   0.800

     PseudoPot. # 3 for N  read from file:
     /storage/coda1/p-amedford6/0/shared/rich_project_chbe-medford/medford-share/data/pseudos_module/espresso/nninc/pbe/van/N.UPF
     MD5 check sum: 90d10febe142ad51ac9d5be1deb811c4
     Pseudo is Ultrasoft, Zval =  5.0
     Generated by new atomic code, or converted to UPF format
     Using radial grid of  729 points,  4 beta functions with:
                l(1) =   0
                l(2) =   0
                l(3) =   1
                l(4) =   1
     Q(r) pseudized with  8 coefficients,  rinner =    0.800   0.800   0.800

     PseudoPot. # 4 for C  read from file:
     /storage/coda1/p-amedford6/0/shared/rich_project_chbe-medford/medford-share/data/pseudos_module/espresso/nninc/pbe/van/C.UPF
     MD5 check sum: 1a69bf6b8db32088f5b2163dbdb77a27
     Pseudo is Ultrasoft, Zval =  4.0
     Generated by new atomic code, or converted to UPF format
     Using radial grid of  721 points,  4 beta functions with:
                l(1) =   0
                l(2) =   0
                l(3) =   1
                l(4) =   1
     Q(r) pseudized with  8 coefficients,  rinner =    0.800   0.800   0.800

     PseudoPot. # 5 for H  read from file:
     /storage/coda1/p-amedford6/0/shared/rich_project_chbe-medford/medford-share/data/pseudos_module/espresso/nninc/pbe/van/H.UPF
     MD5 check sum: b5ee9d7bfd3a09ee7748110bda690ff7
     Pseudo is Ultrasoft, Zval =  1.0
     Generated by new atomic code, or converted to UPF format
     Using radial grid of  615 points,  1 beta functions with:
                l(1) =   0
     Q(r) pseudized with  8 coefficients,  rinner =    0.800

     atomic species   valence    mass     pseudopotential
        Ti1           12.00    47.86700     Ti( 1.00)
        O1             6.00    15.99900     O ( 1.00)
        N1             5.00    14.00700     N ( 1.00)
        C1             4.00    12.01100     C ( 1.00)
        H1             1.00     1.00800     H ( 1.00)

     No symmetry found

   Cartesian axes

     site n.     atom                  positions (alat units)
         1           Ti1 tau(   1) = (   0.0004258   2.9801865   6.0000000  )
         2           Ti1 tau(   2) = (   3.2906075   1.4906267   6.0002472  )
         3           O1  tau(   3) = (   0.0006271   0.0005054   7.9858123  )
         4           O1  tau(   4) = (   3.2906025   0.0005020   7.3038282  )
         5           O1  tau(   5) = (   4.5942328   1.4918067   9.2879030  )
         6           O1  tau(   6) = (   1.9868534   1.4903216   9.2879459  )
         7           Ti1 tau(   7) = (   3.2907910   2.8959150   9.1758416  )
         8           Ti1 tau(   8) = (   0.0015273   1.4827037   9.2680791  )
         9           O1  tau(   9) = (   3.2943807   5.9438157  11.3430345  )
        10           O1  tau(  10) = (   0.0116148   5.9584955  10.6183126  )
        11           O1  tau(  11) = (   1.2953376   1.4759649  12.6292060  )
        12           O1  tau(  12) = (   5.2846356   1.4785235  12.6176154  )
        13           Ti1 tau(  13) = (   0.0556596   2.9564334  12.6140783  )
        14           Ti1 tau(  14) = (   3.3658323   1.4657407  12.4949608  )
        15           O1  tau(  15) = (   6.5664030   0.0209144  14.6477191  )
        16           O1  tau(  16) = (   3.3113265   5.9542485  13.9698242  )
        17           O1  tau(  17) = (   4.5454210   1.5146250  16.1225105  )
        18           O1  tau(  18) = (   2.0305911   1.5113983  16.0894517  )
        19           Ti1 tau(  19) = (   3.2587399   2.9544808  15.6767922  )
        20           Ti1 tau(  20) = (   6.5654577   1.5458692  15.9193722  )
        21           O1  tau(  21) = (   3.2904802   0.0005063   4.7018136  )
        22           O1  tau(  22) = (   0.0418464   5.8849155  17.2380659  )
        23           O1  tau(  23) = (   1.3043587   1.4918075   6.0039043  )
        24           O1  tau(  24) = (   5.2767064   1.4903225   6.0039473  )
        25           Ti1 tau(  25) = (   0.0000382   5.9609847   6.0000000  )
        26           Ti1 tau(  26) = (   3.2902200   4.4714249   6.0002472  )
        27           O1  tau(  27) = (   0.0002396   2.9813036   7.9858123  )
        28           O1  tau(  28) = (   3.2902150   2.9813002   7.3038282  )
        29           O1  tau(  29) = (   4.5938453   4.4726049   9.2879030  )
        30           O1  tau(  30) = (   1.9864658   4.4711199   9.2879459  )
        31           Ti1 tau(  31) = (   3.2891106   5.8743827   9.1763621  )
        32           Ti1 tau(  32) = (   0.0006254   4.4649316   9.2693709  )
        33           O1  tau(  33) = (   3.2978316   2.9705197  11.3397625  )
        34           O1  tau(  34) = (   0.0092240   2.9805883  10.6323155  )
        35           O1  tau(  35) = (   1.2936985   4.4655287  12.6460247  )
        36           O1  tau(  36) = (   5.2856521   4.4646452  12.6308247  )
        37           Ti1 tau(  37) = (   0.0515089   5.9379728  12.5308627  )
        38           Ti1 tau(  38) = (   3.3654372   4.4547101  12.4935900  )
        39           O1  tau(  39) = (   6.5748852   2.9443291  14.6951209  )
        40           O1  tau(  40) = (   3.2957406   2.9584624  13.8938737  )
        41           O1  tau(  41) = (   4.5486474   4.4154460  16.0876977  )
        42           O1  tau(  42) = (   2.0388008   4.4257786  16.0448984  )
        43           Ti1 tau(  43) = (   3.3137362   5.9209902  15.7922403  )
        44           Ti1 tau(  44) = (   0.0032603   4.6697478  15.9558853  )
        45           O1  tau(  45) = (   3.2900926   2.9813045   4.7018136  )
        46           O1  tau(  46) = (   1.3039711   4.4726057   6.0039043  )
        47           O1  tau(  47) = (   5.2763189   4.4711207   6.0039473  )
        48           N1  tau(  48) = (   5.6270067   3.1633449  18.6203826  )
        49           C1  tau(  49) = (   0.0237924   2.7940403  17.7774691  )
        50           H1  tau(  50) = (   0.9584034   2.6460975  18.3247808  )
        51           H1  tau(  51) = (   4.7713523   3.5531088  18.2436842  )
        52           H1  tau(  52) = (   5.8168525   3.4166350  19.5804594  )
        53           O1  tau(  53) = (   3.2115967   5.9081562  18.2546127  )
        54           H1  tau(  54) = (   3.8106726   0.6855978  18.4419937  )
        55           H1  tau(  55) = (   2.3006756   0.2828797  18.3268221  )

     number of k points=    10  Fermi-Dirac smearing, width (Ry)=  0.0073
                       cart. coord. in units 2pi/alat
        k(    1) = (   0.0000000   0.0000000   0.0000000), wk =   0.1250000
        k(    2) = (   0.0000000   0.0419351   0.0000000), wk =   0.2500000
        k(    3) = (   0.0000000  -0.0838702   0.0000000), wk =   0.1250000
        k(    4) = (   0.0379955   0.0000049   0.0000000), wk =   0.2500000
        k(    5) = (   0.0379955   0.0419400   0.0000000), wk =   0.2500000
        k(    6) = (   0.0379955  -0.0838652   0.0000000), wk =   0.2500000
        k(    7) = (   0.0379955  -0.0419301   0.0000000), wk =   0.2500000
        k(    8) = (  -0.0759910  -0.0000099   0.0000000), wk =   0.1250000
        k(    9) = (  -0.0759910   0.0419252   0.0000000), wk =   0.2500000
        k(   10) = (  -0.0759910  -0.0838800   0.0000000), wk =   0.1250000

     Initial potential from superposition of free atoms

     starting charge  381.99915, renormalised to  398.00000

     negative rho (up, down):  1.708E-02 0.000E+00

     %%%%%%%%%%%%%%%%%%%%%%%%%%%%%%%%%%%%%%%%%%%%%%%%%%%%%%%%%%%%%%%%%%%%%%%%
     %                                                                      %
     % You are using vdW-DF, which was implemented by the Thonhauser group. %
     % Please cite the following two papers that made this development      %
     % possible and the two reviews that describe the various versions:     %
     %                                                                      %
     %   T. Thonhauser et al., PRL 115, 136402 (2015).                      %
     %   T. Thonhauser et al., PRB 76, 125112 (2007).                       %
     %   K. Berland et al., Rep. Prog. Phys. 78, 066501 (2015).             %
     %   D.C. Langreth et al., J. Phys.: Condens. Matter 21, 084203 (2009). %
     %                                                                      %
     %                                                                      %
     % If you are calculating the stress with vdW-DF, please also cite:     %
     %                                                                      %
     %   R. Sabatini et al., J. Phys.: Condens. Matter 24, 424209 (2012).   %
     %                                                                      %
     %%%%%%%%%%%%%%%%%%%%%%%%%%%%%%%%%%%%%%%%%%%%%%%%%%%%%%%%%%%%%%%%%%%%%%%%

     Adding external electric field

     Computed dipole along edir(3) :
        Dipole              -10.1344 Ry au,        -25.7591 Debye
        Dipole field         -0.0191 Ry au,

        Potential amp.        1.7729 Ry
        Total length         46.3494 bohr

     Starting wfcs are  301 atomic wfcs
  @ DRIVER MODE: Message from server: STATUS
  @ DRIVER MODE: Message from server: POSDATA
  @ DRIVER MODE: Reading and sharing cell
  @ DRIVER MODE: Reading and sharing positions
  @ DRIVER MODE: Received positions

     Self-consistent Calculation

     iteration #  1     ecut=    29.40 Ry     beta= 0.05
     Davidson diagonalization with overlap
     c_bands:  2 eigenvalues not converged
     c_bands:  1 eigenvalues not converged
     c_bands:  1 eigenvalues not converged
     c_bands:  3 eigenvalues not converged
     c_bands:  1 eigenvalues not converged
     c_bands:  3 eigenvalues not converged
     c_bands:  3 eigenvalues not converged
     c_bands:  3 eigenvalues not converged
     c_bands:  1 eigenvalues not converged
     ethr =  1.00E-05,  avg # of iterations = 19.8

[...]

     total energy              =   -2497.70597558 Ry
     estimated scf accuracy    <    5094.07999915 Ry

     iteration #  2     ecut=    29.40 Ry     beta= 0.05
     Davidson diagonalization with overlap
     ethr =  1.00E-02,  avg # of iterations = 25.4

[...]

     iteration # 91     ecut=    29.40 Ry     beta= 0.05
     Davidson diagonalization with overlap
     c_bands:  2 eigenvalues not converged
     ethr =  1.86E-11,  avg # of iterations = 16.8

[...]

     total energy              =   -2953.88254518 Ry
     estimated scf accuracy    <       0.00000013 Ry

     iteration # 92     ecut=    29.40 Ry     beta= 0.05
     Davidson diagonalization with overlap
     ethr =  1.86E-11,  avg # of iterations = 10.3

     negative rho (up, down):  1.667E-02 0.000E+00

     Adding external electric field

     Computed dipole along edir(3) :
        Dipole                1.2934 Ry au,          3.2876 Debye
        Dipole field          0.0024 Ry au,

        Potential amp.       -0.2263 Ry
        Total length         46.3494 bohr

     End of self-consistent calculation

          k = 0.0000 0.0000 0.0000 ( 18029 PWs)   bands (ev):

   -55.4435 -55.4374 -55.4182 -55.4095 -55.4013 -55.3002 -55.2583 -55.2519
   -55.2366 -55.2351 -55.2172 -55.2017 -54.8607 -54.7683 -54.4303 -54.3962
   -31.9935 -31.9273 -31.8193 -31.7952 -31.7547 -31.7506 -31.7351 -31.7257
   -31.6867 -31.6850 -31.6552 -31.6394 -31.6284 -31.6176 -31.5965 -31.5841
   -31.5749 -31.5491 -31.5459 -31.5102 -31.5013 -31.4989 -31.4653 -31.4533
   -31.4470 -31.4446 -31.4367 -31.4356 -31.4355 -31.4097 -31.4094 -31.4041
   -31.3877 -31.3830 -31.3589 -31.3515 -31.3446 -31.1928 -31.0780 -31.0260
   -30.9668 -30.9304 -30.8377 -30.7484 -30.7260 -30.6544 -30.5679 -30.4568
   -19.0711 -16.4588 -16.2014 -15.9401 -15.7568 -15.6271 -15.5998 -15.4259
   -15.2909 -15.1889 -15.1266 -15.0703 -15.0504 -15.0023 -15.0003 -14.9875
   -14.9843 -14.9535 -14.9056 -14.8845 -14.8645 -14.8234 -14.8142 -14.7976
   -14.7484 -14.7103 -14.6148 -14.5827 -14.5567 -14.5166 -14.0326 -12.9327
   -12.8161  -9.0194  -6.8825  -6.6916  -4.2597  -3.5721  -3.4101  -3.3554
    -3.3449  -3.3217  -3.2294  -3.0929  -2.9536  -2.7223  -2.6602  -2.6240
    -2.5919  -2.5547  -2.4382  -2.3872  -2.3759  -2.3104  -2.2627  -2.2547
    -2.2418  -2.2206  -2.2052  -2.1444  -2.1313  -2.0306  -1.9894  -1.9186
    -1.8588  -1.8265  -1.7762  -1.7606  -1.7178  -1.7144  -1.6997  -1.6803
    -1.6666  -1.6512  -1.5939  -1.5313  -1.4535  -1.2684  -1.2360  -1.1197
    -1.0908  -1.0594  -1.0158  -0.9317  -0.9049  -0.8828  -0.8429  -0.7523
    -0.7268  -0.6798  -0.5911  -0.5014  -0.4546  -0.4294  -0.3501  -0.3152
    -0.2870  -0.2199  -0.2128  -0.2009  -0.1253  -0.0703   0.0368   0.0729
     0.1074   0.1228   0.1372   0.2222   0.2609   0.3179   0.3621   0.4150
     0.4513   0.4661   0.5021   0.5235   0.5380   0.5652   0.5771   0.7596
     0.8010   0.8302   0.8605   0.9457   1.0473   1.1138   1.1978   1.2670
     1.5145   1.5920   1.6447   1.7825   2.1642   2.2105   3.6273   3.7559
     3.7741   3.7923   3.8233   3.8860   3.9491   4.1386   4.1609   4.1820
     4.2106

[...]

          k = 0.0380-0.0419 0.0000 ( 17876 PWs)   bands (ev):

[...]

          k =-0.0760-0.0000 0.0000 ( 17886 PWs)   bands (ev):

[...]

          k =-0.0760-0.0839 0.0000 ( 17948 PWs)   bands (ev):

   -55.4270 -55.4259 -55.4211 -55.4179 -55.4160 -55.2914 -55.2671 -55.2381
   -55.2366 -55.2316 -55.2202 -55.2172 -54.8576 -54.7713 -54.4133 -54.4131
   -31.8030 -31.7924 -31.7429 -31.7422 -31.7281 -31.7209 -31.7199 -31.7038
   -31.6886 -31.6476 -31.6400 -31.6348 -31.6250 -31.6067 -31.5708 -31.5604
   -31.5564 -31.5558 -31.5539 -31.5470 -31.5469 -31.5458 -31.5431 -31.5040
   -31.4829 -31.4772 -31.4661 -31.4528 -31.4475 -31.4432 -31.4413 -31.4410
   -31.4348 -31.4315 -31.4117 -31.4064 -31.2535 -31.1947 -31.0713 -31.0441
   -31.0272 -30.9669 -30.7388 -30.7386 -30.6505 -30.6503 -30.6113 -30.6111
   -19.0701 -16.4485 -15.6913 -15.5619 -15.4333 -15.3757 -15.3702 -15.3118
   -15.3076 -15.1943 -15.1847 -15.1562 -15.1310 -15.1144 -15.0867 -15.0672
   -15.0050 -14.9843 -14.9808 -14.9507 -14.9216 -14.9087 -14.9040 -14.8891
   -14.8853 -14.8312 -14.7752 -14.7720 -14.6610 -14.5583 -14.1893 -12.9180
   -12.9177  -9.0290  -6.8674  -6.7097  -4.2271  -3.2301  -2.9755  -2.7947
    -2.6888  -2.6327  -2.5692  -2.5506  -2.3843  -2.3692  -2.3594  -2.3227
    -2.3064  -2.2848  -2.2743  -2.2695  -2.2435  -2.2315  -2.2133  -2.1815
    -2.1484  -2.1308  -2.1227  -2.1163  -2.0997  -2.0810  -2.0580  -2.0373
    -2.0327  -2.0057  -1.9659  -1.9419  -1.8829  -1.7496  -1.7101  -1.6696
    -1.5997  -1.5931  -1.5393  -1.5231  -1.4961  -1.4684  -1.4059  -1.3824
    -1.2340  -1.1694  -1.1532  -1.1371  -1.1228  -1.0013  -0.9604  -0.8917
    -0.8653  -0.7957  -0.7653  -0.7536  -0.7071  -0.6050  -0.5925  -0.5409
    -0.5293  -0.4317  -0.4092  -0.3981  -0.3636  -0.3193  -0.2511  -0.2095
    -0.1951  -0.1854  -0.1520  -0.1451  -0.1047   0.0154   0.0754   0.1368
     0.2080   0.3110   0.4227   0.4351   0.5841   0.6105   0.6243   0.7303
     0.8165   0.8471   0.8671   0.8941   0.8975   1.0216   1.0696   1.0793
     1.0809   1.2316   1.9541   1.9555   2.0300   2.0304   3.7354   3.9352
     3.9564   3.9985   4.0450   4.1765   4.1854   4.2202   4.2211   4.3052
     4.3392

     the Fermi energy is     3.6867 ev

!    total energy              =   -2953.88255196 Ry
     estimated scf accuracy    <       0.00000005 Ry
     smearing contrib. (-TS)   =      -0.03290985 Ry
     internal energy E=F+TS    =   -2953.84964211 Ry

     The total energy is F=E-TS. E is the sum of the following terms:
     one-electron contribution =  -24258.94458441 Ry
     hartree contribution      =   12223.00670968 Ry
     xc contribution           =    -488.84523036 Ry
     ewald contribution        =    9570.93030583 Ry
     electric field correction =       0.00315716 Ry

     convergence has been achieved in  92 iterations

     Forces acting on atoms (cartesian axes, Ry/au):

     atom    1 type  1   force =     0.00021335   -0.00019666    0.09612536
     atom    2 type  1   force =    -0.00011522   -0.00027512   -0.17608806
     atom    3 type  2   force =     0.00002789    0.00001692   -0.02488230
     atom    4 type  2   force =     0.00003556   -0.00160077    0.05418700
     atom    5 type  2   force =    -0.01180269   -0.00148992    0.00428181
     atom    6 type  2   force =     0.01356045   -0.00071849    0.00348898
     atom    7 type  1   force =    -0.00083251    0.00086793   -0.01027813
     atom    8 type  1   force =     0.00025133    0.01223980    0.02352488
     atom    9 type  2   force =    -0.00035885   -0.00008127   -0.00023450
     atom   10 type  2   force =    -0.00087965   -0.00045253   -0.01482467
     atom   11 type  2   force =     0.00041664    0.00008109    0.00019137
     atom   12 type  2   force =    -0.00039598   -0.00007663    0.00004120
     atom   13 type  1   force =    -0.00067208   -0.00006947   -0.00160108
     atom   14 type  1   force =     0.00057951    0.00018029    0.00031989
     atom   15 type  2   force =     0.00056905    0.00044073    0.00010182
     atom   16 type  2   force =    -0.00027819    0.00006522    0.00037662
     atom   17 type  2   force =    -0.00016421   -0.00033185   -0.00024823
     atom   18 type  2   force =     0.00012952   -0.00011848   -0.00002666
     atom   19 type  1   force =     0.00072367    0.00019081    0.00049649
     atom   20 type  1   force =    -0.00031128   -0.00062410    0.00007269
     atom   21 type  2   force =     0.00006146    0.00004443    0.10332573
     atom   22 type  2   force =     0.00036037    0.00082687   -0.00025432
     atom   23 type  2   force =    -0.07127823   -0.00007406   -0.02764189
     atom   24 type  2   force =     0.07123119    0.00036319   -0.02767971
     atom   25 type  1   force =    -0.00006336   -0.00014141    0.09563089
     atom   26 type  1   force =    -0.00020190   -0.00030388   -0.17603848
     atom   27 type  2   force =     0.00012549   -0.00039742   -0.02389122
     atom   28 type  2   force =     0.00009707   -0.00126693    0.05365438
     atom   29 type  2   force =    -0.01203462    0.00045222    0.00380494
     atom   30 type  2   force =     0.01367234    0.00068741    0.00308706
     atom   31 type  1   force =    -0.00060548    0.00368878   -0.01331777
     atom   32 type  1   force =     0.00020870   -0.01323973    0.02339342
     atom   33 type  2   force =    -0.00007768   -0.00005536   -0.00029177
     atom   34 type  2   force =    -0.00008442    0.00022002   -0.01830590
     atom   35 type  2   force =     0.00033683   -0.00048990    0.00026450
     atom   36 type  2   force =    -0.00030566   -0.00016169    0.00012729
     atom   37 type  1   force =    -0.00083899   -0.00023982   -0.00010240
     atom   38 type  1   force =     0.00047917    0.00009463    0.00064282
     atom   39 type  2   force =    -0.00003235    0.00079851    0.00001612
     atom   40 type  2   force =    -0.00022692   -0.00018912   -0.00060403
     atom   41 type  2   force =     0.00037496    0.00044237    0.00005477
     atom   42 type  2   force =    -0.00081523    0.00013645    0.00000502
     atom   43 type  1   force =     0.00059716   -0.00010441   -0.00028541
     atom   44 type  1   force =    -0.00034402   -0.00092618    0.00045921
     atom   45 type  2   force =     0.00006173    0.00003698    0.10328817
     atom   46 type  2   force =    -0.07126156   -0.00002192   -0.02760637
     atom   47 type  2   force =     0.07120788    0.00039957   -0.02762520
     atom   48 type  3   force =    -0.00017751    0.00105359   -0.00045323
     atom   49 type  4   force =    -0.00017020    0.00088862   -0.00044393
     atom   50 type  5   force =     0.00064454   -0.00002603    0.00096960
     atom   51 type  5   force =     0.00054476    0.00039148    0.00009861
     atom   52 type  5   force =    -0.00011501    0.00010391    0.00029978
     atom   53 type  2   force =    -0.00377011   -0.00405349   -0.00167208
     atom   54 type  5   force =     0.00153965    0.00384896    0.00164916
     atom   55 type  5   force =     0.00016360   -0.00083414    0.00041777

     Total force =     0.367641     Total SCF correction =     0.000730
  @ DRIVER MODE: Message from server: STATUS
  @ DRIVER MODE: Message from server: GETFORCE
  @ DRIVER MODE: Returning v,forces,stress,ensemble

     Writing output data file ./calc.save/
  @ DRIVER MODE: Message from server: EXIT
  @ DRIVE MODE: Exiting

     General routines

     Parallel routines

   This run was terminated on:   5:12:32  16Sep2021

   JOB DONE.