     Program PWSCF v.6.7GPU starts on 15Sep2021 at 22:18:33

     R & G space division:  proc/nbgrp/npool/nimage =      10
     Reading input from /storage/home/hcoda1/3/ntian30/research/carbon/CxH_vib/H2O_calc/ads_slab/CHNHH2O_a/out_0020/pw.inp
Warning: card &CELL ignored
Warning: card   CELL_DYNAMICS='IPI', ignored
Warning: card / ignored

     Current dimensions of program PWSCF are:
     Max number of different atomic species (ntypx) = 10
     Max number of k-points (npk) =  40000
     Max angular momentum in pseudopotentials (lmaxx) =  3
     Presently no symmetry can be used with electric field

     Message from routine cell_base_init:
     DEPRECATED: use true lattice parameter, not A to a.u. conversion factor

     IMPORTANT: XC functional enforced from input :
     Exchange-correlation= BEEF-VDW
                           (   1   4  43  14   2   0   0)
     Any further DFT definition will be discarded
     Please, verify this is what you really want

  @ DRIVER MODE: Connecting to
 qe_1139763_2852628.sched-torque.pace.gatech.edui86iu305_scratch
  using UNIX socket
  @ DRIVER MODE: Message from server: STATUS
  @ DRIVER MODE: Message from server: INIT
  @ DRIVER MODE: Receiving replica           0          -1
  @ DRIVER MODE: Receiving encoded integer          25
  @ DRIVER MODE:  SCF:  T  FORCE:  T  STRESS:  F  VC:  F  ENSEMBLE:  F
  @ DRIVER MODE:  SCF:  T  FORCE:  T  STRESS:  F  VC:  F  ENSEMBLE:  F

     Using Slab Decomposition

     bravais-lattice index     =            0
     lattice parameter (alat)  =       1.8897  a.u.
     unit-cell volume          =    6658.9804 (a.u.)^3
     number of atoms/cell      =           54
     number of atomic types    =            5
     number of electrons       =       397.00
     number of Kohn-Sham states=          208
     kinetic-energy cutoff     =      29.3995  Ry
     charge density cutoff     =     293.9946  Ry
     scf convergence threshold =      7.3E-08
     mixing beta               =       0.0500
     number of iterations used =            8  plain     mixing
     Exchange-correlation= BEEF-VDW
                           (   1   4  43  14   2   0   0)

     celldm(1)=   1.889726  celldm(2)=   0.000000  celldm(3)=   0.000000
     celldm(4)=   0.000000  celldm(5)=   0.000000  celldm(6)=   0.000000

     crystal axes: (cart. coord. in units of alat)
               a(1) = (   6.579727   0.000000   0.000000 )
               a(2) = (  -0.000775   5.961596   0.000000 )
               a(3) = (   0.000000   0.000000  25.155947 )

     reciprocal axes: (cart. coord. in units 2 pi/alat)
               b(1) = (  0.151982  0.000020  0.000000 )
               b(2) = (  0.000000  0.167740  0.000000 )
               b(3) = (  0.000000  0.000000  0.039752 )

     PseudoPot. # 1 for Ti read from file:
     /storage/coda1/p-amedford6/0/shared/rich_project_chbe-medford/medford-share/data/pseudos_module/espresso/nninc/pbe/van/Ti.UPF
     MD5 check sum: 8e4df49b7f0d34bbd5052bf3f5ea0213
     Pseudo is Ultrasoft, Zval = 12.0
     Generated by new atomic code, or converted to UPF format
     Using radial grid of  851 points,  6 beta functions with:
                l(1) =   0
                l(2) =   0
                l(3) =   1
                l(4) =   1
                l(5) =   2
                l(6) =   2
     Q(r) pseudized with  8 coefficients,  rinner =    1.000   1.000   1.000
                                                       1.000   1.000

     PseudoPot. # 2 for O  read from file:
     /storage/coda1/p-amedford6/0/shared/rich_project_chbe-medford/medford-share/data/pseudos_module/espresso/nninc/pbe/van/O.UPF
     MD5 check sum: 78c19812648e8988a0fe644b0f25305e
     Pseudo is Ultrasoft, Zval =  6.0
     Generated by new atomic code, or converted to UPF format
     Using radial grid of  737 points,  4 beta functions with:
                l(1) =   0
                l(2) =   0
                l(3) =   1
                l(4) =   1
     Q(r) pseudized with  8 coefficients,  rinner =    0.800   0.800   0.800

     PseudoPot. # 3 for N  read from file:
     /storage/coda1/p-amedford6/0/shared/rich_project_chbe-medford/medford-share/data/pseudos_module/espresso/nninc/pbe/van/N.UPF
     MD5 check sum: 90d10febe142ad51ac9d5be1deb811c4
     Pseudo is Ultrasoft, Zval =  5.0
     Generated by new atomic code, or converted to UPF format
     Using radial grid of  729 points,  4 beta functions with:
                l(1) =   0
                l(2) =   0
                l(3) =   1
                l(4) =   1
     Q(r) pseudized with  8 coefficients,  rinner =    0.800   0.800   0.800

     PseudoPot. # 4 for C  read from file:
     /storage/coda1/p-amedford6/0/shared/rich_project_chbe-medford/medford-share/data/pseudos_module/espresso/nninc/pbe/van/C.UPF
     MD5 check sum: 1a69bf6b8db32088f5b2163dbdb77a27
     Pseudo is Ultrasoft, Zval =  4.0
     Generated by new atomic code, or converted to UPF format
     Using radial grid of  721 points,  4 beta functions with:
                l(1) =   0
                l(2) =   0
                l(3) =   1
                l(4) =   1
     Q(r) pseudized with  8 coefficients,  rinner =    0.800   0.800   0.800

     PseudoPot. # 5 for H  read from file:
     /storage/coda1/p-amedford6/0/shared/rich_project_chbe-medford/medford-share/data/pseudos_module/espresso/nninc/pbe/van/H.UPF
     MD5 check sum: b5ee9d7bfd3a09ee7748110bda690ff7
     Pseudo is Ultrasoft, Zval =  1.0
     Generated by new atomic code, or converted to UPF format
     Using radial grid of  615 points,  1 beta functions with:
                l(1) =   0
     Q(r) pseudized with  8 coefficients,  rinner =    0.800

     atomic species   valence    mass     pseudopotential
        Ti1           12.00    47.86700     Ti( 1.00)
        O1             6.00    15.99900     O ( 1.00)
        N1             5.00    14.00700     N ( 1.00)
        C1             4.00    12.01100     C ( 1.00)
        H1             1.00     1.00800     H ( 1.00)

     No symmetry found

   Cartesian axes

     site n.     atom                  positions (alat units)
         1           Ti1 tau(   1) = (   0.0004258   2.9801865   6.0000000  )
         2           Ti1 tau(   2) = (   3.2906075   1.4906267   6.0002472  )
         3           O1  tau(   3) = (   0.0006271   0.0005054   7.9858123  )
         4           O1  tau(   4) = (   3.2906025   0.0005020   7.3038282  )
         5           O1  tau(   5) = (   4.5942328   1.4918067   9.2879030  )
         6           O1  tau(   6) = (   1.9868534   1.4903216   9.2879459  )
         7           Ti1 tau(   7) = (   3.2907910   2.8959150   9.1758416  )
         8           Ti1 tau(   8) = (   0.0015273   1.4827037   9.2680791  )
         9           O1  tau(   9) = (   3.2914171   5.9475995  11.3455371  )
        10           O1  tau(  10) = (   0.0116148   5.9584955  10.6183126  )
        11           O1  tau(  11) = (   1.3057669   1.4807986  12.6390077  )
        12           O1  tau(  12) = (   5.3035249   1.4749620  12.6227664  )
        13           Ti1 tau(  13) = (   6.5294082   2.9362577  12.6231083  )
        14           Ti1 tau(  14) = (   3.2175537   1.4615748  12.5070279  )
        15           O1  tau(  15) = (   6.5585639   5.9474800  14.6380151  )
        16           O1  tau(  16) = (   3.3125803   5.9531145  13.9695519  )
        17           O1  tau(  17) = (   4.5393379   1.5011389  16.1071157  )
        18           O1  tau(  18) = (   2.0094023   1.5044898  16.0307267  )
        19           Ti1 tau(  19) = (   3.2760958   2.9523363  15.6877793  )
        20           Ti1 tau(  20) = (   0.0277933   1.3451898  16.0452527  )
        21           O1  tau(  21) = (   3.2904802   0.0005063   4.7018136  )
        22           O1  tau(  22) = (   0.0198929   5.9263875  17.1601691  )
        23           O1  tau(  23) = (   1.3043587   1.4918075   6.0039043  )
        24           O1  tau(  24) = (   5.2767064   1.4903225   6.0039473  )
        25           Ti1 tau(  25) = (   0.0000382   5.9609847   6.0000000  )
        26           Ti1 tau(  26) = (   3.2902200   4.4714249   6.0002472  )
        27           O1  tau(  27) = (   0.0002396   2.9813036   7.9858123  )
        28           O1  tau(  28) = (   3.2902150   2.9813002   7.3038282  )
        29           O1  tau(  29) = (   4.5938453   4.4726049   9.2879030  )
        30           O1  tau(  30) = (   1.9864658   4.4711199   9.2879459  )
        31           Ti1 tau(  31) = (   3.2891106   5.8743827   9.1763621  )
        32           Ti1 tau(  32) = (   0.0006254   4.4649316   9.2693709  )
        33           O1  tau(  33) = (   3.2862706   2.9662616  11.3468726  )
        34           O1  tau(  34) = (   0.0092240   2.9805883  10.6323155  )
        35           O1  tau(  35) = (   1.3102706   4.4726941  12.6361575  )
        36           O1  tau(  36) = (   5.3014905   4.4644878  12.6181669  )
        37           Ti1 tau(  37) = (   6.5311680   5.9227251  12.5202533  )
        38           Ti1 tau(  38) = (   3.2191334   4.4553394  12.5017427  )
        39           O1  tau(  39) = (   6.5614274   2.9920157  14.6796082  )
        40           O1  tau(  40) = (   3.3146075   2.9603188  13.8993185  )
        41           O1  tau(  41) = (   4.5484517   4.4144432  16.0509510  )
        42           O1  tau(  42) = (   2.0146171   4.4214036  15.9967612  )
        43           Ti1 tau(  43) = (   3.3303817   5.9274347  15.8100502  )
        44           Ti1 tau(  44) = (   0.0273359   4.4939047  15.8144843  )
        45           O1  tau(  45) = (   3.2900926   2.9813045   4.7018136  )
        46           O1  tau(  46) = (   1.3039711   4.4726057   6.0039043  )
        47           O1  tau(  47) = (   5.2763189   4.4711207   6.0039473  )
        48           N1  tau(  48) = (   6.5134970   2.9613368  17.6459670  )
        49           C1  tau(  49) = (   0.7931072   3.0267964  18.6255283  )
        50           H1  tau(  50) = (   1.8307262   2.9311331  18.2395185  )
        51           H1  tau(  51) = (   5.5594773   3.0666896  17.9713127  )
        52           O1  tau(  52) = (   3.1855344   5.8058271  18.1612476  )
        53           H1  tau(  53) = (   3.8461454   0.3022996  18.7034462  )
        54           H1  tau(  54) = (   2.3120581   0.0053998  18.5533318  )

     number of k points=    10  Fermi-Dirac smearing, width (Ry)=  0.0073
                       cart. coord. in units 2pi/alat
        k(    1) = (   0.0000000   0.0000000   0.0000000), wk =   0.1250000
        k(    2) = (   0.0000000   0.0419351   0.0000000), wk =   0.2500000
        k(    3) = (   0.0000000  -0.0838702   0.0000000), wk =   0.1250000
        k(    4) = (   0.0379955   0.0000049   0.0000000), wk =   0.2500000
        k(    5) = (   0.0379955   0.0419400   0.0000000), wk =   0.2500000
        k(    6) = (   0.0379955  -0.0838652   0.0000000), wk =   0.2500000
        k(    7) = (   0.0379955  -0.0419301   0.0000000), wk =   0.2500000
        k(    8) = (  -0.0759910  -0.0000099   0.0000000), wk =   0.1250000
        k(    9) = (  -0.0759910   0.0419252   0.0000000), wk =   0.2500000
        k(   10) = (  -0.0759910  -0.0838800   0.0000000), wk =   0.1250000

     Initial potential from superposition of free atoms

     starting charge  380.99916, renormalised to  397.00000

     negative rho (up, down):  1.755E-02 0.000E+00

     %%%%%%%%%%%%%%%%%%%%%%%%%%%%%%%%%%%%%%%%%%%%%%%%%%%%%%%%%%%%%%%%%%%%%%%%
     %                                                                      %
     % You are using vdW-DF, which was implemented by the Thonhauser group. %
     % Please cite the following two papers that made this development      %
     % possible and the two reviews that describe the various versions:     %
     %                                                                      %
     %   T. Thonhauser et al., PRL 115, 136402 (2015).                      %
     %   T. Thonhauser et al., PRB 76, 125112 (2007).                       %
     %   K. Berland et al., Rep. Prog. Phys. 78, 066501 (2015).             %
     %   D.C. Langreth et al., J. Phys.: Condens. Matter 21, 084203 (2009). %
     %                                                                      %
     %                                                                      %
     % If you are calculating the stress with vdW-DF, please also cite:     %
     %                                                                      %
     %   R. Sabatini et al., J. Phys.: Condens. Matter 24, 424209 (2012).   %
     %                                                                      %
     %%%%%%%%%%%%%%%%%%%%%%%%%%%%%%%%%%%%%%%%%%%%%%%%%%%%%%%%%%%%%%%%%%%%%%%%

     Adding external electric field

     Computed dipole along edir(3) :
        Dipole               -9.1667 Ry au,        -23.2993 Debye
        Dipole field         -0.0173 Ry au,

        Potential amp.        1.6036 Ry
        Total length         46.3494 bohr

     Starting wfcs are  300 atomic wfcs
  @ DRIVER MODE: Message from server: STATUS
  @ DRIVER MODE: Message from server: POSDATA
  @ DRIVER MODE: Reading and sharing cell
  @ DRIVER MODE: Reading and sharing positions
  @ DRIVER MODE: Received positions

     Self-consistent Calculation

     iteration #  1     ecut=    29.40 Ry     beta= 0.05
     Davidson diagonalization with overlap
     c_bands:  1 eigenvalues not converged
     c_bands:  1 eigenvalues not converged
     c_bands:  1 eigenvalues not converged
     c_bands:  1 eigenvalues not converged
     c_bands:  1 eigenvalues not converged
     c_bands:  1 eigenvalues not converged
     c_bands:  1 eigenvalues not converged
     c_bands:  1 eigenvalues not converged
     c_bands:  1 eigenvalues not converged
     ethr =  1.00E-05,  avg # of iterations = 19.9

[...]

     total energy              =   -2547.24858359 Ry
     estimated scf accuracy    <    4504.92280625 Ry

     iteration #  2     ecut=    29.40 Ry     beta= 0.05
     Davidson diagonalization with overlap
     ethr =  1.00E-02,  avg # of iterations = 24.9

[...]

     iteration # 73     ecut=    29.40 Ry     beta= 0.05
     Davidson diagonalization with overlap
     c_bands:  1 eigenvalues not converged
     ethr =  6.11E-11,  avg # of iterations = 15.8

[...]

     total energy              =   -2952.61560273 Ry
     estimated scf accuracy    <       0.00000010 Ry

     iteration # 75     ecut=    29.40 Ry     beta= 0.05
     Davidson diagonalization with overlap
     ethr =  2.41E-11,  avg # of iterations =  6.4

     negative rho (up, down):  1.615E-02 0.000E+00

     Adding external electric field

     Computed dipole along edir(3) :
        Dipole                0.4062 Ry au,          1.0326 Debye
        Dipole field          0.0008 Ry au,

        Potential amp.       -0.0711 Ry
        Total length         46.3494 bohr

     End of self-consistent calculation

          k = 0.0000 0.0000 0.0000 ( 18029 PWs)   bands (ev):

   -56.0246 -56.0000 -55.9932 -55.9905 -55.9638 -55.8704 -55.8381 -55.8291
   -55.8254 -55.8125 -55.8039 -55.7790 -55.7488 -55.5795 -55.0102 -54.9762
   -32.5458 -32.5085 -32.4015 -32.3699 -32.3370 -32.3167 -32.3075 -32.3025
   -32.2680 -32.2372 -32.2255 -32.2189 -32.2094 -32.1967 -32.1790 -32.1770
   -32.1523 -32.1303 -32.1289 -32.1261 -32.0931 -32.0819 -32.0730 -32.0409
   -32.0302 -32.0285 -32.0245 -32.0204 -32.0175 -32.0123 -31.9973 -31.9864
   -31.9846 -31.9830 -31.9710 -31.9653 -31.9609 -31.9429 -31.9236 -31.8402
   -31.8232 -31.7364 -31.4176 -31.3284 -31.3060 -31.2343 -31.1478 -31.0368
   -19.2317 -16.7571 -16.5170 -16.3424 -16.2019 -16.1711 -15.9543 -15.8530
   -15.7821 -15.7284 -15.6584 -15.6064 -15.5727 -15.5635 -15.5469 -15.5230
   -15.5075 -15.4808 -15.4576 -15.4490 -15.4405 -15.4120 -15.3901 -15.3739
   -15.3552 -15.2484 -15.1850 -15.1608 -15.1155 -15.0925 -14.7389 -13.5123
   -13.3957  -7.9007  -7.0841  -4.1555  -4.0606  -3.9857  -3.9448  -3.9299
    -3.7732  -3.6957  -3.5456  -3.5191  -3.3088  -3.2787  -3.2215  -3.1959
    -3.1347  -3.0725  -2.9777  -2.9339  -2.8571  -2.8409  -2.8283  -2.8058
    -2.7862  -2.7691  -2.7283  -2.6647  -2.5948  -2.5619  -2.4487  -2.4216
    -2.4149  -2.3477  -2.3403  -2.3283  -2.3147  -2.2841  -2.2619  -2.2588
    -2.1874  -2.1553  -2.0853  -2.0329  -1.9721  -1.8537  -1.7020  -1.6404
    -1.5893  -1.5288  -1.5043  -1.4687  -1.4462  -1.4223  -1.3627  -1.3052
    -1.2405  -1.2285  -1.1583  -1.0658  -0.9942  -0.9559  -0.8859  -0.8247
    -0.8026  -0.7749  -0.7664  -0.7575  -0.7085  -0.5360  -0.4799  -0.4663
    -0.4266  -0.3439  -0.3129  -0.3036  -0.2545  -0.2462  -0.2062  -0.1176
    -0.0986  -0.0636  -0.0457  -0.0321   0.0008   0.0201   0.1754   0.1960
     0.2383   0.2599   0.3625   0.4687   0.5355   0.6229   0.7174   0.9362
     1.0123   1.0894   1.2032   1.5844   1.6305   2.7798   3.1036   3.1922
     3.2303   3.2364   3.2705   3.3410   3.5577   3.5887   3.6060   3.6620

[...]

          k = 0.0380-0.0419 0.0000 ( 17876 PWs)   bands (ev):

[...]

          k =-0.0760-0.0000 0.0000 ( 17886 PWs)   bands (ev):

[...]

          k =-0.0760-0.0839 0.0000 ( 17948 PWs)   bands (ev):

   -56.0082 -56.0067 -55.9918 -55.9838 -55.9794 -55.8612 -55.8384 -55.8270
   -55.8216 -55.8196 -55.7964 -55.7954 -55.7472 -55.5810 -54.9932 -54.9930
   -32.3597 -32.3438 -32.3242 -32.3232 -32.3027 -32.3014 -32.2805 -32.2726
   -32.2530 -32.2203 -32.2054 -32.2009 -32.1964 -32.1749 -32.1475 -32.1422
   -32.1375 -32.1356 -32.1341 -32.1322 -32.1317 -32.1284 -32.1278 -32.1261
   -32.0792 -32.0603 -32.0514 -32.0397 -32.0280 -32.0257 -32.0244 -32.0225
   -32.0217 -32.0114 -32.0096 -31.9991 -31.9928 -31.9783 -31.9725 -31.8440
   -31.8282 -31.8233 -31.3188 -31.3186 -31.2305 -31.2302 -31.1911 -31.1910
   -19.2308 -16.2158 -16.0965 -16.0417 -15.9488 -15.9232 -15.9088 -15.8349
   -15.7848 -15.7292 -15.7196 -15.6954 -15.6813 -15.6769 -15.6149 -15.5865
   -15.5626 -15.5514 -15.5078 -15.4952 -15.4872 -15.4735 -15.4715 -15.4653
   -15.4217 -15.4106 -15.3534 -15.3494 -15.2098 -15.1010 -15.0109 -13.4976
   -13.4972  -7.9098  -7.0855  -3.9138  -3.6486  -3.4940  -3.3171  -3.2664
    -3.1675  -3.1618  -3.1244  -3.1046  -2.9949  -2.9355  -2.9228  -2.9010
    -2.8601  -2.8504  -2.8437  -2.8387  -2.8043  -2.8026  -2.7659  -2.7471
    -2.7155  -2.7023  -2.6963  -2.6897  -2.6658  -2.6467  -2.6084  -2.5916
    -2.5754  -2.5457  -2.5080  -2.3747  -2.3053  -2.2277  -2.2205  -2.1803
    -2.1677  -2.1478  -2.1048  -2.0870  -2.0597  -1.9789  -1.9031  -1.7487
    -1.7305  -1.7070  -1.6755  -1.6154  -1.5231  -1.4979  -1.4700  -1.4239
    -1.4065  -1.3489  -1.3283  -1.2970  -1.2417  -1.1795  -1.1417  -1.1143
    -1.0695  -1.0043  -0.9839  -0.9626  -0.9494  -0.8879  -0.7799  -0.7733
    -0.7675  -0.7179  -0.7025  -0.6730  -0.6526  -0.5600  -0.4807  -0.4205
    -0.3238  -0.1596  -0.0798   0.0181   0.0552   0.1000   0.1446   0.1866
     0.2833   0.2853   0.3580   0.3882   0.4057   0.4877   0.4986   0.5217
     0.6823   1.3748   1.3761   1.4500   1.4505   2.8132   3.3611   3.4074
     3.4416   3.4882   3.5909   3.6109   3.6397   3.6416   3.7204   3.7673

     the Fermi energy is     3.1067 ev

!    total energy              =   -2952.61562179 Ry
     estimated scf accuracy    <       0.00000005 Ry
     smearing contrib. (-TS)   =      -0.02581949 Ry
     internal energy E=F+TS    =   -2952.58980230 Ry

     The total energy is F=E-TS. E is the sum of the following terms:
     one-electron contribution =  -24509.59481719 Ry
     hartree contribution      =   12341.98376633 Ry
     xc contribution           =    -487.97045092 Ry
     ewald contribution        =    9702.99138803 Ry
     electric field correction =       0.00031144 Ry

     convergence has been achieved in  75 iterations

     Forces acting on atoms (cartesian axes, Ry/au):

     atom    1 type  1   force =    -0.00003338   -0.00030161    0.09591959
     atom    2 type  1   force =     0.00005564   -0.00048997   -0.17611199
     atom    3 type  2   force =     0.00010293   -0.00009587   -0.02432235
     atom    4 type  2   force =     0.00000908   -0.00163144    0.05391945
     atom    5 type  2   force =    -0.01178814   -0.00141769    0.00393119
     atom    6 type  2   force =     0.01321479   -0.00102677    0.00317423
     atom    7 type  1   force =     0.00034453    0.00069249   -0.00764685
     atom    8 type  1   force =     0.00026665    0.01498041    0.02332828
     atom    9 type  2   force =    -0.00004790    0.00018708    0.00010736
     atom   10 type  2   force =    -0.00219246    0.00050108   -0.01743732
     atom   11 type  2   force =     0.00047638   -0.00026746   -0.00021787
     atom   12 type  2   force =    -0.00084941   -0.00017968   -0.00000106
     atom   13 type  1   force =     0.00045936    0.00044809    0.00007006
     atom   14 type  1   force =    -0.00018774    0.00004877    0.00089309
     atom   15 type  2   force =    -0.00013728   -0.00001856   -0.00078161
     atom   16 type  2   force =     0.00001012    0.00051546   -0.00026762
     atom   17 type  2   force =    -0.00045728    0.00028654    0.00009503
     atom   18 type  2   force =     0.00025761    0.00015932   -0.00023821
     atom   19 type  1   force =     0.00072503    0.00060129   -0.00032594
     atom   20 type  1   force =    -0.00053267    0.00035687   -0.00005479
     atom   21 type  2   force =     0.00006473   -0.00000383    0.10335569
     atom   22 type  2   force =    -0.00027683   -0.00020472    0.00065558
     atom   23 type  2   force =    -0.07136606   -0.00010606   -0.02762967
     atom   24 type  2   force =     0.07128712    0.00034336   -0.02770090
     atom   25 type  1   force =     0.00023991   -0.00029368    0.09575369
     atom   26 type  1   force =     0.00011435   -0.00029327   -0.17604480
     atom   27 type  2   force =     0.00013894   -0.00029125   -0.02322109
     atom   28 type  2   force =     0.00000141   -0.00132548    0.05367930
     atom   29 type  2   force =    -0.01213351    0.00039119    0.00378119
     atom   30 type  2   force =     0.01352096    0.00100692    0.00302442
     atom   31 type  1   force =     0.00024555    0.00375608   -0.01143771
     atom   32 type  1   force =     0.00044330   -0.01662802    0.02313707
     atom   33 type  2   force =     0.00017653    0.00010024   -0.00033631
     atom   34 type  2   force =    -0.00191411   -0.00010435   -0.02070579
     atom   35 type  2   force =     0.00046656    0.00005908    0.00007144
     atom   36 type  2   force =    -0.00089542   -0.00000529    0.00032546
     atom   37 type  1   force =     0.00080686    0.00005117   -0.00027034
     atom   38 type  1   force =     0.00000329    0.00012588    0.00040097
     atom   39 type  2   force =    -0.00024971    0.00043530   -0.00056939
     atom   40 type  2   force =    -0.00039722   -0.00007512   -0.00022206
     atom   41 type  2   force =    -0.00054151    0.00030496    0.00025762
     atom   42 type  2   force =     0.00004981    0.00022509    0.00010588
     atom   43 type  1   force =     0.00036212   -0.00012438    0.00042065
     atom   44 type  1   force =    -0.00005113   -0.00031444    0.00038332
     atom   45 type  2   force =     0.00006818   -0.00000087    0.10332021
     atom   46 type  2   force =    -0.07135563   -0.00004777   -0.02761496
     atom   47 type  2   force =     0.07127454    0.00038019   -0.02768774
     atom   48 type  3   force =     0.01388101   -0.00028918   -0.00391786
     atom   49 type  4   force =     0.00097284   -0.00020234   -0.00034033
     atom   50 type  5   force =     0.00011882   -0.00065011    0.00035959
     atom   51 type  5   force =    -0.01386603    0.00076008    0.00401974
     atom   52 type  2   force =    -0.00018407   -0.00017773    0.00136599
     atom   53 type  5   force =    -0.00082969   -0.00025704   -0.00023244
     atom   54 type  5   force =     0.00012820    0.00010707   -0.00051912

     Total force =     0.368402     Total SCF correction =     0.000476
  @ DRIVER MODE: Message from server: STATUS
  @ DRIVER MODE: Message from server: GETFORCE
  @ DRIVER MODE: Returning v,forces,stress,ensemble

     Writing output data file ./calc.save/
  @ DRIVER MODE: Message from server: EXIT
  @ DRIVE MODE: Exiting

     General routines

     Parallel routines

   This run was terminated on:  22:38: 2  15Sep2021

   JOB DONE.