     Program PWSCF v.6.7GPU starts on 22Sep2021 at 21:39:48

     R & G space division:  proc/nbgrp/npool/nimage =      10
     Reading input from /storage/home/hcoda1/3/ntian30/research/carbon/CxH_vib/H2O_calc/ads_slab/CHNHHHO_a/out_0018/pw.inp
Warning: card &CELL ignored
Warning: card   CELL_DYNAMICS='IPI', ignored
Warning: card / ignored

     Current dimensions of program PWSCF are:
     Max number of different atomic species (ntypx) = 10
     Max number of k-points (npk) =  40000
     Max angular momentum in pseudopotentials (lmaxx) =  3
     Presently no symmetry can be used with electric field

     Message from routine cell_base_init:
     DEPRECATED: use true lattice parameter, not A to a.u. conversion factor

     IMPORTANT: XC functional enforced from input :
     Exchange-correlation= BEEF-VDW
                           (   1   4  43  14   2   0   0)
     Any further DFT definition will be discarded
     Please, verify this is what you really want

  @ DRIVER MODE: Connecting to
 qe_1139763_2937313.sched-torque.pace.gatech.eduqwx4hdnf_scratch
  using UNIX socket
  @ DRIVER MODE: Message from server: STATUS
  @ DRIVER MODE: Message from server: INIT
  @ DRIVER MODE: Receiving replica           0          -1
  @ DRIVER MODE: Receiving encoded integer          25
  @ DRIVER MODE:  SCF:  T  FORCE:  T  STRESS:  F  VC:  F  ENSEMBLE:  F
  @ DRIVER MODE:  SCF:  T  FORCE:  T  STRESS:  F  VC:  F  ENSEMBLE:  F

     Using Slab Decomposition

     bravais-lattice index     =            0
     lattice parameter (alat)  =       1.8897  a.u.
     unit-cell volume          =    6658.9804 (a.u.)^3
     number of atoms/cell      =           54
     number of atomic types    =            5
     number of electrons       =       397.00
     number of Kohn-Sham states=          208
     kinetic-energy cutoff     =      29.3995  Ry
     charge density cutoff     =     293.9946  Ry
     scf convergence threshold =      7.3E-08
     mixing beta               =       0.0500
     number of iterations used =            8  plain     mixing
     Exchange-correlation= BEEF-VDW
                           (   1   4  43  14   2   0   0)

     celldm(1)=   1.889726  celldm(2)=   0.000000  celldm(3)=   0.000000
     celldm(4)=   0.000000  celldm(5)=   0.000000  celldm(6)=   0.000000

     crystal axes: (cart. coord. in units of alat)
               a(1) = (   6.579727   0.000000   0.000000 )
               a(2) = (  -0.000775   5.961596   0.000000 )
               a(3) = (   0.000000   0.000000  25.155947 )

     reciprocal axes: (cart. coord. in units 2 pi/alat)
               b(1) = (  0.151982  0.000020  0.000000 )
               b(2) = (  0.000000  0.167740  0.000000 )
               b(3) = (  0.000000  0.000000  0.039752 )

     PseudoPot. # 1 for Ti read from file:
     /storage/coda1/p-amedford6/0/shared/rich_project_chbe-medford/medford-share/data/pseudos_module/espresso/nninc/pbe/van/Ti.UPF
     MD5 check sum: 8e4df49b7f0d34bbd5052bf3f5ea0213
     Pseudo is Ultrasoft, Zval = 12.0
     Generated by new atomic code, or converted to UPF format
     Using radial grid of  851 points,  6 beta functions with:
                l(1) =   0
                l(2) =   0
                l(3) =   1
                l(4) =   1
                l(5) =   2
                l(6) =   2
     Q(r) pseudized with  8 coefficients,  rinner =    1.000   1.000   1.000
                                                       1.000   1.000

     PseudoPot. # 2 for O  read from file:
     /storage/coda1/p-amedford6/0/shared/rich_project_chbe-medford/medford-share/data/pseudos_module/espresso/nninc/pbe/van/O.UPF
     MD5 check sum: 78c19812648e8988a0fe644b0f25305e
     Pseudo is Ultrasoft, Zval =  6.0
     Generated by new atomic code, or converted to UPF format
     Using radial grid of  737 points,  4 beta functions with:
                l(1) =   0
                l(2) =   0
                l(3) =   1
                l(4) =   1
     Q(r) pseudized with  8 coefficients,  rinner =    0.800   0.800   0.800

     PseudoPot. # 3 for N  read from file:
     /storage/coda1/p-amedford6/0/shared/rich_project_chbe-medford/medford-share/data/pseudos_module/espresso/nninc/pbe/van/N.UPF
     MD5 check sum: 90d10febe142ad51ac9d5be1deb811c4
     Pseudo is Ultrasoft, Zval =  5.0
     Generated by new atomic code, or converted to UPF format
     Using radial grid of  729 points,  4 beta functions with:
                l(1) =   0
                l(2) =   0
                l(3) =   1
                l(4) =   1
     Q(r) pseudized with  8 coefficients,  rinner =    0.800   0.800   0.800

     PseudoPot. # 4 for C  read from file:
     /storage/coda1/p-amedford6/0/shared/rich_project_chbe-medford/medford-share/data/pseudos_module/espresso/nninc/pbe/van/C.UPF
     MD5 check sum: 1a69bf6b8db32088f5b2163dbdb77a27
     Pseudo is Ultrasoft, Zval =  4.0
     Generated by new atomic code, or converted to UPF format
     Using radial grid of  721 points,  4 beta functions with:
                l(1) =   0
                l(2) =   0
                l(3) =   1
                l(4) =   1
     Q(r) pseudized with  8 coefficients,  rinner =    0.800   0.800   0.800

     PseudoPot. # 5 for H  read from file:
     /storage/coda1/p-amedford6/0/shared/rich_project_chbe-medford/medford-share/data/pseudos_module/espresso/nninc/pbe/van/H.UPF
     MD5 check sum: b5ee9d7bfd3a09ee7748110bda690ff7
     Pseudo is Ultrasoft, Zval =  1.0
     Generated by new atomic code, or converted to UPF format
     Using radial grid of  615 points,  1 beta functions with:
                l(1) =   0
     Q(r) pseudized with  8 coefficients,  rinner =    0.800

     atomic species   valence    mass     pseudopotential
        Ti1           12.00    47.86700     Ti( 1.00)
        O1             6.00    15.99900     O ( 1.00)
        N1             5.00    14.00700     N ( 1.00)
        C1             4.00    12.01100     C ( 1.00)
        H1             1.00     1.00800     H ( 1.00)

     No symmetry found

   Cartesian axes

     site n.     atom                  positions (alat units)
         1           Ti1 tau(   1) = (   0.0004258   2.9801865   6.0000000  )
         2           Ti1 tau(   2) = (   3.2906075   1.4906267   6.0002472  )
         3           O1  tau(   3) = (   0.0006271   0.0005054   7.9858123  )
         4           O1  tau(   4) = (   3.2906025   0.0005020   7.3038282  )
         5           O1  tau(   5) = (   4.5942328   1.4918067   9.2879030  )
         6           O1  tau(   6) = (   1.9868534   1.4903216   9.2879459  )
         7           Ti1 tau(   7) = (   3.2907910   2.8959150   9.1758416  )
         8           Ti1 tau(   8) = (   0.0015273   1.4827037   9.2680791  )
         9           O1  tau(   9) = (   3.2973591   5.9237820  11.3497511  )
        10           O1  tau(  10) = (   0.0116148   5.9584955  10.6183126  )
        11           O1  tau(  11) = (   1.2811460   1.4768824  12.6391447  )
        12           O1  tau(  12) = (   5.3079631   1.4871840  12.6405626  )
        13           Ti1 tau(  13) = (   6.5754896   2.9244875  12.5445406  )
        14           Ti1 tau(  14) = (   3.3102182   1.2813077  12.7057081  )
        15           O1  tau(  15) = (   6.5763362   0.0566486  14.6337039  )
        16           O1  tau(  16) = (   3.2990834   0.0566264  13.9960278  )
        17           O1  tau(  17) = (   4.5749688   1.5338778  16.1314031  )
        18           O1  tau(  18) = (   2.0677763   1.5208417  16.2171153  )
        19           Ti1 tau(  19) = (   3.2830944   2.9922577  15.6820260  )
        20           Ti1 tau(  20) = (   6.5002293   1.4748383  16.0237708  )
        21           O1  tau(  21) = (   3.2904802   0.0005063   4.7018136  )
        22           O1  tau(  22) = (   0.0234767   5.8639946  17.1540191  )
        23           O1  tau(  23) = (   1.3043587   1.4918075   6.0039043  )
        24           O1  tau(  24) = (   5.2767064   1.4903225   6.0039473  )
        25           Ti1 tau(  25) = (   0.0000382   5.9609847   6.0000000  )
        26           Ti1 tau(  26) = (   3.2902200   4.4714249   6.0002472  )
        27           O1  tau(  27) = (   0.0002396   2.9813036   7.9858123  )
        28           O1  tau(  28) = (   3.2902150   2.9813002   7.3038282  )
        29           O1  tau(  29) = (   4.5938453   4.4726049   9.2879030  )
        30           O1  tau(  30) = (   1.9864658   4.4711199   9.2879459  )
        31           Ti1 tau(  31) = (   3.2891106   5.8743827   9.1763621  )
        32           Ti1 tau(  32) = (   0.0006254   4.4649316   9.2693709  )
        33           O1  tau(  33) = (   3.2952530   2.9960894  11.3054589  )
        34           O1  tau(  34) = (   0.0092240   2.9805883  10.6323155  )
        35           O1  tau(  35) = (   1.2848436   4.4566134  12.6628561  )
        36           O1  tau(  36) = (   5.3073415   4.4462911  12.6631571  )
        37           Ti1 tau(  37) = (   0.0411484   5.9123939  12.5136797  )
        38           Ti1 tau(  38) = (   3.3147701   4.3652790  12.4361622  )
        39           O1  tau(  39) = (   0.0290229   2.9306538  14.8412286  )
        40           O1  tau(  40) = (   3.2875986   2.9640914  13.9120161  )
        41           O1  tau(  41) = (   4.5659564   4.3862643  16.1232528  )
        42           O1  tau(  42) = (   2.0245242   4.4195217  16.0560026  )
        43           Ti1 tau(  43) = (   3.2475481   5.9608109  16.2864591  )
        44           Ti1 tau(  44) = (   0.0132903   4.6514137  15.7972829  )
        45           O1  tau(  45) = (   3.2900926   2.9813045   4.7018136  )
        46           O1  tau(  46) = (   1.3039711   4.4726057   6.0039043  )
        47           O1  tau(  47) = (   5.2763189   4.4711207   6.0039473  )
        48           N1  tau(  48) = (   5.7184149   3.3872802  18.6644769  )
        49           C1  tau(  49) = (   6.5536674   2.6142045  18.0347456  )
        50           H1  tau(  50) = (   0.7520291   2.2354638  18.7152436  )
        51           H1  tau(  51) = (   4.9873861   3.8928837  18.1615307  )
        52           H1  tau(  52) = (   5.8197376   3.6397576  19.6419508  )
        53           O1  tau(  53) = (   3.3578172   5.8156178  18.1613732  )
        54           H1  tau(  54) = (   2.9124532   0.5526369  18.6599525  )

     number of k points=    10  Fermi-Dirac smearing, width (Ry)=  0.0073
                       cart. coord. in units 2pi/alat
        k(    1) = (   0.0000000   0.0000000   0.0000000), wk =   0.1250000
        k(    2) = (   0.0000000   0.0419351   0.0000000), wk =   0.2500000
        k(    3) = (   0.0000000  -0.0838702   0.0000000), wk =   0.1250000
        k(    4) = (   0.0379955   0.0000049   0.0000000), wk =   0.2500000
        k(    5) = (   0.0379955   0.0419400   0.0000000), wk =   0.2500000
        k(    6) = (   0.0379955  -0.0838652   0.0000000), wk =   0.2500000
        k(    7) = (   0.0379955  -0.0419301   0.0000000), wk =   0.2500000
        k(    8) = (  -0.0759910  -0.0000099   0.0000000), wk =   0.1250000
        k(    9) = (  -0.0759910   0.0419252   0.0000000), wk =   0.2500000
        k(   10) = (  -0.0759910  -0.0838800   0.0000000), wk =   0.1250000

     Initial potential from superposition of free atoms

     starting charge  380.99916, renormalised to  397.00000

     negative rho (up, down):  1.674E-02 0.000E+00

     %%%%%%%%%%%%%%%%%%%%%%%%%%%%%%%%%%%%%%%%%%%%%%%%%%%%%%%%%%%%%%%%%%%%%%%%
     %                                                                      %
     % You are using vdW-DF, which was implemented by the Thonhauser group. %
     % Please cite the following two papers that made this development      %
     % possible and the two reviews that describe the various versions:     %
     %                                                                      %
     %   T. Thonhauser et al., PRL 115, 136402 (2015).                      %
     %   T. Thonhauser et al., PRB 76, 125112 (2007).                       %
     %   K. Berland et al., Rep. Prog. Phys. 78, 066501 (2015).             %
     %   D.C. Langreth et al., J. Phys.: Condens. Matter 21, 084203 (2009). %
     %                                                                      %
     %                                                                      %
     % If you are calculating the stress with vdW-DF, please also cite:     %
     %                                                                      %
     %   R. Sabatini et al., J. Phys.: Condens. Matter 24, 424209 (2012).   %
     %                                                                      %
     %%%%%%%%%%%%%%%%%%%%%%%%%%%%%%%%%%%%%%%%%%%%%%%%%%%%%%%%%%%%%%%%%%%%%%%%

     Adding external electric field

     Computed dipole along edir(3) :
        Dipole               -9.3097 Ry au,        -23.6628 Debye
        Dipole field         -0.0176 Ry au,

        Potential amp.        1.6286 Ry
        Total length         46.3494 bohr

     Starting wfcs are  300 atomic wfcs
  @ DRIVER MODE: Message from server: STATUS
  @ DRIVER MODE: Message from server: POSDATA
  @ DRIVER MODE: Reading and sharing cell
  @ DRIVER MODE: Reading and sharing positions
  @ DRIVER MODE: Received positions

     Self-consistent Calculation

     iteration #  1     ecut=    29.40 Ry     beta= 0.05
     Davidson diagonalization with overlap
     c_bands:  1 eigenvalues not converged
     c_bands:  2 eigenvalues not converged
     c_bands:  1 eigenvalues not converged
     c_bands:  1 eigenvalues not converged
     c_bands:  1 eigenvalues not converged
     c_bands:  2 eigenvalues not converged
     c_bands:  1 eigenvalues not converged
     c_bands:  1 eigenvalues not converged
     c_bands:  2 eigenvalues not converged
     ethr =  1.00E-05,  avg # of iterations = 19.6

[...]

     total energy              =   -2539.09031238 Ry
     estimated scf accuracy    <    4593.65535265 Ry

     iteration #  2     ecut=    29.40 Ry     beta= 0.05
     Davidson diagonalization with overlap
     ethr =  1.00E-02,  avg # of iterations = 23.4

[...]

     iteration # 49     ecut=    29.40 Ry     beta= 0.05
     Davidson diagonalization with overlap
     c_bands:  1 eigenvalues not converged
     c_bands:  2 eigenvalues not converged
     ethr =  1.52E-06,  avg # of iterations = 12.4

[...]

     total energy              =   -2952.67092727 Ry
     estimated scf accuracy    <       0.00000009 Ry

     iteration # 70     ecut=    29.40 Ry     beta= 0.05
     Davidson diagonalization with overlap
     ethr =  2.33E-11,  avg # of iterations =  9.1

     negative rho (up, down):  1.682E-02 0.000E+00

     Adding external electric field

     Computed dipole along edir(3) :
        Dipole                1.3061 Ry au,          3.3197 Debye
        Dipole field          0.0025 Ry au,

        Potential amp.       -0.2285 Ry
        Total length         46.3494 bohr

     End of self-consistent calculation

          k = 0.0000 0.0000 0.0000 ( 18029 PWs)   bands (ev):

   -55.6250 -55.5466 -55.5125 -55.3633 -55.3392 -55.3292 -55.3037 -55.2963
   -55.2789 -55.2285 -55.1427 -55.1066 -55.0298 -55.0049 -54.4977 -54.4636
   -32.0279 -31.9572 -31.8655 -31.8483 -31.8383 -31.8254 -31.8237 -31.7913
   -31.7626 -31.7188 -31.6990 -31.6708 -31.6501 -31.6266 -31.6210 -31.6093
   -31.6042 -31.5864 -31.5528 -31.5376 -31.5218 -31.5177 -31.5034 -31.5023
   -31.4913 -31.4807 -31.4761 -31.4759 -31.4470 -31.4358 -31.4260 -31.4041
   -31.3865 -31.3859 -31.3837 -31.3083 -31.2967 -31.2757 -31.2434 -31.2344
   -31.2240 -31.1534 -30.9025 -30.8190 -30.7964 -30.7203 -30.6340 -30.5221
   -17.3065 -16.4837 -16.1313 -15.9667 -15.7696 -15.6651 -15.5958 -15.4071
   -15.3228 -15.2659 -15.0739 -15.0710 -15.0404 -15.0218 -14.9956 -14.9667
   -14.9587 -14.9530 -14.9260 -14.8927 -14.8757 -14.8476 -14.8302 -14.7720
   -14.7440 -14.7275 -14.6676 -14.5717 -14.5081 -14.2952 -14.1474 -12.9957
   -12.8798  -9.6260  -7.3135  -4.7407  -4.0628  -3.5004  -3.4333  -3.3719
    -3.3228  -3.2477  -3.0161  -2.8686  -2.7638  -2.7361  -2.6500  -2.6173
    -2.5707  -2.4920  -2.4247  -2.4013  -2.3558  -2.3181  -2.2871  -2.2645
    -2.2394  -2.2175  -2.1622  -2.1235  -2.0465  -1.9979  -1.9287  -1.9064
    -1.8494  -1.8110  -1.8084  -1.7937  -1.7568  -1.7516  -1.7431  -1.7231
    -1.6164  -1.5845  -1.5346  -1.4921  -1.3280  -1.1403  -1.1200  -1.0250
    -0.9884  -0.9506  -0.9232  -0.9079  -0.8822  -0.8585  -0.7646  -0.7450
    -0.6636  -0.6014  -0.5570  -0.5071  -0.4074  -0.3397  -0.3138  -0.2663
    -0.2617  -0.2299  -0.2142  -0.1258  -0.0485  -0.0015   0.0111   0.0631
     0.1480   0.1666   0.2217   0.2523   0.2936   0.3276   0.4006   0.4269
     0.4490   0.4599   0.4781   0.5350   0.5743   0.6073   0.6769   0.7785
     0.7874   0.8605   0.8617   0.8722   1.0735   1.1623   1.1815   1.2641
     1.4879   1.5290   1.6205   1.7251   2.0935   2.1378   3.5566   3.7003
     3.7179   3.7831   3.8313   3.9435   3.9559   4.0415   4.1697   4.2559

[...]

          k = 0.0380-0.0419 0.0000 ( 17876 PWs)   bands (ev):

[...]

          k =-0.0760-0.0000 0.0000 ( 17886 PWs)   bands (ev):

[...]

          k =-0.0760-0.0839 0.0000 ( 17948 PWs)   bands (ev):

   -55.6243 -55.5297 -55.5292 -55.3464 -55.3459 -55.3256 -55.3171 -55.2967
   -55.2724 -55.2350 -55.1405 -55.1029 -55.0334 -55.0070 -54.4810 -54.4801
   -31.9027 -31.8435 -31.8432 -31.8371 -31.8262 -31.8240 -31.8236 -31.6997
   -31.6716 -31.6652 -31.6496 -31.6490 -31.6429 -31.6340 -31.6208 -31.6021
   -31.5959 -31.5929 -31.5586 -31.5581 -31.5401 -31.5385 -31.5242 -31.5219
   -31.5150 -31.5105 -31.5024 -31.5007 -31.4905 -31.4845 -31.4586 -31.4525
   -31.4080 -31.3897 -31.3807 -31.3636 -31.3121 -31.3003 -31.2832 -31.2449
   -31.2383 -31.2262 -30.8095 -30.8088 -30.7161 -30.7149 -30.6775 -30.6768
   -17.3023 -16.4740 -15.5933 -15.5834 -15.4727 -15.4561 -15.3536 -15.2866
   -15.2532 -15.2289 -15.2089 -15.1776 -15.1724 -15.1254 -15.0800 -15.0642
   -15.0336 -15.0078 -14.9906 -14.9534 -14.9231 -14.9064 -14.8825 -14.8448
   -14.8382 -14.8234 -14.8101 -14.6413 -14.5936 -14.4488 -14.4219 -12.9820
   -12.9816  -9.6276  -7.3130  -4.7352  -4.0595  -2.8585  -2.7990  -2.6826
    -2.6463  -2.5852  -2.5108  -2.4775  -2.4637  -2.3772  -2.3663  -2.3622
    -2.3238  -2.2988  -2.2804  -2.2521  -2.2485  -2.2393  -2.2044  -2.1975
    -2.1801  -2.1591  -2.1426  -2.1273  -2.1128  -2.1040  -2.0809  -2.0581
    -2.0316  -1.9885  -1.8317  -1.7937  -1.7659  -1.6494  -1.6400  -1.6220
    -1.6110  -1.5978  -1.5661  -1.5000  -1.4815  -1.4752  -1.3165  -1.2316
    -1.1903  -1.1253  -1.1048  -1.0763  -0.9869  -0.9740  -0.9454  -0.9081
    -0.8604  -0.7877  -0.6889  -0.6817  -0.6378  -0.5301  -0.4797  -0.4672
    -0.4642  -0.4141  -0.4037  -0.3870  -0.3465  -0.2744  -0.2584  -0.2335
    -0.2007  -0.1853  -0.1441  -0.0773   0.0272   0.1072   0.2132   0.2502
     0.3313   0.3580   0.3717   0.5243   0.5874   0.6269   0.6747   0.6827
     0.7848   0.7955   0.8099   0.8909   0.9891   1.0086   1.0695   1.0865
     1.1061   1.1440   1.8943   1.9023   1.9580   1.9583   3.7448   4.0317
     4.0838   4.0940   4.1147   4.1295   4.1354   4.1640   4.2204   4.2505

     the Fermi energy is     3.5816 ev

!    total energy              =   -2952.67095292 Ry
     estimated scf accuracy    <       0.00000005 Ry
     smearing contrib. (-TS)   =      -0.02000791 Ry
     internal energy E=F+TS    =   -2952.65094501 Ry

     The total energy is F=E-TS. E is the sum of the following terms:
     one-electron contribution =  -23942.83060716 Ry
     hartree contribution      =   12064.35039017 Ry
     xc contribution           =    -487.97380197 Ry
     ewald contribution        =    9413.79985479 Ry
     electric field correction =       0.00321916 Ry

     convergence has been achieved in  70 iterations

     Forces acting on atoms (cartesian axes, Ry/au):

     atom    1 type  1   force =     0.00004067   -0.00031172    0.09544346
     atom    2 type  1   force =    -0.00013993    0.00030700   -0.17426501
     atom    3 type  2   force =    -0.00001932   -0.00015442   -0.02261103
     atom    4 type  2   force =     0.00003794   -0.00185332    0.05173171
     atom    5 type  2   force =    -0.00667930   -0.00269924    0.00168971
     atom    6 type  2   force =     0.00822977   -0.00219299    0.00116914
     atom    7 type  1   force =    -0.00012285   -0.00381944    0.01182394
     atom    8 type  1   force =     0.00015870    0.00376138    0.01274351
     atom    9 type  2   force =     0.00020955    0.00038424    0.00084069
     atom   10 type  2   force =    -0.00197591   -0.00130170   -0.01612398
     atom   11 type  2   force =     0.00115913   -0.00021484   -0.00028843
     atom   12 type  2   force =    -0.00060478    0.00012500   -0.00024430
     atom   13 type  1   force =    -0.00021679   -0.00145888    0.00051699
     atom   14 type  1   force =     0.00009569   -0.00042773   -0.00008871
     atom   15 type  2   force =     0.00008833    0.00043084   -0.00083318
     atom   16 type  2   force =     0.00005428    0.00106404   -0.00048158
     atom   17 type  2   force =    -0.00008255    0.00022195    0.00016161
     atom   18 type  2   force =     0.00013630    0.00018120   -0.00020155
     atom   19 type  1   force =    -0.00033392   -0.00000971    0.00025262
     atom   20 type  1   force =     0.00039690    0.00001071   -0.00037956
     atom   21 type  2   force =     0.00005844    0.00010474    0.10288273
     atom   22 type  2   force =    -0.00034417    0.00043540    0.00039786
     atom   23 type  2   force =    -0.07252324   -0.00014252   -0.02756343
     atom   24 type  2   force =     0.07242675    0.00026582   -0.02759263
     atom   25 type  1   force =     0.00008839   -0.00014127    0.09505807
     atom   26 type  1   force =    -0.00010776   -0.00128028   -0.17428298
     atom   27 type  2   force =     0.00015652   -0.00026200   -0.02135906
     atom   28 type  2   force =     0.00004765   -0.00014650    0.04734398
     atom   29 type  2   force =    -0.00545592    0.00230697   -0.00004398
     atom   30 type  2   force =     0.00702917    0.00274257   -0.00055398
     atom   31 type  1   force =    -0.00016583    0.00659628    0.00052519
     atom   32 type  1   force =     0.00008419   -0.00557568    0.01180261
     atom   33 type  2   force =    -0.00014506   -0.00038797    0.00013036
     atom   34 type  2   force =    -0.00121651    0.00016448   -0.01565898
     atom   35 type  2   force =    -0.00039223    0.00043662    0.00015864
     atom   36 type  2   force =     0.00103979    0.00059012    0.00042035
     atom   37 type  1   force =    -0.00023883    0.00177383    0.00017476
     atom   38 type  1   force =    -0.00005666    0.00024020    0.00036428
     atom   39 type  2   force =    -0.00011731    0.00006454   -0.00015174
     atom   40 type  2   force =     0.00037709   -0.00033205   -0.00021419
     atom   41 type  2   force =    -0.00044389    0.00035553    0.00029107
     atom   42 type  2   force =     0.00067098    0.00019789    0.00024553
     atom   43 type  1   force =     0.00015482    0.00019560    0.00045579
     atom   44 type  1   force =     0.00036706    0.00028908    0.00076716
     atom   45 type  2   force =     0.00006080   -0.00008867    0.10266426
     atom   46 type  2   force =    -0.07256919   -0.00004420   -0.02759140
     atom   47 type  2   force =     0.07249581    0.00040859   -0.02761874
     atom   48 type  3   force =    -0.00059493    0.00008039   -0.00078246
     atom   49 type  4   force =     0.00484905   -0.00247106    0.00515462
     atom   50 type  5   force =    -0.00484786    0.00153073   -0.00550661
     atom   51 type  5   force =     0.00036401    0.00030476   -0.00001339
     atom   52 type  5   force =    -0.00033427    0.00048202    0.00019707
     atom   53 type  2   force =    -0.00004871   -0.00001056   -0.00081420
     atom   54 type  5   force =    -0.00110004   -0.00072578   -0.00014260

     Total force =     0.362475     Total SCF correction =     0.000606
  @ DRIVER MODE: Message from server: STATUS
  @ DRIVER MODE: Message from server: GETFORCE
  @ DRIVER MODE: Returning v,forces,stress,ensemble

     Writing output data file ./calc.save/
  @ DRIVER MODE: Message from server: EXIT
  @ DRIVE MODE: Exiting

     General routines

     Parallel routines

   This run was terminated on:  22: 0:32  22Sep2021

   JOB DONE.