     Program PWSCF v.6.7GPU starts on 23Sep2021 at 13:43:12

     R & G space division:  proc/nbgrp/npool/nimage =       8
     Reading input from /storage/home/hcoda1/3/ntian30/research/carbon/CxH_vib/H2O_calc/ads_slab/CH3N2HHO_a/out_0039/pw.inp
Warning: card &CELL ignored
Warning: card   CELL_DYNAMICS='IPI', ignored
Warning: card / ignored

     Current dimensions of program PWSCF are:
     Max number of different atomic species (ntypx) = 10
     Max number of k-points (npk) =  40000
     Max angular momentum in pseudopotentials (lmaxx) =  3
     Presently no symmetry can be used with electric field

     Message from routine cell_base_init:
     DEPRECATED: use true lattice parameter, not A to a.u. conversion factor

     IMPORTANT: XC functional enforced from input :
     Exchange-correlation= BEEF-VDW
                           (   1   4  43  14   2   0   0)
     Any further DFT definition will be discarded
     Please, verify this is what you really want

  @ DRIVER MODE: Connecting to
 qe_1139763_2941009.sched-torque.pace.gatech.eduskv816sw_scratch
  using UNIX socket
  @ DRIVER MODE: Message from server: STATUS
  @ DRIVER MODE: Message from server: INIT
  @ DRIVER MODE: Receiving replica           0          -1
  @ DRIVER MODE: Receiving encoded integer          25
  @ DRIVER MODE:  SCF:  T  FORCE:  T  STRESS:  F  VC:  F  ENSEMBLE:  F
  @ DRIVER MODE:  SCF:  T  FORCE:  T  STRESS:  F  VC:  F  ENSEMBLE:  F

     Using Slab Decomposition

     bravais-lattice index     =            0
     lattice parameter (alat)  =       1.8897  a.u.
     unit-cell volume          =    6658.9804 (a.u.)^3
     number of atoms/cell      =           56
     number of atomic types    =            5
     number of electrons       =       403.00
     number of Kohn-Sham states=          211
     kinetic-energy cutoff     =      29.3995  Ry
     charge density cutoff     =     293.9946  Ry
     scf convergence threshold =      7.3E-08
     mixing beta               =       0.0500
     number of iterations used =            8  plain     mixing
     Exchange-correlation= BEEF-VDW
                           (   1   4  43  14   2   0   0)

     celldm(1)=   1.889726  celldm(2)=   0.000000  celldm(3)=   0.000000
     celldm(4)=   0.000000  celldm(5)=   0.000000  celldm(6)=   0.000000

     crystal axes: (cart. coord. in units of alat)
               a(1) = (   6.579727   0.000000   0.000000 )
               a(2) = (  -0.000775   5.961596   0.000000 )
               a(3) = (   0.000000   0.000000  25.155947 )

     reciprocal axes: (cart. coord. in units 2 pi/alat)
               b(1) = (  0.151982  0.000020  0.000000 )
               b(2) = (  0.000000  0.167740  0.000000 )
               b(3) = (  0.000000  0.000000  0.039752 )

     PseudoPot. # 1 for Ti read from file:
     /storage/coda1/p-amedford6/0/shared/rich_project_chbe-medford/medford-share/data/pseudos_module/espresso/nninc/pbe/van/Ti.UPF
     MD5 check sum: 8e4df49b7f0d34bbd5052bf3f5ea0213
     Pseudo is Ultrasoft, Zval = 12.0
     Generated by new atomic code, or converted to UPF format
     Using radial grid of  851 points,  6 beta functions with:
                l(1) =   0
                l(2) =   0
                l(3) =   1
                l(4) =   1
                l(5) =   2
                l(6) =   2
     Q(r) pseudized with  8 coefficients,  rinner =    1.000   1.000   1.000
                                                       1.000   1.000

     PseudoPot. # 2 for O  read from file:
     /storage/coda1/p-amedford6/0/shared/rich_project_chbe-medford/medford-share/data/pseudos_module/espresso/nninc/pbe/van/O.UPF
     MD5 check sum: 78c19812648e8988a0fe644b0f25305e
     Pseudo is Ultrasoft, Zval =  6.0
     Generated by new atomic code, or converted to UPF format
     Using radial grid of  737 points,  4 beta functions with:
                l(1) =   0
                l(2) =   0
                l(3) =   1
                l(4) =   1
     Q(r) pseudized with  8 coefficients,  rinner =    0.800   0.800   0.800

     PseudoPot. # 3 for N  read from file:
     /storage/coda1/p-amedford6/0/shared/rich_project_chbe-medford/medford-share/data/pseudos_module/espresso/nninc/pbe/van/N.UPF
     MD5 check sum: 90d10febe142ad51ac9d5be1deb811c4
     Pseudo is Ultrasoft, Zval =  5.0
     Generated by new atomic code, or converted to UPF format
     Using radial grid of  729 points,  4 beta functions with:
                l(1) =   0
                l(2) =   0
                l(3) =   1
                l(4) =   1
     Q(r) pseudized with  8 coefficients,  rinner =    0.800   0.800   0.800

     PseudoPot. # 4 for C  read from file:
     /storage/coda1/p-amedford6/0/shared/rich_project_chbe-medford/medford-share/data/pseudos_module/espresso/nninc/pbe/van/C.UPF
     MD5 check sum: 1a69bf6b8db32088f5b2163dbdb77a27
     Pseudo is Ultrasoft, Zval =  4.0
     Generated by new atomic code, or converted to UPF format
     Using radial grid of  721 points,  4 beta functions with:
                l(1) =   0
                l(2) =   0
                l(3) =   1
                l(4) =   1
     Q(r) pseudized with  8 coefficients,  rinner =    0.800   0.800   0.800

     PseudoPot. # 5 for H  read from file:
     /storage/coda1/p-amedford6/0/shared/rich_project_chbe-medford/medford-share/data/pseudos_module/espresso/nninc/pbe/van/H.UPF
     MD5 check sum: b5ee9d7bfd3a09ee7748110bda690ff7
     Pseudo is Ultrasoft, Zval =  1.0
     Generated by new atomic code, or converted to UPF format
     Using radial grid of  615 points,  1 beta functions with:
                l(1) =   0
     Q(r) pseudized with  8 coefficients,  rinner =    0.800

     atomic species   valence    mass     pseudopotential
        Ti1           12.00    47.86700     Ti( 1.00)
        O1             6.00    15.99900     O ( 1.00)
        N1             5.00    14.00700     N ( 1.00)
        C1             4.00    12.01100     C ( 1.00)
        H1             1.00     1.00800     H ( 1.00)

     No symmetry found

   Cartesian axes

     site n.     atom                  positions (alat units)
         1           Ti1 tau(   1) = (   0.0004258   2.9801865   6.0000000  )
         2           Ti1 tau(   2) = (   3.2906075   1.4906267   6.0002472  )
         3           O1  tau(   3) = (   0.0006271   0.0005054   7.9858123  )
         4           O1  tau(   4) = (   3.2906025   0.0005020   7.3038282  )
         5           O1  tau(   5) = (   4.5942328   1.4918067   9.2879030  )
         6           O1  tau(   6) = (   1.9868534   1.4903216   9.2879459  )
         7           Ti1 tau(   7) = (   3.2907910   2.8959150   9.1758416  )
         8           Ti1 tau(   8) = (   0.0015273   1.4827037   9.2680791  )
         9           O1  tau(   9) = (   3.2827749   5.9542966  11.3123607  )
        10           O1  tau(  10) = (   0.0116148   5.9584955  10.6183126  )
        11           O1  tau(  11) = (   1.2790800   1.4852124  12.6463597  )
        12           O1  tau(  12) = (   5.2943908   1.4901875  12.6352807  )
        13           Ti1 tau(  13) = (   6.5507123   3.1127926  12.6266869  )
        14           Ti1 tau(  14) = (   3.2873181   1.3120036  12.6863921  )
        15           O1  tau(  15) = (   6.5656690   0.0172326  14.6855350  )
        16           O1  tau(  16) = (   3.2842416   0.0515509  13.9244022  )
        17           O1  tau(  17) = (   4.5437539   1.5966601  16.0680646  )
        18           O1  tau(  18) = (   2.0303991   1.5956099  16.0781401  )
        19           Ti1 tau(  19) = (   3.2961159   3.0594788  15.6697774  )
        20           Ti1 tau(  20) = (   6.5318457   1.5630605  15.7780207  )
        21           O1  tau(  21) = (   3.2904802   0.0005063   4.7018136  )
        22           O1  tau(  22) = (   6.5726385   0.0820865  17.2550913  )
        23           O1  tau(  23) = (   1.3043587   1.4918075   6.0039043  )
        24           O1  tau(  24) = (   5.2767064   1.4903225   6.0039473  )
        25           Ti1 tau(  25) = (   0.0000382   5.9609847   6.0000000  )
        26           Ti1 tau(  26) = (   3.2902200   4.4714249   6.0002472  )
        27           O1  tau(  27) = (   0.0002396   2.9813036   7.9858123  )
        28           O1  tau(  28) = (   3.2902150   2.9813002   7.3038282  )
        29           O1  tau(  29) = (   4.5938453   4.4726049   9.2879030  )
        30           O1  tau(  30) = (   1.9864658   4.4711199   9.2879459  )
        31           Ti1 tau(  31) = (   3.2891106   5.8743827   9.1763621  )
        32           Ti1 tau(  32) = (   0.0006254   4.4649316   9.2693709  )
        33           O1  tau(  33) = (   3.2807365   3.0201584  11.2787527  )
        34           O1  tau(  34) = (   0.0092240   2.9805883  10.6323155  )
        35           O1  tau(  35) = (   1.2751182   4.4744369  12.6357194  )
        36           O1  tau(  36) = (   5.2842299   4.4734050  12.6250694  )
        37           Ti1 tau(  37) = (   0.0094520   0.1224552  12.5707632  )
        38           Ti1 tau(  38) = (   3.2670701   4.4034752  12.4162930  )
        39           O1  tau(  39) = (   6.5622168   3.0106679  14.6773207  )
        40           O1  tau(  40) = (   3.2891587   3.0115246  13.8909557  )
        41           O1  tau(  41) = (   4.5321968   4.4927823  16.1577793  )
        42           O1  tau(  42) = (   2.0250423   4.4919485  16.1304878  )
        43           Ti1 tau(  43) = (   3.2250977   0.0853664  16.3312049  )
        44           Ti1 tau(  44) = (   6.5532039   4.7053171  16.1332850  )
        45           O1  tau(  45) = (   3.2900926   2.9813045   4.7018136  )
        46           O1  tau(  46) = (   1.3039711   4.4726057   6.0039043  )
        47           O1  tau(  47) = (   5.2763189   4.4711207   6.0039473  )
        48           N1  tau(  48) = (   0.0650423   2.5931692  18.6004617  )
        49           N1  tau(  49) = (   0.0051179   2.9528117  17.3995676  )
        50           C1  tau(  50) = (   0.1360749   3.5155665  19.7334966  )
        51           H1  tau(  51) = (   6.1082608   4.3937080  19.5213757  )
        52           H1  tau(  52) = (   6.3628389   3.0028702  20.6266755  )
        53           H1  tau(  53) = (   1.1699357   3.8405576  19.8861820  )
        54           H1  tau(  54) = (   0.1060244   1.5675976  18.7788705  )
        55           O1  tau(  55) = (   3.2396048   0.1449850  18.2004881  )
        56           H1  tau(  56) = (   3.4111690   5.2654565  18.6466900  )

     number of k points=    10  Fermi-Dirac smearing, width (Ry)=  0.0073
                       cart. coord. in units 2pi/alat
        k(    1) = (   0.0000000   0.0000000   0.0000000), wk =   0.1250000
        k(    2) = (   0.0000000   0.0419351   0.0000000), wk =   0.2500000
        k(    3) = (   0.0000000  -0.0838702   0.0000000), wk =   0.1250000
        k(    4) = (   0.0379955   0.0000049   0.0000000), wk =   0.2500000
        k(    5) = (   0.0379955   0.0419400   0.0000000), wk =   0.2500000
        k(    6) = (   0.0379955  -0.0838652   0.0000000), wk =   0.2500000
        k(    7) = (   0.0379955  -0.0419301   0.0000000), wk =   0.2500000
        k(    8) = (  -0.0759910  -0.0000099   0.0000000), wk =   0.1250000
        k(    9) = (  -0.0759910   0.0419252   0.0000000), wk =   0.2500000
        k(   10) = (  -0.0759910  -0.0838800   0.0000000), wk =   0.1250000

     Initial potential from superposition of free atoms

     starting charge  386.99914, renormalised to  403.00000

     negative rho (up, down):  1.429E-02 0.000E+00

     %%%%%%%%%%%%%%%%%%%%%%%%%%%%%%%%%%%%%%%%%%%%%%%%%%%%%%%%%%%%%%%%%%%%%%%%
     %                                                                      %
     % You are using vdW-DF, which was implemented by the Thonhauser group. %
     % Please cite the following two papers that made this development      %
     % possible and the two reviews that describe the various versions:     %
     %                                                                      %
     %   T. Thonhauser et al., PRL 115, 136402 (2015).                      %
     %   T. Thonhauser et al., PRB 76, 125112 (2007).                       %
     %   K. Berland et al., Rep. Prog. Phys. 78, 066501 (2015).             %
     %   D.C. Langreth et al., J. Phys.: Condens. Matter 21, 084203 (2009). %
     %                                                                      %
     %                                                                      %
     % If you are calculating the stress with vdW-DF, please also cite:     %
     %                                                                      %
     %   R. Sabatini et al., J. Phys.: Condens. Matter 24, 424209 (2012).   %
     %                                                                      %
     %%%%%%%%%%%%%%%%%%%%%%%%%%%%%%%%%%%%%%%%%%%%%%%%%%%%%%%%%%%%%%%%%%%%%%%%

     Adding external electric field

     Computed dipole along edir(3) :
        Dipole              -12.7219 Ry au,        -32.3358 Debye
        Dipole field         -0.0240 Ry au,

        Potential amp.        2.2255 Ry
        Total length         46.3494 bohr

     Starting wfcs are  305 atomic wfcs
  @ DRIVER MODE: Message from server: STATUS
  @ DRIVER MODE: Message from server: POSDATA
  @ DRIVER MODE: Reading and sharing cell
  @ DRIVER MODE: Reading and sharing positions
  @ DRIVER MODE: Received positions

     Self-consistent Calculation

     iteration #  1     ecut=    29.40 Ry     beta= 0.05
     Davidson diagonalization with overlap
     c_bands:  5 eigenvalues not converged
     c_bands:  4 eigenvalues not converged
     c_bands:  3 eigenvalues not converged
     c_bands:  4 eigenvalues not converged
     c_bands:  5 eigenvalues not converged
     c_bands:  4 eigenvalues not converged
     c_bands:  1 eigenvalues not converged
     c_bands:  4 eigenvalues not converged
     ethr =  1.00E-05,  avg # of iterations = 25.4

[...]

     total energy              =   -2361.24596329 Ry
     estimated scf accuracy    <    6936.02074249 Ry

     iteration #  2     ecut=    29.40 Ry     beta= 0.05
     Davidson diagonalization with overlap
     ethr =  1.00E-02,  avg # of iterations = 23.4

[...]

     iteration # 38     ecut=    29.40 Ry     beta= 0.05
     Davidson diagonalization with overlap
     c_bands:  2 eigenvalues not converged
     c_bands:  1 eigenvalues not converged
     c_bands:  1 eigenvalues not converged
     c_bands:  1 eigenvalues not converged
     ethr =  1.32E-06,  avg # of iterations = 18.0

[...]

     total energy              =   -2973.99518041 Ry
     estimated scf accuracy    <       0.00000026 Ry

     iteration # 72     ecut=    29.40 Ry     beta= 0.05
     Davidson diagonalization with overlap
     ethr =  2.24E-11,  avg # of iterations =  7.9

     negative rho (up, down):  1.502E-02 0.000E+00

     Adding external electric field

     Computed dipole along edir(3) :
        Dipole                1.1929 Ry au,          3.0319 Debye
        Dipole field          0.0023 Ry au,

        Potential amp.       -0.2087 Ry
        Total length         46.3494 bohr

     End of self-consistent calculation

          k = 0.0000 0.0000 0.0000 ( 18029 PWs)   bands (ev):

   -55.6992 -55.6653 -55.3854 -55.3514 -55.2784 -55.1687 -55.1137 -55.0368
   -54.9907 -54.9597 -54.8302 -54.7375 -54.6956 -54.6276 -54.5265 -54.4925
   -32.1591 -31.9934 -31.9696 -31.8609 -31.8542 -31.7826 -31.7610 -31.6509
   -31.6077 -31.6036 -31.5926 -31.5388 -31.5371 -31.5173 -31.4960 -31.4933
   -31.4895 -31.3947 -31.3859 -31.3713 -31.3348 -31.3154 -31.3058 -31.2950
   -31.2740 -31.2731 -31.2378 -31.1999 -31.1775 -31.1751 -31.1664 -31.1474
   -31.0971 -31.0302 -30.9933 -30.9536 -30.9506 -30.9258 -30.9207 -30.9066
   -30.8986 -30.8561 -30.8409 -30.8375 -30.8327 -30.7441 -30.6589 -30.5470
   -19.0613 -16.2316 -16.0559 -15.7652 -15.5950 -15.3877 -15.3593 -15.2629
   -15.1598 -15.1447 -15.0392 -14.9746 -14.8900 -14.8209 -14.8035 -14.7523
   -14.7230 -14.6967 -14.6817 -14.6723 -14.6346 -14.6017 -14.5854 -14.5092
   -14.4639 -14.4448 -14.4184 -14.3545 -14.2575 -13.9959 -13.9288 -13.0242
   -12.9108 -12.5726  -9.2920  -6.1991  -4.7726  -4.7201  -3.7786  -3.5347
    -3.4390  -3.3299  -3.1218  -3.0724  -2.8953  -2.7728  -2.7535  -2.5325
    -2.5046  -2.3923  -2.3777  -2.3321  -2.3257  -2.2910  -2.2249  -2.1967
    -2.1253  -2.0648  -2.0375  -2.0036  -1.9496  -1.8957  -1.8918  -1.8772
    -1.8200  -1.7517  -1.7235  -1.7136  -1.6700  -1.6066  -1.5976  -1.5823
    -1.5633  -1.5419  -1.3982  -1.2922  -1.2309  -1.1951  -1.1439  -1.0854
    -1.0323  -1.0208  -0.9198  -0.8395  -0.7977  -0.6816  -0.6535  -0.6123
    -0.5281  -0.5048  -0.4619  -0.4434  -0.4007  -0.3939  -0.2884  -0.2712
    -0.2374  -0.1935  -0.0770  -0.0281  -0.0194   0.0610   0.1217   0.2018
     0.2429   0.2580   0.2823   0.3691   0.3964   0.4142   0.4230   0.4941
     0.5130   0.5616   0.6156   0.6980   0.7101   0.7502   0.7854   0.7982
     0.9275   0.9356   1.0257   1.0500   1.0611   1.1246   1.2180   1.2788
     1.3896   1.4041   1.4971   1.4988   1.5191   1.7178   1.8910   2.0510
     2.0913   3.5021   3.6212   3.6837   3.7208   3.9316   3.9432   4.2038
     4.2798   4.3744   4.4102

[...]

          k = 0.0380-0.0419 0.0000 ( 17876 PWs)   bands (ev):

[...]

          k =-0.0760-0.0000 0.0000 ( 17886 PWs)   bands (ev):

[...]

          k =-0.0760-0.0839 0.0000 ( 17948 PWs)   bands (ev):

   -55.6824 -55.6820 -55.3709 -55.3656 -55.2778 -55.1629 -55.1194 -55.0290
   -54.9983 -54.9601 -54.8281 -54.7352 -54.6976 -54.6299 -54.5100 -54.5089
   -31.9793 -31.9789 -31.9747 -31.9746 -31.8059 -31.8054 -31.6891 -31.6836
   -31.5692 -31.5650 -31.5636 -31.5574 -31.5547 -31.4940 -31.4839 -31.4669
   -31.4340 -31.3849 -31.3831 -31.3615 -31.3475 -31.3455 -31.3344 -31.3334
   -31.2578 -31.2453 -31.2375 -31.2334 -31.2058 -31.1948 -31.1663 -31.1576
   -31.0893 -31.0400 -31.0355 -30.9942 -30.9607 -30.9544 -30.9541 -30.9115
   -30.8760 -30.8460 -30.8452 -30.8404 -30.7405 -30.7391 -30.7020 -30.7011
   -19.0579 -16.2244 -15.4707 -15.4604 -15.3163 -15.3069 -15.2308 -15.1399
   -15.1214 -15.0932 -15.0455 -15.0221 -14.9415 -14.8853 -14.8664 -14.8406
   -14.8226 -14.8078 -14.7494 -14.7467 -14.7305 -14.7185 -14.6518 -14.6137
   -14.5830 -14.5771 -14.4680 -14.3899 -14.3044 -14.1611 -14.0654 -13.0137
   -13.0132 -12.5730  -9.2991  -6.1917  -4.7619  -4.7212  -3.7718  -3.4097
    -2.6495  -2.6061  -2.5161  -2.4372  -2.4324  -2.3835  -2.3826  -2.3011
    -2.2488  -2.1904  -2.1660  -2.1587  -2.1573  -2.1267  -2.1188  -2.0633
    -2.0582  -2.0411  -2.0380  -1.9822  -1.9571  -1.9431  -1.8918  -1.8361
    -1.7857  -1.7495  -1.7272  -1.6873  -1.6662  -1.6633  -1.5795  -1.5654
    -1.5371  -1.5097  -1.4651  -1.4360  -1.3810  -1.3581  -1.3019  -1.1745
    -1.1041  -1.0166  -0.9117  -0.8902  -0.8575  -0.8244  -0.8111  -0.7890
    -0.7567  -0.6415  -0.6308  -0.5811  -0.5481  -0.5198  -0.5047  -0.4765
    -0.4532  -0.3527  -0.3107  -0.2807  -0.2401  -0.2062  -0.1776  -0.1447
    -0.0941  -0.0540  -0.0443  -0.0133   0.0213   0.0350   0.1887   0.2678
     0.4007   0.4286   0.5185   0.5662   0.5971   0.6274   0.6538   0.7753
     0.8228   0.8440   0.8809   0.9022   1.0009   1.0976   1.1182   1.1844
     1.2213   1.3265   1.3573   1.4451   1.4948   1.8807   1.8885   1.9095
     1.9100   3.3795   4.0471   4.0499   4.0614   4.0747   4.2399   4.2425
     4.3429   4.3671   4.4836

     the Fermi energy is     3.4585 ev

!    total energy              =   -2973.99520097 Ry
     estimated scf accuracy    <       0.00000006 Ry
     smearing contrib. (-TS)   =      -0.01689414 Ry
     internal energy E=F+TS    =   -2973.97830683 Ry

     The total energy is F=E-TS. E is the sum of the following terms:
     one-electron contribution =  -23437.77218264 Ry
     hartree contribution      =   11816.34000349 Ry
     xc contribution           =    -493.94831616 Ry
     ewald contribution        =    9141.39950330 Ry
     electric field correction =       0.00268519 Ry

     convergence has been achieved in  72 iterations

     Forces acting on atoms (cartesian axes, Ry/au):

     atom    1 type  1   force =     0.00012189   -0.00024154    0.10268213
     atom    2 type  1   force =    -0.00011702    0.00008876   -0.16807969
     atom    3 type  2   force =    -0.00000798    0.00045669   -0.03238278
     atom    4 type  2   force =     0.00002784   -0.00097778    0.04012082
     atom    5 type  2   force =    -0.00543557   -0.00191397   -0.00433529
     atom    6 type  2   force =     0.00667067   -0.00135906   -0.00593438
     atom    7 type  1   force =    -0.00053688   -0.00530864    0.02999603
     atom    8 type  1   force =     0.00069669    0.00860871    0.04846253
     atom    9 type  2   force =     0.00012402   -0.00130927   -0.00103677
     atom   10 type  2   force =    -0.00253552    0.00301355   -0.03408979
     atom   11 type  2   force =    -0.00038404   -0.00008504   -0.00022603
     atom   12 type  2   force =     0.00048377   -0.00036859   -0.00010763
     atom   13 type  1   force =     0.00022991   -0.00162615    0.00007973
     atom   14 type  1   force =     0.00017412   -0.00078311    0.00065314
     atom   15 type  2   force =     0.00008165    0.00000532   -0.00016490
     atom   16 type  2   force =    -0.00012971    0.00003460    0.00174308
     atom   17 type  2   force =    -0.00100084   -0.00059881    0.00039763
     atom   18 type  2   force =     0.00061627   -0.00111371    0.00052881
     atom   19 type  1   force =     0.00059986   -0.00100765   -0.00074870
     atom   20 type  1   force =    -0.00077674   -0.00030536   -0.00040102
     atom   21 type  2   force =     0.00004842    0.00012010    0.10119303
     atom   22 type  2   force =    -0.00008262    0.00080875    0.00071362
     atom   23 type  2   force =    -0.07543568   -0.00012320   -0.02930922
     atom   24 type  2   force =     0.07534913    0.00029886   -0.02932849
     atom   25 type  1   force =     0.00013773   -0.00023382    0.10279714
     atom   26 type  1   force =    -0.00004013   -0.00130118   -0.16849075
     atom   27 type  2   force =     0.00011866    0.00017382   -0.03115455
     atom   28 type  2   force =    -0.00000826    0.00071885    0.03584174
     atom   29 type  2   force =    -0.00426609    0.00378793   -0.00626282
     atom   30 type  2   force =     0.00529018    0.00442479   -0.00778887
     atom   31 type  1   force =    -0.00054117    0.00495434    0.01588665
     atom   32 type  1   force =     0.00077023   -0.01041779    0.04915101
     atom   33 type  2   force =     0.00002784   -0.00090033   -0.00135090
     atom   34 type  2   force =    -0.00240679    0.00222544   -0.04426086
     atom   35 type  2   force =     0.00054767    0.00020159   -0.00013426
     atom   36 type  2   force =    -0.00017726    0.00023261   -0.00006528
     atom   37 type  1   force =     0.00026682    0.00036555   -0.00057095
     atom   38 type  1   force =     0.00041956    0.00140636    0.00101257
     atom   39 type  2   force =     0.00036434    0.00048610    0.00016821
     atom   40 type  2   force =     0.00006008    0.00015391    0.00051539
     atom   41 type  2   force =    -0.00086125   -0.00022101    0.00011904
     atom   42 type  2   force =     0.00038286    0.00025928    0.00033083
     atom   43 type  1   force =     0.00027703    0.00028275   -0.00152577
     atom   44 type  1   force =    -0.00065788   -0.00036007   -0.00119772
     atom   45 type  2   force =     0.00006998   -0.00002263    0.10099479
     atom   46 type  2   force =    -0.07549413   -0.00005088   -0.02932929
     atom   47 type  2   force =     0.07540605    0.00038303   -0.02932468
     atom   48 type  3   force =    -0.00027013   -0.01245115    0.00170267
     atom   49 type  3   force =     0.00041765   -0.00096769   -0.00002520
     atom   50 type  4   force =     0.00119938    0.00093122    0.00058292
     atom   51 type  5   force =     0.00010474   -0.00075047   -0.00138104
     atom   52 type  5   force =    -0.00018445   -0.00053720   -0.00048855
     atom   53 type  5   force =    -0.00010213   -0.00057116   -0.00101788
     atom   54 type  5   force =    -0.00052700    0.01222184   -0.00352055
     atom   55 type  2   force =    -0.00034412    0.00042797   -0.00097507
     atom   56 type  5   force =     0.00123833   -0.00116549   -0.00066386

     Total force =     0.373201     Total SCF correction =     0.001127
  @ DRIVER MODE: Message from server: STATUS
  @ DRIVER MODE: Message from server: GETFORCE
  @ DRIVER MODE: Returning v,forces,stress,ensemble

     Writing output data file ./calc.save/
  @ DRIVER MODE: Message from server: EXIT
  @ DRIVE MODE: Exiting

     General routines

     Parallel routines

   This run was terminated on:  14: 7: 1  23Sep2021

   JOB DONE.