     Program PWSCF v.6.7GPU starts on 18Oct2021 at 13:36: 8

     R & G space division:  proc/nbgrp/npool/nimage =       8
     Reading input from /storage/home/hcoda1/3/ntian30/research/carbon/CxH_vib/Thiel_calc/ads_slab/HNNH_perslab/out_0004/pw.inp
Warning: card &CELL ignored
Warning: card   CELL_DYNAMICS='IPI', ignored
Warning: card / ignored

     Current dimensions of program PWSCF are:
     Max number of different atomic species (ntypx) = 10
     Max number of k-points (npk) =  40000
     Max angular momentum in pseudopotentials (lmaxx) =  3
     Presently no symmetry can be used with electric field

     Message from routine cell_base_init:
     DEPRECATED: use true lattice parameter, not A to a.u. conversion factor

     IMPORTANT: XC functional enforced from input :
     Exchange-correlation= BEEF-VDW
                           (   1   4  43  14   2   0   0)
     Any further DFT definition will be discarded
     Please, verify this is what you really want

  @ DRIVER MODE: Connecting to
 qe_1139763_3255131.sched-torque.pace.gatech.edu3m25vrbe_scratch
  using UNIX socket
  @ DRIVER MODE: Message from server: STATUS
  @ DRIVER MODE: Message from server: INIT
  @ DRIVER MODE: Receiving replica           0          -1
  @ DRIVER MODE: Receiving encoded integer          25
  @ DRIVER MODE:  SCF:  T  FORCE:  T  STRESS:  F  VC:  F  ENSEMBLE:  F
  @ DRIVER MODE:  SCF:  T  FORCE:  T  STRESS:  F  VC:  F  ENSEMBLE:  F

     Using Slab Decomposition

     bravais-lattice index     =            0
     lattice parameter (alat)  =       1.8897  a.u.
     unit-cell volume          =    9988.4706 (a.u.)^3
     number of atoms/cell      =           57
     number of atomic types    =            4
     number of electrons       =       438.00
     number of Kohn-Sham states=          229
     kinetic-energy cutoff     =      29.3995  Ry
     charge density cutoff     =     293.9946  Ry
     scf convergence threshold =      7.3E-08
     mixing beta               =       0.0500
     number of iterations used =            8  plain     mixing
     Exchange-correlation= BEEF-VDW
                           (   1   4  43  14   2   0   0)

     celldm(1)=   1.889726  celldm(2)=   0.000000  celldm(3)=   0.000000
     celldm(4)=   0.000000  celldm(5)=   0.000000  celldm(6)=   0.000000

     crystal axes: (cart. coord. in units of alat)
               a(1) = (   6.579727   0.000000   0.000000 )
               a(2) = (  -0.001163   8.942395   0.000000 )
               a(3) = (   0.000000   0.000000  25.155947 )

     reciprocal axes: (cart. coord. in units 2 pi/alat)
               b(1) = (  0.151982  0.000020  0.000000 )
               b(2) = (  0.000000  0.111827  0.000000 )
               b(3) = (  0.000000  0.000000  0.039752 )

     PseudoPot. # 1 for O  read from file:
     /storage/coda1/p-amedford6/0/shared/rich_project_chbe-medford/medford-share/data/pseudos_module/espresso/nninc/pbe/van/O.UPF
     MD5 check sum: 78c19812648e8988a0fe644b0f25305e
     Pseudo is Ultrasoft, Zval =  6.0
     Generated by new atomic code, or converted to UPF format
     Using radial grid of  737 points,  4 beta functions with:
                l(1) =   0
                l(2) =   0
                l(3) =   1
                l(4) =   1
     Q(r) pseudized with  8 coefficients,  rinner =    0.800   0.800   0.800

     PseudoPot. # 2 for Ti read from file:
     /storage/coda1/p-amedford6/0/shared/rich_project_chbe-medford/medford-share/data/pseudos_module/espresso/nninc/pbe/van/Ti.UPF
     MD5 check sum: 8e4df49b7f0d34bbd5052bf3f5ea0213
     Pseudo is Ultrasoft, Zval = 12.0
     Generated by new atomic code, or converted to UPF format
     Using radial grid of  851 points,  6 beta functions with:
                l(1) =   0
                l(2) =   0
                l(3) =   1
                l(4) =   1
                l(5) =   2
                l(6) =   2
     Q(r) pseudized with  8 coefficients,  rinner =    1.000   1.000   1.000
                                                       1.000   1.000

     PseudoPot. # 3 for H  read from file:
     /storage/coda1/p-amedford6/0/shared/rich_project_chbe-medford/medford-share/data/pseudos_module/espresso/nninc/pbe/van/H.UPF
     MD5 check sum: b5ee9d7bfd3a09ee7748110bda690ff7
     Pseudo is Ultrasoft, Zval =  1.0
     Generated by new atomic code, or converted to UPF format
     Using radial grid of  615 points,  1 beta functions with:
                l(1) =   0
     Q(r) pseudized with  8 coefficients,  rinner =    0.800

     PseudoPot. # 4 for N  read from file:
     /storage/coda1/p-amedford6/0/shared/rich_project_chbe-medford/medford-share/data/pseudos_module/espresso/nninc/pbe/van/N.UPF
     MD5 check sum: 90d10febe142ad51ac9d5be1deb811c4
     Pseudo is Ultrasoft, Zval =  5.0
     Generated by new atomic code, or converted to UPF format
     Using radial grid of  729 points,  4 beta functions with:
                l(1) =   0
                l(2) =   0
                l(3) =   1
                l(4) =   1
     Q(r) pseudized with  8 coefficients,  rinner =    0.800   0.800   0.800

     atomic species   valence    mass     pseudopotential
        O1             6.00    15.99900     O ( 1.00)
        Ti1           12.00    47.86700     Ti( 1.00)
        H1             1.00     1.00800     H ( 1.00)
        N1             5.00    14.00700     N ( 1.00)

     No symmetry found

   Cartesian axes

     site n.     atom                  positions (alat units)
         1           O1  tau(   1) = (   0.0007354   0.0005023  10.5931620  )
         2           O1  tau(   2) = (   3.2896598   8.9340738  13.9086047  )
         3           O1  tau(   3) = (   6.5779785   8.9335072  17.2267929  )
         4           O1  tau(   4) = (   0.0006271   0.0005054   7.9858123  )
         5           O1  tau(   5) = (   3.2892818   8.9168625  11.1887994  )
         6           O1  tau(   6) = (   0.0000953   0.0200859  14.6187425  )
         7           O1  tau(   7) = (   1.9868534   1.4903216   9.2879459  )
         8           O1  tau(   8) = (   5.2299496   1.5903429  12.5639559  )
         9           O1  tau(   9) = (   2.0057315   1.6103507  16.0678580  )
        10           Ti1 tau(  10) = (   0.0007404   1.4906270   9.2895810  )
        11           Ti1 tau(  11) = (   3.2903845   1.3415648  12.5012035  )
        12           Ti1 tau(  12) = (   0.0001950   1.2451541  15.9845895  )
        13           O1  tau(  13) = (   4.5942328   1.4918067   9.2879030  )
        14           O1  tau(  14) = (   1.3504490   1.5899334  12.5641350  )
        15           O1  tau(  15) = (   4.5723762   1.6092463  16.0679920  )
        16           Ti1 tau(  16) = (   3.2902859   2.9801868   9.2893338  )
        17           Ti1 tau(  17) = (  -0.0000381   2.8017340  12.4757424  )
        18           Ti1 tau(  18) = (   3.2890522   2.9119407  15.7046117  )
        19           O1  tau(  19) = (   0.0003479   2.9813005  10.5931620  )
        20           O1  tau(  20) = (   3.2896940   2.9634103  13.8950687  )
        21           O1  tau(  21) = (   0.0002396   2.9813036   7.9858123  )
        22           O1  tau(  22) = (   3.2899864   2.9652420  11.1892519  )
        23           O1  tau(  23) = (  -0.0000843   3.0239999  14.5506518  )
        24           O1  tau(  24) = (   1.9864658   4.4711199   9.2879459  )
        25           O1  tau(  25) = (   5.2265999   4.6000300  12.5825491  )
        26           O1  tau(  26) = (   2.0173024   4.5375175  16.0298170  )
        27           Ti1 tau(  27) = (   0.0003529   4.4714252   9.2895810  )
        28           Ti1 tau(  28) = (   3.2900658   4.3228872  12.5050252  )
        29           Ti1 tau(  29) = (   0.0015352   4.3959346  15.6897578  )
        30           O1  tau(  30) = (   4.5938453   4.4726049   9.2879030  )
        31           O1  tau(  31) = (   1.3532953   4.6000771  12.5829012  )
        32           O1  tau(  32) = (   4.5620845   4.5358613  16.0300787  )
        33           Ti1 tau(  33) = (   3.2898983   5.9609850   9.2893338  )
        34           Ti1 tau(  34) = (  -0.0003676   5.8120669  12.4544080  )
        35           Ti1 tau(  35) = (   3.2921900   5.8807914  15.7090278  )
        36           O1  tau(  36) = (  -0.0000397   5.9620987  10.5931620  )
        37           O1  tau(  37) = (   3.2903388   5.9631658  13.9136923  )
        38           O1  tau(  38) = (  -0.0000761   5.9602876  17.3216368  )
        39           O1  tau(  39) = (  -0.0001480   5.9621018   7.9858123  )
        40           O1  tau(  40) = (   3.2896813   5.9437884  11.1873515  )
        41           O1  tau(  41) = (  -0.0004454   6.0514558  14.6911356  )
        42           O1  tau(  42) = (   1.9860782   7.4519181   9.2879459  )
        43           O1  tau(  43) = (   5.2331690   7.5528723  12.5749626  )
        44           O1  tau(  44) = (   2.0197658   7.5481525  16.0489791  )
        45           Ti1 tau(  45) = (  -0.0000347   7.4522234   9.2895810  )
        46           Ti1 tau(  46) = (   3.2899396   7.3045924  12.4973202  )
        47           Ti1 tau(  47) = (   0.0022254   7.3576980  16.0878887  )
        48           O1  tau(  48) = (   4.5934577   7.4534031   9.2879030  )
        49           O1  tau(  49) = (   1.3462119   7.5526743  12.5754142  )
        50           O1  tau(  50) = (   4.5579802   7.5455642  16.0489991  )
        51           Ti1 tau(  51) = (   3.2895107   8.9417832   9.2893338  )
        52           Ti1 tau(  52) = (  -0.0004108   8.7719052  12.5005688  )
        53           Ti1 tau(  53) = (   3.2909707   8.8596889  15.7095313  )
        54           H1  tau(  54) = (   6.5770345   5.6346256  18.2315160  )
        55           N1  tau(  55) = (   6.5773047   3.3138987  18.5316601  )
        56           N1  tau(  56) = (   6.5788436   3.1068121  17.3210979  )
        57           H1  tau(  57) = (   6.5767427   2.4184016  19.0716447  )

     number of k points=    10  Fermi-Dirac smearing, width (Ry)=  0.0073
                       cart. coord. in units 2pi/alat
        k(    1) = (   0.0000000   0.0000000   0.0000000), wk =   0.1250000
        k(    2) = (   0.0000000   0.0279567   0.0000000), wk =   0.2500000
        k(    3) = (   0.0000000  -0.0559134   0.0000000), wk =   0.1250000
        k(    4) = (   0.0379955   0.0000049   0.0000000), wk =   0.2500000
        k(    5) = (   0.0379955   0.0279617   0.0000000), wk =   0.2500000
        k(    6) = (   0.0379955  -0.0559085   0.0000000), wk =   0.2500000
        k(    7) = (   0.0379955  -0.0279518   0.0000000), wk =   0.2500000
        k(    8) = (  -0.0759910  -0.0000099   0.0000000), wk =   0.1250000
        k(    9) = (  -0.0759910   0.0279468   0.0000000), wk =   0.2500000
        k(   10) = (  -0.0759910  -0.0559233   0.0000000), wk =   0.1250000

     Initial potential from superposition of free atoms

     starting charge  419.99912, renormalised to  438.00000

     negative rho (up, down):  3.865E-02 0.000E+00

     %%%%%%%%%%%%%%%%%%%%%%%%%%%%%%%%%%%%%%%%%%%%%%%%%%%%%%%%%%%%%%%%%%%%%%%%
     %                                                                      %
     % You are using vdW-DF, which was implemented by the Thonhauser group. %
     % Please cite the following two papers that made this development      %
     % possible and the two reviews that describe the various versions:     %
     %                                                                      %
     %   T. Thonhauser et al., PRL 115, 136402 (2015).                      %
     %   T. Thonhauser et al., PRB 76, 125112 (2007).                       %
     %   K. Berland et al., Rep. Prog. Phys. 78, 066501 (2015).             %
     %   D.C. Langreth et al., J. Phys.: Condens. Matter 21, 084203 (2009). %
     %                                                                      %
     %                                                                      %
     % If you are calculating the stress with vdW-DF, please also cite:     %
     %                                                                      %
     %   R. Sabatini et al., J. Phys.: Condens. Matter 24, 424209 (2012).   %
     %                                                                      %
     %%%%%%%%%%%%%%%%%%%%%%%%%%%%%%%%%%%%%%%%%%%%%%%%%%%%%%%%%%%%%%%%%%%%%%%%

     Adding external electric field

     Computed dipole along edir(3) :
        Dipole               -4.5407 Ry au,        -11.5413 Debye
        Dipole field         -0.0057 Ry au,

        Potential amp.        0.5296 Ry
        Total length         46.3494 bohr

     Starting wfcs are  330 atomic wfcs
  @ DRIVER MODE: Message from server: STATUS
  @ DRIVER MODE: Message from server: POSDATA
  @ DRIVER MODE: Reading and sharing cell
  @ DRIVER MODE: Reading and sharing positions
  @ DRIVER MODE: Received positions

     Self-consistent Calculation

     iteration #  1     ecut=    29.40 Ry     beta= 0.05
     Davidson diagonalization with overlap
     c_bands:  3 eigenvalues not converged
     c_bands:  2 eigenvalues not converged
     c_bands:  3 eigenvalues not converged
     c_bands:  5 eigenvalues not converged
     c_bands:  5 eigenvalues not converged
     c_bands:  1 eigenvalues not converged
     c_bands:  2 eigenvalues not converged
     ethr =  1.00E-05,  avg # of iterations = 24.6

[...]

     total energy              =   -3289.20220686 Ry
     estimated scf accuracy    <      57.27570672 Ry

     iteration #  2     ecut=    29.40 Ry     beta= 0.05
     Davidson diagonalization with overlap
     ethr =  1.00E-02,  avg # of iterations =  5.5

[...]

     iteration # 54     ecut=    29.40 Ry     beta= 0.05
     Davidson diagonalization with overlap
     c_bands:  1 eigenvalues not converged
     ethr =  2.27E-08,  avg # of iterations = 10.3

[...]

     total energy              =   -3290.76665554 Ry
     estimated scf accuracy    <       0.00000009 Ry

     iteration # 67     ecut=    29.40 Ry     beta= 0.05
     Davidson diagonalization with overlap
     ethr =  2.05E-11,  avg # of iterations = 13.3

     negative rho (up, down):  3.653E-02 0.000E+00

     Adding external electric field

     Computed dipole along edir(3) :
        Dipole                1.2095 Ry au,          3.0743 Debye
        Dipole field          0.0015 Ry au,

        Potential amp.       -0.1411 Ry
        Total length         46.3494 bohr

     End of self-consistent calculation

          k = 0.0000 0.0000 0.0000 ( 26871 PWs)   bands (ev):

   -57.9807 -57.9772 -57.9739 -57.9561 -57.9535 -57.9165 -57.8538 -57.8125
   -57.7886 -57.7793 -57.7091 -57.6870 -57.6547 -57.3918 -57.3668 -56.9209
   -56.8977 -56.8835 -34.3754 -34.3685 -34.3667 -34.3554 -34.3526 -34.3197
   -34.3096 -34.3015 -34.2998 -34.2927 -34.2532 -34.2483 -34.1922 -34.1869
   -34.1776 -34.1776 -34.1651 -34.1549 -34.1502 -34.1469 -34.1268 -34.1058
   -34.0967 -34.0782 -34.0762 -34.0714 -34.0662 -34.0403 -34.0205 -33.9733
   -33.9726 -33.9622 -33.9453 -33.9378 -33.9338 -33.9290 -33.9015 -33.8774
   -33.8672 -33.8238 -33.6894 -33.6721 -33.6327 -33.6072 -33.5789 -33.2428
   -33.2352 -33.2261 -33.2199 -33.2135 -33.1423 -33.0834 -33.0677 -32.9401
   -20.7886 -19.4131 -18.8135 -18.4151 -18.2271 -18.2109 -18.2021 -18.1449
   -18.0684 -18.0647 -17.8846 -17.7940 -17.7717 -17.7451 -17.7269 -17.6946
   -17.6366 -17.6171 -17.5965 -17.5865 -17.5664 -17.5610 -17.4824 -17.4181
   -17.3928 -17.3858 -17.3778 -17.3741 -17.3044 -17.2195 -17.1288 -17.0697
   -17.0374 -15.3853 -15.3318 -15.3265 -11.2587  -7.6691  -7.1721  -6.1358
    -5.9248  -5.8592  -5.7840  -5.4344  -5.4212  -5.4192  -5.3536  -5.3329
    -5.2960  -5.2832  -5.2335  -5.2134  -5.2128  -5.1842  -5.1096  -5.0866
    -5.0601  -4.9856  -4.9386  -4.9074  -4.8568  -4.8431  -4.7440  -4.7427
    -4.7191  -4.7170  -4.7046  -4.6857  -4.6365  -4.6283  -4.5345  -4.5162
    -4.4736  -4.3540  -4.3300  -4.2701  -4.2537  -4.2244  -4.1409  -4.0777
    -4.0671  -4.0481  -4.0143  -3.9817  -3.9469  -3.9136  -3.8638  -3.7868
    -3.7192  -3.6807  -3.5685  -3.5127  -3.4790  -3.4556  -3.3766  -3.3584
    -3.3180  -3.2458  -3.1982  -3.1575  -3.1223  -3.1200  -3.0845  -2.9870
    -2.9800  -2.9025  -2.8199  -2.7936  -2.7149  -2.7049  -2.6957  -2.6788
    -2.6595  -2.6311  -2.6025  -2.5728  -2.4953  -2.4789  -2.4552  -2.4019
    -2.2957  -2.2789  -2.2743  -2.2570  -2.2524  -2.1862  -2.0871  -1.9785
    -1.9781  -1.9691  -1.8262  -1.7998  -1.7460  -1.7425  -1.6946  -1.6237
    -1.5673  -1.1775  -0.9390  -0.6530  -0.6205  -0.6120  -0.3737  -0.3638
    -0.2456   0.0104   0.9965   1.2657   1.3461   1.4327   1.4827   1.4885
     1.6139   1.6366   1.6698   1.7125   1.7227

[...]

          k = 0.0380-0.0280 0.0000 ( 26873 PWs)   bands (ev):

[...]

          k =-0.0760-0.0000 0.0000 ( 26902 PWs)   bands (ev):

[...]

          k =-0.0760-0.0559 0.0000 ( 26868 PWs)   bands (ev):

   -57.9755 -57.9752 -57.9733 -57.9707 -57.9463 -57.9172 -57.8535 -57.8083
   -57.7970 -57.7749 -57.7070 -57.6904 -57.6535 -57.3920 -57.3666 -56.9170
   -56.9049 -56.8801 -34.4471 -34.4345 -34.3807 -34.3681 -34.3344 -34.3131
   -34.3096 -34.2987 -34.2712 -34.2631 -34.2251 -34.2039 -34.2036 -34.1664
   -34.1651 -34.1640 -34.1617 -34.1436 -34.1229 -34.1207 -34.1161 -34.1061
   -34.1057 -34.0669 -34.0635 -34.0539 -34.0337 -34.0285 -34.0059 -33.9999
   -33.9941 -33.9937 -33.9806 -33.9773 -33.9496 -33.9333 -33.9286 -33.8774
   -33.8603 -33.7792 -33.7306 -33.6752 -33.6341 -33.6092 -33.5802 -33.3194
   -33.2445 -33.2332 -33.2100 -33.1278 -33.1131 -33.0547 -33.0431 -33.0296
   -20.7875 -19.4076 -18.5057 -18.4930 -18.1798 -18.1107 -18.0768 -18.0463
   -18.0058 -17.9700 -17.9405 -17.9284 -17.8993 -17.8057 -17.7953 -17.7241
   -17.7002 -17.6770 -17.6638 -17.6356 -17.6007 -17.5967 -17.5831 -17.4763
   -17.4646 -17.3814 -17.3626 -17.3198 -17.2629 -17.2182 -17.1175 -17.1042
   -17.0053 -15.3878 -15.3801 -15.2663 -11.2561  -7.6524  -7.1538  -5.7646
    -5.7587  -5.7238  -5.6992  -5.6392  -5.3711  -5.3435  -5.2167  -5.2130
    -5.2058  -5.1724  -5.1513  -5.1108  -5.0947  -5.0831  -5.0704  -5.0655
    -5.0001  -4.9973  -4.9449  -4.9148  -4.8672  -4.8612  -4.8517  -4.7957
    -4.7708  -4.7336  -4.7287  -4.6923  -4.5735  -4.5527  -4.5285  -4.4882
    -4.4513  -4.4337  -4.3505  -4.2940  -4.2265  -4.1128  -4.0899  -4.0846
    -4.0300  -3.9876  -3.9274  -3.8781  -3.7233  -3.6885  -3.6620  -3.5961
    -3.5677  -3.5539  -3.5382  -3.5168  -3.5028  -3.4505  -3.4446  -3.3905
    -3.3548  -3.3270  -3.3070  -3.2163  -3.1644  -3.1311  -3.0918  -3.0757
    -3.0627  -3.0512  -3.0244  -3.0187  -3.0162  -2.9512  -2.9413  -2.9007
    -2.8554  -2.7677  -2.7378  -2.6988  -2.6410  -2.5363  -2.5173  -2.4669
    -2.4544  -2.3964  -2.2114  -2.1984  -2.1808  -2.1374  -2.0907  -2.0518
    -2.0427  -2.0223  -1.9744  -1.8658  -1.7312  -1.7121  -1.5511  -1.4827
    -1.4755  -1.4547  -1.2533  -0.8364  -0.5521  -0.5240  -0.5187  -0.3770
    -0.3737   0.0127   1.1571   1.1813   1.2480   1.3198   1.3554   1.3636
     1.3840   1.4866   1.4900   1.5922   1.6569

     the Fermi energy is     1.0957 ev

!    total energy              =   -3290.76667681 Ry
     estimated scf accuracy    <       0.00000004 Ry
     smearing contrib. (-TS)   =      -0.03256185 Ry
     internal energy E=F+TS    =   -3290.73411496 Ry

     The total energy is F=E-TS. E is the sum of the following terms:
     one-electron contribution =  -34499.09998826 Ry
     hartree contribution      =   17310.91933993 Ry
     xc contribution           =    -540.51662341 Ry
     ewald contribution        =   14437.96131629 Ry
     electric field correction =       0.00184048 Ry

     convergence has been achieved in  67 iterations

     Forces acting on atoms (cartesian axes, Ry/au):

     atom    1 type  1   force =    -0.00000201    0.00295730    0.06151055
     atom    2 type  1   force =     0.00005615    0.00057179   -0.00868269
     atom    3 type  1   force =     0.00000795   -0.00465120    0.00126151
     atom    4 type  1   force =     0.00004897   -0.00106145    0.10514927
     atom    5 type  1   force =     0.00005017   -0.00001770    0.01000954
     atom    6 type  1   force =    -0.00003443   -0.00419434    0.00689785
     atom    7 type  1   force =     0.07080141   -0.00018705   -0.02969736
     atom    8 type  1   force =     0.00422593   -0.02881011    0.00203467
     atom    9 type  1   force =     0.00640149   -0.02308844    0.00267253
     atom   10 type  2   force =    -0.00005530   -0.00530326   -0.17417568
     atom   11 type  2   force =    -0.00025049    0.02022963   -0.00525313
     atom   12 type  2   force =    -0.00006209    0.02589085   -0.00816353
     atom   13 type  1   force =    -0.07089454   -0.00063571   -0.02963763
     atom   14 type  1   force =    -0.00451957   -0.02851506    0.00201045
     atom   15 type  1   force =    -0.00629181   -0.02314323    0.00264555
     atom   16 type  2   force =     0.00010739   -0.00200654    0.06352106
     atom   17 type  2   force =     0.00047061    0.03496877    0.00373456
     atom   18 type  2   force =    -0.00005884    0.01824300   -0.00078508
     atom   19 type  1   force =    -0.00001228    0.00865170    0.05616492
     atom   20 type  1   force =     0.00004100    0.00031401   -0.00812488
     atom   21 type  1   force =     0.00004710    0.00236556    0.10553565
     atom   22 type  1   force =     0.00004536   -0.00045432    0.00967146
     atom   23 type  1   force =    -0.00001497   -0.00185527    0.00328440
     atom   24 type  1   force =     0.06931875   -0.00028692   -0.02955171
     atom   25 type  1   force =     0.00470284   -0.02809842    0.00246291
     atom   26 type  1   force =     0.00616615   -0.01514944   -0.00034278
     atom   27 type  2   force =    -0.00005561   -0.00797875   -0.18329207
     atom   28 type  2   force =    -0.00026782    0.02039530   -0.00599354
     atom   29 type  2   force =    -0.00009128    0.02346205    0.00550484
     atom   30 type  1   force =    -0.06941352   -0.00074223   -0.02949784
     atom   31 type  1   force =    -0.00497362   -0.02780523    0.00242932
     atom   32 type  1   force =    -0.00590252   -0.01500893   -0.00033755
     atom   33 type  2   force =     0.00007786   -0.00101603    0.06382108
     atom   34 type  2   force =     0.00047673    0.03462457    0.00488507
     atom   35 type  2   force =    -0.00012948    0.02153022    0.00149512
     atom   36 type  1   force =    -0.00001218    0.00376591    0.05853978
     atom   37 type  1   force =     0.00004888   -0.00065777   -0.00666425
     atom   38 type  1   force =     0.00001970    0.00088431   -0.00572927
     atom   39 type  1   force =     0.00005541   -0.00050812    0.10664032
     atom   40 type  1   force =     0.00004878   -0.00051998    0.00898643
     atom   41 type  1   force =    -0.00000867   -0.00412784   -0.00081542
     atom   42 type  1   force =     0.06973102   -0.00119428   -0.02999882
     atom   43 type  1   force =     0.00450225   -0.02931912    0.00150113
     atom   44 type  1   force =     0.00982953   -0.02504402    0.00507114
     atom   45 type  2   force =    -0.00006478    0.00912038   -0.17964899
     atom   46 type  2   force =    -0.00025116    0.02119911   -0.00517270
     atom   47 type  2   force =    -0.00012011    0.02491909   -0.01022171
     atom   48 type  1   force =    -0.06982882   -0.00164473   -0.02994885
     atom   49 type  1   force =    -0.00478360   -0.02901225    0.00147223
     atom   50 type  1   force =    -0.00957763   -0.02494481    0.00509782
     atom   51 type  2   force =     0.00011366   -0.00179455    0.06381371
     atom   52 type  2   force =     0.00047477    0.03635139    0.00327465
     atom   53 type  2   force =    -0.00015321    0.03627261    0.00374780
     atom   54 type  3   force =    -0.00001973   -0.00344521    0.00491364
     atom   55 type  4   force =     0.00000219    0.00262258    0.00016783
     atom   56 type  4   force =     0.00000487   -0.00571740    0.00170809
     atom   57 type  3   force =    -0.00002684   -0.00140042    0.00009857

     Total force =     0.453409     Total SCF correction =     0.000529
  @ DRIVER MODE: Message from server: STATUS
  @ DRIVER MODE: Message from server: GETFORCE
  @ DRIVER MODE: Returning v,forces,stress,ensemble

     Writing output data file ./calc.save/
  @ DRIVER MODE: Message from server: EXIT
  @ DRIVE MODE: Exiting

     General routines

     Parallel routines

   This run was terminated on:  14:10:54  18Oct2021

   JOB DONE.