     Program PWSCF v.6.7GPU starts on 23Aug2021 at 13:12:49

     R & G space division:  proc/nbgrp/npool/nimage =       6
     Reading input from /storage/home/hcoda1/3/ntian30/research/carbon/CH2_vib/ads_slab/CH2NHN_a/out_0001/pw.inp
Warning: card &CELL ignored
Warning: card   CELL_DYNAMICS='IPI', ignored
Warning: card / ignored

     Current dimensions of program PWSCF are:
     Max number of different atomic species (ntypx) = 10
     Max number of k-points (npk) =  40000
     Max angular momentum in pseudopotentials (lmaxx) =  3
     Presently no symmetry can be used with electric field

     Message from routine cell_base_init:
     DEPRECATED: use true lattice parameter, not A to a.u. conversion factor

     IMPORTANT: XC functional enforced from input :
     Exchange-correlation= BEEF-VDW
                           (   1   4  43  14   2   0   0)
     Any further DFT definition will be discarded
     Please, verify this is what you really want

  @ DRIVER MODE: Connecting to
 qe_1139763_2632804.sched-torque.pace.gatech.eduimavwv4t_scratch
  using UNIX socket
  @ DRIVER MODE: Message from server: STATUS
  @ DRIVER MODE: Message from server: INIT
  @ DRIVER MODE: Receiving replica           0          -1
  @ DRIVER MODE: Receiving encoded integer          25
  @ DRIVER MODE:  SCF:  T  FORCE:  T  STRESS:  F  VC:  F  ENSEMBLE:  F
  @ DRIVER MODE:  SCF:  T  FORCE:  T  STRESS:  F  VC:  F  ENSEMBLE:  F

     Using Slab Decomposition

     bravais-lattice index     =            0
     lattice parameter (alat)  =       1.8897  a.u.
     unit-cell volume          =    6658.9804 (a.u.)^3
     number of atoms/cell      =           53
     number of atomic types    =            5
     number of electrons       =       395.00
     number of Kohn-Sham states=          207
     kinetic-energy cutoff     =      29.3995  Ry
     charge density cutoff     =     293.9946  Ry
     scf convergence threshold =      7.3E-08
     mixing beta               =       0.0500
     number of iterations used =            8  plain     mixing
     Exchange-correlation= BEEF-VDW
                           (   1   4  43  14   2   0   0)

     celldm(1)=   1.889726  celldm(2)=   0.000000  celldm(3)=   0.000000
     celldm(4)=   0.000000  celldm(5)=   0.000000  celldm(6)=   0.000000

     crystal axes: (cart. coord. in units of alat)
               a(1) = (   6.579727   0.000000   0.000000 )
               a(2) = (  -0.000775   5.961596   0.000000 )
               a(3) = (   0.000000   0.000000  25.155947 )

     reciprocal axes: (cart. coord. in units 2 pi/alat)
               b(1) = (  0.151982  0.000020  0.000000 )
               b(2) = (  0.000000  0.167740  0.000000 )
               b(3) = (  0.000000  0.000000  0.039752 )

     PseudoPot. # 1 for Ti read from file:
     /storage/coda1/p-amedford6/0/shared/rich_project_chbe-medford/medford-share/data/pseudos_module/espresso/nninc/pbe/van/Ti.UPF
     MD5 check sum: 8e4df49b7f0d34bbd5052bf3f5ea0213
     Pseudo is Ultrasoft, Zval = 12.0
     Generated by new atomic code, or converted to UPF format
     Using radial grid of  851 points,  6 beta functions with:
                l(1) =   0
                l(2) =   0
                l(3) =   1
                l(4) =   1
                l(5) =   2
                l(6) =   2
     Q(r) pseudized with  8 coefficients,  rinner =    1.000   1.000   1.000
                                                       1.000   1.000

     PseudoPot. # 2 for O  read from file:
     /storage/coda1/p-amedford6/0/shared/rich_project_chbe-medford/medford-share/data/pseudos_module/espresso/nninc/pbe/van/O.UPF
     MD5 check sum: 78c19812648e8988a0fe644b0f25305e
     Pseudo is Ultrasoft, Zval =  6.0
     Generated by new atomic code, or converted to UPF format
     Using radial grid of  737 points,  4 beta functions with:
                l(1) =   0
                l(2) =   0
                l(3) =   1
                l(4) =   1
     Q(r) pseudized with  8 coefficients,  rinner =    0.800   0.800   0.800

     PseudoPot. # 3 for H  read from file:
     /storage/coda1/p-amedford6/0/shared/rich_project_chbe-medford/medford-share/data/pseudos_module/espresso/nninc/pbe/van/H.UPF
     MD5 check sum: b5ee9d7bfd3a09ee7748110bda690ff7
     Pseudo is Ultrasoft, Zval =  1.0
     Generated by new atomic code, or converted to UPF format
     Using radial grid of  615 points,  1 beta functions with:
                l(1) =   0
     Q(r) pseudized with  8 coefficients,  rinner =    0.800

     PseudoPot. # 4 for N  read from file:
     /storage/coda1/p-amedford6/0/shared/rich_project_chbe-medford/medford-share/data/pseudos_module/espresso/nninc/pbe/van/N.UPF
     MD5 check sum: 90d10febe142ad51ac9d5be1deb811c4
     Pseudo is Ultrasoft, Zval =  5.0
     Generated by new atomic code, or converted to UPF format
     Using radial grid of  729 points,  4 beta functions with:
                l(1) =   0
                l(2) =   0
                l(3) =   1
                l(4) =   1
     Q(r) pseudized with  8 coefficients,  rinner =    0.800   0.800   0.800

     PseudoPot. # 5 for C  read from file:
     /storage/coda1/p-amedford6/0/shared/rich_project_chbe-medford/medford-share/data/pseudos_module/espresso/nninc/pbe/van/C.UPF
     MD5 check sum: 1a69bf6b8db32088f5b2163dbdb77a27
     Pseudo is Ultrasoft, Zval =  4.0
     Generated by new atomic code, or converted to UPF format
     Using radial grid of  721 points,  4 beta functions with:
                l(1) =   0
                l(2) =   0
                l(3) =   1
                l(4) =   1
     Q(r) pseudized with  8 coefficients,  rinner =    0.800   0.800   0.800

     atomic species   valence    mass     pseudopotential
        Ti1           12.00    47.86700     Ti( 1.00)
        O1             6.00    15.99900     O ( 1.00)
        H1             1.00     1.00800     H ( 1.00)
        N1             5.00    14.00700     N ( 1.00)
        C1             4.00    12.01100     C ( 1.00)

     No symmetry found

   Cartesian axes

     site n.     atom                  positions (alat units)
         1           Ti1 tau(   1) = (   0.0004258   2.9801865   6.0000000  )
         2           Ti1 tau(   2) = (   3.2906075   1.4906267   6.0002472  )
         3           O1  tau(   3) = (   0.0006271   0.0005054   7.9858123  )
         4           O1  tau(   4) = (   3.2906025   0.0005020   7.3038282  )
         5           O1  tau(   5) = (   4.5942328   1.4918067   9.2879030  )
         6           O1  tau(   6) = (   1.9868534   1.4903216   9.2879459  )
         7           Ti1 tau(   7) = (   3.2907910   2.8959150   9.1758416  )
         8           Ti1 tau(   8) = (   0.0015273   1.4827037   9.2680791  )
         9           O1  tau(   9) = (   3.2899722   5.9582610  11.3470199  )
        10           O1  tau(  10) = (   0.0116148   5.9584955  10.6183126  )
        11           O1  tau(  11) = (   1.3017974   1.5038179  12.6264390  )
        12           O1  tau(  12) = (   5.3008627   1.4977989  12.6274213  )
        13           Ti1 tau(  13) = (   6.5569486   2.9952213  12.5532680  )
        14           Ti1 tau(  14) = (   3.2411515   1.4937708  12.4940153  )
        15           O1  tau(  15) = (   0.0420230   0.0496738  14.6358928  )
        16           O1  tau(  16) = (   3.2967895   0.0255587  13.9395418  )
        17           O1  tau(  17) = (   4.5559197   1.4885259  16.1071037  )
        18           O1  tau(  18) = (   2.0591626   1.5161495  16.1621771  )
        19           Ti1 tau(  19) = (   3.3530411   3.0041182  15.7164831  )
        20           Ti1 tau(  20) = (   0.0838170   1.4186333  16.1871295  )
        21           O1  tau(  21) = (   3.2904802   0.0005063   4.7018136  )
        22           O1  tau(  22) = (   0.0186128   5.8515937  17.1570623  )
        23           O1  tau(  23) = (   1.3043587   1.4918075   6.0039043  )
        24           O1  tau(  24) = (   5.2767064   1.4903225   6.0039473  )
        25           Ti1 tau(  25) = (   0.0000382   5.9609847   6.0000000  )
        26           Ti1 tau(  26) = (   3.2902200   4.4714249   6.0002472  )
        27           O1  tau(  27) = (   0.0002396   2.9813036   7.9858123  )
        28           O1  tau(  28) = (   3.2902150   2.9813002   7.3038282  )
        29           O1  tau(  29) = (   4.5938453   4.4726049   9.2879030  )
        30           O1  tau(  30) = (   1.9864658   4.4711199   9.2879459  )
        31           Ti1 tau(  31) = (   3.2891106   5.8743827   9.1763621  )
        32           Ti1 tau(  32) = (   0.0006254   4.4649316   9.2693709  )
        33           O1  tau(  33) = (   3.2942209   2.9913469  11.3437431  )
        34           O1  tau(  34) = (   0.0092240   2.9805883  10.6323155  )
        35           O1  tau(  35) = (   1.3035300   4.4624727  12.6575770  )
        36           O1  tau(  36) = (   5.3036227   4.4740614  12.6577195  )
        37           Ti1 tau(  37) = (   6.5462442   0.0298550  12.5256591  )
        38           Ti1 tau(  38) = (   3.2421849   4.4737490  12.5077532  )
        39           O1  tau(  39) = (   0.0112388   2.9415499  14.8853239  )
        40           O1  tau(  40) = (   3.3099764   2.9718378  13.9238501  )
        41           O1  tau(  41) = (   4.5641009   4.4837371  16.0358624  )
        42           O1  tau(  42) = (   2.0725645   4.4682733  16.0457710  )
        43           Ti1 tau(  43) = (   3.3278145   0.0095312  15.7444629  )
        44           Ti1 tau(  44) = (   0.0453891   4.6133464  15.7643304  )
        45           O1  tau(  45) = (   3.2900926   2.9813045   4.7018136  )
        46           O1  tau(  46) = (   1.3039711   4.4726057   6.0039043  )
        47           O1  tau(  47) = (   5.2763189   4.4711207   6.0039473  )
        48           H1  tau(  48) = (   4.6425291   2.0178258  18.2241430  )
        49           N1  tau(  49) = (   6.4431608   2.5827981  18.1004554  )
        50           C1  tau(  50) = (   0.9260493   3.0590344  18.7174074  )
        51           H1  tau(  51) = (   0.8415052   3.4111086  19.7359056  )
        52           H1  tau(  52) = (   1.8727361   3.0611994  18.2151121  )
        53           N1  tau(  53) = (   5.2929592   2.6053404  18.7594781  )

     number of k points=    10  Fermi-Dirac smearing, width (Ry)=  0.0073
                       cart. coord. in units 2pi/alat
        k(    1) = (   0.0000000   0.0000000   0.0000000), wk =   0.1250000
        k(    2) = (   0.0000000   0.0419351   0.0000000), wk =   0.2500000
        k(    3) = (   0.0000000  -0.0838702   0.0000000), wk =   0.1250000
        k(    4) = (   0.0379955   0.0000049   0.0000000), wk =   0.2500000
        k(    5) = (   0.0379955   0.0419400   0.0000000), wk =   0.2500000
        k(    6) = (   0.0379955  -0.0838652   0.0000000), wk =   0.2500000
        k(    7) = (   0.0379955  -0.0419301   0.0000000), wk =   0.2500000
        k(    8) = (  -0.0759910  -0.0000099   0.0000000), wk =   0.1250000
        k(    9) = (  -0.0759910   0.0419252   0.0000000), wk =   0.2500000
        k(   10) = (  -0.0759910  -0.0838800   0.0000000), wk =   0.1250000

     Initial potential from superposition of free atoms

     starting charge  378.99916, renormalised to  395.00000

     negative rho (up, down):  1.717E-02 0.000E+00

     %%%%%%%%%%%%%%%%%%%%%%%%%%%%%%%%%%%%%%%%%%%%%%%%%%%%%%%%%%%%%%%%%%%%%%%%
     %                                                                      %
     % You are using vdW-DF, which was implemented by the Thonhauser group. %
     % Please cite the following two papers that made this development      %
     % possible and the two reviews that describe the various versions:     %
     %                                                                      %
     %   T. Thonhauser et al., PRL 115, 136402 (2015).                      %
     %   T. Thonhauser et al., PRB 76, 125112 (2007).                       %
     %   K. Berland et al., Rep. Prog. Phys. 78, 066501 (2015).             %
     %   D.C. Langreth et al., J. Phys.: Condens. Matter 21, 084203 (2009). %
     %                                                                      %
     %                                                                      %
     % If you are calculating the stress with vdW-DF, please also cite:     %
     %                                                                      %
     %   R. Sabatini et al., J. Phys.: Condens. Matter 24, 424209 (2012).   %
     %                                                                      %
     %%%%%%%%%%%%%%%%%%%%%%%%%%%%%%%%%%%%%%%%%%%%%%%%%%%%%%%%%%%%%%%%%%%%%%%%

     Adding external electric field

     Computed dipole along edir(3) :
        Dipole               -8.7889 Ry au,        -22.3391 Debye
        Dipole field         -0.0166 Ry au,

        Potential amp.        1.5375 Ry
        Total length         46.3494 bohr

     Starting wfcs are  299 atomic wfcs
  @ DRIVER MODE: Message from server: STATUS
  @ DRIVER MODE: Message from server: POSDATA
  @ DRIVER MODE: Reading and sharing cell
  @ DRIVER MODE: Reading and sharing positions
  @ DRIVER MODE: Received positions

     Self-consistent Calculation

     iteration #  1     ecut=    29.40 Ry     beta= 0.05
     Davidson diagonalization with overlap
     c_bands:  1 eigenvalues not converged
     c_bands:  1 eigenvalues not converged
     c_bands:  1 eigenvalues not converged
     c_bands:  2 eigenvalues not converged
     c_bands:  2 eigenvalues not converged
     c_bands:  1 eigenvalues not converged
     c_bands:  2 eigenvalues not converged
     ethr =  1.00E-05,  avg # of iterations = 18.8

[...]

     total energy              =   -2593.24722974 Ry
     estimated scf accuracy    <    3846.19530298 Ry

     iteration #  2     ecut=    29.40 Ry     beta= 0.05
     Davidson diagonalization with overlap
     ethr =  1.00E-02,  avg # of iterations = 22.1

[...]

     iteration # 64     ecut=    29.40 Ry     beta= 0.05
     Davidson diagonalization with overlap
     c_bands:  1 eigenvalues not converged
     ethr =  1.65E-08,  avg # of iterations = 10.9

[...]

     total energy              =   -2939.05441304 Ry
     estimated scf accuracy    <       0.00000015 Ry

     iteration # 78     ecut=    29.40 Ry     beta= 0.05
     Davidson diagonalization with overlap
     ethr =  3.14E-11,  avg # of iterations =  7.9

     negative rho (up, down):  1.683E-02 0.000E+00

     Adding external electric field

     Computed dipole along edir(3) :
        Dipole                0.0818 Ry au,          0.2080 Debye
        Dipole field          0.0002 Ry au,

        Potential amp.       -0.0143 Ry
        Total length         46.3494 bohr

     End of self-consistent calculation

          k = 0.0000 0.0000 0.0000 ( 18029 PWs)   bands (ev):

   -56.2636 -56.2401 -56.2266 -56.2060 -56.1471 -56.1442 -56.1096 -56.1079
   -56.0709 -56.0613 -56.0357 -56.0287 -55.9028 -55.6997 -55.2440 -55.2099
   -32.8241 -32.7284 -32.6400 -32.6061 -32.5715 -32.5701 -32.5534 -32.5308
   -32.4856 -32.4836 -32.4788 -32.4670 -32.4368 -32.4101 -32.4053 -32.3925
   -32.3857 -32.3827 -32.3722 -32.3697 -32.3500 -32.3323 -32.3177 -32.2970
   -32.2924 -32.2864 -32.2854 -32.2714 -32.2645 -32.2640 -32.2518 -32.2300
   -32.2153 -32.2148 -32.1982 -32.1857 -32.1712 -32.1525 -32.1211 -32.0491
   -31.9251 -31.8594 -31.6521 -31.5611 -31.5389 -31.4688 -31.3822 -31.2711
   -17.6058 -17.0443 -16.7704 -16.5574 -16.4575 -16.4377 -16.2933 -16.1522
   -16.0570 -15.9735 -15.9391 -15.8723 -15.8608 -15.8048 -15.7957 -15.7848
   -15.7620 -15.7434 -15.7301 -15.6840 -15.6736 -15.6420 -15.6316 -15.6098
   -15.5664 -15.4796 -15.4364 -15.4026 -15.3479 -14.7957 -13.7464 -13.6294
   -11.9683  -7.0296  -5.2783  -4.4108  -4.2574  -4.1658  -4.1593  -4.1328
    -3.9588  -3.8367  -3.6571  -3.5877  -3.4880  -3.4429  -3.4408  -3.4130
    -3.3249  -3.2004  -3.1731  -3.1048  -3.0737  -3.0613  -3.0569  -3.0363
    -2.9957  -2.9523  -2.9437  -2.8767  -2.8454  -2.7770  -2.6996  -2.6743
    -2.5992  -2.5785  -2.5501  -2.5362  -2.5338  -2.5255  -2.5009  -2.4742
    -2.4065  -2.3054  -2.2272  -2.1324  -2.0623  -1.9936  -1.9308  -1.8867
    -1.8264  -1.7864  -1.7476  -1.7215  -1.6527  -1.5841  -1.5050  -1.4634
    -1.4005  -1.3657  -1.3138  -1.2461  -1.1870  -1.1313  -1.0557  -1.0453
    -1.0419  -1.0233  -0.9917  -0.8139  -0.7665  -0.7555  -0.7406  -0.6945
    -0.6382  -0.6044  -0.4994  -0.4837  -0.4427  -0.4246  -0.3505  -0.3299
    -0.2956  -0.2869  -0.2619  -0.1994  -0.1087  -0.0915  -0.0670  -0.0185
     0.0288   0.1801   0.3682   0.4266   0.4758   0.6964   0.7764   0.7786
     0.9666   1.3517   1.3985   1.5691   2.7381   2.8512   2.9419   2.9657
     2.9895   3.0843   3.1135   3.3191   3.3245   3.3656   3.3758

[...]

          k = 0.0380-0.0419 0.0000 ( 17876 PWs)   bands (ev):

[...]

          k =-0.0760-0.0000 0.0000 ( 17886 PWs)   bands (ev):

[...]

          k =-0.0760-0.0839 0.0000 ( 17948 PWs)   bands (ev):

   -56.2493 -56.2407 -56.2230 -56.2229 -56.1368 -56.1288 -56.1249 -56.1182
   -56.0539 -56.0512 -56.0462 -56.0451 -55.9016 -55.7008 -55.2270 -55.2268
   -32.6296 -32.6247 -32.5436 -32.5435 -32.5321 -32.5172 -32.5163 -32.5162
   -32.4843 -32.4685 -32.4638 -32.4482 -32.4176 -32.4026 -32.3970 -32.3935
   -32.3843 -32.3836 -32.3811 -32.3785 -32.3440 -32.3422 -32.3422 -32.3397
   -32.3366 -32.3362 -32.3232 -32.3209 -32.2886 -32.2780 -32.2765 -32.2675
   -32.2663 -32.2616 -32.2601 -32.2335 -32.2302 -32.1559 -32.1292 -32.0566
   -31.9277 -31.9264 -31.5517 -31.5515 -31.4648 -31.4647 -31.4256 -31.4254
   -17.5986 -16.4705 -16.4369 -16.2931 -16.2252 -16.2008 -16.1849 -16.1619
   -16.0255 -15.9784 -15.9685 -15.9428 -15.9136 -15.9077 -15.8488 -15.8340
   -15.8228 -15.8144 -15.8043 -15.7518 -15.7475 -15.7388 -15.7171 -15.7122
   -15.6886 -15.6566 -15.6005 -15.5987 -15.2298 -15.1874 -13.7311 -13.7311
   -11.9835  -6.9516  -5.2340  -3.8133  -3.7439  -3.7105  -3.5654  -3.4395
    -3.4231  -3.4201  -3.2765  -3.2312  -3.2124  -3.1900  -3.1324  -3.1160
    -3.1058  -3.0840  -3.0690  -3.0559  -3.0304  -3.0004  -2.9872  -2.9667
    -2.9568  -2.9388  -2.9209  -2.8963  -2.8917  -2.8750  -2.8347  -2.8256
    -2.8005  -2.7815  -2.6100  -2.5542  -2.5374  -2.4397  -2.4377  -2.4115
    -2.3760  -2.3301  -2.3100  -2.2600  -2.2219  -2.1857  -2.0514  -1.9960
    -1.9825  -1.9337  -1.9137  -1.8507  -1.7623  -1.7290  -1.6891  -1.6544
    -1.5639  -1.5191  -1.5092  -1.4668  -1.4212  -1.4097  -1.3361  -1.2857
    -1.2219  -1.2203  -1.2134  -1.1702  -1.0553  -1.0387  -1.0245  -1.0219
    -0.9749  -0.9643  -0.9093  -0.8243  -0.7036  -0.6481  -0.6189  -0.4495
    -0.3674  -0.2977  -0.1935  -0.1531  -0.1068  -0.0840  -0.0280   0.0368
     0.0436   0.1048   0.1296   0.2168   0.2281   0.2351   0.3072   1.1391
     1.1397   1.2185   1.2188   1.5656   2.6969   3.1161   3.1494   3.1759
     3.1854   3.3459   3.3709   3.4098   3.4122   3.4849   3.5157

     the Fermi energy is     2.8812 ev

!    total energy              =   -2939.05442342 Ry
     estimated scf accuracy    <       0.00000007 Ry
     smearing contrib. (-TS)   =      -0.03336051 Ry
     internal energy E=F+TS    =   -2939.02106291 Ry

     The total energy is F=E-TS. E is the sum of the following terms:
     one-electron contribution =  -24157.53831908 Ry
     hartree contribution      =   12162.02011819 Ry
     xc contribution           =    -485.16811088 Ry
     ewald contribution        =    9541.66523622 Ry
     electric field correction =       0.00001264 Ry

     convergence has been achieved in  78 iterations

     Forces acting on atoms (cartesian axes, Ry/au):

     atom    1 type  1   force =     0.00009222   -0.00025266    0.09470181
     atom    2 type  1   force =     0.00009933   -0.00054164   -0.17675241
     atom    3 type  2   force =     0.00011983   -0.00001113   -0.02174170
     atom    4 type  2   force =     0.00001655   -0.00162991    0.05554991
     atom    5 type  2   force =    -0.01057611   -0.00065809    0.00570664
     atom    6 type  2   force =     0.01211598    0.00002860    0.00515200
     atom    7 type  1   force =     0.00035024    0.00219683   -0.01237273
     atom    8 type  1   force =     0.00038367    0.00263534    0.00923903
     atom    9 type  2   force =     0.00020780   -0.00033088   -0.00022413
     atom   10 type  2   force =    -0.00209136    0.00002593   -0.00884370
     atom   11 type  2   force =     0.00085554   -0.00014969    0.00005260
     atom   12 type  2   force =    -0.00026975   -0.00009728    0.00044375
     atom   13 type  1   force =    -0.00036411   -0.00039056    0.00077353
     atom   14 type  1   force =     0.00055612   -0.00043084    0.00066005
     atom   15 type  2   force =    -0.00019563   -0.00024692    0.00028074
     atom   16 type  2   force =    -0.00003960   -0.00041941    0.00073874
     atom   17 type  2   force =     0.00055317   -0.00036303   -0.00045354
     atom   18 type  2   force =     0.00009291   -0.00036032   -0.00046868
     atom   19 type  1   force =    -0.00051202   -0.00054417   -0.00009736
     atom   20 type  1   force =     0.00047952    0.00014856   -0.00059558
     atom   21 type  2   force =     0.00009554   -0.00011368    0.10355182
     atom   22 type  2   force =    -0.00013164    0.00005150    0.00094457
     atom   23 type  2   force =    -0.07097334   -0.00024647   -0.02723656
     atom   24 type  2   force =     0.07096150    0.00022861   -0.02728862
     atom   25 type  1   force =     0.00028038   -0.00026093    0.09411261
     atom   26 type  1   force =     0.00011534   -0.00041187   -0.17691803
     atom   27 type  2   force =     0.00010919   -0.00041845   -0.02062874
     atom   28 type  2   force =     0.00010170   -0.00137084    0.05523609
     atom   29 type  2   force =    -0.01064365   -0.00021888    0.00494879
     atom   30 type  2   force =     0.01206004   -0.00000685    0.00431424
     atom   31 type  1   force =     0.00037162    0.00374707   -0.01355972
     atom   32 type  1   force =     0.00032806   -0.00313951    0.00922530
     atom   33 type  2   force =     0.00004822   -0.00000385    0.00008401
     atom   34 type  2   force =    -0.00265978    0.00248815   -0.00568919
     atom   35 type  2   force =     0.00102748    0.00033867    0.00010373
     atom   36 type  2   force =    -0.00075465    0.00005977    0.00081942
     atom   37 type  1   force =    -0.00056862    0.00022218   -0.00005468
     atom   38 type  1   force =     0.00059929    0.00015848   -0.00026237
     atom   39 type  2   force =     0.00038451   -0.00006618   -0.00019196
     atom   40 type  2   force =     0.00008110   -0.00008884   -0.00043671
     atom   41 type  2   force =     0.00063531   -0.00004117   -0.00039429
     atom   42 type  2   force =     0.00032280    0.00003792   -0.00018137
     atom   43 type  1   force =    -0.00097942   -0.00027376   -0.00104147
     atom   44 type  1   force =     0.00028417   -0.00100537   -0.00032624
     atom   45 type  2   force =     0.00008500   -0.00014358    0.10353662
     atom   46 type  2   force =    -0.07099107   -0.00015102   -0.02723496
     atom   47 type  2   force =     0.07098044    0.00023237   -0.02725682
     atom   48 type  3   force =     0.00691387    0.00486859    0.00446462
     atom   49 type  4   force =    -0.00245405   -0.00086114   -0.00242977
     atom   50 type  5   force =    -0.00066046    0.00090667    0.00080634
     atom   51 type  3   force =    -0.00107506    0.00069899    0.00132077
     atom   52 type  3   force =     0.00057229    0.00041183    0.00007191
     atom   53 type  4   force =    -0.00634040   -0.00423713   -0.00415832

     Total force =     0.365328     Total SCF correction =     0.000723
  @ DRIVER MODE: Message from server: STATUS
  @ DRIVER MODE: Message from server: GETFORCE
  @ DRIVER MODE: Returning v,forces,stress,ensemble

     Writing output data file ./calc.save/
  @ DRIVER MODE: Message from server: EXIT
  @ DRIVE MODE: Exiting

     General routines

     Parallel routines

   This run was terminated on:  13:47:19  23Aug2021

   JOB DONE.