     Program PWSCF v.6.7GPU starts on 16Jul2021 at  8:25:23

     R & G space division:  proc/nbgrp/npool/nimage =      16
     Reading input from /storage/home/hcoda1/3/ntian30/research/carbon/15Jul_vib/ads_slab/CH3NNHH_a/out_0024/pw.inp
Warning: card &CELL ignored
Warning: card   CELL_DYNAMICS='IPI', ignored
Warning: card / ignored

     Current dimensions of program PWSCF are:
     Max number of different atomic species (ntypx) = 10
     Max number of k-points (npk) =  40000
     Max angular momentum in pseudopotentials (lmaxx) =  3
     Presently no symmetry can be used with electric field

     Message from routine cell_base_init:
     DEPRECATED: use true lattice parameter, not A to a.u. conversion factor

     IMPORTANT: XC functional enforced from input :
     Exchange-correlation= BEEF-VDW
                           (   1   4  43  14   2   0   0)
     Any further DFT definition will be discarded
     Please, verify this is what you really want

  @ DRIVER MODE: Connecting to
 qe_1139763_2351651.sched-torque.pace.gatech.edu98f4u9_1_scratch
  using UNIX socket
  @ DRIVER MODE: Message from server: STATUS
  @ DRIVER MODE: Message from server: INIT
  @ DRIVER MODE: Receiving replica           0          -1
  @ DRIVER MODE: Receiving encoded integer          25
  @ DRIVER MODE:  SCF:  T  FORCE:  T  STRESS:  F  VC:  F  ENSEMBLE:  F
  @ DRIVER MODE:  SCF:  T  FORCE:  T  STRESS:  F  VC:  F  ENSEMBLE:  F

     Using Slab Decomposition

     bravais-lattice index     =            0
     lattice parameter (alat)  =       1.8897  a.u.
     unit-cell volume          =    6658.9804 (a.u.)^3
     number of atoms/cell      =           55
     number of atomic types    =            5
     number of electrons       =       397.00
     number of Kohn-Sham states=          208
     kinetic-energy cutoff     =      29.3995  Ry
     charge density cutoff     =     293.9946  Ry
     scf convergence threshold =      7.3E-08
     mixing beta               =       0.0500
     number of iterations used =            8  plain     mixing
     Exchange-correlation= BEEF-VDW
                           (   1   4  43  14   2   0   0)

     celldm(1)=   1.889726  celldm(2)=   0.000000  celldm(3)=   0.000000
     celldm(4)=   0.000000  celldm(5)=   0.000000  celldm(6)=   0.000000

     crystal axes: (cart. coord. in units of alat)
               a(1) = (   6.579727   0.000000   0.000000 )
               a(2) = (  -0.000775   5.961596   0.000000 )
               a(3) = (   0.000000   0.000000  25.155947 )

     reciprocal axes: (cart. coord. in units 2 pi/alat)
               b(1) = (  0.151982  0.000020  0.000000 )
               b(2) = (  0.000000  0.167740  0.000000 )
               b(3) = (  0.000000  0.000000  0.039752 )

     PseudoPot. # 1 for Ti read from file:
     /storage/coda1/p-amedford6/0/shared/rich_project_chbe-medford/medford-share/data/pseudos_module/espresso/nninc/pbe/van/Ti.UPF
     MD5 check sum: 8e4df49b7f0d34bbd5052bf3f5ea0213
     Pseudo is Ultrasoft, Zval = 12.0
     Generated by new atomic code, or converted to UPF format
     Using radial grid of  851 points,  6 beta functions with:
                l(1) =   0
                l(2) =   0
                l(3) =   1
                l(4) =   1
                l(5) =   2
                l(6) =   2
     Q(r) pseudized with  8 coefficients,  rinner =    1.000   1.000   1.000
                                                       1.000   1.000

     PseudoPot. # 2 for O  read from file:
     /storage/coda1/p-amedford6/0/shared/rich_project_chbe-medford/medford-share/data/pseudos_module/espresso/nninc/pbe/van/O.UPF
     MD5 check sum: 78c19812648e8988a0fe644b0f25305e
     Pseudo is Ultrasoft, Zval =  6.0
     Generated by new atomic code, or converted to UPF format
     Using radial grid of  737 points,  4 beta functions with:
                l(1) =   0
                l(2) =   0
                l(3) =   1
                l(4) =   1
     Q(r) pseudized with  8 coefficients,  rinner =    0.800   0.800   0.800

     PseudoPot. # 3 for N  read from file:
     /storage/coda1/p-amedford6/0/shared/rich_project_chbe-medford/medford-share/data/pseudos_module/espresso/nninc/pbe/van/N.UPF
     MD5 check sum: 90d10febe142ad51ac9d5be1deb811c4
     Pseudo is Ultrasoft, Zval =  5.0
     Generated by new atomic code, or converted to UPF format
     Using radial grid of  729 points,  4 beta functions with:
                l(1) =   0
                l(2) =   0
                l(3) =   1
                l(4) =   1
     Q(r) pseudized with  8 coefficients,  rinner =    0.800   0.800   0.800

     PseudoPot. # 4 for C  read from file:
     /storage/coda1/p-amedford6/0/shared/rich_project_chbe-medford/medford-share/data/pseudos_module/espresso/nninc/pbe/van/C.UPF
     MD5 check sum: 1a69bf6b8db32088f5b2163dbdb77a27
     Pseudo is Ultrasoft, Zval =  4.0
     Generated by new atomic code, or converted to UPF format
     Using radial grid of  721 points,  4 beta functions with:
                l(1) =   0
                l(2) =   0
                l(3) =   1
                l(4) =   1
     Q(r) pseudized with  8 coefficients,  rinner =    0.800   0.800   0.800

     PseudoPot. # 5 for H  read from file:
     /storage/coda1/p-amedford6/0/shared/rich_project_chbe-medford/medford-share/data/pseudos_module/espresso/nninc/pbe/van/H.UPF
     MD5 check sum: b5ee9d7bfd3a09ee7748110bda690ff7
     Pseudo is Ultrasoft, Zval =  1.0
     Generated by new atomic code, or converted to UPF format
     Using radial grid of  615 points,  1 beta functions with:
                l(1) =   0
     Q(r) pseudized with  8 coefficients,  rinner =    0.800

     atomic species   valence    mass     pseudopotential
        Ti1           12.00    47.86700     Ti( 1.00)
        O1             6.00    15.99900     O ( 1.00)
        N1             5.00    14.00700     N ( 1.00)
        C1             4.00    12.01100     C ( 1.00)
        H1             1.00     1.00800     H ( 1.00)

     Starting magnetic structure
     atomic species   magnetization
        Ti1          0.000
        O1           0.000
        N1           0.000
        C1           0.025
        H1           0.000

     No symmetry found

   Cartesian axes

     site n.     atom                  positions (alat units)
         1           Ti1 tau(   1) = (   0.0004258   2.9801865   6.0000000  )
         2           Ti1 tau(   2) = (   3.2906075   1.4906267   6.0002472  )
         3           O1  tau(   3) = (   0.0006271   0.0005054   7.9858123  )
         4           O1  tau(   4) = (   3.2906025   0.0005020   7.3038282  )
         5           O1  tau(   5) = (   4.5942328   1.4918067   9.2879030  )
         6           O1  tau(   6) = (   1.9868534   1.4903216   9.2879459  )
         7           Ti1 tau(   7) = (   3.2907910   2.8959150   9.1758416  )
         8           Ti1 tau(   8) = (   0.0015273   1.4827037   9.2680791  )
         9           O1  tau(   9) = (   3.3020592   5.9599881  11.3075072  )
        10           O1  tau(  10) = (   0.0116148   5.9584955  10.6183126  )
        11           O1  tau(  11) = (   1.3218652   1.4872367  12.6142461  )
        12           O1  tau(  12) = (   5.3149618   1.4866655  12.6283206  )
        13           Ti1 tau(  13) = (   6.5343381   3.0098038  12.6530281  )
        14           Ti1 tau(  14) = (   3.2132235   1.4912063  12.4551521  )
        15           O1  tau(  15) = (   0.0515422   5.9562953  14.6829507  )
        16           O1  tau(  16) = (   3.3088797   0.0214154  13.8770011  )
        17           O1  tau(  17) = (   4.5726725   1.5412406  16.1224456  )
        18           O1  tau(  18) = (   2.0900022   1.5114086  15.9969863  )
        19           Ti1 tau(  19) = (   3.3311046   3.0200058  15.6476981  )
        20           Ti1 tau(  20) = (   0.0790784   1.4105808  15.8036947  )
        21           O1  tau(  21) = (   3.2904802   0.0005063   4.7018136  )
        22           O1  tau(  22) = (   0.0613336   0.0214447  17.2555488  )
        23           O1  tau(  23) = (   1.3043587   1.4918075   6.0039043  )
        24           O1  tau(  24) = (   5.2767064   1.4903225   6.0039473  )
        25           Ti1 tau(  25) = (   0.0000382   5.9609847   6.0000000  )
        26           Ti1 tau(  26) = (   3.2902200   4.4714249   6.0002472  )
        27           O1  tau(  27) = (   0.0002396   2.9813036   7.9858123  )
        28           O1  tau(  28) = (   3.2902150   2.9813002   7.3038282  )
        29           O1  tau(  29) = (   4.5938453   4.4726049   9.2879030  )
        30           O1  tau(  30) = (   1.9864658   4.4711199   9.2879459  )
        31           Ti1 tau(  31) = (   3.2891106   5.8743827   9.1763621  )
        32           Ti1 tau(  32) = (   0.0006254   4.4649316   9.2693709  )
        33           O1  tau(  33) = (   3.3026341   2.9893090  11.3092672  )
        34           O1  tau(  34) = (   0.0092240   2.9805883  10.6323155  )
        35           O1  tau(  35) = (   1.3182942   4.4670451  12.6271195  )
        36           O1  tau(  36) = (   5.3124783   4.4780259  12.6376329  )
        37           Ti1 tau(  37) = (   6.5365500   0.0194685  12.5464133  )
        38           Ti1 tau(  38) = (   3.2155898   4.4753301  12.4613306  )
        39           O1  tau(  39) = (   0.0167368   2.9407051  14.7244952  )
        40           O1  tau(  40) = (   3.3149560   2.9822459  13.8616979  )
        41           O1  tau(  41) = (   4.5706274   4.5128733  15.9228735  )
        42           O1  tau(  42) = (   2.1262058   4.4922812  16.0793225  )
        43           Ti1 tau(  43) = (   3.3222298   0.0210159  15.6751784  )
        44           Ti1 tau(  44) = (   6.5499002   4.5104744  16.2959303  )
        45           O1  tau(  45) = (   3.2900926   2.9813045   4.7018136  )
        46           O1  tau(  46) = (   1.3039711   4.4726057   6.0039043  )
        47           O1  tau(  47) = (   5.2763189   4.4711207   6.0039473  )
        48           N1  tau(  48) = (   0.3735289   2.9861087  17.6038306  )
        49           C1  tau(  49) = (   1.3580301   2.7301661  18.6431808  )
        50           H1  tau(  50) = (   1.5128655   3.6233449  19.2641712  )
        51           H1  tau(  51) = (   1.0354786   1.8978442  19.2895547  )
        52           H1  tau(  52) = (   2.3065860   2.4473273  18.1987077  )
        53           N1  tau(  53) = (   5.7326324   3.4596218  18.1373629  )
        54           H1  tau(  54) = (   5.8436824   4.0267099  18.9748678  )
        55           H1  tau(  55) = (   5.0375616   2.7244768  18.2555579  )

     number of k points=    10  Fermi-Dirac smearing, width (Ry)=  0.0073
                       cart. coord. in units 2pi/alat
        k(    1) = (   0.0000000   0.0000000   0.0000000), wk =   0.0625000
        k(    2) = (   0.0000000   0.0419351   0.0000000), wk =   0.1250000
        k(    3) = (   0.0000000  -0.0838702   0.0000000), wk =   0.0625000
        k(    4) = (   0.0379955   0.0000049   0.0000000), wk =   0.1250000
        k(    5) = (   0.0379955   0.0419400   0.0000000), wk =   0.1250000
        k(    6) = (   0.0379955  -0.0838652   0.0000000), wk =   0.1250000
[...]
     %   T. Thonhauser et al., PRB 76, 125112 (2007).                       %
     %   K. Berland et al., Rep. Prog. Phys. 78, 066501 (2015).             %
     %   D.C. Langreth et al., J. Phys.: Condens. Matter 21, 084203 (2009). %
     %                                                                      %
     %                                                                      %
     % If you are calculating the stress with vdW-DF, please also cite:     %
     %                                                                      %
     %   R. Sabatini et al., J. Phys.: Condens. Matter 24, 424209 (2012).   %
     %                                                                      %
     %%%%%%%%%%%%%%%%%%%%%%%%%%%%%%%%%%%%%%%%%%%%%%%%%%%%%%%%%%%%%%%%%%%%%%%%

     Adding external electric field

     Computed dipole along edir(3) :
        Dipole               -9.2590 Ry au,        -23.5340 Debye
        Dipole field         -0.0175 Ry au,

        Potential amp.        1.6197 Ry
        Total length         46.3494 bohr

[...]

     Starting wfcs are  301 atomic wfcs
  @ DRIVER MODE: Message from server: STATUS
  @ DRIVER MODE: Message from server: POSDATA
  @ DRIVER MODE: Reading and sharing cell
  @ DRIVER MODE: Reading and sharing positions
  @ DRIVER MODE: Received positions

     Self-consistent Calculation

     iteration #  1     ecut=    29.40 Ry     beta= 0.05
     Davidson diagonalization with overlap
     c_bands:  1 eigenvalues not converged
     c_bands:  2 eigenvalues not converged
     c_bands:  1 eigenvalues not converged
     c_bands:  2 eigenvalues not converged
     c_bands:  2 eigenvalues not converged
     c_bands:  2 eigenvalues not converged
     c_bands:  2 eigenvalues not converged
     c_bands:  1 eigenvalues not converged
     c_bands:  4 eigenvalues not converged
     c_bands:  1 eigenvalues not converged
     c_bands:  2 eigenvalues not converged
     c_bands:  1 eigenvalues not converged
     c_bands:  2 eigenvalues not converged
     c_bands:  2 eigenvalues not converged
     c_bands:  2 eigenvalues not converged
     c_bands:  2 eigenvalues not converged
     c_bands:  1 eigenvalues not converged
     c_bands:  4 eigenvalues not converged
     ethr =  1.00E-05,  avg # of iterations = 19.8

[...]

     total energy              =   -2525.30802205 Ry
     estimated scf accuracy    <    4616.20994057 Ry

     total magnetization       =     0.00 Bohr mag/cell
     absolute magnetization    =     0.03 Bohr mag/cell

     iteration #  2     ecut=    29.40 Ry     beta= 0.05
     Davidson diagonalization with overlap
     ethr =  1.00E-02,  avg # of iterations = 24.0

[...]

     iteration #108     ecut=    29.40 Ry     beta= 0.05
     Davidson diagonalization with overlap
     ethr =  8.87E-11,  avg # of iterations =  3.5

[...]

     total energy              =   -2941.63805429 Ry
     estimated scf accuracy    <       0.00000019 Ry

[...]

     iteration #116     ecut=    29.40 Ry     beta= 0.05
     Davidson diagonalization with overlap
     c_bands:  1 eigenvalues not converged
     c_bands:  2 eigenvalues not converged
     c_bands:  1 eigenvalues not converged
     c_bands:  4 eigenvalues not converged
     c_bands:  3 eigenvalues not converged
     c_bands:  2 eigenvalues not converged
     c_bands:  4 eigenvalues not converged
     c_bands:  1 eigenvalues not converged
     c_bands:  1 eigenvalues not converged
     c_bands:  1 eigenvalues not converged
     c_bands:  1 eigenvalues not converged
     c_bands:  2 eigenvalues not converged
     ethr =  2.13E-11,  avg # of iterations = 19.4

     negative rho (up, down):  8.390E-03 8.388E-03

[...]

     Adding external electric field

     Computed dipole along edir(3) :
        Dipole                1.1473 Ry au,          2.9163 Debye
        Dipole field          0.0022 Ry au,

        Potential amp.       -0.2007 Ry
        Total length         46.3494 bohr

     Magnetic moment per site  (integrated on atomic sphere of radius R)
     atom   1 (R=0.726)  charge=  7.9409  magn= -0.0189
     atom   2 (R=0.726)  charge=  7.9244  magn= -0.0007
     atom   3 (R=0.726)  charge=  4.9319  magn=  0.0016
     atom   4 (R=0.726)  charge=  4.9681  magn=  0.0001
     atom   5 (R=0.726)  charge=  4.9368  magn=  0.0002
     atom   6 (R=0.726)  charge=  4.9376  magn=  0.0002
     atom   7 (R=0.726)  charge=  7.9229  magn= -0.0006
     atom   8 (R=0.726)  charge=  7.9151  magn= -0.0060
     atom   9 (R=0.726)  charge=  4.9562  magn=  0.0000
     atom  10 (R=0.726)  charge=  4.9310  magn=  0.0005
     atom  11 (R=0.726)  charge=  4.9388  magn=  0.0001
     atom  12 (R=0.726)  charge=  4.9369  magn=  0.0001
     atom  13 (R=0.726)  charge=  7.9088  magn= -0.0012
     atom  14 (R=0.726)  charge=  7.9273  magn= -0.0003
     atom  15 (R=0.726)  charge=  4.9165  magn=  0.0000
     atom  16 (R=0.726)  charge=  4.9542  magn=  0.0000
     atom  17 (R=0.726)  charge=  4.9068  magn=  0.0000
     atom  18 (R=0.726)  charge=  4.9387  magn=  0.0000
     atom  19 (R=0.726)  charge=  7.9527  magn=  0.0000
     atom  20 (R=0.726)  charge=  7.9411  magn= -0.0002
     atom  21 (R=0.726)  charge=  4.8211  magn=  0.0005
     atom  22 (R=0.726)  charge=  4.9006  magn= -0.0000
     atom  23 (R=0.726)  charge=  4.9281  magn=  0.0022
     atom  24 (R=0.726)  charge=  4.9282  magn=  0.0022
     atom  25 (R=0.726)  charge=  7.9408  magn= -0.0188
     atom  26 (R=0.726)  charge=  7.9244  magn= -0.0007
     atom  27 (R=0.726)  charge=  4.9305  magn=  0.0016
     atom  28 (R=0.726)  charge=  4.9683  magn=  0.0001
     atom  29 (R=0.726)  charge=  4.9375  magn=  0.0002
     atom  30 (R=0.726)  charge=  4.9382  magn=  0.0002
     atom  31 (R=0.726)  charge=  7.9236  magn= -0.0006
     atom  32 (R=0.726)  charge=  7.9153  magn= -0.0059
     atom  33 (R=0.726)  charge=  4.9540  magn=  0.0000
     atom  34 (R=0.726)  charge=  4.9049  magn=  0.0006
     atom  35 (R=0.726)  charge=  4.9378  magn=  0.0001
     atom  36 (R=0.726)  charge=  4.9369  magn=  0.0002
     atom  37 (R=0.726)  charge=  7.9159  magn= -0.0013
     atom  38 (R=0.726)  charge=  7.9271  magn= -0.0003
     atom  39 (R=0.726)  charge=  4.9089  magn=  0.0000
     atom  40 (R=0.726)  charge=  4.9620  magn=  0.0000
     atom  41 (R=0.726)  charge=  4.9464  magn= -0.0000
     atom  42 (R=0.726)  charge=  4.9157  magn= -0.0000
     atom  43 (R=0.726)  charge=  7.9490  magn= -0.0000
     atom  44 (R=0.726)  charge=  7.9599  magn=  0.0000
     atom  45 (R=0.726)  charge=  4.8212  magn=  0.0005
     atom  46 (R=0.726)  charge=  4.9281  magn=  0.0022
     atom  47 (R=0.726)  charge=  4.9282  magn=  0.0022
     atom  48 (R=0.420)  charge=  1.3151  magn= -0.0000
     atom  49 (R=0.448)  charge=  0.8395  magn=  0.0000
     atom  50 (R=0.420)  charge=  0.4417  magn= -0.0000
     atom  51 (R=0.420)  charge=  0.4372  magn= -0.0000
     atom  52 (R=0.420)  charge=  0.4485  magn= -0.0000
     atom  53 (R=0.420)  charge=  1.3378  magn= -0.0000
     atom  54 (R=0.420)  charge=  0.4533  magn=  0.0000
     atom  55 (R=0.420)  charge=  0.4498  magn= -0.0000

     End of self-consistent calculation

 ------ SPIN UP ------------

          k = 0.0000 0.0000 0.0000 ( 18029 PWs)   bands (ev):

   -55.5741 -55.5519 -55.5363 -55.5177 -55.4597 -55.4232 -55.4224 -55.3876
   -55.3649 -55.3308 -55.3263 -55.2925 -55.0313 -54.8758 -54.5366 -54.5026
   -32.1362 -32.0434 -31.9581 -31.8918 -31.8877 -31.8626 -31.8419 -31.8188
   -31.8050 -31.7933 -31.7841 -31.7589 -31.7544 -31.7259 -31.7154 -31.7006
   -31.6651 -31.6598 -31.6575 -31.6464 -31.6456 -31.6120 -31.6052 -31.5947
   -31.5698 -31.5674 -31.5628 -31.5552 -31.5538 -31.5298 -31.5040 -31.4990
   -31.4950 -31.4919 -31.4805 -31.4682 -31.4396 -31.3056 -31.2562 -31.1552
   -31.1284 -31.0370 -30.9432 -30.8557 -30.8334 -30.7598 -30.6733 -30.5624
   -17.5814 -16.3616 -16.0491 -15.8347 -15.7262 -15.7227 -15.6382 -15.4171
   -15.2955 -15.2815 -15.1659 -15.1621 -15.1031 -15.0607 -15.0535 -15.0467
   -15.0139 -15.0024 -14.9850 -14.9487 -14.9156 -14.8976 -14.8746 -14.7726
   -14.7059 -14.7001 -14.6819 -14.6172 -14.5696 -14.2093 -13.0391 -12.9229
   -12.5319  -9.1957  -6.3451  -5.0916  -4.1867  -3.7399  -3.5502  -3.4723
    -3.4379  -3.3709  -3.3280  -3.1799  -3.1722  -2.7937  -2.7745  -2.7565
    -2.7352  -2.7319  -2.4628  -2.4100  -2.3951  -2.3914  -2.3734  -2.3567
    -2.3359  -2.3255  -2.2979  -2.2875  -2.1539  -2.1101  -2.0313  -2.0051
    -1.9897  -1.8767  -1.8528  -1.8327  -1.8209  -1.8076  -1.7785  -1.7716
    -1.7498  -1.6413  -1.5322  -1.4531  -1.4129  -1.3604  -1.3407  -1.1629
    -1.1102  -1.0505  -1.0272  -1.0027  -0.9876  -0.9538  -0.8798  -0.8558
    -0.7129  -0.6743  -0.6206  -0.5943  -0.5656  -0.5091  -0.4761  -0.4458
    -0.3502  -0.3380  -0.3272  -0.3142  -0.2582  -0.0667  -0.0181   0.0008
     0.0159   0.1152   0.1548   0.1793   0.2136   0.2700   0.2987   0.3633
     0.3917   0.4117   0.4225   0.4514   0.4680   0.6001   0.6254   0.6559
     0.7173   0.7709   0.8465   0.9589   1.0413   1.0985   1.1997   1.4182
     1.4857   1.5691   1.6791   1.7087   2.0547   2.1005   3.5759   3.6768
     3.6966   3.7133   3.8177   3.8674   4.0195   4.0313   4.0682   4.0952

[...]

          k =-0.0760-0.0000 0.0000 ( 17886 PWs)   bands (ev):

[...]

 ------ SPIN DOWN ----------

[...]

          k = 0.0380-0.0419 0.0000 ( 17876 PWs)   bands (ev):

[...]

          k =-0.0760-0.0839 0.0000 ( 17948 PWs)   bands (ev):

   -55.5706 -55.5695 -55.5609 -55.5500 -55.4506 -55.4360 -55.4090 -55.4016
   -55.3607 -55.3573 -55.3124 -55.3088 -55.0302 -54.8770 -54.5207 -54.5206
   -31.9422 -31.9317 -31.8740 -31.8733 -31.8675 -31.8665 -31.8440 -31.8274
   -31.8028 -31.7888 -31.7681 -31.7485 -31.7233 -31.7127 -31.7069 -31.6936
   -31.6923 -31.6850 -31.6810 -31.6734 -31.6671 -31.6538 -31.6504 -31.6481
   -31.6286 -31.6132 -31.6038 -31.6025 -31.5561 -31.5539 -31.5453 -31.5429
   -31.5395 -31.5357 -31.5275 -31.5256 -31.4117 -31.3170 -31.2582 -31.2165
   -31.1339 -31.0482 -30.8477 -30.8476 -30.7565 -30.7563 -30.7178 -30.7177
   -17.5695 -15.8215 -15.7815 -15.5264 -15.5170 -15.5146 -15.4738 -15.3508
   -15.3023 -15.2762 -15.2647 -15.2460 -15.2378 -15.1371 -15.1223 -15.1067
   -15.0953 -15.0697 -15.0260 -15.0209 -15.0128 -15.0018 -14.9905 -14.9247
   -14.8723 -14.8684 -14.7550 -14.6629 -14.5228 -14.4341 -13.0244 -13.0241
   -12.5511  -9.1567  -6.3036  -5.1210  -4.1212  -3.3971  -3.1221  -3.0746
    -2.7866  -2.7671  -2.7522  -2.6386  -2.5191  -2.5098  -2.4839  -2.4623
    -2.4278  -2.4151  -2.4050  -2.3968  -2.3786  -2.3606  -2.3498  -2.3102
    -2.2416  -2.2336  -2.2252  -2.2172  -2.2003  -2.1766  -2.1659  -2.1388
    -2.1142  -2.0794  -2.0204  -1.9895  -1.8400  -1.7961  -1.7346  -1.6960
    -1.6875  -1.6584  -1.6244  -1.6170  -1.5062  -1.4922  -1.4585  -1.3280
    -1.2677  -1.2595  -1.2271  -1.1396  -1.1006  -0.9720  -0.9585  -0.9212
    -0.8662  -0.8584  -0.8212  -0.7832  -0.7323  -0.6799  -0.6367  -0.6134
    -0.5954  -0.5231  -0.5225  -0.4764  -0.4202  -0.3502  -0.3272  -0.3196
    -0.2860  -0.2429  -0.1961  -0.1328  -0.0573  -0.0377  -0.0231   0.0758
     0.1491   0.3681   0.4154   0.5120   0.5344   0.5618   0.6218   0.6713
     0.7410   0.7568   0.7843   0.8574   0.8795   0.9714   0.9828   0.9998
     1.1775   1.6443   1.8509   1.8519   1.9199   1.9205   3.8568   3.8730
     3.8971   3.9209   4.0724   4.0756   4.0931   4.0958   4.2163   4.2480

     the Fermi energy is     3.5637 ev

!    total energy              =   -2941.63805527 Ry
     estimated scf accuracy    <       0.00000007 Ry
     smearing contrib. (-TS)   =      -0.02167902 Ry
     internal energy E=F+TS    =   -2941.61637625 Ry

     The total energy is F=E-TS. E is the sum of the following terms:
     one-electron contribution =  -24387.57682586 Ry
     hartree contribution      =   12285.73736853 Ry
     xc contribution           =    -486.93681418 Ry
     ewald contribution        =    9647.15741104 Ry
     electric field correction =       0.00248422 Ry

     total magnetization       =    -0.07 Bohr mag/cell
     absolute magnetization    =     0.11 Bohr mag/cell

     convergence has been achieved in 116 iterations

     Forces acting on atoms (cartesian axes, Ry/au):

     atom    1 type  1   force =    -0.00000893   -0.00019559    0.09679003
     atom    2 type  1   force =     0.00008929   -0.00069330   -0.17464455
     atom    3 type  2   force =     0.00018238   -0.00005971   -0.02505815
     atom    4 type  2   force =     0.00000920   -0.00124900    0.05120545
     atom    5 type  2   force =    -0.01126826   -0.00080368    0.00228972
     atom    6 type  2   force =     0.01310914   -0.00035462    0.00273556
     atom    7 type  1   force =     0.00100248    0.00021070   -0.01341853
     atom    8 type  1   force =    -0.00010335    0.01533248    0.02823840
     atom    9 type  2   force =    -0.00007232   -0.00001378    0.00010237
     atom   10 type  2   force =    -0.00234052    0.00080782   -0.01056330
     atom   11 type  2   force =     0.00035014    0.00005548   -0.00000922
     atom   12 type  2   force =    -0.00043701   -0.00006563    0.00025999
     atom   13 type  1   force =     0.00015200   -0.00018432   -0.00007462
     atom   14 type  1   force =     0.00011084   -0.00022045    0.00002378
     atom   15 type  2   force =    -0.00005804    0.00017501   -0.00010250
     atom   16 type  2   force =    -0.00019812    0.00003697   -0.00018883
     atom   17 type  2   force =    -0.00011861    0.00007396   -0.00007791
     atom   18 type  2   force =    -0.00016829    0.00003908   -0.00017803
     atom   19 type  1   force =    -0.00030801    0.00022112    0.00006766
     atom   20 type  1   force =     0.00003640   -0.00052085    0.00020221
     atom   21 type  2   force =     0.00003730   -0.00009001    0.10300403
     atom   22 type  2   force =    -0.00009574    0.00030116    0.00038896
     atom   23 type  2   force =    -0.07178112   -0.00021124   -0.02778327
     atom   24 type  2   force =     0.07174027    0.00024380   -0.02784789
     atom   25 type  1   force =     0.00003610   -0.00025664    0.09639967
     atom   26 type  1   force =    -0.00000939   -0.00029875   -0.17490426
     atom   27 type  2   force =     0.00019285   -0.00025645   -0.02391835
     atom   28 type  2   force =     0.00005314   -0.00100625    0.05147722
     atom   29 type  2   force =    -0.01129758    0.00078460    0.00170363
     atom   30 type  2   force =     0.01298760    0.00111185    0.00210440
     atom   31 type  1   force =     0.00103830    0.00256396   -0.01543578
     atom   32 type  1   force =     0.00005618   -0.01663557    0.02911618
     atom   33 type  2   force =     0.00011714    0.00002886   -0.00011005
     atom   34 type  2   force =    -0.00271049    0.00093427   -0.01866479
     atom   35 type  2   force =     0.00017268   -0.00007419   -0.00008730
     atom   36 type  2   force =    -0.00038293   -0.00007259    0.00013614
     atom   37 type  1   force =    -0.00011894   -0.00019230    0.00012625
     atom   38 type  1   force =     0.00008206    0.00008610   -0.00006781
     atom   39 type  2   force =    -0.00002934    0.00045013   -0.00000517
     atom   40 type  2   force =    -0.00037795    0.00014822   -0.00013577
     atom   41 type  2   force =     0.00012957   -0.00001342   -0.00013327
     atom   42 type  2   force =     0.00000765    0.00020904   -0.00002844
     atom   43 type  1   force =     0.00016458    0.00000665   -0.00012069
     atom   44 type  1   force =    -0.00025986   -0.00032697   -0.00036436
     atom   45 type  2   force =     0.00005393   -0.00010989    0.10301059
     atom   46 type  2   force =    -0.07180566   -0.00016082   -0.02780619
     atom   47 type  2   force =     0.07174672    0.00022557   -0.02784870
     atom   48 type  3   force =    -0.00080806   -0.00098452    0.00154950
     atom   49 type  4   force =    -0.00148416   -0.00388392    0.00442911
     atom   50 type  5   force =    -0.00013668    0.00059994   -0.00025776
     atom   51 type  5   force =     0.00112820    0.00421359   -0.00533552
     atom   52 type  5   force =     0.00058267   -0.00063119    0.00041188
     atom   53 type  3   force =     0.00082766    0.00053338   -0.00015636
     atom   54 type  5   force =     0.00037199   -0.00011770    0.00109857
     atom   55 type  5   force =    -0.00018909    0.00028961   -0.00154391

     Total force =     0.367318     Total SCF correction =     0.000338
  @ DRIVER MODE: Message from server: STATUS
  @ DRIVER MODE: Message from server: GETFORCE
  @ DRIVER MODE: Returning v,forces,stress,ensemble

     Writing output data file ./calc.save/
  @ DRIVER MODE: Message from server: EXIT
  @ DRIVE MODE: Exiting

     General routines

     Parallel routines

   This run was terminated on:   9:24:37  16Jul2021

   JOB DONE.