     Program PWSCF v.6.7GPU starts on 12Oct2021 at  4: 4:41

     R & G space division:  proc/nbgrp/npool/nimage =       8
     Reading input from /storage/home/hcoda1/3/ntian30/research/carbon/CxH_vib/CH2_calc/ads_slab/CH2NHH_b/out_0032/pw.inp
Warning: card &CELL ignored
Warning: card   CELL_DYNAMICS='IPI', ignored
Warning: card / ignored

     Current dimensions of program PWSCF are:
     Max number of different atomic species (ntypx) = 10
     Max number of k-points (npk) =  40000
     Max angular momentum in pseudopotentials (lmaxx) =  3
     Presently no symmetry can be used with electric field

     Message from routine cell_base_init:
     DEPRECATED: use true lattice parameter, not A to a.u. conversion factor

     IMPORTANT: XC functional enforced from input :
     Exchange-correlation= BEEF-VDW
                           (   1   4  43  14   2   0   0)
     Any further DFT definition will be discarded
     Please, verify this is what you really want

  @ DRIVER MODE: Connecting to
 qe_1139763_3171005.sched-torque.pace.gatech.edu4zw5zjqu_scratch
  using UNIX socket
  @ DRIVER MODE: Message from server: STATUS
  @ DRIVER MODE: Message from server: INIT
  @ DRIVER MODE: Receiving replica           0          -1
  @ DRIVER MODE: Receiving encoded integer          25
  @ DRIVER MODE:  SCF:  T  FORCE:  T  STRESS:  F  VC:  F  ENSEMBLE:  F
  @ DRIVER MODE:  SCF:  T  FORCE:  T  STRESS:  F  VC:  F  ENSEMBLE:  F

     Using Slab Decomposition

     bravais-lattice index     =            0
     lattice parameter (alat)  =       1.8897  a.u.
     unit-cell volume          =    6658.9804 (a.u.)^3
     number of atoms/cell      =           53
     number of atomic types    =            5
     number of electrons       =       391.00
     number of Kohn-Sham states=          205
     kinetic-energy cutoff     =      29.3995  Ry
     charge density cutoff     =     293.9946  Ry
     scf convergence threshold =      7.3E-08
     mixing beta               =       0.0500
     number of iterations used =            8  plain     mixing
     Exchange-correlation= BEEF-VDW
                           (   1   4  43  14   2   0   0)

     celldm(1)=   1.889726  celldm(2)=   0.000000  celldm(3)=   0.000000
     celldm(4)=   0.000000  celldm(5)=   0.000000  celldm(6)=   0.000000

     crystal axes: (cart. coord. in units of alat)
               a(1) = (   6.579727   0.000000   0.000000 )
               a(2) = (  -0.000775   5.961596   0.000000 )
               a(3) = (   0.000000   0.000000  25.155947 )

     reciprocal axes: (cart. coord. in units 2 pi/alat)
               b(1) = (  0.151982  0.000020  0.000000 )
               b(2) = (  0.000000  0.167740  0.000000 )
               b(3) = (  0.000000  0.000000  0.039752 )

     PseudoPot. # 1 for Ti read from file:
     /storage/coda1/p-amedford6/0/shared/rich_project_chbe-medford/medford-share/data/pseudos_module/espresso/nninc/pbe/van/Ti.UPF
     MD5 check sum: 8e4df49b7f0d34bbd5052bf3f5ea0213
     Pseudo is Ultrasoft, Zval = 12.0
     Generated by new atomic code, or converted to UPF format
     Using radial grid of  851 points,  6 beta functions with:
                l(1) =   0
                l(2) =   0
                l(3) =   1
                l(4) =   1
                l(5) =   2
                l(6) =   2
     Q(r) pseudized with  8 coefficients,  rinner =    1.000   1.000   1.000
                                                       1.000   1.000

     PseudoPot. # 2 for O  read from file:
     /storage/coda1/p-amedford6/0/shared/rich_project_chbe-medford/medford-share/data/pseudos_module/espresso/nninc/pbe/van/O.UPF
     MD5 check sum: 78c19812648e8988a0fe644b0f25305e
     Pseudo is Ultrasoft, Zval =  6.0
     Generated by new atomic code, or converted to UPF format
     Using radial grid of  737 points,  4 beta functions with:
                l(1) =   0
                l(2) =   0
                l(3) =   1
                l(4) =   1
     Q(r) pseudized with  8 coefficients,  rinner =    0.800   0.800   0.800

     PseudoPot. # 3 for H  read from file:
     /storage/coda1/p-amedford6/0/shared/rich_project_chbe-medford/medford-share/data/pseudos_module/espresso/nninc/pbe/van/H.UPF
     MD5 check sum: b5ee9d7bfd3a09ee7748110bda690ff7
     Pseudo is Ultrasoft, Zval =  1.0
     Generated by new atomic code, or converted to UPF format
     Using radial grid of  615 points,  1 beta functions with:
                l(1) =   0
     Q(r) pseudized with  8 coefficients,  rinner =    0.800

     PseudoPot. # 4 for N  read from file:
     /storage/coda1/p-amedford6/0/shared/rich_project_chbe-medford/medford-share/data/pseudos_module/espresso/nninc/pbe/van/N.UPF
     MD5 check sum: 90d10febe142ad51ac9d5be1deb811c4
     Pseudo is Ultrasoft, Zval =  5.0
     Generated by new atomic code, or converted to UPF format
     Using radial grid of  729 points,  4 beta functions with:
                l(1) =   0
                l(2) =   0
                l(3) =   1
                l(4) =   1
     Q(r) pseudized with  8 coefficients,  rinner =    0.800   0.800   0.800

     PseudoPot. # 5 for C  read from file:
     /storage/coda1/p-amedford6/0/shared/rich_project_chbe-medford/medford-share/data/pseudos_module/espresso/nninc/pbe/van/C.UPF
     MD5 check sum: 1a69bf6b8db32088f5b2163dbdb77a27
     Pseudo is Ultrasoft, Zval =  4.0
     Generated by new atomic code, or converted to UPF format
     Using radial grid of  721 points,  4 beta functions with:
                l(1) =   0
                l(2) =   0
                l(3) =   1
                l(4) =   1
     Q(r) pseudized with  8 coefficients,  rinner =    0.800   0.800   0.800

     atomic species   valence    mass     pseudopotential
        Ti1           12.00    47.86700     Ti( 1.00)
        O1             6.00    15.99900     O ( 1.00)
        H1             1.00     1.00800     H ( 1.00)
        N1             5.00    14.00700     N ( 1.00)
        C1             4.00    12.01100     C ( 1.00)

     No symmetry found

   Cartesian axes

     site n.     atom                  positions (alat units)
         1           Ti1 tau(   1) = (   0.0004258   2.9801865   6.0000000  )
         2           Ti1 tau(   2) = (   3.2906075   1.4906267   6.0002472  )
         3           O1  tau(   3) = (   0.0006271   0.0005054   7.9858123  )
         4           O1  tau(   4) = (   3.2906025   0.0005020   7.3038282  )
         5           O1  tau(   5) = (   4.5942328   1.4918067   9.2879030  )
         6           O1  tau(   6) = (   1.9868534   1.4903216   9.2879459  )
         7           Ti1 tau(   7) = (   3.2907910   2.8959150   9.1758416  )
         8           Ti1 tau(   8) = (   0.0015273   1.4827037   9.2680791  )
         9           O1  tau(   9) = (   3.3750462   0.0034689  11.3324641  )
        10           O1  tau(  10) = (   0.0116148   5.9584955  10.6183126  )
        11           O1  tau(  11) = (   1.3977860   1.4758343  12.6375763  )
        12           O1  tau(  12) = (   5.4232152   1.4913549  12.6657899  )
        13           Ti1 tau(  13) = (   0.0691229   2.9530050  12.5389017  )
        14           Ti1 tau(  14) = (   3.3643908   1.4039863  12.4577757  )
        15           O1  tau(  15) = (   0.1477665   0.0132832  14.6652528  )
        16           O1  tau(  16) = (   3.5189244   0.0045933  13.9158019  )
        17           O1  tau(  17) = (   4.7861523   1.5333885  16.1913275  )
        18           O1  tau(  18) = (   2.2541876   1.4026900  15.9427082  )
        19           Ti1 tau(  19) = (   3.5811307   2.9972434  16.0687679  )
        20           Ti1 tau(  20) = (   0.2998503   1.4255696  15.8726171  )
        21           O1  tau(  21) = (   3.2904802   0.0005063   4.7018136  )
        22           O1  tau(  22) = (   0.2643450   0.0038197  17.1846268  )
        23           O1  tau(  23) = (   1.3043587   1.4918075   6.0039043  )
        24           O1  tau(  24) = (   5.2767064   1.4903225   6.0039473  )
        25           Ti1 tau(  25) = (   0.0000382   5.9609847   6.0000000  )
        26           Ti1 tau(  26) = (   3.2902200   4.4714249   6.0002472  )
        27           O1  tau(  27) = (   0.0002396   2.9813036   7.9858123  )
        28           O1  tau(  28) = (   3.2902150   2.9813002   7.3038282  )
        29           O1  tau(  29) = (   4.5938453   4.4726049   9.2879030  )
        30           O1  tau(  30) = (   1.9864658   4.4711199   9.2879459  )
        31           Ti1 tau(  31) = (   3.2891106   5.8743827   9.1763621  )
        32           Ti1 tau(  32) = (   0.0006254   4.4649316   9.2693709  )
        33           O1  tau(  33) = (   3.3836021   2.9593565  11.3526375  )
        34           O1  tau(  34) = (   0.0092240   2.9805883  10.6323155  )
        35           O1  tau(  35) = (   1.3957467   4.4736095  12.6396340  )
        36           O1  tau(  36) = (   5.4261019   4.4541359  12.6685409  )
        37           Ti1 tau(  37) = (   0.0939275   5.9312067  12.4916740  )
        38           Ti1 tau(  38) = (   3.3665170   4.3046527  12.6650499  )
        39           O1  tau(  39) = (   0.1734719   2.9828917  14.8532074  )
        40           O1  tau(  40) = (   3.4150578   3.0309863  13.9715028  )
        41           O1  tau(  41) = (   4.7877001   4.4493464  16.1994792  )
        42           O1  tau(  42) = (   2.2536850   4.5881152  15.9586447  )
        43           Ti1 tau(  43) = (   3.5332629   0.0183730  15.6991940  )
        44           Ti1 tau(  44) = (   0.2986595   4.6220906  15.9451660  )
        45           O1  tau(  45) = (   3.2900926   2.9813045   4.7018136  )
        46           O1  tau(  46) = (   1.3039711   4.4726057   6.0039043  )
        47           O1  tau(  47) = (   5.2763189   4.4711207   6.0039473  )
        48           H1  tau(  48) = (   0.6716682   3.7174429  18.3617054  )
        49           H1  tau(  49) = (   0.7299512   2.1188458  18.2939656  )
        50           N1  tau(  50) = (   1.0883034   2.9530349  17.8291855  )
        51           C1  tau(  51) = (   2.6610371   2.9951180  18.0825860  )
        52           H1  tau(  52) = (   2.6895649   3.8224559  18.7561578  )
        53           H1  tau(  53) = (   2.7395784   2.2142559  18.8115579  )

     number of k points=    10  Fermi-Dirac smearing, width (Ry)=  0.0073
                       cart. coord. in units 2pi/alat
        k(    1) = (   0.0000000   0.0000000   0.0000000), wk =   0.1250000
        k(    2) = (   0.0000000   0.0419351   0.0000000), wk =   0.2500000
        k(    3) = (   0.0000000  -0.0838702   0.0000000), wk =   0.1250000
        k(    4) = (   0.0379955   0.0000049   0.0000000), wk =   0.2500000
        k(    5) = (   0.0379955   0.0419400   0.0000000), wk =   0.2500000
        k(    6) = (   0.0379955  -0.0838652   0.0000000), wk =   0.2500000
        k(    7) = (   0.0379955  -0.0419301   0.0000000), wk =   0.2500000
        k(    8) = (  -0.0759910  -0.0000099   0.0000000), wk =   0.1250000
        k(    9) = (  -0.0759910   0.0419252   0.0000000), wk =   0.2500000
        k(   10) = (  -0.0759910  -0.0838800   0.0000000), wk =   0.1250000

     Initial potential from superposition of free atoms

     starting charge  374.99916, renormalised to  391.00000

     negative rho (up, down):  1.820E-02 0.000E+00

     %%%%%%%%%%%%%%%%%%%%%%%%%%%%%%%%%%%%%%%%%%%%%%%%%%%%%%%%%%%%%%%%%%%%%%%%
     %                                                                      %
     % You are using vdW-DF, which was implemented by the Thonhauser group. %
     % Please cite the following two papers that made this development      %
     % possible and the two reviews that describe the various versions:     %
     %                                                                      %
     %   T. Thonhauser et al., PRL 115, 136402 (2015).                      %
     %   T. Thonhauser et al., PRB 76, 125112 (2007).                       %
     %   K. Berland et al., Rep. Prog. Phys. 78, 066501 (2015).             %
     %   D.C. Langreth et al., J. Phys.: Condens. Matter 21, 084203 (2009). %
     %                                                                      %
     %                                                                      %
     % If you are calculating the stress with vdW-DF, please also cite:     %
     %                                                                      %
     %   R. Sabatini et al., J. Phys.: Condens. Matter 24, 424209 (2012).   %
     %                                                                      %
     %%%%%%%%%%%%%%%%%%%%%%%%%%%%%%%%%%%%%%%%%%%%%%%%%%%%%%%%%%%%%%%%%%%%%%%%

     Adding external electric field

     Computed dipole along edir(3) :
        Dipole               -5.7422 Ry au,        -14.5952 Debye
        Dipole field         -0.0108 Ry au,

        Potential amp.        1.0045 Ry
        Total length         46.3494 bohr

     Starting wfcs are  296 atomic wfcs
  @ DRIVER MODE: Message from server: STATUS
  @ DRIVER MODE: Message from server: POSDATA
  @ DRIVER MODE: Reading and sharing cell
  @ DRIVER MODE: Reading and sharing positions
  @ DRIVER MODE: Received positions

     Self-consistent Calculation

     iteration #  1     ecut=    29.40 Ry     beta= 0.05
     Davidson diagonalization with overlap
     c_bands:  2 eigenvalues not converged
     c_bands:  1 eigenvalues not converged
     c_bands:  5 eigenvalues not converged
     c_bands:  2 eigenvalues not converged
     c_bands:  2 eigenvalues not converged
     c_bands:  2 eigenvalues not converged
     c_bands:  2 eigenvalues not converged
     ethr =  1.00E-05,  avg # of iterations = 20.9

[...]

     total energy              =   -2767.08132115 Ry
     estimated scf accuracy    <    1682.08010805 Ry

     iteration #  2     ecut=    29.40 Ry     beta= 0.05
     Davidson diagonalization with overlap
     ethr =  1.00E-02,  avg # of iterations = 19.0

[...]

     iteration # 30     ecut=    29.40 Ry     beta= 0.05
     Davidson diagonalization with overlap
     c_bands:  3 eigenvalues not converged
     ethr =  4.46E-07,  avg # of iterations = 15.9

[...]

     total energy              =   -2920.27125617 Ry
     estimated scf accuracy    <       0.00000056 Ry

     iteration # 49     ecut=    29.40 Ry     beta= 0.05
     Davidson diagonalization with overlap
     ethr =  9.31E-11,  avg # of iterations =  9.3

     negative rho (up, down):  1.844E-02 0.000E+00

     Adding external electric field

     Computed dipole along edir(3) :
        Dipole                0.8706 Ry au,          2.2128 Debye
        Dipole field          0.0016 Ry au,

        Potential amp.       -0.1523 Ry
        Total length         46.3494 bohr

     End of self-consistent calculation

          k = 0.0000 0.0000 0.0000 ( 18029 PWs)   bands (ev):

   -55.8833 -55.8492 -55.7537 -55.7153 -55.7101 -55.7079 -55.6967 -55.6762
   -55.6691 -55.6316 -55.6304 -55.6267 -55.5930 -55.5610 -54.8639 -54.8299
   -32.3690 -32.2809 -32.2435 -32.2126 -32.1765 -32.1740 -32.1560 -32.1549
   -32.1288 -32.0770 -32.0361 -32.0182 -32.0087 -31.9954 -31.9939 -31.9909
   -31.9789 -31.9478 -31.9409 -31.9311 -31.9214 -31.9097 -31.8990 -31.8903
   -31.8789 -31.8751 -31.8538 -31.8531 -31.8465 -31.8451 -31.8381 -31.8282
   -31.8220 -31.8217 -31.8199 -31.8046 -31.7917 -31.7798 -31.7787 -31.7671
   -31.7123 -31.6243 -31.2703 -31.1831 -31.1607 -31.0878 -31.0014 -30.8896
   -16.5732 -16.4023 -16.1954 -16.0685 -16.0508 -15.8574 -15.7645 -15.6870
   -15.4927 -15.4535 -15.4250 -15.4094 -15.3980 -15.3966 -15.3795 -15.3600
   -15.3399 -15.3302 -15.3087 -15.2563 -15.2502 -15.2405 -15.2164 -15.2134
   -15.0299 -15.0212 -14.9806 -14.9441 -14.8658 -14.5661 -13.3630 -13.2465
    -8.9213  -5.6290  -3.9597  -3.8906  -3.8164  -3.7909  -3.7775  -3.6570
    -3.4835  -3.2959  -3.2082  -3.1733  -3.0577  -3.0119  -2.9160  -2.8380
    -2.8240  -2.7621  -2.7211  -2.6993  -2.6719  -2.6601  -2.6081  -2.5847
    -2.5774  -2.4430  -2.3864  -2.3661  -2.3032  -2.2777  -2.2498  -2.2065
    -2.2006  -2.1866  -2.1699  -2.1329  -2.1040  -2.0878  -2.0059  -1.9360
    -1.8955  -1.8555  -1.6274  -1.5220  -1.4997  -1.4714  -1.4145  -1.3796
    -1.3344  -1.2957  -1.2797  -1.2609  -1.1934  -1.1034  -1.0218  -1.0141
    -0.9126  -0.8879  -0.8011  -0.7258  -0.7089  -0.6461  -0.6226  -0.6183
    -0.6137  -0.5221  -0.4708  -0.3876  -0.3382  -0.3009  -0.2348  -0.1689
    -0.1122  -0.1016  -0.0623  -0.0198   0.0229   0.0335   0.0583   0.0883
     0.1266   0.1645   0.2037   0.2852   0.3273   0.3620   0.4083   0.4208
     0.5233   0.7335   0.7738   0.9125   1.0938   1.1622   1.1874   1.2111
     1.3535   1.7304   1.7761   3.1984   3.3432   3.3609   3.4325   3.4628
     3.5152   3.6864   3.7725   3.8133   3.8700

[...]

          k = 0.0380-0.0419 0.0000 ( 17876 PWs)   bands (ev):

[...]

          k =-0.0760-0.0000 0.0000 ( 17886 PWs)   bands (ev):

[...]

          k =-0.0760-0.0839 0.0000 ( 17948 PWs)   bands (ev):

   -55.8664 -55.8659 -55.7425 -55.7262 -55.7054 -55.6931 -55.6928 -55.6922
   -55.6609 -55.6354 -55.6351 -55.6219 -55.6026 -55.5627 -54.8471 -54.8466
   -32.2051 -32.1844 -32.1841 -32.1596 -32.1592 -32.0995 -32.0668 -32.0487
   -32.0332 -32.0265 -32.0234 -32.0166 -32.0009 -31.9867 -31.9859 -31.9842
   -31.9764 -31.9687 -31.9613 -31.9470 -31.9455 -31.9362 -31.9333 -31.9250
   -31.9115 -31.9027 -31.8986 -31.8940 -31.8814 -31.8775 -31.8695 -31.8686
   -31.8680 -31.8597 -31.8568 -31.8463 -31.8439 -31.8314 -31.8131 -31.8126
   -31.7972 -31.6247 -31.1736 -31.1733 -31.0834 -31.0828 -31.0448 -31.0444
   -16.1460 -15.9769 -15.8678 -15.8530 -15.7898 -15.6803 -15.6671 -15.6401
   -15.6208 -15.5841 -15.5647 -15.5517 -15.5032 -15.4639 -15.4270 -15.4025
   -15.3988 -15.3519 -15.3476 -15.3379 -15.3157 -15.2814 -15.2727 -15.2084
   -15.1997 -15.1028 -15.0878 -15.0681 -15.0173 -14.8981 -13.3484 -13.3482
    -8.9274  -5.5993  -3.8146  -3.3041  -3.2062  -3.0697  -3.0018  -2.9618
    -2.9134  -2.8804  -2.8590  -2.8403  -2.7904  -2.7764  -2.7451  -2.7015
    -2.6835  -2.6664  -2.6461  -2.6194  -2.5984  -2.5867  -2.5681  -2.5504
    -2.5179  -2.5029  -2.4762  -2.4614  -2.4510  -2.4390  -2.4318  -2.4193
    -2.2349  -2.1429  -2.0515  -2.0409  -2.0325  -2.0082  -1.9803  -1.9651
    -1.9476  -1.9270  -1.9005  -1.8708  -1.8405  -1.5893  -1.5580  -1.5231
    -1.4652  -1.4285  -1.3807  -1.3660  -1.3337  -1.3042  -1.2237  -1.1879
    -1.1603  -1.0818  -1.0107  -0.9461  -0.9002  -0.8627  -0.8322  -0.8203
    -0.7806  -0.7424  -0.7334  -0.7088  -0.6930  -0.5860  -0.5840  -0.5813
    -0.4355  -0.3998  -0.3787  -0.2864  -0.2667  -0.0873  -0.0273   0.0018
     0.1362   0.1470   0.1836   0.2935   0.3205   0.3661   0.4226   0.4437
     0.5298   0.5824   0.6240   0.6637   0.6874   0.7040   1.1703   1.5245
     1.5302   1.5964   1.5965   3.5990   3.6400   3.7065   3.7323   3.7523
     3.7879   3.8104   3.8215   3.8669   3.8767

     the Fermi energy is     3.2372 ev

!    total energy              =   -2920.27138007 Ry
     estimated scf accuracy    <       0.00000006 Ry
     smearing contrib. (-TS)   =      -0.01953169 Ry
     internal energy E=F+TS    =   -2920.25184837 Ry

     The total energy is F=E-TS. E is the sum of the following terms:
     one-electron contribution =  -24543.67920216 Ry
     hartree contribution      =   12357.64548430 Ry
     xc contribution           =    -480.81206253 Ry
     ewald contribution        =    9746.59250169 Ry
     electric field correction =       0.00143033 Ry

     convergence has been achieved in  49 iterations

     Forces acting on atoms (cartesian axes, Ry/au):

     atom    1 type  1   force =     0.00005940   -0.00038127    0.09443772
     atom    2 type  1   force =    -0.00007206   -0.00123319   -0.17585074
     atom    3 type  2   force =     0.00046407   -0.00020811   -0.02135347
     atom    4 type  2   force =     0.00017796   -0.00093145    0.05147494
     atom    5 type  2   force =    -0.00541035    0.00100219   -0.00034373
     atom    6 type  2   force =     0.00990025    0.00143270    0.00529126
     atom    7 type  1   force =     0.00311378    0.00407740   -0.00382951
     atom    8 type  1   force =    -0.00264752    0.00537054    0.00463878
     atom    9 type  2   force =     0.00031581    0.00019257    0.00043400
     atom   10 type  2   force =     0.00290135    0.00077630   -0.01334404
     atom   11 type  2   force =     0.00009574    0.00028097   -0.00000402
     atom   12 type  2   force =    -0.00016288   -0.00005106   -0.00008188
     atom   13 type  1   force =    -0.00026847   -0.00028874    0.00134064
     atom   14 type  1   force =    -0.00061689    0.00042129   -0.00124660
     atom   15 type  2   force =     0.00027574   -0.00002946    0.00001338
     atom   16 type  2   force =     0.00004348   -0.00015611    0.00023551
     atom   17 type  2   force =     0.00034358   -0.00090905    0.00075086
     atom   18 type  2   force =     0.00016937    0.00009276   -0.00015618
     atom   19 type  1   force =    -0.00025833    0.00045884   -0.00097116
     atom   20 type  1   force =    -0.00006815    0.00183466   -0.00042202
     atom   21 type  2   force =     0.00004742   -0.00009854    0.10311629
     atom   22 type  2   force =    -0.00063459    0.00071242    0.00087390
     atom   23 type  2   force =    -0.07171105   -0.00014369   -0.02720245
     atom   24 type  2   force =     0.07177110    0.00034567   -0.02734826
     atom   25 type  1   force =    -0.00008891   -0.00021861    0.09390883
     atom   26 type  1   force =     0.00003687    0.00039950   -0.17581332
     atom   27 type  2   force =     0.00046471   -0.00026621   -0.02044585
     atom   28 type  2   force =     0.00023869   -0.00170853    0.05410234
     atom   29 type  2   force =    -0.00646242   -0.00169991    0.00029625
     atom   30 type  2   force =     0.01070095   -0.00156134    0.00561019
     atom   31 type  1   force =     0.00345055    0.00046640    0.00536105
     atom   32 type  1   force =    -0.00266858   -0.00669637    0.00504769
     atom   33 type  2   force =     0.00024626    0.00030366    0.00055748
     atom   34 type  2   force =     0.00503746   -0.00079226   -0.00876211
     atom   35 type  2   force =     0.00011402   -0.00000788    0.00000702
     atom   36 type  2   force =    -0.00012265   -0.00002543   -0.00001799
     atom   37 type  1   force =     0.00074941   -0.00041835    0.00084389
     atom   38 type  1   force =    -0.00028403   -0.00121244    0.00001223
     atom   39 type  2   force =    -0.00074176   -0.00017674    0.00048698
     atom   40 type  2   force =     0.00034847    0.00042690   -0.00011225
     atom   41 type  2   force =     0.00026503    0.00156933    0.00074096
     atom   42 type  2   force =     0.00049851    0.00042326    0.00000020
     atom   43 type  1   force =     0.00076372    0.00003408    0.00005144
     atom   44 type  1   force =     0.00003610   -0.00167639   -0.00080980
     atom   45 type  2   force =     0.00005475   -0.00002181    0.10328760
     atom   46 type  2   force =    -0.07169952   -0.00015298   -0.02723082
     atom   47 type  2   force =     0.07173291    0.00030155   -0.02734417
     atom   48 type  3   force =     0.00044829   -0.00019869   -0.00037925
     atom   49 type  3   force =     0.00017690   -0.00095879   -0.00006945
     atom   50 type  4   force =     0.00095492   -0.00001598    0.00121898
     atom   51 type  5   force =    -0.08447070   -0.00367829   -0.00033600
     atom   52 type  3   force =     0.03098939    0.05174705    0.00001431
     atom   53 type  3   force =     0.03140188   -0.04675237   -0.00067966

     Total force =     0.381750     Total SCF correction =     0.000508
  @ DRIVER MODE: Message from server: STATUS
  @ DRIVER MODE: Message from server: GETFORCE
  @ DRIVER MODE: Returning v,forces,stress,ensemble

     Writing output data file ./calc.save/
  @ DRIVER MODE: Message from server: EXIT
  @ DRIVE MODE: Exiting

     General routines

     Parallel routines

   This run was terminated on:   4:21: 7  12Oct2021

   JOB DONE.