     Program PWSCF v.6.7GPU starts on 26Sep2021 at 11:32:41

     R & G space division:  proc/nbgrp/npool/nimage =       8
     Reading input from /storage/home/hcoda1/3/ntian30/research/carbon/CxH_vib/H2O_calc/ads_slab/CH2NHNHHO_b/out_0012/pw.inp
Warning: card &CELL ignored
Warning: card   CELL_DYNAMICS='IPI', ignored
Warning: card / ignored

     Current dimensions of program PWSCF are:
     Max number of different atomic species (ntypx) = 10
     Max number of k-points (npk) =  40000
     Max angular momentum in pseudopotentials (lmaxx) =  3
     Presently no symmetry can be used with electric field

     Message from routine cell_base_init:
     DEPRECATED: use true lattice parameter, not A to a.u. conversion factor

     IMPORTANT: XC functional enforced from input :
     Exchange-correlation= BEEF-VDW
                           (   1   4  43  14   2   0   0)
     Any further DFT definition will be discarded
     Please, verify this is what you really want

  @ DRIVER MODE: Connecting to
 qe_1139763_2971671.sched-torque.pace.gatech.edutfya1kzu_scratch
  using UNIX socket
  @ DRIVER MODE: Message from server: STATUS
  @ DRIVER MODE: Message from server: INIT
  @ DRIVER MODE: Receiving replica           0          -1
  @ DRIVER MODE: Receiving encoded integer          25
  @ DRIVER MODE:  SCF:  T  FORCE:  T  STRESS:  F  VC:  F  ENSEMBLE:  F
  @ DRIVER MODE:  SCF:  T  FORCE:  T  STRESS:  F  VC:  F  ENSEMBLE:  F

     Using Slab Decomposition

     bravais-lattice index     =            0
     lattice parameter (alat)  =       1.8897  a.u.
     unit-cell volume          =    6658.9804 (a.u.)^3
     number of atoms/cell      =           56
     number of atomic types    =            5
     number of electrons       =       403.00
     number of Kohn-Sham states=          211
     kinetic-energy cutoff     =      29.3995  Ry
     charge density cutoff     =     293.9946  Ry
     scf convergence threshold =      7.3E-08
     mixing beta               =       0.0500
     number of iterations used =            8  plain     mixing
     Exchange-correlation= BEEF-VDW
                           (   1   4  43  14   2   0   0)

     celldm(1)=   1.889726  celldm(2)=   0.000000  celldm(3)=   0.000000
     celldm(4)=   0.000000  celldm(5)=   0.000000  celldm(6)=   0.000000

     crystal axes: (cart. coord. in units of alat)
               a(1) = (   6.579727   0.000000   0.000000 )
               a(2) = (  -0.000775   5.961596   0.000000 )
               a(3) = (   0.000000   0.000000  25.155947 )

     reciprocal axes: (cart. coord. in units 2 pi/alat)
               b(1) = (  0.151982  0.000020  0.000000 )
               b(2) = (  0.000000  0.167740  0.000000 )
               b(3) = (  0.000000  0.000000  0.039752 )

     PseudoPot. # 1 for Ti read from file:
     /storage/coda1/p-amedford6/0/shared/rich_project_chbe-medford/medford-share/data/pseudos_module/espresso/nninc/pbe/van/Ti.UPF
     MD5 check sum: 8e4df49b7f0d34bbd5052bf3f5ea0213
     Pseudo is Ultrasoft, Zval = 12.0
     Generated by new atomic code, or converted to UPF format
     Using radial grid of  851 points,  6 beta functions with:
                l(1) =   0
                l(2) =   0
                l(3) =   1
                l(4) =   1
                l(5) =   2
                l(6) =   2
     Q(r) pseudized with  8 coefficients,  rinner =    1.000   1.000   1.000
                                                       1.000   1.000

     PseudoPot. # 2 for O  read from file:
     /storage/coda1/p-amedford6/0/shared/rich_project_chbe-medford/medford-share/data/pseudos_module/espresso/nninc/pbe/van/O.UPF
     MD5 check sum: 78c19812648e8988a0fe644b0f25305e
     Pseudo is Ultrasoft, Zval =  6.0
     Generated by new atomic code, or converted to UPF format
     Using radial grid of  737 points,  4 beta functions with:
                l(1) =   0
                l(2) =   0
                l(3) =   1
                l(4) =   1
     Q(r) pseudized with  8 coefficients,  rinner =    0.800   0.800   0.800

     PseudoPot. # 3 for N  read from file:
     /storage/coda1/p-amedford6/0/shared/rich_project_chbe-medford/medford-share/data/pseudos_module/espresso/nninc/pbe/van/N.UPF
     MD5 check sum: 90d10febe142ad51ac9d5be1deb811c4
     Pseudo is Ultrasoft, Zval =  5.0
     Generated by new atomic code, or converted to UPF format
     Using radial grid of  729 points,  4 beta functions with:
                l(1) =   0
                l(2) =   0
                l(3) =   1
                l(4) =   1
     Q(r) pseudized with  8 coefficients,  rinner =    0.800   0.800   0.800

     PseudoPot. # 4 for C  read from file:
     /storage/coda1/p-amedford6/0/shared/rich_project_chbe-medford/medford-share/data/pseudos_module/espresso/nninc/pbe/van/C.UPF
     MD5 check sum: 1a69bf6b8db32088f5b2163dbdb77a27
     Pseudo is Ultrasoft, Zval =  4.0
     Generated by new atomic code, or converted to UPF format
     Using radial grid of  721 points,  4 beta functions with:
                l(1) =   0
                l(2) =   0
                l(3) =   1
                l(4) =   1
     Q(r) pseudized with  8 coefficients,  rinner =    0.800   0.800   0.800

     PseudoPot. # 5 for H  read from file:
     /storage/coda1/p-amedford6/0/shared/rich_project_chbe-medford/medford-share/data/pseudos_module/espresso/nninc/pbe/van/H.UPF
     MD5 check sum: b5ee9d7bfd3a09ee7748110bda690ff7
     Pseudo is Ultrasoft, Zval =  1.0
     Generated by new atomic code, or converted to UPF format
     Using radial grid of  615 points,  1 beta functions with:
                l(1) =   0
     Q(r) pseudized with  8 coefficients,  rinner =    0.800

     atomic species   valence    mass     pseudopotential
        Ti1           12.00    47.86700     Ti( 1.00)
        O1             6.00    15.99900     O ( 1.00)
        N1             5.00    14.00700     N ( 1.00)
        C1             4.00    12.01100     C ( 1.00)
        H1             1.00     1.00800     H ( 1.00)

     No symmetry found

   Cartesian axes

     site n.     atom                  positions (alat units)
         1           Ti1 tau(   1) = (   0.0004258   2.9801865   6.0000000  )
         2           Ti1 tau(   2) = (   3.2906075   1.4906267   6.0002472  )
         3           O1  tau(   3) = (   0.0006271   0.0005054   7.9858123  )
         4           O1  tau(   4) = (   3.2906025   0.0005020   7.3038282  )
         5           O1  tau(   5) = (   4.5942328   1.4918067   9.2879030  )
         6           O1  tau(   6) = (   1.9868534   1.4903216   9.2879459  )
         7           Ti1 tau(   7) = (   3.2907910   2.8959150   9.1758416  )
         8           Ti1 tau(   8) = (   0.0015273   1.4827037   9.2680791  )
         9           O1  tau(   9) = (   3.2987294   5.9443783  11.3578989  )
        10           O1  tau(  10) = (   0.0116148   5.9584955  10.6183126  )
        11           O1  tau(  11) = (   1.2795512   1.4821507  12.6386044  )
        12           O1  tau(  12) = (   5.2980455   1.5005163  12.6536529  )
        13           Ti1 tau(  13) = (   6.5652885   2.9238251  12.5528928  )
        14           Ti1 tau(  14) = (   3.2988635   1.2998061  12.7048432  )
        15           O1  tau(  15) = (   0.0127057   0.0339484  14.6761273  )
        16           O1  tau(  16) = (   3.2875936   0.0940603  14.0290633  )
        17           O1  tau(  17) = (   4.5650748   1.6033894  16.0357995  )
        18           O1  tau(  18) = (   2.0190796   1.5896112  16.2175902  )
        19           Ti1 tau(  19) = (   3.3013862   3.0422678  15.6649453  )
        20           Ti1 tau(  20) = (   6.4815444   1.5191555  15.8288377  )
        21           O1  tau(  21) = (   3.2904802   0.0005063   4.7018136  )
        22           O1  tau(  22) = (   6.5172723   5.9480513  17.2191950  )
        23           O1  tau(  23) = (   1.3043587   1.4918075   6.0039043  )
        24           O1  tau(  24) = (   5.2767064   1.4903225   6.0039473  )
        25           Ti1 tau(  25) = (   0.0000382   5.9609847   6.0000000  )
        26           Ti1 tau(  26) = (   3.2902200   4.4714249   6.0002472  )
        27           O1  tau(  27) = (   0.0002396   2.9813036   7.9858123  )
        28           O1  tau(  28) = (   3.2902150   2.9813002   7.3038282  )
        29           O1  tau(  29) = (   4.5938453   4.4726049   9.2879030  )
        30           O1  tau(  30) = (   1.9864658   4.4711199   9.2879459  )
        31           Ti1 tau(  31) = (   3.2891106   5.8743827   9.1763621  )
        32           Ti1 tau(  32) = (   0.0006254   4.4649316   9.2693709  )
        33           O1  tau(  33) = (   3.2945946   2.9940555  11.3077331  )
        34           O1  tau(  34) = (   0.0092240   2.9805883  10.6323155  )
        35           O1  tau(  35) = (   1.2876619   4.4781899  12.6403949  )
        36           O1  tau(  36) = (   5.3010724   4.4646845  12.6541769  )
        37           Ti1 tau(  37) = (   0.0424196   5.9023569  12.5123361  )
        38           Ti1 tau(  38) = (   3.3119368   4.3729351  12.4217702  )
        39           O1  tau(  39) = (   0.0401333   2.9740317  14.7512036  )
        40           O1  tau(  40) = (   3.2576645   3.0028392  13.8982547  )
        41           O1  tau(  41) = (   4.5666544   4.4234537  16.0705803  )
        42           O1  tau(  42) = (   2.0215446   4.4756893  16.1430302  )
        43           Ti1 tau(  43) = (   3.2259990   0.0392177  16.2341362  )
        44           Ti1 tau(  44) = (   6.5723990   4.6710500  15.9980081  )
        45           O1  tau(  45) = (   3.2900926   2.9813045   4.7018136  )
        46           O1  tau(  46) = (   1.3039711   4.4726057   6.0039043  )
        47           O1  tau(  47) = (   5.2763189   4.4711207   6.0039473  )
        48           N1  tau(  48) = (   0.9334729   2.5913682  18.4753943  )
        49           N1  tau(  49) = (   6.5156687   2.9055835  17.6519879  )
        50           C1  tau(  50) = (   1.0224037   2.6952286  19.7617917  )
        51           H1  tau(  51) = (   1.9166829   2.3177709  20.2270220  )
        52           H1  tau(  52) = (   0.2162702   3.1370440  20.3260263  )
        53           H1  tau(  53) = (   1.6995924   2.1399843  17.9426691  )
        54           H1  tau(  54) = (   5.6785098   3.1284051  18.1783837  )
        55           O1  tau(  55) = (   3.5318048   0.0910060  18.0897867  )
        56           H1  tau(  56) = (   4.4897960   0.0680733  18.2655997  )

     number of k points=    10  Fermi-Dirac smearing, width (Ry)=  0.0073
                       cart. coord. in units 2pi/alat
        k(    1) = (   0.0000000   0.0000000   0.0000000), wk =   0.1250000
        k(    2) = (   0.0000000   0.0419351   0.0000000), wk =   0.2500000
        k(    3) = (   0.0000000  -0.0838702   0.0000000), wk =   0.1250000
        k(    4) = (   0.0379955   0.0000049   0.0000000), wk =   0.2500000
        k(    5) = (   0.0379955   0.0419400   0.0000000), wk =   0.2500000
        k(    6) = (   0.0379955  -0.0838652   0.0000000), wk =   0.2500000
        k(    7) = (   0.0379955  -0.0419301   0.0000000), wk =   0.2500000
        k(    8) = (  -0.0759910  -0.0000099   0.0000000), wk =   0.1250000
        k(    9) = (  -0.0759910   0.0419252   0.0000000), wk =   0.2500000
        k(   10) = (  -0.0759910  -0.0838800   0.0000000), wk =   0.1250000

     Initial potential from superposition of free atoms

     starting charge  386.99914, renormalised to  403.00000

     negative rho (up, down):  1.427E-02 0.000E+00

     %%%%%%%%%%%%%%%%%%%%%%%%%%%%%%%%%%%%%%%%%%%%%%%%%%%%%%%%%%%%%%%%%%%%%%%%
     %                                                                      %
     % You are using vdW-DF, which was implemented by the Thonhauser group. %
     % Please cite the following two papers that made this development      %
     % possible and the two reviews that describe the various versions:     %
     %                                                                      %
     %   T. Thonhauser et al., PRL 115, 136402 (2015).                      %
     %   T. Thonhauser et al., PRB 76, 125112 (2007).                       %
     %   K. Berland et al., Rep. Prog. Phys. 78, 066501 (2015).             %
     %   D.C. Langreth et al., J. Phys.: Condens. Matter 21, 084203 (2009). %
     %                                                                      %
     %                                                                      %
     % If you are calculating the stress with vdW-DF, please also cite:     %
     %                                                                      %
     %   R. Sabatini et al., J. Phys.: Condens. Matter 24, 424209 (2012).   %
     %                                                                      %
     %%%%%%%%%%%%%%%%%%%%%%%%%%%%%%%%%%%%%%%%%%%%%%%%%%%%%%%%%%%%%%%%%%%%%%%%

     Adding external electric field

     Computed dipole along edir(3) :
        Dipole              -12.9722 Ry au,        -32.9721 Debye
        Dipole field         -0.0245 Ry au,

        Potential amp.        2.2693 Ry
        Total length         46.3494 bohr

     Starting wfcs are  305 atomic wfcs
  @ DRIVER MODE: Message from server: STATUS
  @ DRIVER MODE: Message from server: POSDATA
  @ DRIVER MODE: Reading and sharing cell
  @ DRIVER MODE: Reading and sharing positions
  @ DRIVER MODE: Received positions

     Self-consistent Calculation

     iteration #  1     ecut=    29.40 Ry     beta= 0.05
     Davidson diagonalization with overlap
     c_bands:  4 eigenvalues not converged
     c_bands:  3 eigenvalues not converged
     c_bands:  3 eigenvalues not converged
     c_bands:  1 eigenvalues not converged
     c_bands:  5 eigenvalues not converged
     c_bands:  3 eigenvalues not converged
     c_bands:  2 eigenvalues not converged
     ethr =  1.00E-05,  avg # of iterations = 24.4

[...]

     total energy              =   -2352.67606855 Ry
     estimated scf accuracy    <    7059.77551715 Ry

     iteration #  2     ecut=    29.40 Ry     beta= 0.05
     Davidson diagonalization with overlap
     ethr =  1.00E-02,  avg # of iterations = 23.3

[...]

     iteration # 70     ecut=    29.40 Ry     beta= 0.05
     Davidson diagonalization with overlap
     c_bands:  2 eigenvalues not converged
     c_bands:  1 eigenvalues not converged
     ethr =  6.10E-11,  avg # of iterations = 11.7

[...]

     total energy              =   -2973.99829614 Ry
     estimated scf accuracy    <       0.00000009 Ry

     iteration # 75     ecut=    29.40 Ry     beta= 0.05
     Davidson diagonalization with overlap
     ethr =  2.21E-11,  avg # of iterations =  8.7

     negative rho (up, down):  1.507E-02 0.000E+00

     Adding external electric field

     Computed dipole along edir(3) :
        Dipole                1.3451 Ry au,          3.4189 Debye
        Dipole field          0.0025 Ry au,

        Potential amp.       -0.2353 Ry
        Total length         46.3494 bohr

     End of self-consistent calculation

          k = 0.0000 0.0000 0.0000 ( 18029 PWs)   bands (ev):

   -55.4255 -55.3294 -55.2954 -55.1509 -55.1472 -55.1366 -55.1146 -55.1138
   -55.0861 -55.0632 -55.0360 -54.9612 -54.9600 -54.9135 -54.2928 -54.2588
   -31.8124 -31.7479 -31.6821 -31.6502 -31.6401 -31.6294 -31.6211 -31.6046
   -31.5748 -31.5743 -31.5693 -31.4858 -31.4818 -31.4345 -31.4207 -31.4076
   -31.4014 -31.3869 -31.3654 -31.3506 -31.3428 -31.3408 -31.3326 -31.3173
   -31.3077 -31.2940 -31.2848 -31.2775 -31.2763 -31.2653 -31.2616 -31.2521
   -31.2361 -31.2336 -31.2315 -31.1919 -31.1848 -31.1538 -31.1415 -31.1354
   -31.1193 -31.1152 -30.6983 -30.6132 -30.5907 -30.5159 -30.4296 -30.3178
   -19.6754 -16.1826 -15.9520 -15.8001 -15.6183 -15.4939 -15.4374 -15.2231
   -15.1569 -15.0839 -15.0055 -14.9406 -14.8603 -14.8481 -14.8228 -14.8064
   -14.7823 -14.7432 -14.7420 -14.7381 -14.6953 -14.6908 -14.6579 -14.6089
   -14.6031 -14.5813 -14.4583 -14.3852 -14.3394 -14.2060 -14.0893 -13.9573
   -12.7914 -12.6752 -10.1902  -7.0180  -6.7315  -4.3031  -4.0263  -3.6447
    -3.3316  -3.2555  -3.2246  -3.1845  -3.0594  -2.8793  -2.7510  -2.6870
    -2.5851  -2.4611  -2.4439  -2.3427  -2.3177  -2.2508  -2.2150  -2.1760
    -2.1552  -2.1320  -2.1077  -2.1048  -1.9922  -1.9881  -1.8625  -1.8456
    -1.7935  -1.7336  -1.6830  -1.6419  -1.6304  -1.6118  -1.5961  -1.5878
    -1.5568  -1.5446  -1.5209  -1.4683  -1.4072  -1.3598  -1.3223  -1.2091
    -1.0201  -0.9216  -0.8718  -0.8285  -0.7967  -0.7461  -0.7205  -0.7119
    -0.6835  -0.6464  -0.5116  -0.5045  -0.4575  -0.3815  -0.3418  -0.3224
    -0.1958  -0.1821  -0.1093  -0.0531  -0.0502  -0.0386   0.0558   0.1126
     0.1417   0.1698   0.2228   0.2785   0.3515   0.3798   0.4136   0.4734
     0.5330   0.5627   0.6227   0.6408   0.6536   0.7354   0.7557   0.7798
     0.8024   0.8727   0.9222   0.9554   0.9967   1.0848   1.1158   1.1684
     1.2011   1.3580   1.4117   1.6820   1.7334   1.7970   1.9273   2.2998
     2.3446   3.7724   3.9081   3.9264   3.9315   4.0291   4.1313   4.2461
     4.2926   4.3408   4.3735

[...]

          k = 0.0380-0.0419 0.0000 ( 17876 PWs)   bands (ev):

[...]

          k =-0.0760-0.0000 0.0000 ( 17886 PWs)   bands (ev):

[...]

          k =-0.0760-0.0839 0.0000 ( 17948 PWs)   bands (ev):

   -55.4247 -55.3126 -55.3121 -55.1371 -55.1366 -55.1324 -55.1306 -55.1265
   -55.0795 -55.0603 -55.0425 -54.9640 -54.9534 -54.9201 -54.2762 -54.2752
   -31.6815 -31.6740 -31.6309 -31.6279 -31.6277 -31.6068 -31.6062 -31.5485
   -31.5128 -31.4620 -31.4540 -31.4534 -31.4470 -31.4469 -31.4324 -31.4317
   -31.4220 -31.4001 -31.3802 -31.3713 -31.3603 -31.3458 -31.3447 -31.3323
   -31.3312 -31.3208 -31.3145 -31.3034 -31.3019 -31.3005 -31.2965 -31.2905
   -31.2754 -31.2646 -31.2641 -31.2522 -31.2228 -31.2162 -31.1886 -31.1625
   -31.1462 -31.1199 -30.6037 -30.6030 -30.5119 -30.5106 -30.4731 -30.4724
   -19.6736 -16.1448 -15.4888 -15.4225 -15.2701 -15.2607 -15.1903 -15.1505
   -15.1442 -15.0922 -15.0852 -15.0175 -14.9917 -14.9837 -14.9448 -14.8919
   -14.8420 -14.8120 -14.8066 -14.7581 -14.7490 -14.7372 -14.7007 -14.6811
   -14.6321 -14.6280 -14.6126 -14.5376 -14.4786 -14.3230 -14.3075 -13.9701
   -12.7775 -12.7768 -10.1934  -7.0132  -6.7291  -4.2925  -4.0163  -3.5982
    -2.6947  -2.6755  -2.6187  -2.4723  -2.4298  -2.3297  -2.3185  -2.2593
    -2.2448  -2.1983  -2.1766  -2.1665  -2.1298  -2.1090  -2.1057  -2.0799
    -2.0592  -2.0493  -2.0230  -1.9867  -1.9845  -1.9544  -1.9460  -1.9292
    -1.9084  -1.8871  -1.8684  -1.8621  -1.8106  -1.7790  -1.6215  -1.6012
    -1.4625  -1.4606  -1.4460  -1.4243  -1.3903  -1.3789  -1.3406  -1.3064
    -1.2370  -1.1943  -1.1004  -1.0654  -0.9559  -0.9280  -0.8573  -0.8105
    -0.7705  -0.7477  -0.7379  -0.7086  -0.6340  -0.5589  -0.5133  -0.4730
    -0.3732  -0.2969  -0.2725  -0.2676  -0.2601  -0.2274  -0.1578  -0.1558
    -0.1151  -0.0988  -0.0160  -0.0055   0.0083   0.0278   0.1622   0.1942
     0.2908   0.3536   0.4020   0.4568   0.4905   0.5407   0.6539   0.7856
     0.8396   0.8647   0.8794   0.9433   0.9885   1.0040   1.0490   1.1216
     1.1938   1.2426   1.2625   1.2858   1.3362   2.0964   2.1051   2.1647
     2.1652   4.0331   4.1428   4.2544   4.2855   4.3013   4.3205   4.3379
     4.3627   4.4068   4.4484

     the Fermi energy is     3.7979 ev

!    total energy              =   -2973.99831085 Ry
     estimated scf accuracy    <       0.00000005 Ry
     smearing contrib. (-TS)   =      -0.02049167 Ry
     internal energy E=F+TS    =   -2973.97781918 Ry

     The total energy is F=E-TS. E is the sum of the following terms:
     one-electron contribution =  -23632.99271472 Ry
     hartree contribution      =   11913.36495416 Ry
     xc contribution           =    -494.12735217 Ry
     ewald contribution        =    9239.77387916 Ry
     electric field correction =       0.00341438 Ry

     convergence has been achieved in  75 iterations

     Forces acting on atoms (cartesian axes, Ry/au):

     atom    1 type  1   force =    -0.00006125   -0.00028687    0.09519720
     atom    2 type  1   force =    -0.00010860    0.00043334   -0.17495329
     atom    3 type  2   force =     0.00000787   -0.00028296   -0.02253469
     atom    4 type  2   force =     0.00005373   -0.00195970    0.05327906
     atom    5 type  2   force =    -0.00764893   -0.00251472    0.00196662
     atom    6 type  2   force =     0.00924063   -0.00207212    0.00148605
     atom    7 type  1   force =    -0.00022086   -0.00467941    0.00728684
     atom    8 type  1   force =     0.00013381    0.00535121    0.01278097
     atom    9 type  2   force =    -0.00010800   -0.00002032    0.00025512
     atom   10 type  2   force =    -0.00275254    0.00060456   -0.01371246
     atom   11 type  2   force =    -0.00016160    0.00022100    0.00002590
     atom   12 type  2   force =     0.00015279   -0.00003953    0.00028002
     atom   13 type  1   force =     0.00024909    0.00020559    0.00008199
     atom   14 type  1   force =     0.00002177   -0.00000527    0.00012300
     atom   15 type  2   force =     0.00033546    0.00012744    0.00041997
     atom   16 type  2   force =    -0.00037050   -0.00009003    0.00008631
     atom   17 type  2   force =     0.00055575   -0.00019008    0.00008678
     atom   18 type  2   force =    -0.00019882    0.00016735    0.00036686
     atom   19 type  1   force =     0.00025559   -0.00001729   -0.00016752
     atom   20 type  1   force =     0.00009164    0.00002603    0.00051819
     atom   21 type  2   force =     0.00005678    0.00003643    0.10302070
     atom   22 type  2   force =     0.00008195    0.00019509   -0.00018038
     atom   23 type  2   force =    -0.07220958   -0.00020415   -0.02750374
     atom   24 type  2   force =     0.07211461    0.00020916   -0.02757400
     atom   25 type  1   force =     0.00011447   -0.00025232    0.09493734
     atom   26 type  1   force =    -0.00023117   -0.00136842   -0.17518295
     atom   27 type  2   force =     0.00015830   -0.00013735   -0.02137735
     atom   28 type  2   force =     0.00004894   -0.00025454    0.04862560
     atom   29 type  2   force =    -0.00690907    0.00261930    0.00145931
     atom   30 type  2   force =     0.00849167    0.00314152    0.00088251
     atom   31 type  1   force =    -0.00009777    0.00788217   -0.00305465
     atom   32 type  1   force =     0.00038309   -0.00772773    0.01215344
     atom   33 type  2   force =     0.00008342   -0.00003315   -0.00009787
     atom   34 type  2   force =    -0.00196219    0.00048532   -0.01626833
     atom   35 type  2   force =    -0.00013882    0.00001682    0.00003808
     atom   36 type  2   force =    -0.00003901    0.00031110    0.00002847
     atom   37 type  1   force =    -0.00015168    0.00017578   -0.00019863
     atom   38 type  1   force =    -0.00009259    0.00005136    0.00010394
     atom   39 type  2   force =    -0.00004094   -0.00030420    0.00054019
     atom   40 type  2   force =     0.00011689    0.00000431    0.00024512
     atom   41 type  2   force =     0.00031199   -0.00018766    0.00007189
     atom   42 type  2   force =    -0.00001576   -0.00026255    0.00000809
     atom   43 type  1   force =    -0.00016344   -0.00003293   -0.00025231
     atom   44 type  1   force =     0.00019533   -0.00009755   -0.00008505
     atom   45 type  2   force =     0.00008633   -0.00014104    0.10281472
     atom   46 type  2   force =    -0.07220317   -0.00009178   -0.02756295
     atom   47 type  2   force =     0.07212759    0.00036513   -0.02758622
     atom   48 type  3   force =     0.00150880   -0.00025116    0.00725045
     atom   49 type  3   force =     0.00252249   -0.00088791   -0.01596868
     atom   50 type  4   force =     0.00172985   -0.00035912    0.00144721
     atom   51 type  5   force =     0.00019203    0.00032682    0.00044674
     atom   52 type  5   force =    -0.00055155   -0.00024682    0.00003138
     atom   53 type  5   force =     0.00044344    0.00013781   -0.00072103
     atom   54 type  5   force =    -0.00523671    0.00165745    0.00629457
     atom   55 type  2   force =    -0.00058061   -0.00010791    0.00013874
     atom   56 type  5   force =     0.00038906    0.00035448    0.00020273

     Total force =     0.363741     Total SCF correction =     0.000650
  @ DRIVER MODE: Message from server: STATUS
  @ DRIVER MODE: Message from server: GETFORCE
  @ DRIVER MODE: Returning v,forces,stress,ensemble

     Writing output data file ./calc.save/
  @ DRIVER MODE: Message from server: EXIT
  @ DRIVE MODE: Exiting

     General routines

     Parallel routines

   This run was terminated on:  12:15: 2  26Sep2021

   JOB DONE.