     Program PWSCF v.6.7GPU starts on 16Sep2021 at  4:21:44

     R & G space division:  proc/nbgrp/npool/nimage =      10
     Reading input from /storage/home/hcoda1/3/ntian30/research/carbon/CxH_vib/H2O_calc/ads_slab/CH3NHNH2H2O_a/out_0036/pw.inp
Warning: card &CELL ignored
Warning: card   CELL_DYNAMICS='IPI', ignored
Warning: card / ignored

     Current dimensions of program PWSCF are:
     Max number of different atomic species (ntypx) = 10
     Max number of k-points (npk) =  40000
     Max angular momentum in pseudopotentials (lmaxx) =  3
     Presently no symmetry can be used with electric field

     Message from routine cell_base_init:
     DEPRECATED: use true lattice parameter, not A to a.u. conversion factor

     IMPORTANT: XC functional enforced from input :
     Exchange-correlation= BEEF-VDW
                           (   1   4  43  14   2   0   0)
     Any further DFT definition will be discarded
     Please, verify this is what you really want

  @ DRIVER MODE: Connecting to
 qe_1139763_2852619.sched-torque.pace.gatech.edurl8eix85_scratch
  using UNIX socket
  @ DRIVER MODE: Message from server: STATUS
  @ DRIVER MODE: Message from server: INIT
  @ DRIVER MODE: Receiving replica           0          -1
  @ DRIVER MODE: Receiving encoded integer          25
  @ DRIVER MODE:  SCF:  T  FORCE:  T  STRESS:  F  VC:  F  ENSEMBLE:  F
  @ DRIVER MODE:  SCF:  T  FORCE:  T  STRESS:  F  VC:  F  ENSEMBLE:  F

     Using Slab Decomposition

     bravais-lattice index     =            0
     lattice parameter (alat)  =       1.8897  a.u.
     unit-cell volume          =    6658.9804 (a.u.)^3
     number of atoms/cell      =           59
     number of atomic types    =            5
     number of electrons       =       406.00
     number of Kohn-Sham states=          213
     kinetic-energy cutoff     =      29.3995  Ry
     charge density cutoff     =     293.9946  Ry
     scf convergence threshold =      7.3E-08
     mixing beta               =       0.0500
     number of iterations used =            8  plain     mixing
     Exchange-correlation= BEEF-VDW
                           (   1   4  43  14   2   0   0)

     celldm(1)=   1.889726  celldm(2)=   0.000000  celldm(3)=   0.000000
     celldm(4)=   0.000000  celldm(5)=   0.000000  celldm(6)=   0.000000

     crystal axes: (cart. coord. in units of alat)
               a(1) = (   6.579727   0.000000   0.000000 )
               a(2) = (  -0.000775   5.961596   0.000000 )
               a(3) = (   0.000000   0.000000  25.155947 )

     reciprocal axes: (cart. coord. in units 2 pi/alat)
               b(1) = (  0.151982  0.000020  0.000000 )
               b(2) = (  0.000000  0.167740  0.000000 )
               b(3) = (  0.000000  0.000000  0.039752 )

     PseudoPot. # 1 for Ti read from file:
     /storage/coda1/p-amedford6/0/shared/rich_project_chbe-medford/medford-share/data/pseudos_module/espresso/nninc/pbe/van/Ti.UPF
     MD5 check sum: 8e4df49b7f0d34bbd5052bf3f5ea0213
     Pseudo is Ultrasoft, Zval = 12.0
     Generated by new atomic code, or converted to UPF format
     Using radial grid of  851 points,  6 beta functions with:
                l(1) =   0
                l(2) =   0
                l(3) =   1
                l(4) =   1
                l(5) =   2
                l(6) =   2
     Q(r) pseudized with  8 coefficients,  rinner =    1.000   1.000   1.000
                                                       1.000   1.000

     PseudoPot. # 2 for O  read from file:
     /storage/coda1/p-amedford6/0/shared/rich_project_chbe-medford/medford-share/data/pseudos_module/espresso/nninc/pbe/van/O.UPF
     MD5 check sum: 78c19812648e8988a0fe644b0f25305e
     Pseudo is Ultrasoft, Zval =  6.0
     Generated by new atomic code, or converted to UPF format
     Using radial grid of  737 points,  4 beta functions with:
                l(1) =   0
                l(2) =   0
                l(3) =   1
                l(4) =   1
     Q(r) pseudized with  8 coefficients,  rinner =    0.800   0.800   0.800

     PseudoPot. # 3 for N  read from file:
     /storage/coda1/p-amedford6/0/shared/rich_project_chbe-medford/medford-share/data/pseudos_module/espresso/nninc/pbe/van/N.UPF
     MD5 check sum: 90d10febe142ad51ac9d5be1deb811c4
     Pseudo is Ultrasoft, Zval =  5.0
     Generated by new atomic code, or converted to UPF format
     Using radial grid of  729 points,  4 beta functions with:
                l(1) =   0
                l(2) =   0
                l(3) =   1
                l(4) =   1
     Q(r) pseudized with  8 coefficients,  rinner =    0.800   0.800   0.800

     PseudoPot. # 4 for C  read from file:
     /storage/coda1/p-amedford6/0/shared/rich_project_chbe-medford/medford-share/data/pseudos_module/espresso/nninc/pbe/van/C.UPF
     MD5 check sum: 1a69bf6b8db32088f5b2163dbdb77a27
     Pseudo is Ultrasoft, Zval =  4.0
     Generated by new atomic code, or converted to UPF format
     Using radial grid of  721 points,  4 beta functions with:
                l(1) =   0
                l(2) =   0
                l(3) =   1
                l(4) =   1
     Q(r) pseudized with  8 coefficients,  rinner =    0.800   0.800   0.800

     PseudoPot. # 5 for H  read from file:
     /storage/coda1/p-amedford6/0/shared/rich_project_chbe-medford/medford-share/data/pseudos_module/espresso/nninc/pbe/van/H.UPF
     MD5 check sum: b5ee9d7bfd3a09ee7748110bda690ff7
     Pseudo is Ultrasoft, Zval =  1.0
     Generated by new atomic code, or converted to UPF format
     Using radial grid of  615 points,  1 beta functions with:
                l(1) =   0
     Q(r) pseudized with  8 coefficients,  rinner =    0.800

     atomic species   valence    mass     pseudopotential
        Ti1           12.00    47.86700     Ti( 1.00)
        O1             6.00    15.99900     O ( 1.00)
        N1             5.00    14.00700     N ( 1.00)
        C1             4.00    12.01100     C ( 1.00)
        H1             1.00     1.00800     H ( 1.00)

     No symmetry found

   Cartesian axes

     site n.     atom                  positions (alat units)
         1           Ti1 tau(   1) = (   0.0004258   2.9801865   6.0000000  )
         2           Ti1 tau(   2) = (   3.2906075   1.4906267   6.0002472  )
         3           O1  tau(   3) = (   0.0006271   0.0005054   7.9858123  )
         4           O1  tau(   4) = (   3.2906025   0.0005020   7.3038282  )
         5           O1  tau(   5) = (   4.5942328   1.4918067   9.2879030  )
         6           O1  tau(   6) = (   1.9868534   1.4903216   9.2879459  )
         7           Ti1 tau(   7) = (   3.2907910   2.8959150   9.1758416  )
         8           Ti1 tau(   8) = (   0.0015273   1.4827037   9.2680791  )
         9           O1  tau(   9) = (   3.2683845   0.0132936  11.3796717  )
        10           O1  tau(  10) = (   0.0116148   5.9584955  10.6183126  )
        11           O1  tau(  11) = (   1.2681313   1.5011218  12.7194972  )
        12           O1  tau(  12) = (   5.2787963   1.4993765  12.6897032  )
        13           Ti1 tau(  13) = (   6.5560253   2.9823375  12.4990790  )
        14           Ti1 tau(  14) = (   3.2673924   1.4925278  12.5394213  )
        15           O1  tau(  15) = (   6.5345332   5.8735037  14.6996474  )
        16           O1  tau(  16) = (   3.2898196   5.9462848  13.9939205  )
        17           O1  tau(  17) = (   4.4957945   1.5291507  16.1605787  )
        18           O1  tau(  18) = (   1.9883785   1.5110281  16.0762771  )
        19           Ti1 tau(  19) = (   3.2526948   3.0056396  15.7740191  )
        20           Ti1 tau(  20) = (   0.0000763   1.3299063  15.8143521  )
        21           O1  tau(  21) = (   3.2904802   0.0005063   4.7018136  )
        22           O1  tau(  22) = (   6.5205728   0.2065101  17.2442985  )
        23           O1  tau(  23) = (   1.3043587   1.4918075   6.0039043  )
        24           O1  tau(  24) = (   5.2767064   1.4903225   6.0039473  )
        25           Ti1 tau(  25) = (   0.0000382   5.9609847   6.0000000  )
        26           Ti1 tau(  26) = (   3.2902200   4.4714249   6.0002472  )
        27           O1  tau(  27) = (   0.0002396   2.9813036   7.9858123  )
        28           O1  tau(  28) = (   3.2902150   2.9813002   7.3038282  )
        29           O1  tau(  29) = (   4.5938453   4.4726049   9.2879030  )
        30           O1  tau(  30) = (   1.9864658   4.4711199   9.2879459  )
        31           Ti1 tau(  31) = (   3.2891106   5.8743827   9.1763621  )
        32           Ti1 tau(  32) = (   0.0006254   4.4649316   9.2693709  )
        33           O1  tau(  33) = (   3.2688559   2.9716192  11.3757022  )
        34           O1  tau(  34) = (   0.0092240   2.9805883  10.6323155  )
        35           O1  tau(  35) = (   1.2711362   4.4646907  12.6658965  )
        36           O1  tau(  36) = (   5.2748280   4.4660984  12.6332574  )
        37           Ti1 tau(  37) = (   6.5627654   5.9477838  12.5072267  )
        38           Ti1 tau(  38) = (   3.2667511   4.4702655  12.5260729  )
        39           O1  tau(  39) = (   6.5087961   3.0586107  15.0099536  )
        40           O1  tau(  40) = (   3.2849776   3.0149387  13.9815115  )
        41           O1  tau(  41) = (   4.4906635   4.4862850  16.2792570  )
        42           O1  tau(  42) = (   1.9756856   4.4939852  16.2100911  )
        43           Ti1 tau(  43) = (   3.2747729   0.0241646  15.7895078  )
        44           Ti1 tau(  44) = (   6.5697470   4.5456975  16.1185117  )
        45           O1  tau(  45) = (   3.2900926   2.9813045   4.7018136  )
        46           O1  tau(  46) = (   1.3039711   4.4726057   6.0039043  )
        47           O1  tau(  47) = (   5.2763189   4.4711207   6.0039473  )
        48           N1  tau(  48) = (   0.9980056   3.0961469  19.0053282  )
        49           N1  tau(  49) = (   6.4063515   3.4839273  18.2229180  )
        50           C1  tau(  50) = (   1.6570833   4.2684698  19.5811903  )
        51           H1  tau(  51) = (   0.9936588   4.8902639  20.1979557  )
        52           H1  tau(  52) = (   2.4789334   3.9063689  20.1993048  )
        53           H1  tau(  53) = (   2.0598354   4.8861676  18.7919781  )
        54           H1  tau(  54) = (   0.6510520   2.5058952  19.7602174  )
        55           H1  tau(  55) = (   5.8507131   4.1735594  18.7414995  )
        56           H1  tau(  56) = (   5.8147758   2.6545292  18.1916272  )
        57           O1  tau(  57) = (   5.1718451   0.7889162  19.5681371  )
        58           H1  tau(  58) = (   5.5516362   0.5215711  18.6954158  )
        59           H1  tau(  59) = (   4.2099197   0.7512590  19.4668632  )

     number of k points=    10  Fermi-Dirac smearing, width (Ry)=  0.0073
                       cart. coord. in units 2pi/alat
        k(    1) = (   0.0000000   0.0000000   0.0000000), wk =   0.1250000
        k(    2) = (   0.0000000   0.0419351   0.0000000), wk =   0.2500000
        k(    3) = (   0.0000000  -0.0838702   0.0000000), wk =   0.1250000
        k(    4) = (   0.0379955   0.0000049   0.0000000), wk =   0.2500000
        k(    5) = (   0.0379955   0.0419400   0.0000000), wk =   0.2500000
        k(    6) = (   0.0379955  -0.0838652   0.0000000), wk =   0.2500000
        k(    7) = (   0.0379955  -0.0419301   0.0000000), wk =   0.2500000
        k(    8) = (  -0.0759910  -0.0000099   0.0000000), wk =   0.1250000
        k(    9) = (  -0.0759910   0.0419252   0.0000000), wk =   0.2500000
        k(   10) = (  -0.0759910  -0.0838800   0.0000000), wk =   0.1250000

     Initial potential from superposition of free atoms

     starting charge  389.99912, renormalised to  406.00000

     negative rho (up, down):  1.389E-02 0.000E+00

     %%%%%%%%%%%%%%%%%%%%%%%%%%%%%%%%%%%%%%%%%%%%%%%%%%%%%%%%%%%%%%%%%%%%%%%%
     %                                                                      %
     % You are using vdW-DF, which was implemented by the Thonhauser group. %
     % Please cite the following two papers that made this development      %
     % possible and the two reviews that describe the various versions:     %
     %                                                                      %
     %   T. Thonhauser et al., PRL 115, 136402 (2015).                      %
     %   T. Thonhauser et al., PRB 76, 125112 (2007).                       %
     %   K. Berland et al., Rep. Prog. Phys. 78, 066501 (2015).             %
     %   D.C. Langreth et al., J. Phys.: Condens. Matter 21, 084203 (2009). %
     %                                                                      %
     %                                                                      %
     % If you are calculating the stress with vdW-DF, please also cite:     %
     %                                                                      %
     %   R. Sabatini et al., J. Phys.: Condens. Matter 24, 424209 (2012).   %
     %                                                                      %
     %%%%%%%%%%%%%%%%%%%%%%%%%%%%%%%%%%%%%%%%%%%%%%%%%%%%%%%%%%%%%%%%%%%%%%%%

     Adding external electric field

     Computed dipole along edir(3) :
        Dipole              -16.7184 Ry au,        -42.4940 Debye
        Dipole field         -0.0315 Ry au,

        Potential amp.        2.9246 Ry
        Total length         46.3494 bohr

     Starting wfcs are  308 atomic wfcs
  @ DRIVER MODE: Message from server: STATUS
  @ DRIVER MODE: Message from server: POSDATA
  @ DRIVER MODE: Reading and sharing cell
  @ DRIVER MODE: Reading and sharing positions
  @ DRIVER MODE: Received positions

     Self-consistent Calculation

     iteration #  1     ecut=    29.40 Ry     beta= 0.05
     Davidson diagonalization with overlap
     c_bands:  2 eigenvalues not converged
     c_bands:  3 eigenvalues not converged
     c_bands:  2 eigenvalues not converged
     c_bands:  4 eigenvalues not converged
     c_bands:  1 eigenvalues not converged
     c_bands:  4 eigenvalues not converged
     c_bands:  3 eigenvalues not converged
     c_bands:  5 eigenvalues not converged
     c_bands:  3 eigenvalues not converged
     ethr =  1.00E-05,  avg # of iterations = 24.9

[...]

     total energy              =   -2136.63195030 Ry
     estimated scf accuracy    <    9692.96060359 Ry

     iteration #  2     ecut=    29.40 Ry     beta= 0.05
     Davidson diagonalization with overlap
     ethr =  1.00E-02,  avg # of iterations = 32.3

[...]

     iteration # 56     ecut=    29.40 Ry     beta= 0.05
     Davidson diagonalization with overlap
     c_bands:  1 eigenvalues not converged
     ethr =  4.79E-10,  avg # of iterations = 13.8

[...]

     total energy              =   -2977.68373470 Ry
     estimated scf accuracy    <       0.00000018 Ry

     iteration # 60     ecut=    29.40 Ry     beta= 0.05
     Davidson diagonalization with overlap
     ethr =  4.37E-11,  avg # of iterations =  5.4

     negative rho (up, down):  1.439E-02 0.000E+00

     Adding external electric field

     Computed dipole along edir(3) :
        Dipole                1.0195 Ry au,          2.5912 Debye
        Dipole field          0.0019 Ry au,

        Potential amp.       -0.1783 Ry
        Total length         46.3494 bohr

     End of self-consistent calculation

          k = 0.0000 0.0000 0.0000 ( 18029 PWs)   bands (ev):

   -55.3596 -55.3223 -55.3101 -55.2928 -55.2760 -55.2404 -55.2386 -55.2039
   -55.1826 -55.1813 -55.1482 -55.1423 -55.1086 -55.0182 -54.3420 -54.3079
   -31.9259 -31.8085 -31.8030 -31.7274 -31.6758 -31.6719 -31.6718 -31.6488
   -31.5990 -31.5948 -31.5717 -31.5692 -31.5551 -31.5390 -31.5299 -31.5265
   -31.5141 -31.5070 -31.4965 -31.4788 -31.4640 -31.4627 -31.4349 -31.4244
   -31.4171 -31.4131 -31.3929 -31.3851 -31.3689 -31.3673 -31.3625 -31.3536
   -31.3415 -31.3406 -31.3316 -31.3292 -31.2962 -31.2930 -31.2707 -31.2535
   -31.2304 -31.2282 -30.7514 -30.6570 -30.6350 -30.5679 -30.4811 -30.3701
   -18.0057 -17.6369 -16.1932 -15.9325 -15.7871 -15.6586 -15.5610 -15.4328
   -15.4135 -15.2916 -15.2212 -15.1176 -15.0664 -15.0478 -15.0122 -15.0020
   -14.9789 -14.9081 -14.9020 -14.8881 -14.8641 -14.8553 -14.8092 -14.8014
   -14.7601 -14.7357 -14.7114 -14.6127 -14.5226 -14.4477 -14.3407 -13.1562
   -12.8447 -12.7272  -9.4272  -6.3155  -5.8789  -5.7485  -4.2538  -3.5317
    -3.3830  -3.3142  -3.2779  -3.2526  -3.1192  -2.9631  -2.9309  -2.8069
    -2.7899  -2.6995  -2.6449  -2.5732  -2.5572  -2.5415  -2.3952  -2.3731
    -2.3480  -2.2808  -2.2540  -2.1874  -2.1652  -2.1549  -2.1449  -2.1217
    -2.0939  -2.0518  -1.9926  -1.9332  -1.8400  -1.8148  -1.7640  -1.7344
    -1.7136  -1.6966  -1.6509  -1.6399  -1.6004  -1.5859  -1.5664  -1.5517
    -1.3888  -1.3663  -1.2645  -1.2028  -1.1038  -0.9997  -0.9641  -0.9496
    -0.8526  -0.8344  -0.7817  -0.7407  -0.7377  -0.7031  -0.5914  -0.5289
    -0.4764  -0.4129  -0.3904  -0.3500  -0.2821  -0.1995  -0.1429  -0.1290
    -0.1134  -0.0975   0.0134   0.0258   0.0776   0.1524   0.1619   0.1681
     0.2416   0.2982   0.3685   0.3933   0.4112   0.5162   0.5319   0.5641
     0.5699   0.5998   0.6206   0.6456   0.7057   0.7361   0.8192   0.9409
     1.1327   1.2219   1.2495   1.3602   1.5725   1.5851   1.6808   1.8639
     2.2570   2.3054   3.7375   3.8086   3.8833   3.8874   3.9101   3.9738
     4.2106   4.2278   4.2424   4.2461   4.2702

[...]

          k = 0.0380-0.0419 0.0000 ( 17876 PWs)   bands (ev):

[...]

          k =-0.0760-0.0000 0.0000 ( 17886 PWs)   bands (ev):

[...]

          k =-0.0760-0.0839 0.0000 ( 17948 PWs)   bands (ev):

   -55.3458 -55.3358 -55.2933 -55.2927 -55.2915 -55.2331 -55.2282 -55.2160
   -55.1868 -55.1666 -55.1638 -55.1257 -55.1253 -55.0193 -54.3251 -54.3247
   -31.7339 -31.7261 -31.7241 -31.6395 -31.6199 -31.6183 -31.6179 -31.5843
   -31.5841 -31.5731 -31.5590 -31.5578 -31.5510 -31.5313 -31.5194 -31.5060
   -31.4995 -31.4963 -31.4948 -31.4933 -31.4866 -31.4792 -31.4468 -31.4393
   -31.4362 -31.4359 -31.4219 -31.4175 -31.4130 -31.4124 -31.4071 -31.3992
   -31.3970 -31.3797 -31.3767 -31.3744 -31.3595 -31.3564 -31.3068 -31.3063
   -31.3006 -31.2342 -30.6477 -30.6475 -30.5640 -30.5638 -30.5245 -30.5244
   -17.9940 -17.6456 -15.6739 -15.5888 -15.5679 -15.4127 -15.3610 -15.3346
   -15.3236 -15.2083 -15.1659 -15.1463 -15.1321 -15.1103 -15.0719 -15.0624
   -15.0557 -14.9924 -14.9721 -14.9632 -14.9373 -14.8834 -14.8758 -14.8678
   -14.8601 -14.8102 -14.8063 -14.7668 -14.7155 -14.7121 -14.6369 -13.1624
   -12.8287 -12.8286  -9.4322  -6.3387  -5.9079  -5.6643  -4.2315  -2.9412
    -2.8469  -2.8366  -2.8297  -2.7134  -2.6261  -2.5509  -2.5286  -2.5079
    -2.4215  -2.4091  -2.3784  -2.3532  -2.3239  -2.2845  -2.2472  -2.2404
    -2.2043  -2.1956  -2.1799  -2.1632  -2.1415  -2.1264  -2.0923  -2.0816
    -2.0682  -2.0245  -1.9982  -1.9844  -1.9629  -1.9428  -1.9349  -1.9162
    -1.8420  -1.7513  -1.7267  -1.6416  -1.5725  -1.5702  -1.5642  -1.5024
    -1.4590  -1.4205  -1.3955  -1.3785  -1.2393  -1.1682  -1.1237  -1.1094
    -1.0948  -0.9639  -0.9580  -0.8818  -0.8593  -0.8527  -0.7598  -0.7149
    -0.6762  -0.6692  -0.5825  -0.5704  -0.4947  -0.3961  -0.3742  -0.3604
    -0.3151  -0.3134  -0.2759  -0.2630  -0.1666  -0.1311  -0.1099  -0.0972
    -0.0807  -0.0390   0.1117   0.1610   0.1675   0.3003   0.3324   0.4709
     0.5007   0.5649   0.6447   0.6935   0.7460   0.7788   0.8653   0.9401
     0.9433   1.0066   1.0222   1.0883   1.1005   1.3662   2.0369   2.0375
     2.1252   2.1256   3.8855   4.0005   4.0041   4.0334   4.1553   4.1788
     4.2552   4.2827   4.3220   4.3254   4.3834

     the Fermi energy is     3.8015 ev

!    total energy              =   -2977.68378215 Ry
     estimated scf accuracy    <       0.00000007 Ry
     smearing contrib. (-TS)   =      -0.03717716 Ry
     internal energy E=F+TS    =   -2977.64660499 Ry

     The total energy is F=E-TS. E is the sum of the following terms:
     one-electron contribution =  -22681.47074785 Ry
     hartree contribution      =   11438.10253603 Ry
     xc contribution           =    -496.62026695 Ry
     ewald contribution        =    8762.33991245 Ry
     electric field correction =       0.00196135 Ry

     convergence has been achieved in  60 iterations

     Forces acting on atoms (cartesian axes, Ry/au):

     atom    1 type  1   force =     0.00024689   -0.00038239    0.09324808
     atom    2 type  1   force =     0.00002271   -0.00038313   -0.17815937
     atom    3 type  2   force =     0.00004925   -0.00041035   -0.02000294
     atom    4 type  2   force =     0.00000885   -0.00190120    0.05910706
     atom    5 type  2   force =    -0.01035141   -0.00059323    0.00862253
     atom    6 type  2   force =     0.01130105    0.00009764    0.00628894
     atom    7 type  1   force =    -0.00097047    0.00198444   -0.01427667
     atom    8 type  1   force =     0.00097642   -0.00256209   -0.00599629
     atom    9 type  2   force =     0.00016679   -0.00001598    0.00010855
     atom   10 type  2   force =    -0.00231202    0.00309833    0.00261513
     atom   11 type  2   force =     0.00041737   -0.00043852   -0.00056488
     atom   12 type  2   force =     0.00003640   -0.00041630   -0.00057325
     atom   13 type  1   force =     0.00033814   -0.00027230   -0.00021750
     atom   14 type  1   force =     0.00004706   -0.00009059   -0.00007819
     atom   15 type  2   force =    -0.00000062    0.00060697   -0.00002151
     atom   16 type  2   force =     0.00030687    0.00027926   -0.00012181
     atom   17 type  2   force =     0.00038931    0.00023589    0.00036938
     atom   18 type  2   force =    -0.00050022    0.00019702   -0.00010465
     atom   19 type  1   force =    -0.00015833    0.00009889    0.00034566
     atom   20 type  1   force =    -0.00008350   -0.00014276    0.00057509
     atom   21 type  2   force =     0.00011719   -0.00011211    0.10402361
     atom   22 type  2   force =     0.00017709   -0.00029103    0.00059073
     atom   23 type  2   force =    -0.07029608   -0.00019493   -0.02688007
     atom   24 type  2   force =     0.07027193    0.00025107   -0.02687965
     atom   25 type  1   force =     0.00017133   -0.00030668    0.09243467
     atom   26 type  1   force =     0.00005541   -0.00054182   -0.17849055
     atom   27 type  2   force =     0.00008159   -0.00021610   -0.01906606
     atom   28 type  2   force =     0.00006043   -0.00172953    0.05852908
     atom   29 type  2   force =    -0.01102249   -0.00114241    0.00945521
     atom   30 type  2   force =     0.01187609   -0.00069902    0.00723766
     atom   31 type  1   force =    -0.00087805    0.00646650   -0.01493540
     atom   32 type  1   force =     0.00101858    0.00219777   -0.00639957
     atom   33 type  2   force =     0.00026072    0.00009516    0.00003911
     atom   34 type  2   force =    -0.00214594   -0.00243783   -0.00032052
     atom   35 type  2   force =     0.00027537    0.00013606   -0.00000618
     atom   36 type  2   force =     0.00025689    0.00004488    0.00051236
     atom   37 type  1   force =    -0.00009779    0.00002993   -0.00005776
     atom   38 type  1   force =     0.00014943   -0.00006459   -0.00001010
     atom   39 type  2   force =    -0.00011276   -0.00020902    0.00043202
     atom   40 type  2   force =    -0.00014257    0.00008055    0.00006414
     atom   41 type  2   force =    -0.00042851    0.00014939    0.00027235
     atom   42 type  2   force =     0.00026527   -0.00008633   -0.00012885
     atom   43 type  1   force =     0.00035621    0.00026335   -0.00003594
     atom   44 type  1   force =     0.00001212   -0.00015118   -0.00000794
     atom   45 type  2   force =     0.00012193   -0.00010871    0.10395603
     atom   46 type  2   force =    -0.07025917   -0.00013086   -0.02682385
     atom   47 type  2   force =     0.07025577    0.00027742   -0.02689333
     atom   48 type  3   force =    -0.00001314    0.00034214   -0.00083784
     atom   49 type  3   force =     0.00025893    0.00002108   -0.00082477
     atom   50 type  4   force =    -0.00315388   -0.00444516    0.00723347
     atom   51 type  5   force =    -0.00090559    0.00001272    0.00085539
     atom   52 type  5   force =     0.00016561   -0.00031885    0.00080015
     atom   53 type  5   force =     0.00297909    0.00467663   -0.00845200
     atom   54 type  5   force =     0.00016198   -0.00001137   -0.00002909
     atom   55 type  5   force =     0.00032549    0.00036673   -0.00025976
     atom   56 type  5   force =    -0.00035547   -0.00080697    0.00056593
     atom   57 type  2   force =    -0.00102357   -0.00066187    0.00083200
     atom   58 type  5   force =     0.00008934   -0.00027272   -0.00019930
     atom   59 type  5   force =     0.00114070    0.00053810   -0.00145872

     Total force =     0.366538     Total SCF correction =     0.000722
  @ DRIVER MODE: Message from server: STATUS
  @ DRIVER MODE: Message from server: GETFORCE
  @ DRIVER MODE: Returning v,forces,stress,ensemble

     Writing output data file ./calc.save/
  @ DRIVER MODE: Message from server: EXIT
  @ DRIVE MODE: Exiting

     General routines

     Parallel routines

   This run was terminated on:   4:40: 6  16Sep2021

   JOB DONE.