     Program PWSCF v.6.7GPU starts on 16Jul2021 at 21:54:54

     R & G space division:  proc/nbgrp/npool/nimage =      16
     Reading input from /storage/home/hcoda1/3/ntian30/research/carbon/15Jul_vib/ads_slab/CH3NNHHH_a/out_0036/pw.inp
Warning: card &CELL ignored
Warning: card   CELL_DYNAMICS='IPI', ignored
Warning: card / ignored

     Current dimensions of program PWSCF are:
     Max number of different atomic species (ntypx) = 10
     Max number of k-points (npk) =  40000
     Max angular momentum in pseudopotentials (lmaxx) =  3
     Presently no symmetry can be used with electric field

     Message from routine cell_base_init:
     DEPRECATED: use true lattice parameter, not A to a.u. conversion factor

     IMPORTANT: XC functional enforced from input :
     Exchange-correlation= BEEF-VDW
                           (   1   4  43  14   2   0   0)
     Any further DFT definition will be discarded
     Please, verify this is what you really want

  @ DRIVER MODE: Connecting to
 qe_1139763_2351652.sched-torque.pace.gatech.edul1ah61ug_scratch
  using UNIX socket
  @ DRIVER MODE: Message from server: STATUS
  @ DRIVER MODE: Message from server: INIT
  @ DRIVER MODE: Receiving replica           0          -1
  @ DRIVER MODE: Receiving encoded integer          25
  @ DRIVER MODE:  SCF:  T  FORCE:  T  STRESS:  F  VC:  F  ENSEMBLE:  F
  @ DRIVER MODE:  SCF:  T  FORCE:  T  STRESS:  F  VC:  F  ENSEMBLE:  F

     Using Slab Decomposition

     bravais-lattice index     =            0
     lattice parameter (alat)  =       1.8897  a.u.
     unit-cell volume          =    6658.9804 (a.u.)^3
     number of atoms/cell      =           56
     number of atomic types    =            5
     number of electrons       =       398.00
     number of Kohn-Sham states=          209
     kinetic-energy cutoff     =      29.3995  Ry
     charge density cutoff     =     293.9946  Ry
     scf convergence threshold =      7.3E-08
     mixing beta               =       0.0500
     number of iterations used =            8  plain     mixing
     Exchange-correlation= BEEF-VDW
                           (   1   4  43  14   2   0   0)

     celldm(1)=   1.889726  celldm(2)=   0.000000  celldm(3)=   0.000000
     celldm(4)=   0.000000  celldm(5)=   0.000000  celldm(6)=   0.000000

     crystal axes: (cart. coord. in units of alat)
               a(1) = (   6.579727   0.000000   0.000000 )
               a(2) = (  -0.000775   5.961596   0.000000 )
               a(3) = (   0.000000   0.000000  25.155947 )

     reciprocal axes: (cart. coord. in units 2 pi/alat)
               b(1) = (  0.151982  0.000020  0.000000 )
               b(2) = (  0.000000  0.167740  0.000000 )
               b(3) = (  0.000000  0.000000  0.039752 )

     PseudoPot. # 1 for Ti read from file:
     /storage/coda1/p-amedford6/0/shared/rich_project_chbe-medford/medford-share/data/pseudos_module/espresso/nninc/pbe/van/Ti.UPF
     MD5 check sum: 8e4df49b7f0d34bbd5052bf3f5ea0213
     Pseudo is Ultrasoft, Zval = 12.0
     Generated by new atomic code, or converted to UPF format
     Using radial grid of  851 points,  6 beta functions with:
                l(1) =   0
                l(2) =   0
                l(3) =   1
                l(4) =   1
                l(5) =   2
                l(6) =   2
     Q(r) pseudized with  8 coefficients,  rinner =    1.000   1.000   1.000
                                                       1.000   1.000

     PseudoPot. # 2 for O  read from file:
     /storage/coda1/p-amedford6/0/shared/rich_project_chbe-medford/medford-share/data/pseudos_module/espresso/nninc/pbe/van/O.UPF
     MD5 check sum: 78c19812648e8988a0fe644b0f25305e
     Pseudo is Ultrasoft, Zval =  6.0
     Generated by new atomic code, or converted to UPF format
     Using radial grid of  737 points,  4 beta functions with:
                l(1) =   0
                l(2) =   0
                l(3) =   1
                l(4) =   1
     Q(r) pseudized with  8 coefficients,  rinner =    0.800   0.800   0.800

     PseudoPot. # 3 for N  read from file:
     /storage/coda1/p-amedford6/0/shared/rich_project_chbe-medford/medford-share/data/pseudos_module/espresso/nninc/pbe/van/N.UPF
     MD5 check sum: 90d10febe142ad51ac9d5be1deb811c4
     Pseudo is Ultrasoft, Zval =  5.0
     Generated by new atomic code, or converted to UPF format
     Using radial grid of  729 points,  4 beta functions with:
                l(1) =   0
                l(2) =   0
                l(3) =   1
                l(4) =   1
     Q(r) pseudized with  8 coefficients,  rinner =    0.800   0.800   0.800

     PseudoPot. # 4 for C  read from file:
     /storage/coda1/p-amedford6/0/shared/rich_project_chbe-medford/medford-share/data/pseudos_module/espresso/nninc/pbe/van/C.UPF
     MD5 check sum: 1a69bf6b8db32088f5b2163dbdb77a27
     Pseudo is Ultrasoft, Zval =  4.0
     Generated by new atomic code, or converted to UPF format
     Using radial grid of  721 points,  4 beta functions with:
                l(1) =   0
                l(2) =   0
                l(3) =   1
                l(4) =   1
     Q(r) pseudized with  8 coefficients,  rinner =    0.800   0.800   0.800

     PseudoPot. # 5 for H  read from file:
     /storage/coda1/p-amedford6/0/shared/rich_project_chbe-medford/medford-share/data/pseudos_module/espresso/nninc/pbe/van/H.UPF
     MD5 check sum: b5ee9d7bfd3a09ee7748110bda690ff7
     Pseudo is Ultrasoft, Zval =  1.0
     Generated by new atomic code, or converted to UPF format
     Using radial grid of  615 points,  1 beta functions with:
                l(1) =   0
     Q(r) pseudized with  8 coefficients,  rinner =    0.800

     atomic species   valence    mass     pseudopotential
        Ti1           12.00    47.86700     Ti( 1.00)
        O1             6.00    15.99900     O ( 1.00)
        N1             5.00    14.00700     N ( 1.00)
        C1             4.00    12.01100     C ( 1.00)
        H1             1.00     1.00800     H ( 1.00)

     Starting magnetic structure
     atomic species   magnetization
        Ti1          0.000
        O1           0.000
        N1           0.000
        C1           0.025
        H1           0.000

     No symmetry found

   Cartesian axes

     site n.     atom                  positions (alat units)
         1           Ti1 tau(   1) = (   0.0004258   2.9801865   6.0000000  )
         2           Ti1 tau(   2) = (   3.2906075   1.4906267   6.0002472  )
         3           O1  tau(   3) = (   0.0006271   0.0005054   7.9858123  )
         4           O1  tau(   4) = (   3.2906025   0.0005020   7.3038282  )
         5           O1  tau(   5) = (   4.5942328   1.4918067   9.2879030  )
         6           O1  tau(   6) = (   1.9868534   1.4903216   9.2879459  )
         7           Ti1 tau(   7) = (   3.2907910   2.8959150   9.1758416  )
         8           Ti1 tau(   8) = (   0.0015273   1.4827037   9.2680791  )
         9           O1  tau(   9) = (   3.2969863   5.9453513  11.3493076  )
        10           O1  tau(  10) = (   0.0116148   5.9584955  10.6183126  )
        11           O1  tau(  11) = (   1.3059050   1.4736943  12.6642453  )
        12           O1  tau(  12) = (   5.3003793   1.4775083  12.6459419  )
        13           Ti1 tau(  13) = (   0.0167275   2.9625105  12.5508078  )
        14           Ti1 tau(  14) = (   3.3131340   1.4712512  12.4909780  )
        15           O1  tau(  15) = (   6.5517612   5.9325698  14.7566896  )
        16           O1  tau(  16) = (   3.3302114   5.9429442  13.9823395  )
        17           O1  tau(  17) = (   4.5243935   1.5056208  16.2316672  )
        18           O1  tau(  18) = (   2.0170937   1.4633510  16.1378485  )
        19           Ti1 tau(  19) = (   3.2500237   2.9242626  15.6920970  )
        20           Ti1 tau(  20) = (   6.5441017   1.2779805  16.1516014  )
        21           O1  tau(  21) = (   3.2904802   0.0005063   4.7018136  )
        22           O1  tau(  22) = (   6.5540411   5.9581837  17.3465722  )
        23           O1  tau(  23) = (   1.3043587   1.4918075   6.0039043  )
        24           O1  tau(  24) = (   5.2767064   1.4903225   6.0039473  )
        25           Ti1 tau(  25) = (   0.0000382   5.9609847   6.0000000  )
        26           Ti1 tau(  26) = (   3.2902200   4.4714249   6.0002472  )
        27           O1  tau(  27) = (   0.0002396   2.9813036   7.9858123  )
        28           O1  tau(  28) = (   3.2902150   2.9813002   7.3038282  )
        29           O1  tau(  29) = (   4.5938453   4.4726049   9.2879030  )
        30           O1  tau(  30) = (   1.9864658   4.4711199   9.2879459  )
        31           Ti1 tau(  31) = (   3.2891106   5.8743827   9.1763621  )
        32           Ti1 tau(  32) = (   0.0006254   4.4649316   9.2693709  )
        33           O1  tau(  33) = (   3.2962403   2.9651072  11.3429128  )
        34           O1  tau(  34) = (   0.0092240   2.9805883  10.6323155  )
        35           O1  tau(  35) = (   1.3076126   4.4641214  12.6643835  )
        36           O1  tau(  36) = (   5.2981430   4.4591552  12.6429889  )
        37           Ti1 tau(  37) = (   0.0194730   5.9489450  12.5196332  )
        38           Ti1 tau(  38) = (   3.3150505   4.4522436  12.4946186  )
        39           O1  tau(  39) = (   6.5702761   2.9869041  14.8038460  )
        40           O1  tau(  40) = (   3.3119818   2.9576719  13.9204832  )
        41           O1  tau(  41) = (   4.5223198   4.3950437  16.2490866  )
        42           O1  tau(  42) = (   2.0356696   4.4339808  16.1311045  )
        43           Ti1 tau(  43) = (   3.3057863   5.9493229  15.7677403  )
        44           Ti1 tau(  44) = (   0.0958844   4.4293496  15.8701971  )
        45           O1  tau(  45) = (   3.2900926   2.9813045   4.7018136  )
        46           O1  tau(  46) = (   1.3039711   4.4726057   6.0039043  )
        47           O1  tau(  47) = (   5.2763189   4.4711207   6.0039473  )
        48           N1  tau(  48) = (   0.0620580   3.0375546  17.6897758  )
        49           C1  tau(  49) = (   1.1116374   2.9693208  18.6984743  )
        50           H1  tau(  50) = (   1.2951007   3.9532040  19.1583453  )
        51           H1  tau(  51) = (   0.8627774   2.2426413  19.4871689  )
        52           H1  tau(  52) = (   2.0263963   2.6228967  18.2308865  )
        53           N1  tau(  53) = (   5.4279256   3.3744730  18.4133390  )
        54           H1  tau(  54) = (   5.6103604   4.1199394  19.0852601  )
        55           H1  tau(  55) = (   4.7934260   3.8076565  17.6395878  )
        56           H1  tau(  56) = (   5.0090149   2.5598412  18.8678436  )

     number of k points=    10  Fermi-Dirac smearing, width (Ry)=  0.0073
                       cart. coord. in units 2pi/alat
        k(    1) = (   0.0000000   0.0000000   0.0000000), wk =   0.0625000
        k(    2) = (   0.0000000   0.0419351   0.0000000), wk =   0.1250000
        k(    3) = (   0.0000000  -0.0838702   0.0000000), wk =   0.0625000
        k(    4) = (   0.0379955   0.0000049   0.0000000), wk =   0.1250000
        k(    5) = (   0.0379955   0.0419400   0.0000000), wk =   0.1250000
[...]
     % possible and the two reviews that describe the various versions:     %
     %                                                                      %
     %   T. Thonhauser et al., PRL 115, 136402 (2015).                      %
     %   T. Thonhauser et al., PRB 76, 125112 (2007).                       %
     %   K. Berland et al., Rep. Prog. Phys. 78, 066501 (2015).             %
     %   D.C. Langreth et al., J. Phys.: Condens. Matter 21, 084203 (2009). %
     %                                                                      %
     %                                                                      %
     % If you are calculating the stress with vdW-DF, please also cite:     %
     %                                                                      %
     %   R. Sabatini et al., J. Phys.: Condens. Matter 24, 424209 (2012).   %
     %                                                                      %
     %%%%%%%%%%%%%%%%%%%%%%%%%%%%%%%%%%%%%%%%%%%%%%%%%%%%%%%%%%%%%%%%%%%%%%%%

     Adding external electric field

     Computed dipole along edir(3) :
        Dipole              -10.5768 Ry au,        -26.8836 Debye
        Dipole field         -0.0200 Ry au,

        Potential amp.        1.8503 Ry
        Total length         46.3494 bohr

[...]

     Starting wfcs are  302 atomic wfcs
  @ DRIVER MODE: Message from server: STATUS
  @ DRIVER MODE: Message from server: POSDATA
  @ DRIVER MODE: Reading and sharing cell
  @ DRIVER MODE: Reading and sharing positions
  @ DRIVER MODE: Received positions

     Self-consistent Calculation

     iteration #  1     ecut=    29.40 Ry     beta= 0.05
     Davidson diagonalization with overlap
     c_bands:  4 eigenvalues not converged
     c_bands:  3 eigenvalues not converged
     c_bands:  1 eigenvalues not converged
     c_bands:  4 eigenvalues not converged
     c_bands:  5 eigenvalues not converged
     c_bands:  5 eigenvalues not converged
     c_bands:  1 eigenvalues not converged
     c_bands:  5 eigenvalues not converged
     c_bands:  3 eigenvalues not converged
     c_bands:  3 eigenvalues not converged
     c_bands:  2 eigenvalues not converged
     c_bands:  1 eigenvalues not converged
     c_bands:  4 eigenvalues not converged
     c_bands:  5 eigenvalues not converged
     c_bands:  4 eigenvalues not converged
     c_bands:  5 eigenvalues not converged
     c_bands:  3 eigenvalues not converged
     ethr =  1.00E-05,  avg # of iterations = 20.0

[...]

     total energy              =   -2443.27301021 Ry
     estimated scf accuracy    <    5586.20346300 Ry

     total magnetization       =     0.00 Bohr mag/cell
     absolute magnetization    =     0.01 Bohr mag/cell

     iteration #  2     ecut=    29.40 Ry     beta= 0.05
     Davidson diagonalization with overlap
     ethr =  1.00E-02,  avg # of iterations = 24.3

[...]

     iteration #113     ecut=    29.40 Ry     beta= 0.05
     Davidson diagonalization with overlap
     ethr =  2.76E-11,  avg # of iterations =  2.0

[...]

     total energy              =   -2942.82537778 Ry
     estimated scf accuracy    <       0.00000008 Ry

[...]

     iteration #115     ecut=    29.40 Ry     beta= 0.05
     Davidson diagonalization with overlap
     c_bands:  1 eigenvalues not converged
     c_bands:  1 eigenvalues not converged
     c_bands:  2 eigenvalues not converged
     ethr =  1.90E-11,  avg # of iterations = 15.2

     negative rho (up, down):  7.321E-03 7.319E-03

[...]

     Adding external electric field

     Computed dipole along edir(3) :
        Dipole                1.6211 Ry au,          4.1205 Debye
        Dipole field          0.0031 Ry au,

        Potential amp.       -0.2836 Ry
        Total length         46.3494 bohr

     Magnetic moment per site  (integrated on atomic sphere of radius R)
     atom   1 (R=0.723)  charge=  7.9140  magn=  0.0026
     atom   2 (R=0.723)  charge=  7.8963  magn=  0.0001
     atom   3 (R=0.633)  charge=  4.2081  magn= -0.0001
     atom   4 (R=0.633)  charge=  4.2373  magn=  0.0000
     atom   5 (R=0.633)  charge=  4.2138  magn=  0.0000
     atom   6 (R=0.633)  charge=  4.2139  magn=  0.0000
     atom   7 (R=0.723)  charge=  7.8964  magn=  0.0000
     atom   8 (R=0.723)  charge=  7.8945  magn= -0.0002
     atom   9 (R=0.633)  charge=  4.2238  magn=  0.0002
     atom  10 (R=0.633)  charge=  4.2125  magn=  0.0001
     atom  11 (R=0.633)  charge=  4.2093  magn=  0.0002
     atom  12 (R=0.633)  charge=  4.2112  magn=  0.0002
     atom  13 (R=0.723)  charge=  7.8927  magn= -0.0009
     atom  14 (R=0.723)  charge=  7.9040  magn= -0.0013
     atom  15 (R=0.633)  charge=  4.2098  magn=  0.0000
     atom  16 (R=0.633)  charge=  4.2161  magn=  0.0000
     atom  17 (R=0.633)  charge=  4.2034  magn= -0.0000
     atom  18 (R=0.633)  charge=  4.2034  magn= -0.0000
     atom  19 (R=0.723)  charge=  7.9505  magn= -0.0005
     atom  20 (R=0.723)  charge=  7.9298  magn= -0.0001
     atom  21 (R=0.633)  charge=  4.1284  magn= -0.0001
     atom  22 (R=0.633)  charge=  4.1764  magn= -0.0000
     atom  23 (R=0.633)  charge=  4.2074  magn= -0.0003
     atom  24 (R=0.633)  charge=  4.2074  magn= -0.0003
     atom  25 (R=0.723)  charge=  7.9141  magn=  0.0026
     atom  26 (R=0.723)  charge=  7.8964  magn=  0.0001
     atom  27 (R=0.633)  charge=  4.2076  magn= -0.0001
     atom  28 (R=0.633)  charge=  4.2375  magn=  0.0000
     atom  29 (R=0.633)  charge=  4.2143  magn=  0.0000
     atom  30 (R=0.633)  charge=  4.2144  magn=  0.0000
     atom  31 (R=0.723)  charge=  7.8969  magn= -0.0000
     atom  32 (R=0.723)  charge=  7.8947  magn= -0.0002
     atom  33 (R=0.633)  charge=  4.2223  magn=  0.0002
     atom  34 (R=0.633)  charge=  4.2053  magn=  0.0001
     atom  35 (R=0.633)  charge=  4.2090  magn=  0.0002
     atom  36 (R=0.633)  charge=  4.2115  magn=  0.0002
     atom  37 (R=0.723)  charge=  7.8964  magn= -0.0009
     atom  38 (R=0.723)  charge=  7.9034  magn= -0.0012
     atom  39 (R=0.633)  charge=  4.1926  magn=  0.0000
     atom  40 (R=0.633)  charge=  4.2343  magn=  0.0000
     atom  41 (R=0.633)  charge=  4.2022  magn= -0.0000
     atom  42 (R=0.633)  charge=  4.2135  magn= -0.0000
     atom  43 (R=0.723)  charge=  7.9400  magn= -0.0007
     atom  44 (R=0.723)  charge=  7.9262  magn= -0.0001
     atom  45 (R=0.633)  charge=  4.1284  magn= -0.0001
     atom  46 (R=0.633)  charge=  4.2074  magn= -0.0003
     atom  47 (R=0.633)  charge=  4.2074  magn= -0.0003
     atom  48 (R=0.421)  charge=  1.3140  magn= -0.0000
     atom  49 (R=0.447)  charge=  0.8386  magn=  0.0000
     atom  50 (R=0.421)  charge=  0.4429  magn= -0.0000
     atom  51 (R=0.421)  charge=  0.4441  magn= -0.0000
     atom  52 (R=0.421)  charge=  0.4493  magn= -0.0000
     atom  53 (R=0.421)  charge=  1.3536  magn=  0.0000
     atom  54 (R=0.421)  charge=  0.4508  magn= -0.0000
     atom  55 (R=0.421)  charge=  0.3883  magn=  0.0000
     atom  56 (R=0.421)  charge=  0.4490  magn=  0.0000

     End of self-consistent calculation

 ------ SPIN UP ------------

          k = 0.0000 0.0000 0.0000 ( 18029 PWs)   bands (ev):

   -55.1321 -55.0975 -55.0955 -55.0634 -55.0150 -55.0003 -54.9768 -54.9350
   -54.9222 -54.9137 -54.8999 -54.8892 -54.8555 -54.7841 -54.1068 -54.0728
   -31.7126 -31.5855 -31.5013 -31.4699 -31.4258 -31.4248 -31.4220 -31.3929
   -31.3891 -31.3875 -31.3573 -31.3422 -31.3418 -31.3096 -31.2923 -31.2666
   -31.2507 -31.2506 -31.2375 -31.2319 -31.2070 -31.1992 -31.1919 -31.1663
   -31.1549 -31.1440 -31.1380 -31.1312 -31.1305 -31.1183 -31.1168 -31.1111
   -31.0939 -31.0851 -31.0796 -31.0523 -31.0500 -31.0376 -31.0309 -31.0266
   -31.0152 -30.9740 -30.5152 -30.4233 -30.4010 -30.3317 -30.2450 -30.1340
   -18.9073 -15.9983 -15.7444 -15.6081 -15.3732 -15.3208 -15.2648 -15.0605
   -15.0556 -14.9851 -14.9696 -14.9207 -14.9007 -14.8337 -14.7493 -14.7294
   -14.6599 -14.6583 -14.6292 -14.6189 -14.6164 -14.5538 -14.5445 -14.5145
   -14.5015 -14.4767 -14.3587 -14.2739 -14.2152 -13.9660 -13.6006 -12.6092
   -12.4921  -9.7305  -7.7722  -7.1676  -5.4427  -3.8177  -3.3350  -3.2557
    -3.1619  -3.1311  -3.0541  -3.0248  -2.8401  -2.8187  -2.4776  -2.4440
    -2.3914  -2.3736  -2.3532  -2.3347  -2.1682  -2.1416  -2.0682  -2.0356
    -2.0178  -1.9759  -1.9591  -1.9489  -1.9153  -1.9104  -1.9003  -1.6932
    -1.6369  -1.5419  -1.5196  -1.5031  -1.4606  -1.4254  -1.4159  -1.4126
    -1.4067  -1.3935  -1.3817  -1.3006  -1.2436  -1.1615  -1.1527  -1.1169
    -1.0127  -0.9694  -0.7666  -0.7514  -0.7054  -0.6631  -0.6002  -0.5800
    -0.5123  -0.4816  -0.4634  -0.3416  -0.3131  -0.2732  -0.2454  -0.1772
    -0.1485  -0.1012  -0.0188   0.0529   0.0896   0.1082   0.1657   0.2961
     0.3081   0.3373   0.3987   0.4624   0.5026   0.5223   0.5412   0.5781
     0.6282   0.7542   0.7984   0.8187   0.8227   0.8569   0.8791   0.9302
     0.9547   1.0154   1.0211   1.1385   1.2078   1.4378   1.4717   1.4957
     1.8282   1.8512   1.9159   2.1018   2.4900   2.5370   3.9715   4.0324
     4.0885   4.1024   4.1239   4.2126   4.2537   4.4348   4.4622   4.4641
     4.4680

[...]

          k =-0.0760-0.0000 0.0000 ( 17886 PWs)   bands (ev):

[...]

 ------ SPIN DOWN ----------

[...]

          k = 0.0380-0.0419 0.0000 ( 17876 PWs)   bands (ev):

[...]

          k =-0.0760-0.0839 0.0000 ( 17948 PWs)   bands (ev):

   -55.1192 -55.1136 -55.0754 -55.0753 -55.0066 -54.9975 -54.9896 -54.9190
   -54.9176 -54.9150 -54.9076 -54.9061 -54.8520 -54.7881 -54.0897 -54.0895
   -31.5176 -31.5148 -31.4378 -31.4160 -31.3986 -31.3986 -31.3675 -31.3673
   -31.3457 -31.3400 -31.3368 -31.3365 -31.3024 -31.2668 -31.2612 -31.2568
   -31.2542 -31.2502 -31.2488 -31.2425 -31.2110 -31.2076 -31.2052 -31.2031
   -31.1940 -31.1939 -31.1838 -31.1824 -31.1536 -31.1489 -31.1335 -31.1295
   -31.1269 -31.1263 -31.1260 -31.1174 -31.0932 -31.0889 -31.0863 -31.0642
   -31.0386 -31.0209 -30.4136 -30.4134 -30.3277 -30.3275 -30.2882 -30.2882
   -18.9024 -15.5054 -15.3956 -15.2888 -15.2222 -15.1791 -15.1283 -15.1103
   -15.0994 -15.0549 -15.0256 -14.9561 -14.8912 -14.8381 -14.8370 -14.8028
   -14.7240 -14.7102 -14.7031 -14.6927 -14.6359 -14.6293 -14.5978 -14.5769
   -14.5738 -14.5439 -14.4699 -14.4675 -14.3821 -14.1746 -13.6361 -12.5941
   -12.5938  -9.7005  -7.7669  -7.1148  -5.4437  -3.8394  -3.4124  -2.7535
    -2.6426  -2.4320  -2.4062  -2.3460  -2.3270  -2.2458  -2.1816  -2.1586
    -2.1354  -2.1014  -2.0981  -2.0759  -2.0525  -1.9998  -1.9705  -1.9580
    -1.9523  -1.9377  -1.9248  -1.9053  -1.8488  -1.8383  -1.8309  -1.7882
    -1.7772  -1.7454  -1.7392  -1.7001  -1.6836  -1.6098  -1.5149  -1.4911
    -1.4333  -1.3307  -1.3159  -1.3102  -1.2187  -1.2090  -1.1793  -1.1484
    -1.0942  -0.9958  -0.9403  -0.8631  -0.8598  -0.8312  -0.7440  -0.6797
    -0.6459  -0.6369  -0.5976  -0.5399  -0.5183  -0.4832  -0.4006  -0.3594
    -0.3324  -0.2990  -0.2035  -0.1429  -0.1186  -0.0865  -0.0830   0.0055
     0.0392   0.0762   0.0971   0.1349   0.1617   0.2233   0.2484   0.3586
     0.4266   0.4578   0.5766   0.6017   0.6654   0.7977   0.8695   0.9102
     0.9623   1.0208   1.0482   1.1788   1.1860   1.2099   1.3046   1.3451
     1.3520   1.3648   2.2745   2.2756   2.3570   2.3572   4.1017   4.1886
     4.2314   4.2690   4.3766   4.4883   4.5068   4.5498   4.5503   4.6251
     4.6316

     the Fermi energy is     4.0233 ev

!    total energy              =   -2942.82537848 Ry
     estimated scf accuracy    <       0.00000005 Ry
     smearing contrib. (-TS)   =      -0.03683334 Ry
     internal energy E=F+TS    =   -2942.78854515 Ry

     The total energy is F=E-TS. E is the sum of the following terms:
     one-electron contribution =  -23969.75080682 Ry
     hartree contribution      =   12080.47214550 Ry
     xc contribution           =    -487.77380485 Ry
     ewald contribution        =    9434.25896154 Ry
     electric field correction =       0.00495948 Ry

     total magnetization       =    -0.00 Bohr mag/cell
     absolute magnetization    =     0.02 Bohr mag/cell

     convergence has been achieved in 115 iterations

     Forces acting on atoms (cartesian axes, Ry/au):

     atom    1 type  1   force =     0.00014656   -0.00022101    0.09430232
     atom    2 type  1   force =    -0.00009885   -0.00033736   -0.17739565
     atom    3 type  2   force =     0.00005519   -0.00016487   -0.02136807
     atom    4 type  2   force =    -0.00001450   -0.00172777    0.05656875
     atom    5 type  2   force =    -0.01054075   -0.00127869    0.00623096
     atom    6 type  2   force =     0.01220719   -0.00074439    0.00570231
     atom    7 type  1   force =    -0.00032826    0.00172407   -0.01619340
     atom    8 type  1   force =    -0.00011495    0.00438212    0.00559987
     atom    9 type  2   force =     0.00001035   -0.00004634   -0.00005051
     atom   10 type  2   force =    -0.00074313   -0.00022324   -0.00044676
     atom   11 type  2   force =     0.00034690    0.00012280   -0.00018378
     atom   12 type  2   force =    -0.00051705    0.00000061   -0.00012286
     atom   13 type  1   force =     0.00004704   -0.00035616    0.00013522
     atom   14 type  1   force =     0.00056497    0.00011844   -0.00033079
     atom   15 type  2   force =    -0.00042054    0.00021862   -0.00019282
     atom   16 type  2   force =    -0.00031116    0.00017159    0.00000363
     atom   17 type  2   force =    -0.00022862    0.00007243    0.00047697
     atom   18 type  2   force =     0.00009676    0.00033553   -0.00007768
     atom   19 type  1   force =     0.00008825   -0.00016379    0.00008169
     atom   20 type  1   force =    -0.00010068    0.00051990   -0.00027505
     atom   21 type  2   force =     0.00003642    0.00004210    0.10364302
     atom   22 type  2   force =    -0.00007125   -0.00081754   -0.00025432
     atom   23 type  2   force =    -0.07081129   -0.00009960   -0.02718323
     atom   24 type  2   force =     0.07067517    0.00034195   -0.02721711
     atom   25 type  1   force =    -0.00009095   -0.00019330    0.09374080
     atom   26 type  1   force =    -0.00015004   -0.00032311   -0.17732851
     atom   27 type  2   force =     0.00008839   -0.00035288   -0.02046784
     atom   28 type  2   force =     0.00002995   -0.00144024    0.05587775
     atom   29 type  2   force =    -0.01090278   -0.00073730    0.00607886
     atom   30 type  2   force =     0.01245399   -0.00029311    0.00555918
     atom   31 type  1   force =    -0.00017351    0.00462930   -0.01723113
     atom   32 type  1   force =    -0.00003604   -0.00479891    0.00558499
     atom   33 type  2   force =     0.00005568    0.00012685    0.00026490
     atom   34 type  2   force =     0.00005839   -0.00085289   -0.00297786
     atom   35 type  2   force =     0.00023664    0.00003241    0.00008295
     atom   36 type  2   force =    -0.00043203    0.00015621   -0.00005770
     atom   37 type  1   force =    -0.00012962   -0.00010689   -0.00017182
     atom   38 type  1   force =     0.00042876   -0.00029043    0.00035305
     atom   39 type  2   force =    -0.00044590    0.00007809    0.00078151
     atom   40 type  2   force =    -0.00011059    0.00020644   -0.00016968
     atom   41 type  2   force =     0.00080909   -0.00057060    0.00192008
     atom   42 type  2   force =    -0.00006801    0.00019815   -0.00002484
     atom   43 type  1   force =    -0.00061153    0.00083505   -0.00006810
     atom   44 type  1   force =    -0.00029482    0.00030020    0.00015310
     atom   45 type  2   force =     0.00002703    0.00001149    0.10364873
     atom   46 type  2   force =    -0.07081321   -0.00003793   -0.02718725
     atom   47 type  2   force =     0.07067839    0.00037954   -0.02719129
     atom   48 type  3   force =    -0.00136394   -0.00038149    0.00399530
     atom   49 type  4   force =     0.00064392    0.00003579   -0.00079686
     atom   50 type  5   force =     0.00019098   -0.00002356    0.00006436
     atom   51 type  5   force =    -0.00016621   -0.00029208   -0.00003100
     atom   52 type  5   force =    -0.00017780   -0.00000193    0.00017656
     atom   53 type  3   force =    -0.00197408    0.00108744   -0.02012529
     atom   54 type  5   force =     0.00188617    0.00552332    0.00693982
     atom   55 type  5   force =     0.00228267   -0.00102980    0.00327192
     atom   56 type  5   force =    -0.00190276   -0.00374323    0.00388262

     Total force =     0.366344     Total SCF correction =     0.000484
  @ DRIVER MODE: Message from server: STATUS
  @ DRIVER MODE: Message from server: GETFORCE
  @ DRIVER MODE: Returning v,forces,stress,ensemble

     Writing output data file ./calc.save/
  @ DRIVER MODE: Message from server: EXIT
  @ DRIVE MODE: Exiting

     General routines

     Parallel routines

   This run was terminated on:  22:44:28  16Jul2021

   JOB DONE.