     Program PWSCF v.6.7GPU starts on 16Sep2021 at  6:24:45

     R & G space division:  proc/nbgrp/npool/nimage =      10
     Reading input from /storage/home/hcoda1/3/ntian30/research/carbon/CxH_vib/H2O_calc/ads_slab/CH3NH2O_a/out_0048/pw.inp
Warning: card &CELL ignored
Warning: card   CELL_DYNAMICS='IPI', ignored
Warning: card / ignored

     Current dimensions of program PWSCF are:
     Max number of different atomic species (ntypx) = 10
     Max number of k-points (npk) =  40000
     Max angular momentum in pseudopotentials (lmaxx) =  3
     Presently no symmetry can be used with electric field

     Message from routine cell_base_init:
     DEPRECATED: use true lattice parameter, not A to a.u. conversion factor

     IMPORTANT: XC functional enforced from input :
     Exchange-correlation= BEEF-VDW
                           (   1   4  43  14   2   0   0)
     Any further DFT definition will be discarded
     Please, verify this is what you really want

  @ DRIVER MODE: Connecting to
 qe_1139763_2852618.sched-torque.pace.gatech.edu4kf1asge_scratch
  using UNIX socket
  @ DRIVER MODE: Message from server: STATUS
  @ DRIVER MODE: Message from server: INIT
  @ DRIVER MODE: Receiving replica           0          -1
  @ DRIVER MODE: Receiving encoded integer          25
  @ DRIVER MODE:  SCF:  T  FORCE:  T  STRESS:  F  VC:  F  ENSEMBLE:  F
  @ DRIVER MODE:  SCF:  T  FORCE:  T  STRESS:  F  VC:  F  ENSEMBLE:  F

     Using Slab Decomposition

     bravais-lattice index     =            0
     lattice parameter (alat)  =       1.8897  a.u.
     unit-cell volume          =    6658.9804 (a.u.)^3
     number of atoms/cell      =           55
     number of atomic types    =            5
     number of electrons       =       398.00
     number of Kohn-Sham states=          209
     kinetic-energy cutoff     =      29.3995  Ry
     charge density cutoff     =     293.9946  Ry
     scf convergence threshold =      7.3E-08
     mixing beta               =       0.0500
     number of iterations used =            8  plain     mixing
     Exchange-correlation= BEEF-VDW
                           (   1   4  43  14   2   0   0)

     celldm(1)=   1.889726  celldm(2)=   0.000000  celldm(3)=   0.000000
     celldm(4)=   0.000000  celldm(5)=   0.000000  celldm(6)=   0.000000

     crystal axes: (cart. coord. in units of alat)
               a(1) = (   6.579727   0.000000   0.000000 )
               a(2) = (  -0.000775   5.961596   0.000000 )
               a(3) = (   0.000000   0.000000  25.155947 )

     reciprocal axes: (cart. coord. in units 2 pi/alat)
               b(1) = (  0.151982  0.000020  0.000000 )
               b(2) = (  0.000000  0.167740  0.000000 )
               b(3) = (  0.000000  0.000000  0.039752 )

     PseudoPot. # 1 for Ti read from file:
     /storage/coda1/p-amedford6/0/shared/rich_project_chbe-medford/medford-share/data/pseudos_module/espresso/nninc/pbe/van/Ti.UPF
     MD5 check sum: 8e4df49b7f0d34bbd5052bf3f5ea0213
     Pseudo is Ultrasoft, Zval = 12.0
     Generated by new atomic code, or converted to UPF format
     Using radial grid of  851 points,  6 beta functions with:
                l(1) =   0
                l(2) =   0
                l(3) =   1
                l(4) =   1
                l(5) =   2
                l(6) =   2
     Q(r) pseudized with  8 coefficients,  rinner =    1.000   1.000   1.000
                                                       1.000   1.000

     PseudoPot. # 2 for O  read from file:
     /storage/coda1/p-amedford6/0/shared/rich_project_chbe-medford/medford-share/data/pseudos_module/espresso/nninc/pbe/van/O.UPF
     MD5 check sum: 78c19812648e8988a0fe644b0f25305e
     Pseudo is Ultrasoft, Zval =  6.0
     Generated by new atomic code, or converted to UPF format
     Using radial grid of  737 points,  4 beta functions with:
                l(1) =   0
                l(2) =   0
                l(3) =   1
                l(4) =   1
     Q(r) pseudized with  8 coefficients,  rinner =    0.800   0.800   0.800

     PseudoPot. # 3 for N  read from file:
     /storage/coda1/p-amedford6/0/shared/rich_project_chbe-medford/medford-share/data/pseudos_module/espresso/nninc/pbe/van/N.UPF
     MD5 check sum: 90d10febe142ad51ac9d5be1deb811c4
     Pseudo is Ultrasoft, Zval =  5.0
     Generated by new atomic code, or converted to UPF format
     Using radial grid of  729 points,  4 beta functions with:
                l(1) =   0
                l(2) =   0
                l(3) =   1
                l(4) =   1
     Q(r) pseudized with  8 coefficients,  rinner =    0.800   0.800   0.800

     PseudoPot. # 4 for C  read from file:
     /storage/coda1/p-amedford6/0/shared/rich_project_chbe-medford/medford-share/data/pseudos_module/espresso/nninc/pbe/van/C.UPF
     MD5 check sum: 1a69bf6b8db32088f5b2163dbdb77a27
     Pseudo is Ultrasoft, Zval =  4.0
     Generated by new atomic code, or converted to UPF format
     Using radial grid of  721 points,  4 beta functions with:
                l(1) =   0
                l(2) =   0
                l(3) =   1
                l(4) =   1
     Q(r) pseudized with  8 coefficients,  rinner =    0.800   0.800   0.800

     PseudoPot. # 5 for H  read from file:
     /storage/coda1/p-amedford6/0/shared/rich_project_chbe-medford/medford-share/data/pseudos_module/espresso/nninc/pbe/van/H.UPF
     MD5 check sum: b5ee9d7bfd3a09ee7748110bda690ff7
     Pseudo is Ultrasoft, Zval =  1.0
     Generated by new atomic code, or converted to UPF format
     Using radial grid of  615 points,  1 beta functions with:
                l(1) =   0
     Q(r) pseudized with  8 coefficients,  rinner =    0.800

     atomic species   valence    mass     pseudopotential
        Ti1           12.00    47.86700     Ti( 1.00)
        O1             6.00    15.99900     O ( 1.00)
        N1             5.00    14.00700     N ( 1.00)
        C1             4.00    12.01100     C ( 1.00)
        H1             1.00     1.00800     H ( 1.00)

     No symmetry found

   Cartesian axes

     site n.     atom                  positions (alat units)
         1           Ti1 tau(   1) = (   0.0004258   2.9801865   6.0000000  )
         2           Ti1 tau(   2) = (   3.2906075   1.4906267   6.0002472  )
         3           O1  tau(   3) = (   0.0006271   0.0005054   7.9858123  )
         4           O1  tau(   4) = (   3.2906025   0.0005020   7.3038282  )
         5           O1  tau(   5) = (   4.5942328   1.4918067   9.2879030  )
         6           O1  tau(   6) = (   1.9868534   1.4903216   9.2879459  )
         7           Ti1 tau(   7) = (   3.2907910   2.8959150   9.1758416  )
         8           Ti1 tau(   8) = (   0.0015273   1.4827037   9.2680791  )
         9           O1  tau(   9) = (   3.2951577   0.0167633  11.2896499  )
        10           O1  tau(  10) = (   0.0116148   5.9584955  10.6183126  )
        11           O1  tau(  11) = (   1.3222759   1.5071707  12.6129440  )
        12           O1  tau(  12) = (   5.3060066   1.5095485  12.6267335  )
        13           Ti1 tau(  13) = (   6.4824898   3.0013615  12.7357613  )
        14           Ti1 tau(  14) = (   3.1735365   1.4973312  12.4739500  )
        15           O1  tau(  15) = (   0.0245190   0.0017265  14.5963640  )
        16           O1  tau(  16) = (   3.2983568   0.0259644  13.8884976  )
        17           O1  tau(  17) = (   4.5535709   1.5599051  15.9919625  )
        18           O1  tau(  18) = (   2.0723989   1.5598234  15.9883263  )
        19           Ti1 tau(  19) = (   3.3263631   3.0313633  15.6478355  )
        20           Ti1 tau(  20) = (   0.0083359   1.6222165  16.0589653  )
        21           O1  tau(  21) = (   3.2904802   0.0005063   4.7018136  )
        22           O1  tau(  22) = (   0.0206953   0.0548308  17.2083480  )
        23           O1  tau(  23) = (   1.3043587   1.4918075   6.0039043  )
        24           O1  tau(  24) = (   5.2767064   1.4903225   6.0039473  )
        25           Ti1 tau(  25) = (   0.0000382   5.9609847   6.0000000  )
        26           Ti1 tau(  26) = (   3.2902200   4.4714249   6.0002472  )
        27           O1  tau(  27) = (   0.0002396   2.9813036   7.9858123  )
        28           O1  tau(  28) = (   3.2902150   2.9813002   7.3038282  )
        29           O1  tau(  29) = (   4.5938453   4.4726049   9.2879030  )
        30           O1  tau(  30) = (   1.9864658   4.4711199   9.2879459  )
        31           Ti1 tau(  31) = (   3.2891106   5.8743827   9.1763621  )
        32           Ti1 tau(  32) = (   0.0006254   4.4649316   9.2693709  )
        33           O1  tau(  33) = (   3.2909539   2.9954008  11.2901670  )
        34           O1  tau(  34) = (   0.0092240   2.9805883  10.6323155  )
        35           O1  tau(  35) = (   1.3211080   4.4795309  12.6092917  )
        36           O1  tau(  36) = (   5.3058445   4.4798052  12.6251394  )
        37           Ti1 tau(  37) = (   6.5140999   0.0198189  12.7603067  )
        38           Ti1 tau(  38) = (   3.1705570   4.4938763  12.4677136  )
        39           O1  tau(  39) = (   0.0016069   2.9863809  14.6467327  )
        40           O1  tau(  40) = (   3.3112668   3.0122049  13.8485686  )
        41           O1  tau(  41) = (   4.5534170   4.5051619  16.0179686  )
        42           O1  tau(  42) = (   2.0797414   4.5084034  16.0201905  )
        43           Ti1 tau(  43) = (   3.2815144   0.0627375  15.7417980  )
        44           Ti1 tau(  44) = (   0.0076503   4.5954094  16.1032789  )
        45           O1  tau(  45) = (   3.2900926   2.9813045   4.7018136  )
        46           O1  tau(  46) = (   1.3039711   4.4726057   6.0039043  )
        47           O1  tau(  47) = (   5.2763189   4.4711207   6.0039473  )
        48           N1  tau(  48) = (   0.0651939   3.0276870  17.3150544  )
        49           C1  tau(  49) = (   0.3375872   3.0185870  18.7284822  )
        50           H1  tau(  50) = (   0.4544735   4.0311245  19.1352477  )
        51           H1  tau(  51) = (   6.1015407   2.5302758  19.2785169  )
        52           H1  tau(  52) = (   1.2508204   2.4494767  18.9518403  )
        53           O1  tau(  53) = (   3.3357083   0.1159715  18.1615364  )
        54           H1  tau(  54) = (   4.1514219   5.6051498  18.3929375  )
        55           H1  tau(  55) = (   2.5926282   5.5337384  18.4810493  )

     number of k points=    10  Fermi-Dirac smearing, width (Ry)=  0.0073
                       cart. coord. in units 2pi/alat
        k(    1) = (   0.0000000   0.0000000   0.0000000), wk =   0.1250000
        k(    2) = (   0.0000000   0.0419351   0.0000000), wk =   0.2500000
        k(    3) = (   0.0000000  -0.0838702   0.0000000), wk =   0.1250000
        k(    4) = (   0.0379955   0.0000049   0.0000000), wk =   0.2500000
        k(    5) = (   0.0379955   0.0419400   0.0000000), wk =   0.2500000
        k(    6) = (   0.0379955  -0.0838652   0.0000000), wk =   0.2500000
        k(    7) = (   0.0379955  -0.0419301   0.0000000), wk =   0.2500000
        k(    8) = (  -0.0759910  -0.0000099   0.0000000), wk =   0.1250000
        k(    9) = (  -0.0759910   0.0419252   0.0000000), wk =   0.2500000
        k(   10) = (  -0.0759910  -0.0838800   0.0000000), wk =   0.1250000

     Initial potential from superposition of free atoms

     starting charge  381.99915, renormalised to  398.00000

     negative rho (up, down):  1.656E-02 0.000E+00

     %%%%%%%%%%%%%%%%%%%%%%%%%%%%%%%%%%%%%%%%%%%%%%%%%%%%%%%%%%%%%%%%%%%%%%%%
     %                                                                      %
     % You are using vdW-DF, which was implemented by the Thonhauser group. %
     % Please cite the following two papers that made this development      %
     % possible and the two reviews that describe the various versions:     %
     %                                                                      %
     %   T. Thonhauser et al., PRL 115, 136402 (2015).                      %
     %   T. Thonhauser et al., PRB 76, 125112 (2007).                       %
     %   K. Berland et al., Rep. Prog. Phys. 78, 066501 (2015).             %
     %   D.C. Langreth et al., J. Phys.: Condens. Matter 21, 084203 (2009). %
     %                                                                      %
     %                                                                      %
     % If you are calculating the stress with vdW-DF, please also cite:     %
     %                                                                      %
     %   R. Sabatini et al., J. Phys.: Condens. Matter 24, 424209 (2012).   %
     %                                                                      %
     %%%%%%%%%%%%%%%%%%%%%%%%%%%%%%%%%%%%%%%%%%%%%%%%%%%%%%%%%%%%%%%%%%%%%%%%

     Adding external electric field

     Computed dipole along edir(3) :
        Dipole               -9.1087 Ry au,        -23.1520 Debye
        Dipole field         -0.0172 Ry au,

        Potential amp.        1.5934 Ry
        Total length         46.3494 bohr

     Starting wfcs are  301 atomic wfcs
  @ DRIVER MODE: Message from server: STATUS
  @ DRIVER MODE: Message from server: POSDATA
  @ DRIVER MODE: Reading and sharing cell
  @ DRIVER MODE: Reading and sharing positions
  @ DRIVER MODE: Received positions

     Self-consistent Calculation

     iteration #  1     ecut=    29.40 Ry     beta= 0.05
     Davidson diagonalization with overlap
     c_bands:  1 eigenvalues not converged
     c_bands:  1 eigenvalues not converged
     c_bands:  1 eigenvalues not converged
     c_bands:  1 eigenvalues not converged
     c_bands:  1 eigenvalues not converged
     c_bands:  1 eigenvalues not converged
     c_bands:  1 eigenvalues not converged
     c_bands:  2 eigenvalues not converged
     ethr =  1.00E-05,  avg # of iterations = 19.6

[...]

     total energy              =   -2564.52724620 Ry
     estimated scf accuracy    <    4317.24896858 Ry

     iteration #  2     ecut=    29.40 Ry     beta= 0.05
     Davidson diagonalization with overlap
     ethr =  1.00E-02,  avg # of iterations = 23.3

[...]

     iteration # 42     ecut=    29.40 Ry     beta= 0.05
     Davidson diagonalization with overlap
     c_bands:  1 eigenvalues not converged
     c_bands:  1 eigenvalues not converged
     c_bands:  2 eigenvalues not converged
     c_bands:  1 eigenvalues not converged
     c_bands:  1 eigenvalues not converged
     ethr =  2.55E-06,  avg # of iterations = 17.0

[...]

     total energy              =   -2953.97105999 Ry
     estimated scf accuracy    <       0.00000008 Ry

     iteration # 71     ecut=    29.40 Ry     beta= 0.05
     Davidson diagonalization with overlap
     ethr =  1.89E-11,  avg # of iterations =  3.8

     negative rho (up, down):  1.668E-02 0.000E+00

     Adding external electric field

     Computed dipole along edir(3) :
        Dipole                0.5332 Ry au,          1.3553 Debye
        Dipole field          0.0010 Ry au,

        Potential amp.       -0.0933 Ry
        Total length         46.3494 bohr

     End of self-consistent calculation

          k = 0.0000 0.0000 0.0000 ( 18029 PWs)   bands (ev):

   -56.5926 -56.5590 -55.7104 -55.6764 -55.6661 -55.6313 -55.4895 -55.4533
   -55.3589 -55.2408 -55.2269 -55.2253 -55.2069 -55.1300 -54.7231 -54.6739
   -33.0193 -32.8671 -32.8389 -32.7690 -32.6781 -32.6455 -32.1783 -32.1486
   -32.0251 -31.9752 -31.9274 -31.9082 -31.8792 -31.8687 -31.8412 -31.8352
   -31.8159 -31.8112 -31.7880 -31.7729 -31.7653 -31.7092 -31.7046 -31.6671
   -31.6535 -31.6318 -31.6237 -31.6157 -31.5921 -31.5838 -31.5806 -31.5564
   -31.4633 -31.4509 -31.4165 -31.4037 -31.3766 -31.3678 -31.3541 -31.3352
   -31.3072 -31.2568 -31.2380 -30.9668 -30.9452 -30.9161 -30.8921 -30.7830
   -18.7706 -16.7480 -16.2842 -16.0429 -15.9488 -15.8664 -15.8268 -15.7834
   -15.6352 -15.5628 -15.5427 -15.5406 -15.4725 -15.3282 -15.2744 -15.1765
   -15.0902 -14.9490 -14.9375 -14.8975 -14.8832 -14.8475 -14.8435 -14.7925
   -14.6245 -14.5886 -14.5429 -14.4835 -14.3923 -14.1713 -13.7393 -13.6296
   -12.9711  -7.7744  -6.5549  -4.3152  -3.7827  -3.5178  -3.4855  -3.3572
    -3.3529  -3.3097  -3.1761  -3.1625  -3.0871  -3.0615  -3.0226  -2.9476
    -2.9046  -2.8692  -2.7769  -2.7633  -2.7437  -2.7351  -2.7149  -2.5973
    -2.5534  -2.5029  -2.3996  -2.2894  -2.2468  -2.2199  -2.1740  -2.1405
    -2.0895  -2.0779  -2.0659  -2.0543  -1.9504  -1.8288  -1.8029  -1.7799
    -1.7340  -1.7186  -1.7108  -1.6872  -1.6025  -1.4934  -1.4007  -1.3328
    -1.3257  -1.2510  -1.2427  -1.1847  -1.0727  -1.0107  -1.0084  -0.9866
    -0.8827  -0.8577  -0.7860  -0.7232  -0.6645  -0.6115  -0.5488  -0.4965
    -0.4739  -0.4641  -0.3661  -0.2968  -0.2718  -0.2165  -0.2089  -0.2028
    -0.1764  -0.0815  -0.0458   0.0310   0.0665   0.1143   0.1497   0.2286
     0.2883   0.3542   0.4012   0.4229   0.4888   0.5439   0.5994   0.6905
     0.7476   0.7535   0.7807   0.8396   0.8530   0.9274   1.0096   1.0291
     1.0961   1.1672   1.3305   1.3695   1.6153   1.6894   2.3134   2.6848
     2.8459   3.1411   3.3308   3.4690   3.6640   3.6744   3.6817   3.9030
     3.9314

[...]

          k = 0.0380-0.0419 0.0000 ( 17876 PWs)   bands (ev):

[...]

          k =-0.0760-0.0000 0.0000 ( 17886 PWs)   bands (ev):

[...]

          k =-0.0760-0.0839 0.0000 ( 17948 PWs)   bands (ev):

   -56.5760 -56.5755 -55.6954 -55.6910 -55.6533 -55.6443 -55.4755 -55.4672
   -55.3565 -55.2292 -55.2239 -55.2237 -55.2220 -55.1332 -54.7159 -54.6810
   -32.8530 -32.8526 -32.8363 -32.8361 -32.7222 -32.7218 -32.0019 -31.9961
   -31.9844 -31.9775 -31.9012 -31.8866 -31.8855 -31.8812 -31.8745 -31.8730
   -31.8654 -31.8574 -31.8308 -31.8139 -31.7205 -31.7140 -31.6825 -31.6747
   -31.6512 -31.6157 -31.5834 -31.5694 -31.5693 -31.5672 -31.5461 -31.5279
   -31.4773 -31.4487 -31.4485 -31.4444 -31.4282 -31.4096 -31.4095 -31.3985
   -31.3721 -31.3367 -31.0988 -31.0365 -30.9427 -30.9172 -30.9018 -30.8549
   -18.7698 -16.0987 -16.0968 -16.0613 -16.0606 -15.7941 -15.7907 -15.7008
   -15.6953 -15.5635 -15.4431 -15.3389 -15.3263 -15.2923 -15.2657 -15.1555
   -15.1346 -15.1231 -15.1129 -15.0048 -14.9854 -14.9381 -14.9238 -14.9076
   -14.9005 -14.6060 -14.5896 -14.4896 -14.4636 -14.3237 -13.7332 -13.7332
   -12.9896  -7.7679  -6.5479  -3.1967  -3.1886  -3.1561  -3.1340  -3.1331
    -3.0771  -2.9754  -2.9290  -2.9265  -2.9258  -2.8462  -2.7803  -2.7724
    -2.6986  -2.6655  -2.6481  -2.5913  -2.5767  -2.5126  -2.4862  -2.4781
    -2.4604  -2.4367  -2.4355  -2.3414  -2.2753  -2.2294  -2.2242  -2.1642
    -2.1348  -2.0753  -2.0533  -2.0423  -2.0098  -1.9680  -1.9556  -1.9183
    -1.8755  -1.8407  -1.7773  -1.6113  -1.6022  -1.5931  -1.5727  -1.4499
    -1.4428  -1.4087  -1.3774  -1.3719  -1.3005  -1.2506  -1.2136  -1.1608
    -1.0747  -1.0531  -0.9486  -0.8964  -0.8532  -0.7974  -0.6922  -0.6717
    -0.6644  -0.6530  -0.6226  -0.5528  -0.5185  -0.5149  -0.3916  -0.3675
    -0.3288  -0.2998  -0.2424  -0.2128  -0.1533  -0.1218  -0.0521  -0.0380
     0.0018   0.0789   0.1540   0.1883   0.2389   0.2453   0.5198   0.5933
     0.7229   0.7859   0.8485   0.9165   0.9817   1.0102   1.0395   1.1647
     1.1689   1.1784   1.1788   1.2493   1.2545   1.5940   2.1914   3.2608
     3.2611   3.3274   3.3280   3.6489   3.6552   3.7622   3.7725   3.9328
     3.9471

     the Fermi energy is     2.5116 ev

!    total energy              =   -2953.97108286 Ry
     estimated scf accuracy    <       0.00000002 Ry
     smearing contrib. (-TS)   =      -0.00442752 Ry
     internal energy E=F+TS    =   -2953.96665534 Ry

     The total energy is F=E-TS. E is the sum of the following terms:
     one-electron contribution =  -24343.45317574 Ry
     hartree contribution      =   12263.64409512 Ry
     xc contribution           =    -488.76813300 Ry
     ewald contribution        =    9614.61002176 Ry
     electric field correction =       0.00053651 Ry

     convergence has been achieved in  71 iterations

     Forces acting on atoms (cartesian axes, Ry/au):

     atom    1 type  1   force =    -0.00002897   -0.00048204    0.12441784
     atom    2 type  1   force =    -0.00003615   -0.00048421   -0.15979026
     atom    3 type  2   force =     0.00020076   -0.00023801   -0.06784092
     atom    4 type  2   force =     0.00000156   -0.00009123    0.02612628
     atom    5 type  2   force =    -0.01437117    0.00191455   -0.00990895
     atom    6 type  2   force =     0.01615503    0.00232556   -0.01028486
     atom    7 type  1   force =     0.00071745   -0.00389312    0.02848624
     atom    8 type  1   force =    -0.00033549   -0.00436074    0.10935811
     atom    9 type  2   force =     0.00002358    0.00001584    0.00007355
     atom   10 type  2   force =    -0.00225676    0.00266732   -0.07362912
     atom   11 type  2   force =     0.00080787   -0.00003079   -0.00023512
     atom   12 type  2   force =    -0.00043312    0.00004787   -0.00019660
     atom   13 type  1   force =    -0.00000778    0.00013744   -0.00010224
     atom   14 type  1   force =    -0.00034642    0.00049022   -0.00038187
     atom   15 type  2   force =     0.00001580   -0.00065663   -0.00023240
     atom   16 type  2   force =    -0.00018295    0.00000207    0.00042439
     atom   17 type  2   force =    -0.00064569   -0.00037714   -0.00026294
     atom   18 type  2   force =     0.00030155   -0.00017228    0.00008867
     atom   19 type  1   force =     0.00034544    0.00008960   -0.00022208
     atom   20 type  1   force =    -0.00016558   -0.00069414   -0.00081274
     atom   21 type  2   force =     0.00006632   -0.00003873    0.09951955
     atom   22 type  2   force =     0.00000909   -0.00046716    0.00024819
     atom   23 type  2   force =    -0.07970672   -0.00006469   -0.03246402
     atom   24 type  2   force =     0.07957731    0.00037549   -0.03252214
     atom   25 type  1   force =    -0.00000547   -0.00057959    0.12405822
     atom   26 type  1   force =    -0.00010601   -0.00062555   -0.15991781
     atom   27 type  2   force =     0.00033180   -0.00035983   -0.06691230
     atom   28 type  2   force =    -0.00002466    0.00017671    0.02514841
     atom   29 type  2   force =    -0.01496123    0.00189606   -0.00988533
     atom   30 type  2   force =     0.01664746    0.00242384   -0.01021741
     atom   31 type  1   force =     0.00078198   -0.00077123    0.02375513
     atom   32 type  1   force =    -0.00022878    0.00200583    0.10998467
     atom   33 type  2   force =     0.00004409   -0.00027050    0.00033410
     atom   34 type  2   force =    -0.00212229    0.00206978   -0.07174645
     atom   35 type  2   force =     0.00023310   -0.00012313   -0.00008568
     atom   36 type  2   force =    -0.00016205   -0.00024809   -0.00015662
     atom   37 type  1   force =     0.00042513   -0.00002602    0.00038079
     atom   38 type  1   force =     0.00001286   -0.00057485   -0.00016466
     atom   39 type  2   force =     0.00005639    0.00018325    0.00062647
     atom   40 type  2   force =    -0.00008514   -0.00024408    0.00024984
     atom   41 type  2   force =     0.00073536   -0.00032016    0.00010770
     atom   42 type  2   force =    -0.00097560   -0.00046634    0.00046048
     atom   43 type  1   force =    -0.00020347   -0.00052707    0.00017069
     atom   44 type  1   force =    -0.00020929    0.00005444   -0.00093249
     atom   45 type  2   force =     0.00005674   -0.00004740    0.09948491
     atom   46 type  2   force =    -0.07971576    0.00000230   -0.03248831
     atom   47 type  2   force =     0.07959530    0.00042940   -0.03251351
     atom   48 type  3   force =    -0.00048759   -0.00012405   -0.00031223
     atom   49 type  4   force =    -0.00034539    0.00010312    0.00011026
     atom   50 type  5   force =    -0.00048047    0.00003843    0.00018008
     atom   51 type  5   force =    -0.00014839   -0.00064668    0.00057470
     atom   52 type  5   force =     0.00058344    0.00010965    0.00020678
     atom   53 type  2   force =    -0.00519350   -0.00379789    0.00185527
     atom   54 type  5   force =     0.00124815    0.00056979    0.00059595
     atom   55 type  5   force =     0.00499833    0.00367483   -0.00280824

     Total force =     0.423479     Total SCF correction =     0.000372
  @ DRIVER MODE: Message from server: STATUS
  @ DRIVER MODE: Message from server: GETFORCE
  @ DRIVER MODE: Returning v,forces,stress,ensemble

     Writing output data file ./calc.save/
  @ DRIVER MODE: Message from server: EXIT
  @ DRIVE MODE: Exiting

     General routines

     Parallel routines

   This run was terminated on:   6:43:23  16Sep2021

   JOB DONE.