     Program PWSCF v.6.7GPU starts on 20Jul2021 at  4:41:39

     R & G space division:  proc/nbgrp/npool/nimage =      16
     Reading input from /storage/home/hcoda1/3/ntian30/research/carbon/15Jul_vib/ads_slab/CH3NHH_a/out_0005/pw.inp
Warning: card &CELL ignored
Warning: card   CELL_DYNAMICS='IPI', ignored
Warning: card / ignored

     Current dimensions of program PWSCF are:
     Max number of different atomic species (ntypx) = 10
     Max number of k-points (npk) =  40000
     Max angular momentum in pseudopotentials (lmaxx) =  3
     Presently no symmetry can be used with electric field

     Message from routine cell_base_init:
     DEPRECATED: use true lattice parameter, not A to a.u. conversion factor

     IMPORTANT: XC functional enforced from input :
     Exchange-correlation= BEEF-VDW
                           (   1   4  43  14   2   0   0)
     Any further DFT definition will be discarded
     Please, verify this is what you really want

  @ DRIVER MODE: Connecting to
 qe_1139763_2382402.sched-torque.pace.gatech.eduf9ie7ha7_scratch
  using UNIX socket
  @ DRIVER MODE: Message from server: STATUS
  @ DRIVER MODE: Message from server: INIT
  @ DRIVER MODE: Receiving replica           0          -1
  @ DRIVER MODE: Receiving encoded integer          25
  @ DRIVER MODE:  SCF:  T  FORCE:  T  STRESS:  F  VC:  F  ENSEMBLE:  F
  @ DRIVER MODE:  SCF:  T  FORCE:  T  STRESS:  F  VC:  F  ENSEMBLE:  F

     Using Slab Decomposition

     bravais-lattice index     =            0
     lattice parameter (alat)  =       1.8897  a.u.
     unit-cell volume          =    6658.9804 (a.u.)^3
     number of atoms/cell      =           54
     number of atomic types    =            5
     number of electrons       =       392.00
     number of Kohn-Sham states=          206
     kinetic-energy cutoff     =      29.3995  Ry
     charge density cutoff     =     293.9946  Ry
     scf convergence threshold =      7.3E-08
     mixing beta               =       0.0500
     number of iterations used =            8  plain     mixing
     Exchange-correlation= BEEF-VDW
                           (   1   4  43  14   2   0   0)

     celldm(1)=   1.889726  celldm(2)=   0.000000  celldm(3)=   0.000000
     celldm(4)=   0.000000  celldm(5)=   0.000000  celldm(6)=   0.000000

     crystal axes: (cart. coord. in units of alat)
               a(1) = (   6.579727   0.000000   0.000000 )
               a(2) = (  -0.000775   5.961596   0.000000 )
               a(3) = (   0.000000   0.000000  25.155947 )

     reciprocal axes: (cart. coord. in units 2 pi/alat)
               b(1) = (  0.151982  0.000020  0.000000 )
               b(2) = (  0.000000  0.167740  0.000000 )
               b(3) = (  0.000000  0.000000  0.039752 )

     PseudoPot. # 1 for Ti read from file:
     /storage/coda1/p-amedford6/0/shared/rich_project_chbe-medford/medford-share/data/pseudos_module/espresso/nninc/pbe/van/Ti.UPF
     MD5 check sum: 8e4df49b7f0d34bbd5052bf3f5ea0213
     Pseudo is Ultrasoft, Zval = 12.0
     Generated by new atomic code, or converted to UPF format
     Using radial grid of  851 points,  6 beta functions with:
                l(1) =   0
                l(2) =   0
                l(3) =   1
                l(4) =   1
                l(5) =   2
                l(6) =   2
     Q(r) pseudized with  8 coefficients,  rinner =    1.000   1.000   1.000
                                                       1.000   1.000

     PseudoPot. # 2 for O  read from file:
     /storage/coda1/p-amedford6/0/shared/rich_project_chbe-medford/medford-share/data/pseudos_module/espresso/nninc/pbe/van/O.UPF
     MD5 check sum: 78c19812648e8988a0fe644b0f25305e
     Pseudo is Ultrasoft, Zval =  6.0
     Generated by new atomic code, or converted to UPF format
     Using radial grid of  737 points,  4 beta functions with:
                l(1) =   0
                l(2) =   0
                l(3) =   1
                l(4) =   1
     Q(r) pseudized with  8 coefficients,  rinner =    0.800   0.800   0.800

     PseudoPot. # 3 for N  read from file:
     /storage/coda1/p-amedford6/0/shared/rich_project_chbe-medford/medford-share/data/pseudos_module/espresso/nninc/pbe/van/N.UPF
     MD5 check sum: 90d10febe142ad51ac9d5be1deb811c4
     Pseudo is Ultrasoft, Zval =  5.0
     Generated by new atomic code, or converted to UPF format
     Using radial grid of  729 points,  4 beta functions with:
                l(1) =   0
                l(2) =   0
                l(3) =   1
                l(4) =   1
     Q(r) pseudized with  8 coefficients,  rinner =    0.800   0.800   0.800

     PseudoPot. # 4 for C  read from file:
     /storage/coda1/p-amedford6/0/shared/rich_project_chbe-medford/medford-share/data/pseudos_module/espresso/nninc/pbe/van/C.UPF
     MD5 check sum: 1a69bf6b8db32088f5b2163dbdb77a27
     Pseudo is Ultrasoft, Zval =  4.0
     Generated by new atomic code, or converted to UPF format
     Using radial grid of  721 points,  4 beta functions with:
                l(1) =   0
                l(2) =   0
                l(3) =   1
                l(4) =   1
     Q(r) pseudized with  8 coefficients,  rinner =    0.800   0.800   0.800

     PseudoPot. # 5 for H  read from file:
     /storage/coda1/p-amedford6/0/shared/rich_project_chbe-medford/medford-share/data/pseudos_module/espresso/nninc/pbe/van/H.UPF
     MD5 check sum: b5ee9d7bfd3a09ee7748110bda690ff7
     Pseudo is Ultrasoft, Zval =  1.0
     Generated by new atomic code, or converted to UPF format
     Using radial grid of  615 points,  1 beta functions with:
                l(1) =   0
     Q(r) pseudized with  8 coefficients,  rinner =    0.800

     atomic species   valence    mass     pseudopotential
        Ti1           12.00    47.86700     Ti( 1.00)
        O1             6.00    15.99900     O ( 1.00)
        N1             5.00    14.00700     N ( 1.00)
        C1             4.00    12.01100     C ( 1.00)
        H1             1.00     1.00800     H ( 1.00)

     Starting magnetic structure
     atomic species   magnetization
        Ti1          0.000
        O1           0.000
        N1           0.000
        C1           0.025
        H1           0.000

     No symmetry found

   Cartesian axes

     site n.     atom                  positions (alat units)
         1           Ti1 tau(   1) = (   0.0004258   2.9801865   6.0000000  )
         2           Ti1 tau(   2) = (   3.2906075   1.4906267   6.0002472  )
         3           O1  tau(   3) = (   0.0006271   0.0005054   7.9858123  )
         4           O1  tau(   4) = (   3.2906025   0.0005020   7.3038282  )
         5           O1  tau(   5) = (   4.5942328   1.4918067   9.2879030  )
         6           O1  tau(   6) = (   1.9868534   1.4903216   9.2879459  )
         7           Ti1 tau(   7) = (   3.2907910   2.8959150   9.1758416  )
         8           Ti1 tau(   8) = (   0.0015273   1.4827037   9.2680791  )
         9           O1  tau(   9) = (   3.2893523   5.9576907  11.3759447  )
        10           O1  tau(  10) = (   0.0116148   5.9584955  10.6183126  )
        11           O1  tau(  11) = (   1.2892553   1.4862333  12.6941169  )
        12           O1  tau(  12) = (   5.2958346   1.4833122  12.6807028  )
        13           Ti1 tau(  13) = (   0.0095698   2.9692159  12.5083673  )
        14           Ti1 tau(  14) = (   3.3108451   1.4743585  12.5306019  )
        15           O1  tau(  15) = (   6.5736105   5.8801748  14.6991865  )
        16           O1  tau(  16) = (   3.2979610   5.9450902  14.0010558  )
        17           O1  tau(  17) = (   4.5273680   1.5185660  16.1654609  )
        18           O1  tau(  18) = (   2.0122787   1.5163527  16.1384539  )
        19           Ti1 tau(  19) = (   3.2802752   2.9921964  15.7561315  )
        20           Ti1 tau(  20) = (   0.0093588   1.3049760  15.8672178  )
        21           O1  tau(  21) = (   3.2904802   0.0005063   4.7018136  )
        22           O1  tau(  22) = (   6.5538635   0.1342075  17.2452287  )
        23           O1  tau(  23) = (   1.3043587   1.4918075   6.0039043  )
        24           O1  tau(  24) = (   5.2767064   1.4903225   6.0039473  )
        25           Ti1 tau(  25) = (   0.0000382   5.9609847   6.0000000  )
        26           Ti1 tau(  26) = (   3.2902200   4.4714249   6.0002472  )
        27           O1  tau(  27) = (   0.0002396   2.9813036   7.9858123  )
        28           O1  tau(  28) = (   3.2902150   2.9813002   7.3038282  )
        29           O1  tau(  29) = (   4.5938453   4.4726049   9.2879030  )
        30           O1  tau(  30) = (   1.9864658   4.4711199   9.2879459  )
        31           Ti1 tau(  31) = (   3.2891106   5.8743827   9.1763621  )
        32           Ti1 tau(  32) = (   0.0006254   4.4649316   9.2693709  )
        33           O1  tau(  33) = (   3.2933707   2.9638296  11.3700534  )
        34           O1  tau(  34) = (   0.0092240   2.9805883  10.6323155  )
        35           O1  tau(  35) = (   1.2923283   4.4540072  12.6594629  )
        36           O1  tau(  36) = (   5.2938616   4.4568750  12.6477176  )
        37           Ti1 tau(  37) = (   0.0202681   5.9396231  12.5027719  )
        38           Ti1 tau(  38) = (   3.3116628   4.4527548  12.5215617  )
        39           O1  tau(  39) = (   6.5466975   3.0260875  14.9671898  )
        40           O1  tau(  40) = (   3.2966604   2.9917109  13.9679302  )
        41           O1  tau(  41) = (   4.5116687   4.4737236  16.2360857  )
        42           O1  tau(  42) = (   2.0028912   4.4646324  16.2202640  )
        43           Ti1 tau(  43) = (   3.2937213   0.0113368  15.7972781  )
        44           Ti1 tau(  44) = (   0.0208052   4.5175143  16.0574476  )
        45           O1  tau(  45) = (   3.2900926   2.9813045   4.7018136  )
        46           O1  tau(  46) = (   1.3039711   4.4726057   6.0039043  )
        47           O1  tau(  47) = (   5.2763189   4.4711207   6.0039473  )
        48           N1  tau(  48) = (   6.3337458   3.3624127  18.1170434  )
        49           C1  tau(  49) = (   0.8795605   3.2639204  19.0799812  )
        50           H1  tau(  50) = (   1.4196110   4.2071110  19.0760701  )
        51           H1  tau(  51) = (   0.5395241   3.0459488  20.0957609  )
        52           H1  tau(  52) = (   1.5475163   2.4696122  18.7548312  )
        53           H1  tau(  53) = (   5.6940081   4.0973896  18.4182617  )
        54           H1  tau(  54) = (   5.7906660   2.4998151  18.1411682  )

     number of k points=    10  Fermi-Dirac smearing, width (Ry)=  0.0073
                       cart. coord. in units 2pi/alat
        k(    1) = (   0.0000000   0.0000000   0.0000000), wk =   0.0625000
        k(    2) = (   0.0000000   0.0419351   0.0000000), wk =   0.1250000
        k(    3) = (   0.0000000  -0.0838702   0.0000000), wk =   0.0625000
        k(    4) = (   0.0379955   0.0000049   0.0000000), wk =   0.1250000
        k(    5) = (   0.0379955   0.0419400   0.0000000), wk =   0.1250000
        k(    6) = (   0.0379955  -0.0838652   0.0000000), wk =   0.1250000
        k(    7) = (   0.0379955  -0.0419301   0.0000000), wk =   0.1250000
[...]
        k(    9) = (  -0.0759910   0.0419252   0.0000000), wk =   0.1250000
        k(   10) = (  -0.0759910  -0.0838800   0.0000000), wk =   0.0625000

     Initial potential from superposition of free atoms

     starting charge  375.99915, renormalised to  392.00000

     negative rho (up, down):  8.112E-03 8.118E-03

     %%%%%%%%%%%%%%%%%%%%%%%%%%%%%%%%%%%%%%%%%%%%%%%%%%%%%%%%%%%%%%%%%%%%%%%%
     %                                                                      %
     % You are using vdW-DF, which was implemented by the Thonhauser group. %
     % Please cite the following two papers that made this development      %
     % possible and the two reviews that describe the various versions:     %
     %                                                                      %
     %   T. Thonhauser et al., PRL 115, 136402 (2015).                      %
     %   T. Thonhauser et al., PRB 76, 125112 (2007).                       %
     %   K. Berland et al., Rep. Prog. Phys. 78, 066501 (2015).             %
     %   D.C. Langreth et al., J. Phys.: Condens. Matter 21, 084203 (2009). %
     %                                                                      %
     %                                                                      %
     % If you are calculating the stress with vdW-DF, please also cite:     %
     %                                                                      %
     %   R. Sabatini et al., J. Phys.: Condens. Matter 24, 424209 (2012).   %
     %                                                                      %
     %%%%%%%%%%%%%%%%%%%%%%%%%%%%%%%%%%%%%%%%%%%%%%%%%%%%%%%%%%%%%%%%%%%%%%%%

     Adding external electric field

     Computed dipole along edir(3) :
        Dipole               -7.5430 Ry au,        -19.1725 Debye
        Dipole field         -0.0142 Ry au,

        Potential amp.        1.3195 Ry
        Total length         46.3494 bohr

[...]

     Starting wfcs are  297 atomic wfcs
  @ DRIVER MODE: Message from server: STATUS
  @ DRIVER MODE: Message from server: POSDATA
  @ DRIVER MODE: Reading and sharing cell
  @ DRIVER MODE: Reading and sharing positions
  @ DRIVER MODE: Received positions

     Self-consistent Calculation

     iteration #  1     ecut=    29.40 Ry     beta= 0.05
     Davidson diagonalization with overlap
     c_bands:  1 eigenvalues not converged
     c_bands:  2 eigenvalues not converged
     c_bands:  1 eigenvalues not converged
     c_bands:  1 eigenvalues not converged
     c_bands:  1 eigenvalues not converged
     c_bands:  1 eigenvalues not converged
     c_bands:  1 eigenvalues not converged
     c_bands:  2 eigenvalues not converged
     c_bands:  1 eigenvalues not converged
     c_bands:  1 eigenvalues not converged
     c_bands:  1 eigenvalues not converged
     c_bands:  1 eigenvalues not converged
     ethr =  1.00E-05,  avg # of iterations = 19.6

[...]

     total energy              =   -2679.37972748 Ry
     estimated scf accuracy    <    2680.80844093 Ry

     total magnetization       =     0.00 Bohr mag/cell
     absolute magnetization    =     0.01 Bohr mag/cell

[...]

     iteration #  3     ecut=    29.40 Ry     beta= 0.05
     Davidson diagonalization with overlap
     ethr =  1.00E-02,  avg # of iterations = 15.2

[...]

     iteration #105     ecut=    29.40 Ry     beta= 0.05
     Davidson diagonalization with overlap
     c_bands:  1 eigenvalues not converged
     ethr =  2.00E-11,  avg # of iterations = 13.7

[...]

     total energy              =   -2921.63320732 Ry
     estimated scf accuracy    <       0.00000007 Ry

[...]

     iteration #106     ecut=    29.40 Ry     beta= 0.05
     Davidson diagonalization with overlap
     ethr =  1.88E-11,  avg # of iterations = 13.8

     negative rho (up, down):  8.574E-03 8.571E-03

[...]

     Adding external electric field

     Computed dipole along edir(3) :
        Dipole                1.3069 Ry au,          3.3217 Debye
        Dipole field          0.0025 Ry au,

        Potential amp.       -0.2286 Ry
        Total length         46.3494 bohr

     Magnetic moment per site  (integrated on atomic sphere of radius R)
     atom   1 (R=0.738)  charge=  8.0426  magn= -0.0170
     atom   2 (R=0.738)  charge=  8.0243  magn= -0.0008
     atom   3 (R=0.738)  charge=  5.0120  magn=  0.0017
     atom   4 (R=0.738)  charge=  5.0490  magn=  0.0002
     atom   5 (R=0.738)  charge=  5.0182  magn=  0.0003
     atom   6 (R=0.738)  charge=  5.0186  magn=  0.0003
     atom   7 (R=0.738)  charge=  8.0244  magn= -0.0010
     atom   8 (R=0.738)  charge=  8.0256  magn= -0.0116
     atom   9 (R=0.738)  charge=  5.0259  magn= -0.0001
     atom  10 (R=0.738)  charge=  5.0261  magn=  0.0006
     atom  11 (R=0.738)  charge=  5.0131  magn=  0.0001
     atom  12 (R=0.738)  charge=  5.0142  magn=  0.0001
     atom  13 (R=0.738)  charge=  8.0323  magn= -0.0023
     atom  14 (R=0.738)  charge=  8.0300  magn=  0.0006
     atom  15 (R=0.738)  charge=  5.0263  magn=  0.0001
     atom  16 (R=0.738)  charge=  5.0222  magn= -0.0005
     atom  17 (R=0.738)  charge=  4.9995  magn= -0.0004
     atom  18 (R=0.738)  charge=  5.0035  magn= -0.0004
     atom  19 (R=0.738)  charge=  8.0638  magn=  0.0066
     atom  20 (R=0.738)  charge=  8.0764  magn=  0.0011
     atom  21 (R=0.738)  charge=  4.8972  magn=  0.0007
     atom  22 (R=0.738)  charge=  4.9760  magn= -0.0002
     atom  23 (R=0.738)  charge=  5.0093  magn=  0.0018
     atom  24 (R=0.738)  charge=  5.0095  magn=  0.0018
     atom  25 (R=0.738)  charge=  8.0427  magn= -0.0169
     atom  26 (R=0.738)  charge=  8.0244  magn= -0.0008
     atom  27 (R=0.738)  charge=  5.0118  magn=  0.0018
     atom  28 (R=0.738)  charge=  5.0493  magn=  0.0002
     atom  29 (R=0.738)  charge=  5.0191  magn=  0.0003
     atom  30 (R=0.738)  charge=  5.0193  magn=  0.0003
     atom  31 (R=0.738)  charge=  8.0246  magn= -0.0011
     atom  32 (R=0.738)  charge=  8.0257  magn= -0.0118
     atom  33 (R=0.738)  charge=  5.0254  magn= -0.0001
     atom  34 (R=0.738)  charge=  5.0228  magn=  0.0007
     atom  35 (R=0.738)  charge=  5.0162  magn=  0.0001
     atom  36 (R=0.738)  charge=  5.0179  magn=  0.0001
     atom  37 (R=0.738)  charge=  8.0280  magn= -0.0022
     atom  38 (R=0.738)  charge=  8.0303  magn=  0.0007
     atom  39 (R=0.738)  charge=  5.0062  magn= -0.0001
     atom  40 (R=0.738)  charge=  5.0343  magn= -0.0004
     atom  41 (R=0.738)  charge=  4.9975  magn= -0.0005
     atom  42 (R=0.738)  charge=  5.0021  magn= -0.0005
     atom  43 (R=0.738)  charge=  8.0613  magn=  0.0069
     atom  44 (R=0.738)  charge=  8.0413  magn=  0.0024
     atom  45 (R=0.738)  charge=  4.8972  magn=  0.0006
     atom  46 (R=0.738)  charge=  5.0093  magn=  0.0018
     atom  47 (R=0.738)  charge=  5.0095  magn=  0.0018
     atom  48 (R=0.421)  charge=  1.3455  magn= -0.0000
     atom  49 (R=0.448)  charge=  0.8436  magn=  0.0000
     atom  50 (R=0.421)  charge=  0.4465  magn=  0.0000
     atom  51 (R=0.421)  charge=  0.4474  magn=  0.0000
     atom  52 (R=0.421)  charge=  0.4466  magn=  0.0000
     atom  53 (R=0.421)  charge=  0.4507  magn=  0.0000
     atom  54 (R=0.421)  charge=  0.4526  magn=  0.0000

     End of self-consistent calculation

 ------ SPIN UP ------------

          k = 0.0000 0.0000 0.0000 ( 18029 PWs)   bands (ev):

   -55.4289 -55.3924 -55.3630 -55.3532 -55.3289 -55.3174 -55.3048 -55.2703
   -55.2466 -55.2380 -55.2122 -55.1996 -55.1659 -55.1119 -54.4073 -54.3732
   -31.9978 -31.8838 -31.8644 -31.7941 -31.7463 -31.7431 -31.7362 -31.7044
   -31.6720 -31.6495 -31.6405 -31.6379 -31.6143 -31.6058 -31.5990 -31.5980
   -31.5845 -31.5687 -31.5663 -31.5413 -31.5245 -31.5131 -31.5068 -31.4855
   -31.4828 -31.4815 -31.4774 -31.4492 -31.4353 -31.4234 -31.4172 -31.4134
   -31.4083 -31.3983 -31.3943 -31.3910 -31.3603 -31.3596 -31.3267 -31.3189
   -31.3103 -31.2945 -30.8168 -30.7220 -30.7001 -30.6328 -30.5460 -30.4355
   -16.2870 -16.1508 -15.9701 -15.8224 -15.7443 -15.6276 -15.5117 -15.4950
   -15.3592 -15.2777 -15.1578 -15.1327 -15.1137 -15.0905 -15.0793 -15.0632
   -14.9723 -14.9672 -14.9526 -14.9224 -14.9194 -14.8748 -14.8667 -14.8250
   -14.8047 -14.8031 -14.6786 -14.5874 -14.5152 -14.2758 -12.9112 -12.7938
   -10.2352  -6.2667  -4.8271  -3.9403  -3.6025  -3.4480  -3.3576  -3.3316
    -3.3185  -3.1834  -3.0394  -2.9002  -2.8416  -2.8382  -2.7153  -2.6418
    -2.6323  -2.6127  -2.4574  -2.4259  -2.3833  -2.3364  -2.2919  -2.2369
    -2.2189  -2.2127  -2.1973  -2.1760  -2.1654  -2.0488  -1.9954  -1.9114
    -1.8538  -1.8314  -1.7810  -1.7593  -1.7383  -1.7170  -1.7065  -1.6632
    -1.6532  -1.6220  -1.5673  -1.4555  -1.3574  -1.3043  -1.1871  -1.0648
    -1.0247  -1.0121  -0.9779  -0.9333  -0.9142  -0.8511  -0.8041  -0.7760
    -0.7471  -0.6589  -0.5955  -0.5473  -0.4763  -0.4643  -0.4148  -0.3615
    -0.2492  -0.2102  -0.1956  -0.1709  -0.0766  -0.0404   0.0045   0.0873
     0.0977   0.1135   0.2122   0.2265   0.2970   0.3432   0.3600   0.4532
     0.4908   0.5011   0.5066   0.5306   0.5564   0.6086   0.6466   0.6742
     0.7450   0.8700   1.0857   1.1599   1.1848   1.5107   1.5201   1.6145
     1.7979   2.1901   2.2390   3.6808   3.7438   3.8270   3.8281   3.8359
     3.9142   4.1437   4.1668   4.1775   4.1870   4.2023

[...]

          k =-0.0760-0.0000 0.0000 ( 17886 PWs)   bands (ev):

[...]

 ------ SPIN DOWN ----------

[...]

          k = 0.0380-0.0419 0.0000 ( 17876 PWs)   bands (ev):

[...]

          k =-0.0760-0.0839 0.0000 ( 17948 PWs)   bands (ev):

   -55.4126 -55.4061 -55.3760 -55.3753 -55.3474 -55.3014 -55.2931 -55.2895
   -55.2330 -55.2301 -55.2292 -55.2030 -55.2021 -55.1113 -54.3918 -54.3915
   -31.8026 -31.7992 -31.7978 -31.7109 -31.6920 -31.6915 -31.6866 -31.6693
   -31.6688 -31.6382 -31.6308 -31.6259 -31.6195 -31.5934 -31.5819 -31.5711
   -31.5661 -31.5621 -31.5618 -31.5547 -31.5522 -31.5509 -31.5157 -31.5119
   -31.5038 -31.5013 -31.4982 -31.4975 -31.4960 -31.4861 -31.4817 -31.4661
   -31.4623 -31.4464 -31.4426 -31.4313 -31.4284 -31.4189 -31.3843 -31.3838
   -31.3726 -31.3209 -30.7146 -30.7143 -30.6302 -30.6300 -30.5910 -30.5908
   -16.1156 -15.7725 -15.6821 -15.6346 -15.4604 -15.4311 -15.4154 -15.4003
   -15.2674 -15.2501 -15.2263 -15.1973 -15.1752 -15.1407 -15.1307 -15.1283
   -15.0488 -15.0349 -15.0278 -15.0122 -14.9455 -14.9359 -14.9334 -14.9261
   -14.8749 -14.8714 -14.8096 -14.7795 -14.7765 -14.5671 -12.8940 -12.8937
   -10.2384  -6.2370  -4.8248  -3.9003  -2.9563  -2.9388  -2.8896  -2.8852
    -2.6777  -2.6352  -2.5998  -2.5746  -2.4849  -2.4449  -2.4291  -2.4217
    -2.3501  -2.3332  -2.3153  -2.2705  -2.2642  -2.2507  -2.2286  -2.1986
    -2.1765  -2.1574  -2.1480  -2.1288  -2.0826  -2.0715  -2.0480  -2.0321
    -2.0289  -2.0114  -1.9831  -1.9367  -1.8097  -1.8016  -1.7341  -1.6349
    -1.6301  -1.5538  -1.5421  -1.5072  -1.4803  -1.4602  -1.4208  -1.2450
    -1.2013  -1.1744  -1.1648  -1.1143  -1.0433  -1.0200  -0.9508  -0.9342
    -0.9156  -0.8118  -0.7672  -0.7532  -0.6659  -0.6500  -0.5722  -0.5225
    -0.4634  -0.4373  -0.4047  -0.3836  -0.3811  -0.3346  -0.3265  -0.2455
    -0.1990  -0.1617  -0.1481  -0.1184   0.0778   0.0885   0.1158   0.2563
     0.2837   0.4080   0.4427   0.4942   0.5694   0.6017   0.6841   0.7195
     0.8485   0.8789   0.8808   0.9528   0.9641   1.0258   1.0354   1.9717
     1.9723   2.0593   2.0597   3.8326   3.9095   3.9308   3.9725   4.0854
     4.1590   4.1792   4.2009   4.2499   4.2524   4.3103

     the Fermi energy is     3.7336 ev

!    total energy              =   -2921.63320812 Ry
     estimated scf accuracy    <       0.00000007 Ry
     smearing contrib. (-TS)   =      -0.03705555 Ry
     internal energy E=F+TS    =   -2921.59615258 Ry

     The total energy is F=E-TS. E is the sum of the following terms:
     one-electron contribution =  -24031.12809999 Ry
     hartree contribution      =   12104.69923722 Ry
     xc contribution           =    -481.74445141 Ry
     ewald contribution        =    9486.57393865 Ry
     electric field correction =       0.00322296 Ry

     total magnetization       =    -0.06 Bohr mag/cell
     absolute magnetization    =     0.15 Bohr mag/cell

     convergence has been achieved in 106 iterations

     Forces acting on atoms (cartesian axes, Ry/au):

     atom    1 type  1   force =     0.00003439   -0.00022007    0.09328948
     atom    2 type  1   force =    -0.00018525   -0.00036620   -0.17831430
     atom    3 type  2   force =     0.00002847   -0.00039635   -0.02019742
     atom    4 type  2   force =    -0.00002802   -0.00194873    0.05880376
     atom    5 type  2   force =    -0.01020645   -0.00111926    0.00778099
     atom    6 type  2   force =     0.01167993   -0.00040030    0.00694554
     atom    7 type  1   force =    -0.00048742    0.00209782   -0.01459024
     atom    8 type  1   force =     0.00023958   -0.00049603   -0.00481666
     atom    9 type  2   force =     0.00015056    0.00011686   -0.00005542
     atom   10 type  2   force =    -0.00113551    0.00137651    0.00054415
     atom   11 type  2   force =    -0.00010237    0.00015936    0.00006217
     atom   12 type  2   force =    -0.00003249    0.00036617    0.00023483
     atom   13 type  1   force =    -0.00004206   -0.00019130   -0.00017250
     atom   14 type  1   force =    -0.00015081    0.00011223    0.00029033
     atom   15 type  2   force =    -0.00022668   -0.00011875    0.00001606
     atom   16 type  2   force =    -0.00022511    0.00019907    0.00019015
     atom   17 type  2   force =     0.00006842   -0.00015174    0.00007316
     atom   18 type  2   force =    -0.00004796   -0.00019087    0.00023636
     atom   19 type  1   force =    -0.00025778    0.00034768    0.00031521
     atom   20 type  1   force =    -0.00005612    0.00003352   -0.00048364
     atom   21 type  2   force =     0.00002997   -0.00006269    0.10391722
     atom   22 type  2   force =     0.00028158    0.00039121    0.00021947
     atom   23 type  2   force =    -0.07041521   -0.00015227   -0.02692467
     atom   24 type  2   force =     0.07025248    0.00028987   -0.02697007
     atom   25 type  1   force =    -0.00001020   -0.00014671    0.09281679
     atom   26 type  1   force =    -0.00020737   -0.00048790   -0.17833503
     atom   27 type  2   force =     0.00008640   -0.00026654   -0.01926546
     atom   28 type  2   force =     0.00004281   -0.00171481    0.05814379
     atom   29 type  2   force =    -0.01072839   -0.00111510    0.00833961
     atom   30 type  2   force =     0.01207432   -0.00083788    0.00746384
     atom   31 type  1   force =    -0.00039986    0.00594155   -0.01547117
     atom   32 type  1   force =     0.00022800   -0.00003984   -0.00519471
     atom   33 type  2   force =    -0.00007795    0.00001278    0.00009054
     atom   34 type  2   force =    -0.00101392   -0.00248415   -0.00000047
     atom   35 type  2   force =    -0.00005840    0.00023870   -0.00005884
     atom   36 type  2   force =    -0.00012296    0.00009259    0.00000527
     atom   37 type  1   force =    -0.00002664    0.00005902   -0.00019865
     atom   38 type  1   force =    -0.00006883    0.00000317    0.00010169
     atom   39 type  2   force =     0.00023275   -0.00003932   -0.00000786
     atom   40 type  2   force =    -0.00030422    0.00023998   -0.00003273
     atom   41 type  2   force =    -0.00002765    0.00054865   -0.00004847
     atom   42 type  2   force =    -0.00001697    0.00014954    0.00037757
     atom   43 type  1   force =    -0.00027654    0.00024925   -0.00002449
     atom   44 type  1   force =     0.00000367   -0.00034442   -0.00056942
     atom   45 type  2   force =     0.00001977   -0.00007257    0.10389024
     atom   46 type  2   force =    -0.07038713   -0.00010145   -0.02687438
     atom   47 type  2   force =     0.07023571    0.00032556   -0.02692457
     atom   48 type  3   force =     0.00100816    0.00122481    0.00968803
     atom   49 type  4   force =    -0.00168916   -0.00023729   -0.00468210
     atom   50 type  5   force =     0.00046774    0.00095745   -0.00020812
     atom   51 type  5   force =    -0.00108850    0.00033161   -0.00141989
     atom   52 type  5   force =     0.00026526   -0.00036241    0.00023489
     atom   53 type  5   force =     0.00219875   -0.00211127   -0.00097057
     atom   54 type  5   force =     0.00047519    0.00031127   -0.00125931

     Total force =     0.366400     Total SCF correction =     0.000313
  @ DRIVER MODE: Message from server: STATUS
  @ DRIVER MODE: Message from server: GETFORCE
  @ DRIVER MODE: Returning v,forces,stress,ensemble

     Writing output data file ./calc.save/
  @ DRIVER MODE: Message from server: EXIT
  @ DRIVE MODE: Exiting

     General routines

     Parallel routines

   This run was terminated on:   5:28:32  20Jul2021

   JOB DONE.