     Program PWSCF v.6.7GPU starts on 28Sep2021 at  8:38: 1

     R & G space division:  proc/nbgrp/npool/nimage =       8
     Reading input from /storage/home/hcoda1/3/ntian30/research/carbon/CxH_vib/CH_calc/ads_slab/CHONH_a/out_0027/pw.inp
Warning: card &CELL ignored
Warning: card   CELL_DYNAMICS='IPI', ignored
Warning: card / ignored

     Current dimensions of program PWSCF are:
     Max number of different atomic species (ntypx) = 10
     Max number of k-points (npk) =  40000
     Max angular momentum in pseudopotentials (lmaxx) =  3
     Presently no symmetry can be used with electric field

     Message from routine cell_base_init:
     DEPRECATED: use true lattice parameter, not A to a.u. conversion factor

     IMPORTANT: XC functional enforced from input :
     Exchange-correlation= BEEF-VDW
                           (   1   4  43  14   2   0   0)
     Any further DFT definition will be discarded
     Please, verify this is what you really want

  @ DRIVER MODE: Connecting to
 qe_1139763_3003539.sched-torque.pace.gatech.edu7ta602hg_scratch
  using UNIX socket
  @ DRIVER MODE: Message from server: STATUS
  @ DRIVER MODE: Message from server: INIT
  @ DRIVER MODE: Receiving replica           0          -1
  @ DRIVER MODE: Receiving encoded integer          25
  @ DRIVER MODE:  SCF:  T  FORCE:  T  STRESS:  F  VC:  F  ENSEMBLE:  F
  @ DRIVER MODE:  SCF:  T  FORCE:  T  STRESS:  F  VC:  F  ENSEMBLE:  F

     Using Slab Decomposition

     bravais-lattice index     =            0
     lattice parameter (alat)  =       1.8897  a.u.
     unit-cell volume          =    6658.9804 (a.u.)^3
     number of atoms/cell      =           52
     number of atomic types    =            5
     number of electrons       =       395.00
     number of Kohn-Sham states=          207
     kinetic-energy cutoff     =      29.3995  Ry
     charge density cutoff     =     293.9946  Ry
     scf convergence threshold =      7.3E-08
     mixing beta               =       0.0500
     number of iterations used =            8  plain     mixing
     Exchange-correlation= BEEF-VDW
                           (   1   4  43  14   2   0   0)

     celldm(1)=   1.889726  celldm(2)=   0.000000  celldm(3)=   0.000000
     celldm(4)=   0.000000  celldm(5)=   0.000000  celldm(6)=   0.000000

     crystal axes: (cart. coord. in units of alat)
               a(1) = (   6.579727   0.000000   0.000000 )
               a(2) = (  -0.000775   5.961596   0.000000 )
               a(3) = (   0.000000   0.000000  25.155947 )

     reciprocal axes: (cart. coord. in units 2 pi/alat)
               b(1) = (  0.151982  0.000020  0.000000 )
               b(2) = (  0.000000  0.167740  0.000000 )
               b(3) = (  0.000000  0.000000  0.039752 )

     PseudoPot. # 1 for O  read from file:
     /storage/coda1/p-amedford6/0/shared/rich_project_chbe-medford/medford-share/data/pseudos_module/espresso/nninc/pbe/van/O.UPF
     MD5 check sum: 78c19812648e8988a0fe644b0f25305e
     Pseudo is Ultrasoft, Zval =  6.0
     Generated by new atomic code, or converted to UPF format
     Using radial grid of  737 points,  4 beta functions with:
                l(1) =   0
                l(2) =   0
                l(3) =   1
                l(4) =   1
     Q(r) pseudized with  8 coefficients,  rinner =    0.800   0.800   0.800

     PseudoPot. # 2 for Ti read from file:
     /storage/coda1/p-amedford6/0/shared/rich_project_chbe-medford/medford-share/data/pseudos_module/espresso/nninc/pbe/van/Ti.UPF
     MD5 check sum: 8e4df49b7f0d34bbd5052bf3f5ea0213
     Pseudo is Ultrasoft, Zval = 12.0
     Generated by new atomic code, or converted to UPF format
     Using radial grid of  851 points,  6 beta functions with:
                l(1) =   0
                l(2) =   0
                l(3) =   1
                l(4) =   1
                l(5) =   2
                l(6) =   2
     Q(r) pseudized with  8 coefficients,  rinner =    1.000   1.000   1.000
                                                       1.000   1.000

     PseudoPot. # 3 for N  read from file:
     /storage/coda1/p-amedford6/0/shared/rich_project_chbe-medford/medford-share/data/pseudos_module/espresso/nninc/pbe/van/N.UPF
     MD5 check sum: 90d10febe142ad51ac9d5be1deb811c4
     Pseudo is Ultrasoft, Zval =  5.0
     Generated by new atomic code, or converted to UPF format
     Using radial grid of  729 points,  4 beta functions with:
                l(1) =   0
                l(2) =   0
                l(3) =   1
                l(4) =   1
     Q(r) pseudized with  8 coefficients,  rinner =    0.800   0.800   0.800

     PseudoPot. # 4 for H  read from file:
     /storage/coda1/p-amedford6/0/shared/rich_project_chbe-medford/medford-share/data/pseudos_module/espresso/nninc/pbe/van/H.UPF
     MD5 check sum: b5ee9d7bfd3a09ee7748110bda690ff7
     Pseudo is Ultrasoft, Zval =  1.0
     Generated by new atomic code, or converted to UPF format
     Using radial grid of  615 points,  1 beta functions with:
                l(1) =   0
     Q(r) pseudized with  8 coefficients,  rinner =    0.800

     PseudoPot. # 5 for C  read from file:
     /storage/coda1/p-amedford6/0/shared/rich_project_chbe-medford/medford-share/data/pseudos_module/espresso/nninc/pbe/van/C.UPF
     MD5 check sum: 1a69bf6b8db32088f5b2163dbdb77a27
     Pseudo is Ultrasoft, Zval =  4.0
     Generated by new atomic code, or converted to UPF format
     Using radial grid of  721 points,  4 beta functions with:
                l(1) =   0
                l(2) =   0
                l(3) =   1
                l(4) =   1
     Q(r) pseudized with  8 coefficients,  rinner =    0.800   0.800   0.800

     atomic species   valence    mass     pseudopotential
        O1             6.00    15.99900     O ( 1.00)
        Ti1           12.00    47.86700     Ti( 1.00)
        N1             5.00    14.00700     N ( 1.00)
        H1             1.00     1.00800     H ( 1.00)
        C1             4.00    12.01100     C ( 1.00)

     No symmetry found

   Cartesian axes

     site n.     atom                  positions (alat units)
         1           O1  tau(   1) = (   3.2904802   0.0005063   4.7018136  )
         2           O1  tau(   2) = (   3.2900926   2.9813045   4.7018136  )
         3           Ti1 tau(   3) = (   0.0004258   2.9801865   6.0000000  )
         4           Ti1 tau(   4) = (   0.0000382   5.9609847   6.0000000  )
         5           Ti1 tau(   5) = (   3.2906075   1.4906267   6.0002472  )
         6           Ti1 tau(   6) = (   3.2902200   4.4714249   6.0002472  )
         7           O1  tau(   7) = (   1.3043587   1.4918075   6.0039043  )
         8           O1  tau(   8) = (   1.3039711   4.4726057   6.0039043  )
         9           O1  tau(   9) = (   5.2767064   1.4903225   6.0039473  )
        10           O1  tau(  10) = (   5.2763189   4.4711207   6.0039473  )
        11           O1  tau(  11) = (   3.2906025   0.0005020   7.3038282  )
        12           O1  tau(  12) = (   3.2902150   2.9813002   7.3038282  )
        13           O1  tau(  13) = (   0.0006271   0.0005054   7.9858123  )
        14           O1  tau(  14) = (   0.0002396   2.9813036   7.9858123  )
        15           Ti1 tau(  15) = (   3.2907910   2.8959150   9.1758416  )
        16           Ti1 tau(  16) = (   3.2891106   5.8743827   9.1763621  )
        17           Ti1 tau(  17) = (   0.0015273   1.4827037   9.2680791  )
        18           Ti1 tau(  18) = (   0.0006254   4.4649316   9.2693709  )
        19           O1  tau(  19) = (   4.5942328   1.4918067   9.2879030  )
        20           O1  tau(  20) = (   4.5938453   4.4726049   9.2879030  )
        21           O1  tau(  21) = (   1.9868534   1.4903216   9.2879459  )
        22           O1  tau(  22) = (   1.9864658   4.4711199   9.2879459  )
        23           O1  tau(  23) = (   0.0116148   5.9584955  10.6183126  )
        24           O1  tau(  24) = (   0.0092240   2.9805883  10.6323155  )
        25           O1  tau(  25) = (   3.2907787   2.9729778  11.3304428  )
        26           O1  tau(  26) = (   3.2919079   5.9474133  11.3321580  )
        27           Ti1 tau(  27) = (   3.2097987   4.4572658  12.4865812  )
        28           Ti1 tau(  28) = (   3.2119315   1.4761680  12.4799496  )
        29           Ti1 tau(  29) = (   6.5264509   5.9216213  12.6328416  )
        30           O1  tau(  30) = (   5.2968352   1.4901136  12.6152109  )
        31           O1  tau(  31) = (   1.3135328   1.4919602  12.6192607  )
        32           O1  tau(  32) = (   5.3002941   4.4568025  12.6330795  )
        33           O1  tau(  33) = (   1.3069994   4.4674097  12.6333468  )
        34           Ti1 tau(  34) = (   6.5276633   2.9456522  12.5459445  )
        35           O1  tau(  35) = (   3.2998384   2.9660209  13.9106595  )
        36           O1  tau(  36) = (   3.3025942   5.9420417  13.9122833  )
        37           O1  tau(  37) = (   6.5640883   0.0415230  14.6395465  )
        38           O1  tau(  38) = (   0.0106891   2.9491072  14.6900936  )
        39           Ti1 tau(  39) = (   3.2736000   2.9502234  15.7069571  )
        40           Ti1 tau(  40) = (   3.3003751   5.9266233  15.7109206  )
        41           Ti1 tau(  41) = (   6.5634422   4.2760099  16.1499291  )
        42           O1  tau(  42) = (   2.0584629   4.4329444  16.0623798  )
        43           O1  tau(  43) = (   4.5473560   4.4405029  16.0785460  )
        44           O1  tau(  44) = (   2.0586626   1.4574935  16.0341320  )
        45           O1  tau(  45) = (   4.5465401   1.4531303  16.0599029  )
        46           Ti1 tau(  46) = (   6.5663670   1.4428561  15.8472210  )
        47           O1  tau(  47) = (   0.0528285   5.9376273  17.3175539  )
        48           N1  tau(  48) = (   2.9241058   0.2315137  18.9516947  )
        49           H1  tau(  49) = (   0.7823102   0.0278888  17.9584184  )
        50           H1  tau(  50) = (   4.9006910   1.2352932  19.1031722  )
        51           C1  tau(  51) = (   3.9482889   0.7533229  19.0539995  )
        52           O1  tau(  52) = (   0.0046524   2.9149380  17.2371169  )

     number of k points=    10  Fermi-Dirac smearing, width (Ry)=  0.0073
                       cart. coord. in units 2pi/alat
        k(    1) = (   0.0000000   0.0000000   0.0000000), wk =   0.1250000
        k(    2) = (   0.0000000   0.0419351   0.0000000), wk =   0.2500000
        k(    3) = (   0.0000000  -0.0838702   0.0000000), wk =   0.1250000
        k(    4) = (   0.0379955   0.0000049   0.0000000), wk =   0.2500000
        k(    5) = (   0.0379955   0.0419400   0.0000000), wk =   0.2500000
        k(    6) = (   0.0379955  -0.0838652   0.0000000), wk =   0.2500000
        k(    7) = (   0.0379955  -0.0419301   0.0000000), wk =   0.2500000
        k(    8) = (  -0.0759910  -0.0000099   0.0000000), wk =   0.1250000
        k(    9) = (  -0.0759910   0.0419252   0.0000000), wk =   0.2500000
        k(   10) = (  -0.0759910  -0.0838800   0.0000000), wk =   0.1250000

     Initial potential from superposition of free atoms

     starting charge  378.99918, renormalised to  395.00000

     negative rho (up, down):  1.730E-02 0.000E+00

     %%%%%%%%%%%%%%%%%%%%%%%%%%%%%%%%%%%%%%%%%%%%%%%%%%%%%%%%%%%%%%%%%%%%%%%%
     %                                                                      %
     % You are using vdW-DF, which was implemented by the Thonhauser group. %
     % Please cite the following two papers that made this development      %
     % possible and the two reviews that describe the various versions:     %
     %                                                                      %
     %   T. Thonhauser et al., PRL 115, 136402 (2015).                      %
     %   T. Thonhauser et al., PRB 76, 125112 (2007).                       %
     %   K. Berland et al., Rep. Prog. Phys. 78, 066501 (2015).             %
     %   D.C. Langreth et al., J. Phys.: Condens. Matter 21, 084203 (2009). %
     %                                                                      %
     %                                                                      %
     % If you are calculating the stress with vdW-DF, please also cite:     %
     %                                                                      %
     %   R. Sabatini et al., J. Phys.: Condens. Matter 24, 424209 (2012).   %
     %                                                                      %
     %%%%%%%%%%%%%%%%%%%%%%%%%%%%%%%%%%%%%%%%%%%%%%%%%%%%%%%%%%%%%%%%%%%%%%%%

     Adding external electric field

     Computed dipole along edir(3) :
        Dipole               -8.2751 Ry au,        -21.0333 Debye
        Dipole field         -0.0156 Ry au,

        Potential amp.        1.4476 Ry
        Total length         46.3494 bohr

     Starting wfcs are  298 atomic wfcs
  @ DRIVER MODE: Message from server: STATUS
  @ DRIVER MODE: Message from server: POSDATA
  @ DRIVER MODE: Reading and sharing cell
  @ DRIVER MODE: Reading and sharing positions
  @ DRIVER MODE: Received positions

     Self-consistent Calculation

     iteration #  1     ecut=    29.40 Ry     beta= 0.05
     Davidson diagonalization with overlap
     c_bands:  1 eigenvalues not converged
     c_bands:  1 eigenvalues not converged
     c_bands:  1 eigenvalues not converged
     c_bands:  3 eigenvalues not converged
     c_bands:  3 eigenvalues not converged
     c_bands:  2 eigenvalues not converged
     c_bands:  1 eigenvalues not converged
     ethr =  1.00E-05,  avg # of iterations = 19.3

[...]

     total energy              =   -2630.93719540 Ry
     estimated scf accuracy    <    3535.11194420 Ry

[...]

     iteration #  3     ecut=    29.40 Ry     beta= 0.05
     Davidson diagonalization with overlap
     ethr =  1.00E-02,  avg # of iterations = 14.5

[...]

     iteration # 39     ecut=    29.40 Ry     beta= 0.05
     Davidson diagonalization with overlap
     c_bands:  1 eigenvalues not converged
     c_bands:  1 eigenvalues not converged
     ethr =  2.28E-07,  avg # of iterations = 16.4

[...]

     total energy              =   -2950.31362894 Ry
     estimated scf accuracy    <       0.00000009 Ry

     iteration # 74     ecut=    29.40 Ry     beta= 0.05
     Davidson diagonalization with overlap
     ethr =  2.23E-11,  avg # of iterations =  7.6

     negative rho (up, down):  1.725E-02 0.000E+00

     Adding external electric field

     Computed dipole along edir(3) :
        Dipole                0.6435 Ry au,          1.6357 Debye
        Dipole field          0.0012 Ry au,

        Potential amp.       -0.1126 Ry
        Total length         46.3494 bohr

     End of self-consistent calculation

          k = 0.0000 0.0000 0.0000 ( 18029 PWs)   bands (ev):

   -55.9728 -55.9657 -55.9387 -55.9296 -55.8476 -55.8242 -55.8093 -55.7897
   -55.7815 -55.7475 -55.7465 -55.7126 -55.6610 -55.4595 -54.9503 -54.9162
   -32.5197 -32.4552 -32.3234 -32.3062 -32.2809 -32.2775 -32.2658 -32.2371
   -32.2156 -32.1897 -32.1806 -32.1701 -32.1454 -32.1249 -32.1167 -32.1149
   -32.1051 -32.0859 -32.0771 -32.0631 -32.0360 -32.0299 -32.0298 -31.9841
   -31.9804 -31.9779 -31.9707 -31.9698 -31.9609 -31.9484 -31.9376 -31.9216
   -31.9157 -31.9149 -31.8994 -31.8860 -31.8833 -31.8734 -31.8586 -31.7112
   -31.6906 -31.6670 -31.3574 -31.2691 -31.2467 -31.1741 -31.0876 -30.9765
   -17.0754 -16.7077 -16.4444 -16.2054 -16.1497 -16.1113 -16.0893 -15.9796
   -15.8134 -15.6935 -15.6408 -15.5400 -15.5313 -15.5088 -15.4747 -15.4589
   -15.4240 -15.4160 -15.4064 -15.3953 -15.3819 -15.3324 -15.3129 -15.2989
   -15.1974 -15.1473 -15.1075 -15.0878 -15.0294 -15.0175 -14.6482 -13.4526
   -13.3362  -7.8321  -4.8113  -4.0884  -3.9298  -3.8787  -3.8291  -3.8124
    -3.5815  -3.5231  -3.2121  -3.1575  -3.1428  -3.1234  -3.0934  -2.8814
    -2.8525  -2.7999  -2.7831  -2.7624  -2.7504  -2.7321  -2.7181  -2.6989
    -2.6685  -2.6139  -2.5283  -2.4809  -2.3943  -2.3635  -2.3448  -2.3041
    -2.2848  -2.2447  -2.2225  -2.2138  -2.2069  -2.1696  -2.1639  -2.1017
    -2.0452  -1.9964  -1.9662  -1.9027  -1.8344  -1.7696  -1.7046  -1.5800
    -1.4596  -1.4430  -1.4005  -1.3738  -1.3641  -1.2746  -1.2194  -1.1544
    -1.1266  -1.1218  -1.0379  -0.9929  -0.9509  -0.9387  -0.8498  -0.8169
    -0.7378  -0.7332  -0.7200  -0.6732  -0.4603  -0.4244  -0.3932  -0.3710
    -0.3171  -0.2579  -0.2256  -0.1900  -0.1508  -0.0924  -0.0748  -0.0293
    -0.0066   0.0012   0.0215   0.0433   0.0678   0.1832   0.2173   0.2773
     0.3105   0.3813   0.4376   0.5710   0.6163   0.6851   0.7941   0.9983
     1.0719   1.1599   1.2641   1.6432   1.6888   3.1629   3.2492   3.2950
     3.3027   3.4041   3.4077   3.6145   3.6361   3.6511   3.7060

[...]

          k = 0.0380-0.0419 0.0000 ( 17876 PWs)   bands (ev):

[...]

          k =-0.0760-0.0000 0.0000 ( 17886 PWs)   bands (ev):

[...]

          k =-0.0760-0.0839 0.0000 ( 17948 PWs)   bands (ev):

   -55.9566 -55.9548 -55.9492 -55.9459 -55.8366 -55.8201 -55.8091 -55.8047
   -55.7650 -55.7635 -55.7318 -55.7274 -55.6597 -55.4607 -54.9332 -54.9332
   -32.3248 -32.3207 -32.2709 -32.2700 -32.2516 -32.2506 -32.2326 -32.2262
   -32.1743 -32.1683 -32.1619 -32.1569 -32.1168 -32.1059 -32.1001 -32.0942
   -32.0830 -32.0807 -32.0761 -32.0741 -32.0706 -32.0656 -32.0400 -32.0315
   -32.0287 -32.0179 -32.0166 -32.0033 -31.9810 -31.9659 -31.9632 -31.9624
   -31.9593 -31.9467 -31.9427 -31.9400 -31.9368 -31.8834 -31.8778 -31.7702
   -31.7056 -31.6921 -31.2594 -31.2594 -31.1702 -31.1701 -31.1309 -31.1309
   -17.0126 -16.1636 -16.1431 -16.1295 -15.9183 -15.8934 -15.8811 -15.8755
   -15.7563 -15.6772 -15.6671 -15.6654 -15.5900 -15.5716 -15.5635 -15.5117
   -15.5041 -15.4969 -15.4855 -15.4595 -15.4338 -15.4279 -15.4093 -15.4041
   -15.3233 -15.2892 -15.2859 -15.2592 -15.1365 -15.0153 -14.8174 -13.4381
   -13.4378  -7.8302  -4.7673  -3.4339  -3.4257  -3.1714  -3.1289  -3.1214
    -3.0646  -2.9137  -2.8777  -2.8719  -2.8369  -2.8172  -2.7999  -2.7928
    -2.7809  -2.7595  -2.7341  -2.7133  -2.7045  -2.6680  -2.6420  -2.6311
    -2.6199  -2.6016  -2.5861  -2.5694  -2.5509  -2.5265  -2.5109  -2.4951
    -2.4563  -2.3123  -2.2216  -2.1740  -2.1162  -2.1031  -2.0993  -2.0871
    -2.0606  -2.0361  -2.0265  -1.9723  -1.9361  -1.8286  -1.7708  -1.7063
    -1.6698  -1.6565  -1.5824  -1.5302  -1.4694  -1.4035  -1.3769  -1.3598
    -1.3096  -1.2544  -1.1886  -1.1722  -1.1406  -1.0956  -1.0486  -0.9680
    -0.9606  -0.9318  -0.9281  -0.8883  -0.8253  -0.7631  -0.7366  -0.7354
    -0.7084  -0.6483  -0.5867  -0.5675  -0.4622  -0.4555  -0.3378  -0.2964
    -0.0468   0.0080   0.0531   0.1001   0.1146   0.1780   0.2157   0.3330
     0.3440   0.3542   0.3944   0.4126   0.4301   0.5605   0.5743   0.6035
     0.7418   1.4360   1.4362   1.5082   1.5090   3.4627   3.4722   3.4983
     3.5163   3.6707   3.6743   3.6948   3.6960   3.8173   3.8391

     the Fermi energy is     3.1614 ev

!    total energy              =   -2950.31363976 Ry
     estimated scf accuracy    <       0.00000005 Ry
     smearing contrib. (-TS)   =      -0.02173710 Ry
     internal energy E=F+TS    =   -2950.29190266 Ry

     The total energy is F=E-TS. E is the sum of the following terms:
     one-electron contribution =  -24387.10726771 Ry
     hartree contribution      =   12280.59568669 Ry
     xc contribution           =    -486.33494887 Ry
     ewald contribution        =    9642.55384568 Ry
     electric field correction =       0.00078155 Ry

     convergence has been achieved in  74 iterations

     Forces acting on atoms (cartesian axes, Ry/au):

     atom    1 type  1   force =     0.00006549    0.00002469    0.10323901
     atom    2 type  1   force =     0.00007265    0.00004429    0.10320881
     atom    3 type  2   force =     0.00013979   -0.00031437    0.09680410
     atom    4 type  2   force =    -0.00007281   -0.00021877    0.09609276
     atom    5 type  2   force =     0.00012506   -0.00039823   -0.17539816
     atom    6 type  2   force =    -0.00001064   -0.00040876   -0.17550294
     atom    7 type  1   force =    -0.07150813   -0.00009454   -0.02769883
     atom    8 type  1   force =    -0.07154980   -0.00003812   -0.02771729
     atom    9 type  1   force =     0.07141879    0.00035365   -0.02776963
     atom   10 type  1   force =     0.07144311    0.00042868   -0.02776215
     atom   11 type  1   force =    -0.00001395   -0.00140993    0.05313555
     atom   12 type  1   force =     0.00001078   -0.00120439    0.05251443
     atom   13 type  1   force =     0.00009109   -0.00013915   -0.02456919
     atom   14 type  1   force =     0.00019711   -0.00012211   -0.02390970
     atom   15 type  2   force =     0.00042922    0.00061935   -0.01180843
     atom   16 type  2   force =     0.00057283    0.00307654   -0.01203754
     atom   17 type  2   force =     0.00034910   -0.01478620    0.02784846
     atom   18 type  2   force =     0.00037314    0.01325174    0.02791623
     atom   19 type  1   force =    -0.01205859    0.00073086    0.00326697
     atom   20 type  1   force =    -0.01217897   -0.00138434    0.00305277
     atom   21 type  1   force =     0.01355983    0.00131205    0.00278055
     atom   22 type  1   force =     0.01355231   -0.00098454    0.00248857
     atom   23 type  1   force =    -0.00335687    0.00070577   -0.01817775
     atom   24 type  1   force =    -0.00197888    0.00036728   -0.02016608
     atom   25 type  1   force =    -0.00013807   -0.00000366    0.00005346
     atom   26 type  1   force =    -0.00002066    0.00010423    0.00005659
     atom   27 type  2   force =     0.00004107   -0.00002373   -0.00008842
     atom   28 type  2   force =     0.00010022    0.00003162   -0.00001318
     atom   29 type  2   force =    -0.00011717   -0.00002311    0.00018128
     atom   30 type  1   force =     0.00005446   -0.00001604    0.00002721
     atom   31 type  1   force =     0.00007629    0.00000905    0.00005411
     atom   32 type  1   force =    -0.00000864   -0.00012786   -0.00006724
     atom   33 type  1   force =     0.00007739    0.00002431    0.00005017
     atom   34 type  2   force =    -0.00008116   -0.00008616    0.00003839
     atom   35 type  1   force =     0.00004479    0.00010390   -0.00000807
     atom   36 type  1   force =    -0.00003151   -0.00001841   -0.00015383
     atom   37 type  1   force =    -0.00000743   -0.00181242   -0.00049629
     atom   38 type  1   force =     0.00008994    0.00087817   -0.00013798
     atom   39 type  2   force =    -0.00004744   -0.00071917   -0.00017940
     atom   40 type  2   force =     0.00007972    0.00081850   -0.00001731
     atom   41 type  2   force =     0.00013989   -0.00455879    0.00298350
     atom   42 type  1   force =    -0.00067676   -0.00005864    0.00021355
     atom   43 type  1   force =     0.00092831   -0.00011652    0.00027333
     atom   44 type  1   force =     0.00063852   -0.00016391   -0.00016670
     atom   45 type  1   force =    -0.00054108   -0.00016672   -0.00030031
     atom   46 type  2   force =     0.00007831    0.00102364    0.00103342
     atom   47 type  1   force =     0.00007757   -0.00143657   -0.00007173
     atom   48 type  3   force =    -0.00034125    0.00142692    0.00088977
     atom   49 type  4   force =    -0.00012429    0.00015583    0.00001918
     atom   50 type  4   force =     0.00016618   -0.00059050   -0.00026903
     atom   51 type  5   force =    -0.00018012   -0.00058692   -0.00026863
     atom   52 type  1   force =     0.00005129    0.00652152   -0.00346634

     Total force =     0.368177     Total SCF correction =     0.000751
  @ DRIVER MODE: Message from server: STATUS
  @ DRIVER MODE: Message from server: GETFORCE
  @ DRIVER MODE: Returning v,forces,stress,ensemble

     Writing output data file ./calc.save/
  @ DRIVER MODE: Message from server: EXIT
  @ DRIVE MODE: Exiting

     General routines

     Parallel routines

   This run was terminated on:   9: 3:42  28Sep2021

   JOB DONE.