     Program PWSCF v.6.7GPU starts on 23Aug2021 at 18: 7:50

     R & G space division:  proc/nbgrp/npool/nimage =       6
     Reading input from /storage/home/hcoda1/3/ntian30/research/carbon/CH_vib/ads_slab/CH_a/out_0012/pw.inp
Warning: card &CELL ignored
Warning: card   CELL_DYNAMICS='IPI', ignored
Warning: card / ignored

     Current dimensions of program PWSCF are:
     Max number of different atomic species (ntypx) = 10
     Max number of k-points (npk) =  40000
     Max angular momentum in pseudopotentials (lmaxx) =  3
     Presently no symmetry can be used with electric field

     Message from routine cell_base_init:
     DEPRECATED: use true lattice parameter, not A to a.u. conversion factor

     IMPORTANT: XC functional enforced from input :
     Exchange-correlation= BEEF-VDW
                           (   1   4  43  14   2   0   0)
     Any further DFT definition will be discarded
     Please, verify this is what you really want

  @ DRIVER MODE: Connecting to
 qe_1139763_2632798.sched-torque.pace.gatech.edu2sf2t2hw_scratch
  using UNIX socket
  @ DRIVER MODE: Message from server: STATUS
  @ DRIVER MODE: Message from server: INIT
  @ DRIVER MODE: Receiving replica           0          -1
  @ DRIVER MODE: Receiving encoded integer          25
  @ DRIVER MODE:  SCF:  T  FORCE:  T  STRESS:  F  VC:  F  ENSEMBLE:  F
  @ DRIVER MODE:  SCF:  T  FORCE:  T  STRESS:  F  VC:  F  ENSEMBLE:  F

     Using Slab Decomposition

     bravais-lattice index     =            0
     lattice parameter (alat)  =       1.8897  a.u.
     unit-cell volume          =    6658.9804 (a.u.)^3
     number of atoms/cell      =           49
     number of atomic types    =            4
     number of electrons       =       383.00
     number of Kohn-Sham states=          201
     kinetic-energy cutoff     =      29.3995  Ry
     charge density cutoff     =     293.9946  Ry
     scf convergence threshold =      7.3E-08
     mixing beta               =       0.0500
     number of iterations used =            8  plain     mixing
     Exchange-correlation= BEEF-VDW
                           (   1   4  43  14   2   0   0)

     celldm(1)=   1.889726  celldm(2)=   0.000000  celldm(3)=   0.000000
     celldm(4)=   0.000000  celldm(5)=   0.000000  celldm(6)=   0.000000

     crystal axes: (cart. coord. in units of alat)
               a(1) = (   6.579727   0.000000   0.000000 )
               a(2) = (  -0.000775   5.961596   0.000000 )
               a(3) = (   0.000000   0.000000  25.155947 )

     reciprocal axes: (cart. coord. in units 2 pi/alat)
               b(1) = (  0.151982  0.000020  0.000000 )
               b(2) = (  0.000000  0.167740  0.000000 )
               b(3) = (  0.000000  0.000000  0.039752 )

     PseudoPot. # 1 for Ti read from file:
     /storage/coda1/p-amedford6/0/shared/rich_project_chbe-medford/medford-share/data/pseudos_module/espresso/nninc/pbe/van/Ti.UPF
     MD5 check sum: 8e4df49b7f0d34bbd5052bf3f5ea0213
     Pseudo is Ultrasoft, Zval = 12.0
     Generated by new atomic code, or converted to UPF format
     Using radial grid of  851 points,  6 beta functions with:
                l(1) =   0
                l(2) =   0
                l(3) =   1
                l(4) =   1
                l(5) =   2
                l(6) =   2
     Q(r) pseudized with  8 coefficients,  rinner =    1.000   1.000   1.000
                                                       1.000   1.000

     PseudoPot. # 2 for O  read from file:
     /storage/coda1/p-amedford6/0/shared/rich_project_chbe-medford/medford-share/data/pseudos_module/espresso/nninc/pbe/van/O.UPF
     MD5 check sum: 78c19812648e8988a0fe644b0f25305e
     Pseudo is Ultrasoft, Zval =  6.0
     Generated by new atomic code, or converted to UPF format
     Using radial grid of  737 points,  4 beta functions with:
                l(1) =   0
                l(2) =   0
                l(3) =   1
                l(4) =   1
     Q(r) pseudized with  8 coefficients,  rinner =    0.800   0.800   0.800

     PseudoPot. # 3 for C  read from file:
     /storage/coda1/p-amedford6/0/shared/rich_project_chbe-medford/medford-share/data/pseudos_module/espresso/nninc/pbe/van/C.UPF
     MD5 check sum: 1a69bf6b8db32088f5b2163dbdb77a27
     Pseudo is Ultrasoft, Zval =  4.0
     Generated by new atomic code, or converted to UPF format
     Using radial grid of  721 points,  4 beta functions with:
                l(1) =   0
                l(2) =   0
                l(3) =   1
                l(4) =   1
     Q(r) pseudized with  8 coefficients,  rinner =    0.800   0.800   0.800

     PseudoPot. # 4 for H  read from file:
     /storage/coda1/p-amedford6/0/shared/rich_project_chbe-medford/medford-share/data/pseudos_module/espresso/nninc/pbe/van/H.UPF
     MD5 check sum: b5ee9d7bfd3a09ee7748110bda690ff7
     Pseudo is Ultrasoft, Zval =  1.0
     Generated by new atomic code, or converted to UPF format
     Using radial grid of  615 points,  1 beta functions with:
                l(1) =   0
     Q(r) pseudized with  8 coefficients,  rinner =    0.800

     atomic species   valence    mass     pseudopotential
        Ti1           12.00    47.86700     Ti( 1.00)
        O1             6.00    15.99900     O ( 1.00)
        C1             4.00    12.01100     C ( 1.00)
        H1             1.00     1.00800     H ( 1.00)

     No symmetry found

   Cartesian axes

     site n.     atom                  positions (alat units)
         1           Ti1 tau(   1) = (   0.0004258   2.9801865   6.0000000  )
         2           Ti1 tau(   2) = (   3.2906075   1.4906267   6.0002472  )
         3           O1  tau(   3) = (   0.0006271   0.0005054   7.9858123  )
         4           O1  tau(   4) = (   3.2906025   0.0005020   7.3038282  )
         5           O1  tau(   5) = (   4.5942328   1.4918067   9.2879030  )
         6           O1  tau(   6) = (   1.9868534   1.4903216   9.2879459  )
         7           Ti1 tau(   7) = (   3.2921849   2.8658251   9.1648892  )
         8           Ti1 tau(   8) = (   0.0073351   1.4983988   9.3831490  )
         9           O1  tau(   9) = (   3.2842540   0.0070318  11.3521760  )
        10           O1  tau(  10) = (   0.0010487   0.0043113  10.5580200  )
        11           O1  tau(  11) = (   1.2736759   1.5124129  12.6486185  )
        12           O1  tau(  12) = (   5.2630300   1.5084811  12.6300625  )
        13           Ti1 tau(  13) = (   0.0799159   2.9885021  12.8537609  )
        14           Ti1 tau(  14) = (   3.3962166   1.4899997  12.4930974  )
        15           O1  tau(  15) = (   6.5670857   5.9608082  14.6055349  )
        16           O1  tau(  16) = (   3.2779887   0.0262294  13.9455360  )
        17           O1  tau(  17) = (   4.5047259   1.5524619  16.1062024  )
        18           O1  tau(  18) = (   2.0328015   1.5482461  16.0993997  )
        19           Ti1 tau(  19) = (   3.2588990   3.0258902  15.7259251  )
        20           Ti1 tau(  20) = (   6.5443225   1.5921241  16.1654916  )
        21           O1  tau(  21) = (   3.2904802   0.0005063   4.7018136  )
        22           O1  tau(  22) = (   6.5577444   0.0567680  17.2452940  )
        23           O1  tau(  23) = (   1.3043587   1.4918075   6.0039043  )
        24           O1  tau(  24) = (   5.2767064   1.4903225   6.0039473  )
        25           Ti1 tau(  25) = (   0.0000382   5.9609847   6.0000000  )
        26           Ti1 tau(  26) = (   3.2902200   4.4714249   6.0002472  )
        27           O1  tau(  27) = (   0.0002396   2.9813036   7.9858123  )
        28           O1  tau(  28) = (   3.2902150   2.9813002   7.3038282  )
        29           O1  tau(  29) = (   4.5938453   4.4726049   9.2879030  )
        30           O1  tau(  30) = (   1.9864658   4.4711199   9.2879459  )
        31           Ti1 tau(  31) = (   3.2960881   5.8478476   9.1648656  )
        32           Ti1 tau(  32) = (   0.0086818   4.4758218   9.3788328  )
        33           O1  tau(  33) = (   3.2854246   2.9850844  11.3450670  )
        34           O1  tau(  34) = (   0.0004502   2.9836692  10.5560002  )
        35           O1  tau(  35) = (   1.2751814   4.4662498  12.6462591  )
        36           O1  tau(  36) = (   5.2612828   4.4711168  12.6263095  )
        37           Ti1 tau(  37) = (   0.0650160   0.0072273  12.8037121  )
        38           Ti1 tau(  38) = (   3.3952379   4.4681493  12.4860303  )
        39           O1  tau(  39) = (   6.5700874   2.9943110  14.6990684  )
        40           O1  tau(  40) = (   3.2774739   3.0059374  13.9302241  )
        41           O1  tau(  41) = (   4.5038310   4.5165569  16.1051355  )
        42           O1  tau(  42) = (   2.0336826   4.5180826  16.0999700  )
        43           Ti1 tau(  43) = (   3.2582433   0.0441072  15.7465997  )
        44           Ti1 tau(  44) = (   6.5393581   4.6163053  16.1595090  )
        45           O1  tau(  45) = (   3.2900926   2.9813045   4.7018136  )
        46           O1  tau(  46) = (   1.3039711   4.4726057   6.0039043  )
        47           O1  tau(  47) = (   5.2763189   4.4711207   6.0039473  )
        48           C1  tau(  48) = (   6.5669965   3.0274956  17.5143990  )
        49           H1  tau(  49) = (   0.0036594   3.1884539  18.6031066  )

     number of k points=    10  Fermi-Dirac smearing, width (Ry)=  0.0073
                       cart. coord. in units 2pi/alat
        k(    1) = (   0.0000000   0.0000000   0.0000000), wk =   0.1250000
        k(    2) = (   0.0000000   0.0419351   0.0000000), wk =   0.2500000
        k(    3) = (   0.0000000  -0.0838702   0.0000000), wk =   0.1250000
        k(    4) = (   0.0379955   0.0000049   0.0000000), wk =   0.2500000
        k(    5) = (   0.0379955   0.0419400   0.0000000), wk =   0.2500000
        k(    6) = (   0.0379955  -0.0838652   0.0000000), wk =   0.2500000
        k(    7) = (   0.0379955  -0.0419301   0.0000000), wk =   0.2500000
        k(    8) = (  -0.0759910  -0.0000099   0.0000000), wk =   0.1250000
        k(    9) = (  -0.0759910   0.0419252   0.0000000), wk =   0.2500000
        k(   10) = (  -0.0759910  -0.0838800   0.0000000), wk =   0.1250000

     Initial potential from superposition of free atoms

     starting charge  366.99920, renormalised to  383.00000

     negative rho (up, down):  2.154E-02 0.000E+00

     %%%%%%%%%%%%%%%%%%%%%%%%%%%%%%%%%%%%%%%%%%%%%%%%%%%%%%%%%%%%%%%%%%%%%%%%
     %                                                                      %
     % You are using vdW-DF, which was implemented by the Thonhauser group. %
     % Please cite the following two papers that made this development      %
     % possible and the two reviews that describe the various versions:     %
     %                                                                      %
     %   T. Thonhauser et al., PRL 115, 136402 (2015).                      %
     %   T. Thonhauser et al., PRB 76, 125112 (2007).                       %
     %   K. Berland et al., Rep. Prog. Phys. 78, 066501 (2015).             %
     %   D.C. Langreth et al., J. Phys.: Condens. Matter 21, 084203 (2009). %
     %                                                                      %
     %                                                                      %
     % If you are calculating the stress with vdW-DF, please also cite:     %
     %                                                                      %
     %   R. Sabatini et al., J. Phys.: Condens. Matter 24, 424209 (2012).   %
     %                                                                      %
     %%%%%%%%%%%%%%%%%%%%%%%%%%%%%%%%%%%%%%%%%%%%%%%%%%%%%%%%%%%%%%%%%%%%%%%%

     Adding external electric field

     Computed dipole along edir(3) :
        Dipole                0.0493 Ry au,          0.1252 Debye
        Dipole field          0.0001 Ry au,

        Potential amp.       -0.0086 Ry
        Total length         46.3494 bohr

     Starting wfcs are  289 atomic wfcs
  @ DRIVER MODE: Message from server: STATUS
  @ DRIVER MODE: Message from server: POSDATA
  @ DRIVER MODE: Reading and sharing cell
  @ DRIVER MODE: Reading and sharing positions
  @ DRIVER MODE: Received positions

     Self-consistent Calculation

     iteration #  1     ecut=    29.40 Ry     beta= 0.05
     Davidson diagonalization with overlap
     c_bands:  1 eigenvalues not converged
     c_bands:  1 eigenvalues not converged
     c_bands:  1 eigenvalues not converged
     c_bands:  1 eigenvalues not converged
     c_bands:  1 eigenvalues not converged
     c_bands:  1 eigenvalues not converged
     ethr =  1.00E-05,  avg # of iterations = 19.5

[...]

     total energy              =   -2897.80815941 Ry
     estimated scf accuracy    <      11.74535022 Ry

     iteration #  2     ecut=    29.40 Ry     beta= 0.05
     Davidson diagonalization with overlap
     ethr =  3.07E-03,  avg # of iterations =  1.0

[...]

     iteration # 46     ecut=    29.40 Ry     beta= 0.05
     Davidson diagonalization with overlap
     c_bands:  1 eigenvalues not converged
     ethr =  2.35E-07,  avg # of iterations =  8.7

[...]

     total energy              =   -2896.37500331 Ry
     estimated scf accuracy    <       0.00000017 Ry

     iteration # 67     ecut=    29.40 Ry     beta= 0.05
     Davidson diagonalization with overlap
     ethr =  2.44E-11,  avg # of iterations =  6.0

     negative rho (up, down):  2.068E-02 0.000E+00

     Adding external electric field

     Computed dipole along edir(3) :
        Dipole                0.3682 Ry au,          0.9358 Debye
        Dipole field          0.0007 Ry au,

        Potential amp.       -0.0644 Ry
        Total length         46.3494 bohr

     End of self-consistent calculation

          k = 0.0000 0.0000 0.0000 ( 18029 PWs)   bands (ev):

   -56.6401 -56.6062 -56.3425 -56.3057 -56.2268 -56.1657 -56.0428 -56.0396
   -56.0053 -55.9448 -55.9354 -55.9085 -55.4376 -55.4036 -55.3537 -55.2679
   -33.0684 -32.8865 -32.8858 -32.8580 -32.8321 -32.7408 -32.6952 -32.6796
   -32.6493 -32.5570 -32.5445 -32.5373 -32.5229 -32.5194 -32.5125 -32.4956
   -32.4726 -32.4548 -32.4444 -32.3489 -32.3114 -32.2883 -32.2861 -32.2762
   -32.2624 -32.2588 -32.1968 -32.1934 -32.1675 -32.1614 -32.1540 -32.1299
   -32.1219 -32.1123 -32.0987 -32.0410 -31.8962 -31.8379 -31.7629 -31.7391
   -31.6565 -31.6256 -31.5870 -31.5715 -31.5602 -31.4851 -31.4594 -31.3416
   -16.9970 -16.8088 -16.5766 -16.4414 -16.3516 -16.2785 -16.0116 -16.0096
   -15.9634 -15.8910 -15.8632 -15.8004 -15.7973 -15.7711 -15.7603 -15.7504
   -15.7324 -15.6841 -15.6676 -15.6399 -15.6066 -15.5654 -15.4434 -15.4239
   -15.4075 -15.2934 -15.2438 -15.2056 -15.0221 -13.9303 -13.8162  -7.7342
    -4.3995  -4.3410  -4.1867  -4.1610  -4.0702  -3.8262  -3.6988  -3.4766
    -3.4354  -3.4047  -3.3898  -3.3236  -3.2644  -3.1564  -3.1408  -3.1173
    -3.0792  -3.0707  -3.0488  -3.0342  -3.0101  -2.9694  -2.8868  -2.8480
    -2.8288  -2.7496  -2.7222  -2.6449  -2.6185  -2.5742  -2.5490  -2.4898
    -2.4831  -2.4195  -2.3482  -2.2905  -2.1389  -2.0985  -2.0901  -2.0830
    -2.0125  -1.9034  -1.7617  -1.7272  -1.6613  -1.6595  -1.6419  -1.6052
    -1.5124  -1.4936  -1.4101  -1.3040  -1.2942  -1.2419  -1.1905  -1.1496
    -1.1328  -1.1323  -1.0752  -1.0415  -1.0064  -0.8771  -0.8518  -0.7330
    -0.7159  -0.6808  -0.6437  -0.6387  -0.5882  -0.5299  -0.4768  -0.4461
    -0.4249  -0.3778  -0.3676  -0.3324  -0.3097  -0.2550  -0.1401  -0.1164
    -0.1056  -0.0410   0.1443   0.1697   0.2127   0.3017   0.3502   0.5120
     0.5326   0.5912   0.7994   0.8361   1.1818   1.2619   1.5404   2.2812
     2.6276   2.8225   3.0831   3.1194   3.1366   3.1683   3.3429   3.3775
     3.3959

[...]

          k = 0.0380-0.0419 0.0000 ( 17876 PWs)   bands (ev):

[...]

          k =-0.0760-0.0000 0.0000 ( 17886 PWs)   bands (ev):

[...]

          k =-0.0760-0.0839 0.0000 ( 17948 PWs)   bands (ev):

   -56.6252 -56.6209 -56.3284 -56.3196 -56.2214 -56.1710 -56.0399 -56.0248
   -56.0198 -55.9382 -55.9311 -55.9221 -55.4206 -55.4205 -55.3500 -55.2714
   -32.8876 -32.8840 -32.8746 -32.8692 -32.7866 -32.7829 -32.6935 -32.6867
   -32.6047 -32.5938 -32.5367 -32.5265 -32.5246 -32.5164 -32.4909 -32.4637
   -32.4273 -32.3729 -32.3603 -32.3524 -32.3486 -32.2844 -32.2753 -32.2694
   -32.2673 -32.2585 -32.2514 -32.2429 -32.2310 -32.2255 -32.1831 -32.1745
   -32.1424 -32.1412 -32.1341 -32.1330 -31.7940 -31.7520 -31.7520 -31.6521
   -31.6521 -31.6348 -31.6239 -31.6141 -31.6140 -31.5635 -31.5058 -31.3815
   -16.4528 -16.4340 -16.2202 -16.2109 -16.1123 -16.1119 -16.1110 -16.1086
   -16.0085 -16.0057 -15.9334 -15.9192 -15.8632 -15.8555 -15.8203 -15.8184
   -15.7972 -15.7938 -15.7521 -15.7454 -15.6167 -15.6145 -15.5088 -15.5053
   -15.4661 -15.4254 -15.3858 -15.3753 -15.1583 -13.9186 -13.9183  -7.7363
    -3.7507  -3.7199  -3.4355  -3.4317  -3.2487  -3.2467  -3.2447  -3.2259
    -3.1820  -3.1522  -3.1425  -3.1163  -3.0846  -3.0430  -3.0320  -3.0124
    -3.0077  -3.0020  -2.9892  -2.9879  -2.9651  -2.9559  -2.9036  -2.8822
    -2.8718  -2.8621  -2.8129  -2.8116  -2.7081  -2.5857  -2.5376  -2.5335
    -2.4841  -2.4503  -2.3664  -2.3638  -2.3351  -2.3189  -2.2723  -2.1689
    -2.0372  -2.0347  -1.9850  -1.9589  -1.8903  -1.8176  -1.7157  -1.6498
    -1.6183  -1.5887  -1.5223  -1.4644  -1.4569  -1.4379  -1.4272  -1.4191
    -1.4051  -1.3088  -1.2966  -1.2252  -1.1881  -1.1778  -1.1676  -1.1353
    -1.1093  -1.0454  -0.9505  -0.9477  -0.9352  -0.9077  -0.8014  -0.7587
    -0.7021  -0.6511  -0.6045  -0.3575  -0.3550  -0.2008  -0.0920  -0.0296
     0.0351   0.0591   0.1021   0.1673   0.2291   0.2344   0.2614   0.2639
     0.3597   0.3621   0.9774   0.9779   1.0365   1.0375   1.7720   2.2240
     3.1079   3.1509   3.1685   3.1737   3.1987   3.2266   3.2450   3.2553
     3.5802

     the Fermi energy is     2.1463 ev

!    total energy              =   -2896.37502305 Ry
     estimated scf accuracy    <       0.00000005 Ry
     smearing contrib. (-TS)   =      -0.01052743 Ry
     internal energy E=F+TS    =   -2896.36449561 Ry

     The total energy is F=E-TS. E is the sum of the following terms:
     one-electron contribution =  -24783.07126853 Ry
     hartree contribution      =   12469.56526908 Ry
     xc contribution           =    -472.97426511 Ry
     ewald contribution        =    9890.11551315 Ry
     electric field correction =       0.00025579 Ry

     convergence has been achieved in  67 iterations

     Forces acting on atoms (cartesian axes, Ry/au):

     atom    1 type  1   force =     0.00019036   -0.00055568    0.14917840
     atom    2 type  1   force =    -0.00002284   -0.00030735   -0.17024039
     atom    3 type  2   force =     0.00006025    0.00011816   -0.06123573
     atom    4 type  2   force =     0.00010941   -0.00167554    0.04075225
     atom    5 type  2   force =    -0.02328345    0.00031596    0.00410026
     atom    6 type  2   force =     0.02300154    0.00152464    0.00330640
     atom    7 type  1   force =    -0.00054716    0.00073855    0.00018779
     atom    8 type  1   force =     0.00020564    0.00084253   -0.00020871
     atom    9 type  2   force =    -0.00005835    0.00009673   -0.00048435
     atom   10 type  2   force =    -0.00002979   -0.00051106    0.00029938
     atom   11 type  2   force =    -0.00024886    0.00047762    0.00028781
     atom   12 type  2   force =     0.00033935    0.00012185    0.00023291
     atom   13 type  1   force =     0.00034219    0.00065367   -0.00099011
     atom   14 type  1   force =    -0.00045646    0.00096571   -0.00028697
     atom   15 type  2   force =     0.00012959   -0.00006046   -0.00020412
     atom   16 type  2   force =     0.00013640   -0.00026041   -0.00006487
     atom   17 type  2   force =     0.00073582    0.00018336    0.00009830
     atom   18 type  2   force =    -0.00065626    0.00027816    0.00007764
     atom   19 type  1   force =     0.00000845   -0.00106299    0.00060848
     atom   20 type  1   force =     0.00007048   -0.00080021    0.00074778
     atom   21 type  2   force =     0.00008162   -0.00018363    0.10249936
     atom   22 type  2   force =    -0.00005673    0.00047704   -0.00043102
     atom   23 type  2   force =    -0.07446030    0.00019574   -0.03478083
     atom   24 type  2   force =     0.07441783    0.00062443   -0.03483145
     atom   25 type  1   force =    -0.00004049   -0.00051056    0.15022303
     atom   26 type  1   force =    -0.00002157   -0.00070402   -0.17018717
     atom   27 type  2   force =     0.00007341    0.00063726   -0.06044340
     atom   28 type  2   force =     0.00002903   -0.00162048    0.04019846
     atom   29 type  2   force =    -0.02286119    0.00145089    0.00427579
     atom   30 type  2   force =     0.02313074    0.00224633    0.00347431
     atom   31 type  1   force =    -0.00054434    0.00012360   -0.00078331
     atom   32 type  1   force =     0.00023166   -0.00110616    0.00051058
     atom   33 type  2   force =     0.00025928   -0.00008019    0.00120787
     atom   34 type  2   force =    -0.00004163    0.00059069   -0.00026586
     atom   35 type  2   force =    -0.00098807   -0.00043169    0.00003481
     atom   36 type  2   force =     0.00100456   -0.00023084    0.00010526
     atom   37 type  1   force =    -0.00004505   -0.00007210   -0.00024004
     atom   38 type  1   force =    -0.00070398   -0.00076605    0.00033264
     atom   39 type  2   force =    -0.00004455   -0.00018650   -0.00006307
     atom   40 type  2   force =     0.00009776   -0.00016144   -0.00077638
     atom   41 type  2   force =     0.00073238   -0.00036940    0.00045833
     atom   42 type  2   force =    -0.00072830   -0.00045453    0.00048140
     atom   43 type  1   force =    -0.00001560    0.00081432   -0.00088536
     atom   44 type  1   force =     0.00017918   -0.00024382    0.00081183
     atom   45 type  2   force =     0.00007250   -0.00018340    0.10248756
     atom   46 type  2   force =    -0.07444948   -0.00013647   -0.03478721
     atom   47 type  2   force =     0.07440340    0.00030773   -0.03483971
     atom   48 type  3   force =     0.00017882    0.00090074    0.01279595
     atom   49 type  4   force =     0.00008278   -0.00201075   -0.01274451

     Total force =     0.404996     Total SCF correction =     0.000610
  @ DRIVER MODE: Message from server: STATUS
  @ DRIVER MODE: Message from server: GETFORCE
  @ DRIVER MODE: Returning v,forces,stress,ensemble

     Writing output data file ./calc.save/
  @ DRIVER MODE: Message from server: EXIT
  @ DRIVE MODE: Exiting

     General routines

     Parallel routines

   This run was terminated on:  18:33:31  23Aug2021

   JOB DONE.