     Program PWSCF v.6.7GPU starts on 23Sep2021 at 18:58: 6

     R & G space division:  proc/nbgrp/npool/nimage =       8
     Reading input from /storage/home/hcoda1/3/ntian30/research/carbon/CxH_vib/H2O_calc/ads_slab/CH3NHHO_a/out_0022/pw.inp
Warning: card &CELL ignored
Warning: card   CELL_DYNAMICS='IPI', ignored
Warning: card / ignored

     Current dimensions of program PWSCF are:
     Max number of different atomic species (ntypx) = 10
     Max number of k-points (npk) =  40000
     Max angular momentum in pseudopotentials (lmaxx) =  3
     Presently no symmetry can be used with electric field

     Message from routine cell_base_init:
     DEPRECATED: use true lattice parameter, not A to a.u. conversion factor

     IMPORTANT: XC functional enforced from input :
     Exchange-correlation= BEEF-VDW
                           (   1   4  43  14   2   0   0)
     Any further DFT definition will be discarded
     Please, verify this is what you really want

  @ DRIVER MODE: Connecting to
 qe_1139763_2947309.sched-torque.pace.gatech.eduqpent38s_scratch
  using UNIX socket
  @ DRIVER MODE: Message from server: STATUS
  @ DRIVER MODE: Message from server: INIT
  @ DRIVER MODE: Receiving replica           0          -1
  @ DRIVER MODE: Receiving encoded integer          25
  @ DRIVER MODE:  SCF:  T  FORCE:  T  STRESS:  F  VC:  F  ENSEMBLE:  F
  @ DRIVER MODE:  SCF:  T  FORCE:  T  STRESS:  F  VC:  F  ENSEMBLE:  F

     Using Slab Decomposition

     bravais-lattice index     =            0
     lattice parameter (alat)  =       1.8897  a.u.
     unit-cell volume          =    6658.9804 (a.u.)^3
     number of atoms/cell      =           55
     number of atomic types    =            5
     number of electrons       =       398.00
     number of Kohn-Sham states=          209
     kinetic-energy cutoff     =      29.3995  Ry
     charge density cutoff     =     293.9946  Ry
     scf convergence threshold =      7.3E-08
     mixing beta               =       0.0500
     number of iterations used =            8  plain     mixing
     Exchange-correlation= BEEF-VDW
                           (   1   4  43  14   2   0   0)

     celldm(1)=   1.889726  celldm(2)=   0.000000  celldm(3)=   0.000000
     celldm(4)=   0.000000  celldm(5)=   0.000000  celldm(6)=   0.000000

     crystal axes: (cart. coord. in units of alat)
               a(1) = (   6.579727   0.000000   0.000000 )
               a(2) = (  -0.000775   5.961596   0.000000 )
               a(3) = (   0.000000   0.000000  25.155947 )

     reciprocal axes: (cart. coord. in units 2 pi/alat)
               b(1) = (  0.151982  0.000020  0.000000 )
               b(2) = (  0.000000  0.167740  0.000000 )
               b(3) = (  0.000000  0.000000  0.039752 )

     PseudoPot. # 1 for Ti read from file:
     /storage/coda1/p-amedford6/0/shared/rich_project_chbe-medford/medford-share/data/pseudos_module/espresso/nninc/pbe/van/Ti.UPF
     MD5 check sum: 8e4df49b7f0d34bbd5052bf3f5ea0213
     Pseudo is Ultrasoft, Zval = 12.0
     Generated by new atomic code, or converted to UPF format
     Using radial grid of  851 points,  6 beta functions with:
                l(1) =   0
                l(2) =   0
                l(3) =   1
                l(4) =   1
                l(5) =   2
                l(6) =   2
     Q(r) pseudized with  8 coefficients,  rinner =    1.000   1.000   1.000
                                                       1.000   1.000

     PseudoPot. # 2 for O  read from file:
     /storage/coda1/p-amedford6/0/shared/rich_project_chbe-medford/medford-share/data/pseudos_module/espresso/nninc/pbe/van/O.UPF
     MD5 check sum: 78c19812648e8988a0fe644b0f25305e
     Pseudo is Ultrasoft, Zval =  6.0
     Generated by new atomic code, or converted to UPF format
     Using radial grid of  737 points,  4 beta functions with:
                l(1) =   0
                l(2) =   0
                l(3) =   1
                l(4) =   1
     Q(r) pseudized with  8 coefficients,  rinner =    0.800   0.800   0.800

     PseudoPot. # 3 for H  read from file:
     /storage/coda1/p-amedford6/0/shared/rich_project_chbe-medford/medford-share/data/pseudos_module/espresso/nninc/pbe/van/H.UPF
     MD5 check sum: b5ee9d7bfd3a09ee7748110bda690ff7
     Pseudo is Ultrasoft, Zval =  1.0
     Generated by new atomic code, or converted to UPF format
     Using radial grid of  615 points,  1 beta functions with:
                l(1) =   0
     Q(r) pseudized with  8 coefficients,  rinner =    0.800

     PseudoPot. # 4 for N  read from file:
     /storage/coda1/p-amedford6/0/shared/rich_project_chbe-medford/medford-share/data/pseudos_module/espresso/nninc/pbe/van/N.UPF
     MD5 check sum: 90d10febe142ad51ac9d5be1deb811c4
     Pseudo is Ultrasoft, Zval =  5.0
     Generated by new atomic code, or converted to UPF format
     Using radial grid of  729 points,  4 beta functions with:
                l(1) =   0
                l(2) =   0
                l(3) =   1
                l(4) =   1
     Q(r) pseudized with  8 coefficients,  rinner =    0.800   0.800   0.800

     PseudoPot. # 5 for C  read from file:
     /storage/coda1/p-amedford6/0/shared/rich_project_chbe-medford/medford-share/data/pseudos_module/espresso/nninc/pbe/van/C.UPF
     MD5 check sum: 1a69bf6b8db32088f5b2163dbdb77a27
     Pseudo is Ultrasoft, Zval =  4.0
     Generated by new atomic code, or converted to UPF format
     Using radial grid of  721 points,  4 beta functions with:
                l(1) =   0
                l(2) =   0
                l(3) =   1
                l(4) =   1
     Q(r) pseudized with  8 coefficients,  rinner =    0.800   0.800   0.800

     atomic species   valence    mass     pseudopotential
        Ti1           12.00    47.86700     Ti( 1.00)
        O1             6.00    15.99900     O ( 1.00)
        H1             1.00     1.00800     H ( 1.00)
        N1             5.00    14.00700     N ( 1.00)
        C1             4.00    12.01100     C ( 1.00)

     No symmetry found

   Cartesian axes

     site n.     atom                  positions (alat units)
         1           Ti1 tau(   1) = (   0.0004258   2.9801865   6.0000000  )
         2           Ti1 tau(   2) = (   3.2906075   1.4906267   6.0002472  )
         3           O1  tau(   3) = (   0.0006271   0.0005054   7.9858123  )
         4           O1  tau(   4) = (   3.2906025   0.0005020   7.3038282  )
         5           O1  tau(   5) = (   4.5942328   1.4918067   9.2879030  )
         6           O1  tau(   6) = (   1.9868534   1.4903216   9.2879459  )
         7           Ti1 tau(   7) = (   3.2907910   2.8959150   9.1758416  )
         8           Ti1 tau(   8) = (   0.0015273   1.4827037   9.2680791  )
         9           O1  tau(   9) = (   3.2831040   5.9360571  11.2641146  )
        10           O1  tau(  10) = (   0.0116148   5.9584955  10.6183126  )
        11           O1  tau(  11) = (   1.2851963   1.4867209  12.6255510  )
        12           O1  tau(  12) = (   5.2924406   1.4772461  12.6192171  )
        13           Ti1 tau(  13) = (   0.0036382   2.8404764  12.7021481  )
        14           Ti1 tau(  14) = (   3.2814461   1.2926050  12.6442039  )
        15           O1  tau(  15) = (   6.5789252   5.9354829  14.6389027  )
        16           O1  tau(  16) = (   3.2852549   0.0163589  13.8648689  )
        17           O1  tau(  17) = (   4.5445832   1.5164849  16.0197972  )
        18           O1  tau(  18) = (   2.0258823   1.4930055  16.0750729  )
        19           Ti1 tau(  19) = (   3.3156224   2.9699746  15.6194889  )
        20           Ti1 tau(  20) = (   0.0515760   1.3234122  16.0730098  )
        21           O1  tau(  21) = (   3.2904802   0.0005063   4.7018136  )
        22           O1  tau(  22) = (   6.5454194   5.9222349  17.1870725  )
        23           O1  tau(  23) = (   1.3043587   1.4918075   6.0039043  )
        24           O1  tau(  24) = (   5.2767064   1.4903225   6.0039473  )
        25           Ti1 tau(  25) = (   0.0000382   5.9609847   6.0000000  )
        26           Ti1 tau(  26) = (   3.2902200   4.4714249   6.0002472  )
        27           O1  tau(  27) = (   0.0002396   2.9813036   7.9858123  )
        28           O1  tau(  28) = (   3.2902150   2.9813002   7.3038282  )
        29           O1  tau(  29) = (   4.5938453   4.4726049   9.2879030  )
        30           O1  tau(  30) = (   1.9864658   4.4711199   9.2879459  )
        31           Ti1 tau(  31) = (   3.2891106   5.8743827   9.1763621  )
        32           Ti1 tau(  32) = (   0.0006254   4.4649316   9.2693709  )
        33           O1  tau(  33) = (   3.2861177   3.0127509  11.2320142  )
        34           O1  tau(  34) = (   0.0092240   2.9805883  10.6323155  )
        35           O1  tau(  35) = (   1.2872320   4.4646868  12.6147789  )
        36           O1  tau(  36) = (   5.2799320   4.4658550  12.6114028  )
        37           Ti1 tau(  37) = (   6.5510365   5.8261734  12.6423015  )
        38           Ti1 tau(  38) = (   3.2652589   4.3917841  12.4002916  )
        39           O1  tau(  39) = (   0.0003569   2.9920414  14.6539809  )
        40           O1  tau(  40) = (   3.2835110   2.9651371  13.8409569  )
        41           O1  tau(  41) = (   4.5245492   4.4030193  16.0142317  )
        42           O1  tau(  42) = (   2.0132503   4.4096711  16.0494848  )
        43           Ti1 tau(  43) = (   3.3389516   5.9588577  16.2858146  )
        44           Ti1 tau(  44) = (   0.0865397   4.4271626  15.8895714  )
        45           O1  tau(  45) = (   3.2900926   2.9813045   4.7018136  )
        46           O1  tau(  46) = (   1.3039711   4.4726057   6.0039043  )
        47           O1  tau(  47) = (   5.2763189   4.4711207   6.0039473  )
        48           H1  tau(  48) = (   5.5649379   3.0085428  17.7754687  )
        49           N1  tau(  49) = (   6.5266086   2.9804045  17.4451690  )
        50           C1  tau(  50) = (   0.8252436   3.0135910  18.6253707  )
        51           H1  tau(  51) = (   0.7415300   3.9812607  19.1474969  )
        52           H1  tau(  52) = (   0.5789590   2.2014881  19.3161603  )
        53           H1  tau(  53) = (   1.8636945   2.8847911  18.3311598  )
        54           O1  tau(  54) = (   3.4430348   5.9447220  18.1074838  )
        55           H1  tau(  55) = (   4.3135669   5.8364121  18.5244127  )

     number of k points=    10  Fermi-Dirac smearing, width (Ry)=  0.0073
                       cart. coord. in units 2pi/alat
        k(    1) = (   0.0000000   0.0000000   0.0000000), wk =   0.1250000
        k(    2) = (   0.0000000   0.0419351   0.0000000), wk =   0.2500000
        k(    3) = (   0.0000000  -0.0838702   0.0000000), wk =   0.1250000
        k(    4) = (   0.0379955   0.0000049   0.0000000), wk =   0.2500000
        k(    5) = (   0.0379955   0.0419400   0.0000000), wk =   0.2500000
        k(    6) = (   0.0379955  -0.0838652   0.0000000), wk =   0.2500000
        k(    7) = (   0.0379955  -0.0419301   0.0000000), wk =   0.2500000
        k(    8) = (  -0.0759910  -0.0000099   0.0000000), wk =   0.1250000
        k(    9) = (  -0.0759910   0.0419252   0.0000000), wk =   0.2500000
        k(   10) = (  -0.0759910  -0.0838800   0.0000000), wk =   0.1250000

     Initial potential from superposition of free atoms

     starting charge  381.99915, renormalised to  398.00000

     negative rho (up, down):  1.687E-02 0.000E+00

     %%%%%%%%%%%%%%%%%%%%%%%%%%%%%%%%%%%%%%%%%%%%%%%%%%%%%%%%%%%%%%%%%%%%%%%%
     %                                                                      %
     % You are using vdW-DF, which was implemented by the Thonhauser group. %
     % Please cite the following two papers that made this development      %
     % possible and the two reviews that describe the various versions:     %
     %                                                                      %
     %   T. Thonhauser et al., PRL 115, 136402 (2015).                      %
     %   T. Thonhauser et al., PRB 76, 125112 (2007).                       %
     %   K. Berland et al., Rep. Prog. Phys. 78, 066501 (2015).             %
     %   D.C. Langreth et al., J. Phys.: Condens. Matter 21, 084203 (2009). %
     %                                                                      %
     %                                                                      %
     % If you are calculating the stress with vdW-DF, please also cite:     %
     %                                                                      %
     %   R. Sabatini et al., J. Phys.: Condens. Matter 24, 424209 (2012).   %
     %                                                                      %
     %%%%%%%%%%%%%%%%%%%%%%%%%%%%%%%%%%%%%%%%%%%%%%%%%%%%%%%%%%%%%%%%%%%%%%%%

     Adding external electric field

     Computed dipole along edir(3) :
        Dipole               -8.7629 Ry au,        -22.2732 Debye
        Dipole field         -0.0165 Ry au,

        Potential amp.        1.5329 Ry
        Total length         46.3494 bohr

     Starting wfcs are  301 atomic wfcs
  @ DRIVER MODE: Message from server: STATUS
  @ DRIVER MODE: Message from server: POSDATA
  @ DRIVER MODE: Reading and sharing cell
  @ DRIVER MODE: Reading and sharing positions
  @ DRIVER MODE: Received positions

     Self-consistent Calculation

     iteration #  1     ecut=    29.40 Ry     beta= 0.05
     Davidson diagonalization with overlap
     c_bands:  2 eigenvalues not converged
     c_bands:  1 eigenvalues not converged
     c_bands:  1 eigenvalues not converged
     c_bands:  2 eigenvalues not converged
     ethr =  1.00E-05,  avg # of iterations = 18.0

[...]

     total energy              =   -2565.16968347 Ry
     estimated scf accuracy    <    4295.56176371 Ry

     iteration #  2     ecut=    29.40 Ry     beta= 0.05
     Davidson diagonalization with overlap
     ethr =  1.00E-02,  avg # of iterations = 22.8

[...]

     iteration # 48     ecut=    29.40 Ry     beta= 0.05
     Davidson diagonalization with overlap
     c_bands:  1 eigenvalues not converged
     ethr =  4.47E-07,  avg # of iterations =  9.1

[...]

     total energy              =   -2954.01281624 Ry
     estimated scf accuracy    <       0.00000027 Ry

     iteration # 70     ecut=    29.40 Ry     beta= 0.05
     Davidson diagonalization with overlap
     ethr =  5.53E-11,  avg # of iterations =  4.6

     negative rho (up, down):  1.730E-02 0.000E+00

     Adding external electric field

     Computed dipole along edir(3) :
        Dipole                0.2141 Ry au,          0.5442 Debye
        Dipole field          0.0004 Ry au,

        Potential amp.       -0.0375 Ry
        Total length         46.3494 bohr

     End of self-consistent calculation

          k = 0.0000 0.0000 0.0000 ( 18029 PWs)   bands (ev):

   -56.9299 -56.8964 -56.0292 -55.9944 -55.7941 -55.7261 -55.6389 -55.4816
   -55.4477 -55.4081 -55.3957 -55.3300 -55.3244 -55.2793 -55.1335 -55.0567
   -33.3491 -33.2018 -33.1738 -33.1085 -33.0183 -32.9762 -32.5121 -32.2698
   -32.2500 -32.2240 -32.1716 -32.1667 -32.1410 -32.0298 -32.0099 -31.9628
   -31.9458 -31.9307 -31.9139 -31.8913 -31.8892 -31.8676 -31.8607 -31.8293
   -31.8288 -31.8043 -31.7596 -31.7188 -31.6860 -31.6782 -31.6194 -31.6087
   -31.6054 -31.5891 -31.5771 -31.5480 -31.5275 -31.5219 -31.5084 -31.5017
   -31.4938 -31.4428 -31.3992 -31.3757 -31.3371 -31.3122 -31.3058 -31.2392
   -17.0363 -16.4909 -16.4465 -16.2478 -16.1452 -16.1253 -16.0880 -16.0386
   -15.8389 -15.7892 -15.7514 -15.6854 -15.5881 -15.4317 -15.3347 -15.1615
   -15.1119 -15.0807 -15.0628 -15.0568 -15.0508 -15.0381 -14.9831 -14.9271
   -14.8867 -14.8038 -14.7495 -14.6388 -14.4129 -14.3831 -13.9788 -13.8718
   -13.8083  -8.4750  -4.6101  -4.1047  -3.9681  -3.9355  -3.7806  -3.6275
    -3.5028  -3.4497  -3.4244  -3.3156  -3.2988  -3.2892  -3.1996  -3.0705
    -2.9994  -2.9884  -2.9198  -2.9014  -2.8738  -2.8566  -2.6971  -2.6642
    -2.5706  -2.5187  -2.4971  -2.4162  -2.4070  -2.3473  -2.2958  -2.2844
    -2.2626  -2.2037  -2.2002  -2.1288  -2.1017  -2.0263  -2.0013  -1.9694
    -1.9458  -1.8750  -1.7990  -1.7644  -1.6092  -1.5728  -1.5400  -1.5050
    -1.4885  -1.4079  -1.3374  -1.2552  -1.2210  -1.1538  -1.1055  -1.0654
    -1.0528  -0.9379  -0.9126  -0.8558  -0.7919  -0.7754  -0.7687  -0.7228
    -0.6087  -0.5290  -0.5186  -0.4966  -0.4359  -0.4158  -0.3783  -0.3541
    -0.2775  -0.2610  -0.1523  -0.0794  -0.0485  -0.0222   0.0771   0.1566
     0.1777   0.2201   0.2626   0.3055   0.3349   0.3783   0.4463   0.4940
     0.5172   0.5401   0.5691   0.6654   0.7156   0.7523   0.8082   0.8238
     0.8883   0.9591   0.9861   1.0751   1.1193   1.4851   1.6372   2.3633
     2.5339   2.8100   2.9832   3.2989   3.3491   3.3649   3.3665   3.6529
     3.7714

[...]

          k = 0.0380-0.0419 0.0000 ( 17876 PWs)   bands (ev):

[...]

          k =-0.0760-0.0000 0.0000 ( 17886 PWs)   bands (ev):

[...]

          k =-0.0760-0.0839 0.0000 ( 17948 PWs)   bands (ev):

   -56.9138 -56.9124 -56.0165 -56.0070 -55.7896 -55.7306 -55.6381 -55.4652
   -55.4641 -55.4040 -55.3963 -55.3337 -55.3232 -55.2781 -55.1349 -55.0578
   -33.1883 -33.1869 -33.1670 -33.1657 -33.0625 -33.0614 -32.3361 -32.3280
   -32.2114 -32.2018 -32.2008 -32.1950 -32.0931 -32.0473 -32.0231 -32.0087
   -31.9576 -31.9567 -31.9106 -31.8785 -31.8670 -31.8178 -31.8170 -31.7744
   -31.7359 -31.7035 -31.6852 -31.6836 -31.6796 -31.6756 -31.6464 -31.6454
   -31.6347 -31.6303 -31.6092 -31.5984 -31.5756 -31.5669 -31.5358 -31.5254
   -31.5167 -31.4845 -31.4383 -31.4007 -31.3753 -31.3416 -31.3141 -31.2669
   -16.4332 -16.3971 -16.3951 -16.3479 -16.3463 -16.0916 -16.0869 -15.8411
   -15.8092 -15.6880 -15.5349 -15.5056 -15.4682 -15.4186 -15.3725 -15.3024
   -15.2840 -15.2433 -15.2099 -15.1542 -15.1287 -15.0505 -15.0164 -14.9575
   -14.9215 -14.8325 -14.7857 -14.7796 -14.5594 -14.5430 -13.9764 -13.9758
   -13.8252  -8.4799  -4.0718  -3.9846  -3.4701  -3.4650  -3.4441  -3.4348
    -3.2204  -3.2147  -3.0471  -3.0041  -2.9847  -2.9436  -2.9275  -2.8286
    -2.8213  -2.7925  -2.7512  -2.7460  -2.7376  -2.7196  -2.6724  -2.6639
    -2.6234  -2.4865  -2.4720  -2.4523  -2.3933  -2.3295  -2.2987  -2.2474
    -2.2199  -2.2061  -2.1793  -2.1716  -2.1664  -2.1372  -2.1097  -1.9534
    -1.9119  -1.8100  -1.7776  -1.7523  -1.7311  -1.6764  -1.6729  -1.6428
    -1.6200  -1.5881  -1.5277  -1.4943  -1.4528  -1.3277  -1.3064  -1.2662
    -1.2492  -1.1907  -1.0940  -1.0044  -0.9913  -0.9490  -0.9291  -0.8835
    -0.8697  -0.8405  -0.7611  -0.7032  -0.5967  -0.5666  -0.5545  -0.5318
    -0.5017  -0.4593  -0.4119  -0.3436  -0.3282  -0.2091  -0.1403  -0.0943
    -0.0278   0.0378   0.0774   0.1206   0.1703   0.2657   0.2853   0.3596
     0.3735   0.4938   0.6025   0.6204   0.7734   0.8058   0.8747   0.9152
     0.9200   0.9304   0.9481   0.9594   1.0121   1.0883   1.5857   2.9549
     2.9579   3.0150   3.0209   3.3307   3.3317   3.4416   3.4435   3.7588
     3.7686

     the Fermi energy is     2.0639 ev

!    total energy              =   -2954.01283610 Ry
     estimated scf accuracy    <       0.00000007 Ry
     smearing contrib. (-TS)   =      -0.00173724 Ry
     internal energy E=F+TS    =   -2954.01109886 Ry

     The total energy is F=E-TS. E is the sum of the following terms:
     one-electron contribution =  -24213.95103437 Ry
     hartree contribution      =   12197.05381234 Ry
     xc contribution           =    -488.74318949 Ry
     ewald contribution        =    9551.62922615 Ry
     electric field correction =       0.00008651 Ry

     convergence has been achieved in  70 iterations

     Forces acting on atoms (cartesian axes, Ry/au):

     atom    1 type  1   force =     0.00017513   -0.00052483    0.12566912
     atom    2 type  1   force =     0.00000540    0.00026796   -0.15443400
     atom    3 type  2   force =     0.00002149   -0.00022314   -0.06671573
     atom    4 type  2   force =    -0.00002065    0.00008601    0.01672687
     atom    5 type  2   force =    -0.00391544   -0.00229277   -0.01290388
     atom    6 type  2   force =     0.00530983   -0.00149692   -0.01431313
     atom    7 type  1   force =    -0.00049487   -0.00698531    0.05720196
     atom    8 type  1   force =     0.00071640    0.00723115    0.09828428
     atom    9 type  2   force =     0.00002760    0.00008912   -0.00006722
     atom   10 type  2   force =    -0.00290225    0.00059266   -0.06190796
     atom   11 type  2   force =    -0.00002253   -0.00005335   -0.00001603
     atom   12 type  2   force =    -0.00006518    0.00016240    0.00015692
     atom   13 type  1   force =     0.00010455    0.00015447   -0.00009883
     atom   14 type  1   force =     0.00001052   -0.00006227    0.00010756
     atom   15 type  2   force =    -0.00002916    0.00004630   -0.00001348
     atom   16 type  2   force =     0.00005945    0.00013435   -0.00015484
     atom   17 type  2   force =     0.00001220    0.00011833    0.00018904
     atom   18 type  2   force =    -0.00002383    0.00027158   -0.00003246
     atom   19 type  1   force =    -0.00011363    0.00000465    0.00011324
     atom   20 type  1   force =     0.00024175    0.00017685    0.00010965
     atom   21 type  2   force =     0.00006960    0.00021818    0.09782200
     atom   22 type  2   force =     0.00037872   -0.00002886    0.00000928
     atom   23 type  2   force =    -0.08273543    0.00009201   -0.03301702
     atom   24 type  2   force =     0.08269213    0.00050792   -0.03306518
     atom   25 type  1   force =     0.00009980   -0.00059652    0.12551573
     atom   26 type  1   force =     0.00000571   -0.00169720   -0.15484759
     atom   27 type  2   force =     0.00008757   -0.00076909   -0.06515177
     atom   28 type  2   force =     0.00004932    0.00188311    0.01157668
     atom   29 type  2   force =    -0.00251734    0.00467825   -0.01584855
     atom   30 type  2   force =     0.00368558    0.00501457   -0.01727686
     atom   31 type  1   force =    -0.00029350    0.00180549    0.04008915
     atom   32 type  1   force =     0.00091206   -0.01042177    0.09794393
     atom   33 type  2   force =    -0.00004502   -0.00001822    0.00014391
     atom   34 type  2   force =    -0.00230183    0.00078010   -0.07400440
     atom   35 type  2   force =     0.00010296    0.00002935    0.00002346
     atom   36 type  2   force =    -0.00008677   -0.00007352   -0.00003196
     atom   37 type  1   force =     0.00034916    0.00006175    0.00010311
     atom   38 type  1   force =     0.00012011   -0.00005987   -0.00027651
     atom   39 type  2   force =     0.00016138   -0.00011162   -0.00007869
     atom   40 type  2   force =     0.00001737    0.00003852   -0.00012827
     atom   41 type  2   force =     0.00001294    0.00016035    0.00011488
     atom   42 type  2   force =    -0.00002436    0.00002628    0.00011286
     atom   43 type  1   force =     0.00019228   -0.00017621   -0.00009412
     atom   44 type  1   force =     0.00029822    0.00013864    0.00016800
     atom   45 type  2   force =     0.00004397    0.00004504    0.09761055
     atom   46 type  2   force =    -0.08279716    0.00004937   -0.03303318
     atom   47 type  2   force =     0.08272299    0.00048226   -0.03305048
     atom   48 type  3   force =    -0.00016905    0.00002737    0.00010269
     atom   49 type  4   force =     0.00024074    0.00000432    0.00014634
     atom   50 type  5   force =    -0.00103244    0.00814333    0.00375832
     atom   51 type  3   force =     0.00075171   -0.00938632   -0.00378380
     atom   52 type  3   force =    -0.00031598    0.00124763    0.00042190
     atom   53 type  3   force =     0.00021606    0.00040141    0.00013986
     atom   54 type  2   force =     0.00037551   -0.00061686    0.00085486
     atom   55 type  3   force =    -0.00036385    0.00042357   -0.00087022

     Total force =     0.417418     Total SCF correction =     0.000823
  @ DRIVER MODE: Message from server: STATUS
  @ DRIVER MODE: Message from server: GETFORCE
  @ DRIVER MODE: Returning v,forces,stress,ensemble

     Writing output data file ./calc.save/
  @ DRIVER MODE: Message from server: EXIT
  @ DRIVE MODE: Exiting

     General routines

     Parallel routines

   This run was terminated on:  19:22:57  23Sep2021

   JOB DONE.