     Program PWSCF v.6.7GPU starts on 16Sep2021 at  6:50:31

     R & G space division:  proc/nbgrp/npool/nimage =      10
     Reading input from /storage/home/hcoda1/3/ntian30/research/carbon/CxH_vib/H2O_calc/ads_slab/CH3N2HH2O_a/out_0047/pw.inp
Warning: card &CELL ignored
Warning: card   CELL_DYNAMICS='IPI', ignored
Warning: card / ignored

     Current dimensions of program PWSCF are:
     Max number of different atomic species (ntypx) = 10
     Max number of k-points (npk) =  40000
     Max angular momentum in pseudopotentials (lmaxx) =  3
     Presently no symmetry can be used with electric field

     Message from routine cell_base_init:
     DEPRECATED: use true lattice parameter, not A to a.u. conversion factor

     IMPORTANT: XC functional enforced from input :
     Exchange-correlation= BEEF-VDW
                           (   1   4  43  14   2   0   0)
     Any further DFT definition will be discarded
     Please, verify this is what you really want

  @ DRIVER MODE: Connecting to
 qe_1139763_2852617.sched-torque.pace.gatech.edur2m8plyv_scratch
  using UNIX socket
  @ DRIVER MODE: Message from server: STATUS
  @ DRIVER MODE: Message from server: INIT
  @ DRIVER MODE: Receiving replica           0          -1
  @ DRIVER MODE: Receiving encoded integer          25
  @ DRIVER MODE:  SCF:  T  FORCE:  T  STRESS:  F  VC:  F  ENSEMBLE:  F
  @ DRIVER MODE:  SCF:  T  FORCE:  T  STRESS:  F  VC:  F  ENSEMBLE:  F

     Using Slab Decomposition

     bravais-lattice index     =            0
     lattice parameter (alat)  =       1.8897  a.u.
     unit-cell volume          =    6658.9804 (a.u.)^3
     number of atoms/cell      =           57
     number of atomic types    =            5
     number of electrons       =       404.00
     number of Kohn-Sham states=          212
     kinetic-energy cutoff     =      29.3995  Ry
     charge density cutoff     =     293.9946  Ry
     scf convergence threshold =      7.3E-08
     mixing beta               =       0.0500
     number of iterations used =            8  plain     mixing
     Exchange-correlation= BEEF-VDW
                           (   1   4  43  14   2   0   0)

     celldm(1)=   1.889726  celldm(2)=   0.000000  celldm(3)=   0.000000
     celldm(4)=   0.000000  celldm(5)=   0.000000  celldm(6)=   0.000000

     crystal axes: (cart. coord. in units of alat)
               a(1) = (   6.579727   0.000000   0.000000 )
               a(2) = (  -0.000775   5.961596   0.000000 )
               a(3) = (   0.000000   0.000000  25.155947 )

     reciprocal axes: (cart. coord. in units 2 pi/alat)
               b(1) = (  0.151982  0.000020  0.000000 )
               b(2) = (  0.000000  0.167740  0.000000 )
               b(3) = (  0.000000  0.000000  0.039752 )

     PseudoPot. # 1 for Ti read from file:
     /storage/coda1/p-amedford6/0/shared/rich_project_chbe-medford/medford-share/data/pseudos_module/espresso/nninc/pbe/van/Ti.UPF
     MD5 check sum: 8e4df49b7f0d34bbd5052bf3f5ea0213
     Pseudo is Ultrasoft, Zval = 12.0
     Generated by new atomic code, or converted to UPF format
     Using radial grid of  851 points,  6 beta functions with:
                l(1) =   0
                l(2) =   0
                l(3) =   1
                l(4) =   1
                l(5) =   2
                l(6) =   2
     Q(r) pseudized with  8 coefficients,  rinner =    1.000   1.000   1.000
                                                       1.000   1.000

     PseudoPot. # 2 for O  read from file:
     /storage/coda1/p-amedford6/0/shared/rich_project_chbe-medford/medford-share/data/pseudos_module/espresso/nninc/pbe/van/O.UPF
     MD5 check sum: 78c19812648e8988a0fe644b0f25305e
     Pseudo is Ultrasoft, Zval =  6.0
     Generated by new atomic code, or converted to UPF format
     Using radial grid of  737 points,  4 beta functions with:
                l(1) =   0
                l(2) =   0
                l(3) =   1
                l(4) =   1
     Q(r) pseudized with  8 coefficients,  rinner =    0.800   0.800   0.800

     PseudoPot. # 3 for N  read from file:
     /storage/coda1/p-amedford6/0/shared/rich_project_chbe-medford/medford-share/data/pseudos_module/espresso/nninc/pbe/van/N.UPF
     MD5 check sum: 90d10febe142ad51ac9d5be1deb811c4
     Pseudo is Ultrasoft, Zval =  5.0
     Generated by new atomic code, or converted to UPF format
     Using radial grid of  729 points,  4 beta functions with:
                l(1) =   0
                l(2) =   0
                l(3) =   1
                l(4) =   1
     Q(r) pseudized with  8 coefficients,  rinner =    0.800   0.800   0.800

     PseudoPot. # 4 for C  read from file:
     /storage/coda1/p-amedford6/0/shared/rich_project_chbe-medford/medford-share/data/pseudos_module/espresso/nninc/pbe/van/C.UPF
     MD5 check sum: 1a69bf6b8db32088f5b2163dbdb77a27
     Pseudo is Ultrasoft, Zval =  4.0
     Generated by new atomic code, or converted to UPF format
     Using radial grid of  721 points,  4 beta functions with:
                l(1) =   0
                l(2) =   0
                l(3) =   1
                l(4) =   1
     Q(r) pseudized with  8 coefficients,  rinner =    0.800   0.800   0.800

     PseudoPot. # 5 for H  read from file:
     /storage/coda1/p-amedford6/0/shared/rich_project_chbe-medford/medford-share/data/pseudos_module/espresso/nninc/pbe/van/H.UPF
     MD5 check sum: b5ee9d7bfd3a09ee7748110bda690ff7
     Pseudo is Ultrasoft, Zval =  1.0
     Generated by new atomic code, or converted to UPF format
     Using radial grid of  615 points,  1 beta functions with:
                l(1) =   0
     Q(r) pseudized with  8 coefficients,  rinner =    0.800

     atomic species   valence    mass     pseudopotential
        Ti1           12.00    47.86700     Ti( 1.00)
        O1             6.00    15.99900     O ( 1.00)
        N1             5.00    14.00700     N ( 1.00)
        C1             4.00    12.01100     C ( 1.00)
        H1             1.00     1.00800     H ( 1.00)

     No symmetry found

   Cartesian axes

     site n.     atom                  positions (alat units)
         1           Ti1 tau(   1) = (   0.0004258   2.9801865   6.0000000  )
         2           Ti1 tau(   2) = (   3.2906075   1.4906267   6.0002472  )
         3           O1  tau(   3) = (   0.0006271   0.0005054   7.9858123  )
         4           O1  tau(   4) = (   3.2906025   0.0005020   7.3038282  )
         5           O1  tau(   5) = (   4.5942328   1.4918067   9.2879030  )
         6           O1  tau(   6) = (   1.9868534   1.4903216   9.2879459  )
         7           Ti1 tau(   7) = (   3.2907910   2.8959150   9.1758416  )
         8           Ti1 tau(   8) = (   0.0015273   1.4827037   9.2680791  )
         9           O1  tau(   9) = (   3.2846840   0.0164488  11.3171736  )
        10           O1  tau(  10) = (   0.0116148   5.9584955  10.6183126  )
        11           O1  tau(  11) = (   1.2780696   1.4966870  12.6228330  )
        12           O1  tau(  12) = (   5.2671132   1.5021727  12.6038655  )
        13           Ti1 tau(  13) = (   0.0814623   2.9703834  12.6092300  )
        14           Ti1 tau(  14) = (   3.3984034   1.5042134  12.4754612  )
        15           O1  tau(  15) = (   6.5611900   5.9602394  14.6246442  )
        16           O1  tau(  16) = (   3.2847170   0.0117735  13.9091713  )
        17           O1  tau(  17) = (   4.5127615   1.5439160  15.9886145  )
        18           O1  tau(  18) = (   2.0245574   1.5486524  15.9865356  )
        19           Ti1 tau(  19) = (   3.2678410   3.0292036  15.6627315  )
        20           Ti1 tau(  20) = (   6.5437773   1.5790868  15.8036792  )
        21           O1  tau(  21) = (   3.2904802   0.0005063   4.7018136  )
        22           O1  tau(  22) = (   6.5616667   0.0409992  17.2467836  )
        23           O1  tau(  23) = (   1.3043587   1.4918075   6.0039043  )
        24           O1  tau(  24) = (   5.2767064   1.4903225   6.0039473  )
        25           Ti1 tau(  25) = (   0.0000382   5.9609847   6.0000000  )
        26           Ti1 tau(  26) = (   3.2902200   4.4714249   6.0002472  )
        27           O1  tau(  27) = (   0.0002396   2.9813036   7.9858123  )
        28           O1  tau(  28) = (   3.2902150   2.9813002   7.3038282  )
        29           O1  tau(  29) = (   4.5938453   4.4726049   9.2879030  )
        30           O1  tau(  30) = (   1.9864658   4.4711199   9.2879459  )
        31           Ti1 tau(  31) = (   3.2891106   5.8743827   9.1763621  )
        32           Ti1 tau(  32) = (   0.0006254   4.4649316   9.2693709  )
        33           O1  tau(  33) = (   3.2886753   2.9955121  11.3174028  )
        34           O1  tau(  34) = (   0.0092240   2.9805883  10.6323155  )
        35           O1  tau(  35) = (   1.2771457   4.4765085  12.6200386  )
        36           O1  tau(  36) = (   5.2716127   4.4859779  12.5990880  )
        37           Ti1 tau(  37) = (   0.0719143   5.9417653  12.6408960  )
        38           Ti1 tau(  38) = (   3.4009286   4.4967646  12.4819834  )
        39           O1  tau(  39) = (   6.5633752   2.9851081  14.6229342  )
        40           O1  tau(  40) = (   3.2806164   3.0132077  13.8636590  )
        41           O1  tau(  41) = (   4.5054435   4.4842064  16.0752605  )
        42           O1  tau(  42) = (   2.0287922   4.4846499  16.0567397  )
        43           Ti1 tau(  43) = (   3.2585180   0.0608266  15.7494983  )
        44           Ti1 tau(  44) = (   6.5556145   4.6328118  16.1363011  )
        45           O1  tau(  45) = (   3.2900926   2.9813045   4.7018136  )
        46           O1  tau(  46) = (   1.3039711   4.4726057   6.0039043  )
        47           O1  tau(  47) = (   5.2763189   4.4711207   6.0039473  )
        48           N1  tau(  48) = (   6.4582227   2.6263240  18.5734135  )
        49           N1  tau(  49) = (   6.5493832   2.9496485  17.3103279  )
        50           C1  tau(  50) = (   0.1600853   3.5596473  19.6455425  )
        51           H1  tau(  51) = (   6.1911903   4.4878083  19.4849519  )
        52           H1  tau(  52) = (   6.4401482   3.1080517  20.5902855  )
        53           H1  tau(  53) = (   1.2308410   3.8049764  19.6956042  )
        54           H1  tau(  54) = (   6.5044843   1.6253530  18.7706356  )
        55           O1  tau(  55) = (   3.2415852   0.0755412  18.1949893  )
        56           H1  tau(  56) = (   4.0109045   5.4607113  18.3409029  )
        57           H1  tau(  57) = (   2.4534619   5.4803556  18.3240773  )

     number of k points=    10  Fermi-Dirac smearing, width (Ry)=  0.0073
                       cart. coord. in units 2pi/alat
        k(    1) = (   0.0000000   0.0000000   0.0000000), wk =   0.1250000
        k(    2) = (   0.0000000   0.0419351   0.0000000), wk =   0.2500000
        k(    3) = (   0.0000000  -0.0838702   0.0000000), wk =   0.1250000
        k(    4) = (   0.0379955   0.0000049   0.0000000), wk =   0.2500000
        k(    5) = (   0.0379955   0.0419400   0.0000000), wk =   0.2500000
        k(    6) = (   0.0379955  -0.0838652   0.0000000), wk =   0.2500000
        k(    7) = (   0.0379955  -0.0419301   0.0000000), wk =   0.2500000
        k(    8) = (  -0.0759910  -0.0000099   0.0000000), wk =   0.1250000
        k(    9) = (  -0.0759910   0.0419252   0.0000000), wk =   0.2500000
        k(   10) = (  -0.0759910  -0.0838800   0.0000000), wk =   0.1250000

     Initial potential from superposition of free atoms

     starting charge  387.99913, renormalised to  404.00000

     negative rho (up, down):  1.445E-02 0.000E+00

     %%%%%%%%%%%%%%%%%%%%%%%%%%%%%%%%%%%%%%%%%%%%%%%%%%%%%%%%%%%%%%%%%%%%%%%%
     %                                                                      %
     % You are using vdW-DF, which was implemented by the Thonhauser group. %
     % Please cite the following two papers that made this development      %
     % possible and the two reviews that describe the various versions:     %
     %                                                                      %
     %   T. Thonhauser et al., PRL 115, 136402 (2015).                      %
     %   T. Thonhauser et al., PRB 76, 125112 (2007).                       %
     %   K. Berland et al., Rep. Prog. Phys. 78, 066501 (2015).             %
     %   D.C. Langreth et al., J. Phys.: Condens. Matter 21, 084203 (2009). %
     %                                                                      %
     %                                                                      %
     % If you are calculating the stress with vdW-DF, please also cite:     %
     %                                                                      %
     %   R. Sabatini et al., J. Phys.: Condens. Matter 24, 424209 (2012).   %
     %                                                                      %
     %%%%%%%%%%%%%%%%%%%%%%%%%%%%%%%%%%%%%%%%%%%%%%%%%%%%%%%%%%%%%%%%%%%%%%%%

     Adding external electric field

     Computed dipole along edir(3) :
        Dipole              -13.5622 Ry au,        -34.4716 Debye
        Dipole field         -0.0256 Ry au,

        Potential amp.        2.3725 Ry
        Total length         46.3494 bohr

     Starting wfcs are  306 atomic wfcs
  @ DRIVER MODE: Message from server: STATUS
  @ DRIVER MODE: Message from server: POSDATA
  @ DRIVER MODE: Reading and sharing cell
  @ DRIVER MODE: Reading and sharing positions
  @ DRIVER MODE: Received positions

     Self-consistent Calculation

     iteration #  1     ecut=    29.40 Ry     beta= 0.05
     Davidson diagonalization with overlap
     c_bands:  4 eigenvalues not converged
     c_bands:  4 eigenvalues not converged
     c_bands:  4 eigenvalues not converged
     c_bands:  4 eigenvalues not converged
     c_bands:  3 eigenvalues not converged
     c_bands:  3 eigenvalues not converged
     ethr =  1.00E-05,  avg # of iterations = 25.3

[...]

     total energy              =   -2339.48698544 Ry
     estimated scf accuracy    <    7246.94717641 Ry

     iteration #  2     ecut=    29.40 Ry     beta= 0.05
     Davidson diagonalization with overlap
     ethr =  1.00E-02,  avg # of iterations = 23.7

[...]

     iteration # 39     ecut=    29.40 Ry     beta= 0.05
     Davidson diagonalization with overlap
     c_bands:  1 eigenvalues not converged
     ethr =  5.42E-07,  avg # of iterations = 11.9

[...]

     total energy              =   -2975.23048641 Ry
     estimated scf accuracy    <       0.00000009 Ry

     iteration # 64     ecut=    29.40 Ry     beta= 0.05
     Davidson diagonalization with overlap
     ethr =  2.34E-11,  avg # of iterations =  3.4

     negative rho (up, down):  1.506E-02 0.000E+00

     Adding external electric field

     Computed dipole along edir(3) :
        Dipole                1.1663 Ry au,          2.9644 Debye
        Dipole field          0.0022 Ry au,

        Potential amp.       -0.2040 Ry
        Total length         46.3494 bohr

     End of self-consistent calculation

          k = 0.0000 0.0000 0.0000 ( 18029 PWs)   bands (ev):

   -55.5018 -55.4678 -55.3277 -55.2912 -55.2589 -55.2252 -55.1981 -55.1916
   -55.1840 -55.1605 -55.1496 -55.0084 -54.5480 -54.4322 -54.3982 -54.3849
   -31.9748 -31.8629 -31.7962 -31.7812 -31.7179 -31.7081 -31.6730 -31.6551
   -31.6164 -31.5979 -31.5972 -31.5691 -31.5607 -31.5163 -31.5069 -31.4959
   -31.4780 -31.4730 -31.4506 -31.4347 -31.4185 -31.4124 -31.4099 -31.3902
   -31.3890 -31.3810 -31.3715 -31.3644 -31.3615 -31.3593 -31.3378 -31.3258
   -31.3132 -31.2964 -31.2005 -31.1731 -31.0421 -30.8372 -30.7723 -30.7579
   -30.7541 -30.7313 -30.7199 -30.6542 -30.5951 -30.5680 -30.5644 -30.4568
   -18.7892 -17.7467 -16.0694 -15.8777 -15.6054 -15.4804 -15.4545 -15.2703
   -15.1940 -15.1436 -15.0116 -14.9631 -14.9349 -14.9041 -14.8925 -14.8349
   -14.8064 -14.7801 -14.7486 -14.7459 -14.7268 -14.7039 -14.6613 -14.6065
   -14.5806 -14.5192 -14.4694 -14.4479 -14.3522 -14.3497 -13.9248 -12.9339
   -12.8184 -11.9024  -8.8050  -6.5462  -5.6085  -4.3212  -4.0911  -3.4546
    -3.3793  -3.3199  -3.2050  -3.1301  -2.9859  -2.9610  -2.8810  -2.7841
    -2.6012  -2.5427  -2.5195  -2.4877  -2.4029  -2.2703  -2.2589  -2.2106
    -2.1828  -2.1624  -2.1472  -2.1316  -2.0346  -1.9969  -1.9608  -1.8498
    -1.8153  -1.7919  -1.7741  -1.7650  -1.7487  -1.6850  -1.6529  -1.6349
    -1.6243  -1.5876  -1.5523  -1.5395  -1.4113  -1.3953  -1.2776  -1.1478
    -1.1248  -1.0671  -1.0433  -0.8844  -0.8774  -0.8562  -0.8153  -0.8080
    -0.7353  -0.6628  -0.6185  -0.5464  -0.4275  -0.4184  -0.3831  -0.2374
    -0.2331  -0.2110  -0.1725  -0.1612  -0.1082  -0.1018  -0.0545   0.0066
     0.1008   0.1720   0.2772   0.2800   0.3334   0.3724   0.3858   0.4426
     0.4591   0.5092   0.5204   0.5284   0.5804   0.6152   0.6281   0.6868
     0.7377   0.8545   0.9236   0.9482   0.9953   1.1170   1.1920   1.2399
     1.2450   1.4137   1.5351   1.5651   1.5899   1.7902   1.8228   2.1568
     2.2006   3.6722   3.6888   3.7787   3.8379   3.9520   4.0244   4.1120
     4.1940   4.2625   4.3545   4.3998

[...]

          k = 0.0380-0.0419 0.0000 ( 17876 PWs)   bands (ev):

[...]

          k =-0.0760-0.0000 0.0000 ( 17886 PWs)   bands (ev):

[...]

          k =-0.0760-0.0839 0.0000 ( 17948 PWs)   bands (ev):

   -55.4850 -55.4846 -55.3131 -55.3055 -55.2420 -55.2418 -55.1899 -55.1866
   -55.1720 -55.1700 -55.1635 -55.0099 -54.5464 -54.4152 -54.4150 -54.3864
   -31.7904 -31.7903 -31.7814 -31.7814 -31.6760 -31.6588 -31.6060 -31.6054
   -31.5652 -31.5604 -31.5577 -31.5539 -31.5513 -31.5446 -31.5130 -31.5080
   -31.4853 -31.4744 -31.4733 -31.4638 -31.4351 -31.4329 -31.4248 -31.4222
   -31.4107 -31.4058 -31.3981 -31.3951 -31.3909 -31.3855 -31.3830 -31.3796
   -31.3517 -31.3275 -31.3103 -31.2082 -30.9514 -30.7964 -30.7610 -30.7441
   -30.7441 -30.7409 -30.6503 -30.6501 -30.6141 -30.6112 -30.6112 -30.5951
   -18.7882 -17.7408 -15.4920 -15.4262 -15.3567 -15.3527 -15.2474 -15.1942
   -15.0998 -15.0888 -15.0814 -15.0783 -14.9787 -14.9753 -14.9082 -14.8992
   -14.8598 -14.8540 -14.8502 -14.8331 -14.8179 -14.8130 -14.7969 -14.7499
   -14.7352 -14.7293 -14.5654 -14.5398 -14.4247 -14.4058 -14.0490 -12.9205
   -12.9204 -11.9037  -8.8155  -6.5299  -5.6004  -4.2716  -4.1114  -2.9435
    -2.9331  -2.7834  -2.6576  -2.5249  -2.5125  -2.4906  -2.4546  -2.2886
    -2.2759  -2.2606  -2.2512  -2.2090  -2.1979  -2.1788  -2.1643  -2.1105
    -2.0931  -2.0752  -2.0702  -2.0592  -2.0530  -2.0431  -2.0349  -2.0261
    -2.0024  -1.9556  -1.9332  -1.8512  -1.7659  -1.7564  -1.6776  -1.5509
    -1.5438  -1.5324  -1.5310  -1.5190  -1.5080  -1.4665  -1.4303  -1.3768
    -1.2645  -1.1498  -1.0977  -1.0796  -1.0243  -1.0055  -0.9168  -0.8367
    -0.8019  -0.7835  -0.6978  -0.6492  -0.5706  -0.5552  -0.5178  -0.4670
    -0.4430  -0.4291  -0.4137  -0.4054  -0.3416  -0.2968  -0.2301  -0.2161
    -0.1606  -0.1292  -0.1007  -0.0780  -0.0365   0.0560   0.0643   0.0935
     0.1190   0.1343   0.2093   0.3598   0.4003   0.6388   0.6479   0.7204
     0.8489   0.8705   0.8779   0.9549   0.9685   1.0065   1.0275   1.1467
     1.1697   1.1957   1.3225   1.3577   1.4502   1.9598   1.9607   2.0196
     2.0201   3.5347   4.1374   4.1473   4.1642   4.1774   4.2026   4.2094
     4.2528   4.2659   4.3979   4.4451

     the Fermi energy is     3.6481 ev

!    total energy              =   -2975.23051812 Ry
     estimated scf accuracy    <       0.00000006 Ry
     smearing contrib. (-TS)   =      -0.02104843 Ry
     internal energy E=F+TS    =   -2975.20946969 Ry

     The total energy is F=E-TS. E is the sum of the following terms:
     one-electron contribution =  -23881.78350197 Ry
     hartree contribution      =   12038.34618700 Ry
     xc contribution           =    -494.92575694 Ry
     ewald contribution        =    9363.15103536 Ry
     electric field correction =       0.00256686 Ry

     convergence has been achieved in  64 iterations

     Forces acting on atoms (cartesian axes, Ry/au):

     atom    1 type  1   force =     0.00016494   -0.00023243    0.09948143
     atom    2 type  1   force =    -0.00014510   -0.00038891   -0.17307838
     atom    3 type  2   force =    -0.00006792   -0.00000320   -0.02913403
     atom    4 type  2   force =     0.00003872   -0.00102586    0.04890445
     atom    5 type  2   force =    -0.01224512    0.00099706    0.00047252
     atom    6 type  2   force =     0.01355129    0.00186936   -0.00112073
     atom    7 type  1   force =    -0.00136321   -0.00052993   -0.00295081
     atom    8 type  1   force =     0.00094729   -0.00608658    0.04544381
     atom    9 type  2   force =    -0.00000176   -0.00023210   -0.00007810
     atom   10 type  2   force =    -0.00155776    0.00261740   -0.03099617
     atom   11 type  2   force =    -0.00019525   -0.00044930    0.00003239
     atom   12 type  2   force =     0.00011126   -0.00023426    0.00013560
     atom   13 type  1   force =    -0.00018756   -0.00054405   -0.00030248
     atom   14 type  1   force =     0.00030373   -0.00023348    0.00033187
     atom   15 type  2   force =    -0.00000035   -0.00010546   -0.00025428
     atom   16 type  2   force =    -0.00020468    0.00003053   -0.00020940
     atom   17 type  2   force =     0.00028183   -0.00018124    0.00007819
     atom   18 type  2   force =    -0.00014616   -0.00024859   -0.00007231
     atom   19 type  1   force =     0.00006924   -0.00005358    0.00034044
     atom   20 type  1   force =    -0.00002437   -0.00050408    0.00022723
     atom   21 type  2   force =     0.00008676   -0.00000724    0.10257269
     atom   22 type  2   force =     0.00008869   -0.00018910    0.00006141
     atom   23 type  2   force =    -0.07250387   -0.00009134   -0.02846238
     atom   24 type  2   force =     0.07246901    0.00034192   -0.02844362
     atom   25 type  1   force =     0.00009344   -0.00027360    0.09898839
     atom   26 type  1   force =    -0.00006290   -0.00041166   -0.17324105
     atom   27 type  2   force =    -0.00003288    0.00000382   -0.02843770
     atom   28 type  2   force =     0.00009512   -0.00075937    0.04807081
     atom   29 type  2   force =    -0.01261299    0.00063565    0.00050863
     atom   30 type  2   force =     0.01384720    0.00096322   -0.00105900
     atom   31 type  1   force =    -0.00146535    0.00226433   -0.00567589
     atom   32 type  1   force =     0.00112226    0.00383218    0.04595894
     atom   33 type  2   force =    -0.00006987   -0.00026641   -0.00015002
     atom   34 type  2   force =    -0.00096610    0.00134096   -0.03385326
     atom   35 type  2   force =    -0.00030392    0.00004573   -0.00025867
     atom   36 type  2   force =     0.00051564    0.00010164   -0.00004875
     atom   37 type  1   force =    -0.00031558    0.00007471    0.00027519
     atom   38 type  1   force =     0.00018053   -0.00022993    0.00013966
     atom   39 type  2   force =     0.00002706   -0.00054449    0.00038810
     atom   40 type  2   force =    -0.00004792    0.00016780   -0.00032953
     atom   41 type  2   force =     0.00000806   -0.00044948   -0.00015546
     atom   42 type  2   force =     0.00007866   -0.00038883   -0.00028678
     atom   43 type  1   force =     0.00007192   -0.00010052    0.00015630
     atom   44 type  1   force =    -0.00001434   -0.00031981   -0.00008019
     atom   45 type  2   force =     0.00009329   -0.00001288    0.10256787
     atom   46 type  2   force =    -0.07252680   -0.00000558   -0.02845432
     atom   47 type  2   force =     0.07248478    0.00037864   -0.02844695
     atom   48 type  3   force =    -0.00048934   -0.00042956   -0.00008698
     atom   49 type  3   force =     0.00019195   -0.00048388   -0.00040084
     atom   50 type  4   force =     0.00013188   -0.00048631   -0.00002425
     atom   51 type  5   force =     0.00018038   -0.00010825    0.00020071
     atom   52 type  5   force =    -0.00010329    0.00023491    0.00025256
     atom   53 type  5   force =     0.00014148   -0.00003158    0.00015590
     atom   54 type  5   force =     0.00035252    0.00009321    0.00018880
     atom   55 type  2   force =     0.00083318   -0.00284789    0.00168004
     atom   56 type  5   force =    -0.00186334    0.00157650   -0.00097432
     atom   57 type  5   force =     0.00095558    0.00192120   -0.00054726

     Total force =     0.372090     Total SCF correction =     0.000769
  @ DRIVER MODE: Message from server: STATUS
  @ DRIVER MODE: Message from server: GETFORCE
  @ DRIVER MODE: Returning v,forces,stress,ensemble

     Writing output data file ./calc.save/
  @ DRIVER MODE: Message from server: EXIT
  @ DRIVE MODE: Exiting

     General routines

     Parallel routines

   This run was terminated on:   7: 8: 1  16Sep2021

   JOB DONE.