     Program PWSCF v.6.7GPU starts on 23Sep2021 at 13:54:11

     R & G space division:  proc/nbgrp/npool/nimage =       8
     Reading input from /storage/home/hcoda1/3/ntian30/research/carbon/CxH_vib/H2O_calc/ads_slab/CH3OHHO_e/out_0040/pw.inp
Warning: card &CELL ignored
Warning: card   CELL_DYNAMICS='IPI', ignored
Warning: card / ignored

     Current dimensions of program PWSCF are:
     Max number of different atomic species (ntypx) = 10
     Max number of k-points (npk) =  40000
     Max angular momentum in pseudopotentials (lmaxx) =  3
     Presently no symmetry can be used with electric field

     Message from routine cell_base_init:
     DEPRECATED: use true lattice parameter, not A to a.u. conversion factor

     IMPORTANT: XC functional enforced from input :
     Exchange-correlation= BEEF-VDW
                           (   1   4  43  14   2   0   0)
     Any further DFT definition will be discarded
     Please, verify this is what you really want

  @ DRIVER MODE: Connecting to
 qe_1139763_2941008.sched-torque.pace.gatech.edufjqlvs4p_scratch
  using UNIX socket
  @ DRIVER MODE: Message from server: STATUS
  @ DRIVER MODE: Message from server: INIT
  @ DRIVER MODE: Receiving replica           0          -1
  @ DRIVER MODE: Receiving encoded integer          25
  @ DRIVER MODE:  SCF:  T  FORCE:  T  STRESS:  F  VC:  F  ENSEMBLE:  F
  @ DRIVER MODE:  SCF:  T  FORCE:  T  STRESS:  F  VC:  F  ENSEMBLE:  F

     Using Slab Decomposition

     bravais-lattice index     =            0
     lattice parameter (alat)  =       1.8897  a.u.
     unit-cell volume          =    6658.9804 (a.u.)^3
     number of atoms/cell      =           55
     number of atomic types    =            4
     number of electrons       =       399.00
     number of Kohn-Sham states=          209
     kinetic-energy cutoff     =      29.3995  Ry
     charge density cutoff     =     293.9946  Ry
     scf convergence threshold =      7.3E-08
     mixing beta               =       0.0500
     number of iterations used =            8  plain     mixing
     Exchange-correlation= BEEF-VDW
                           (   1   4  43  14   2   0   0)

     celldm(1)=   1.889726  celldm(2)=   0.000000  celldm(3)=   0.000000
     celldm(4)=   0.000000  celldm(5)=   0.000000  celldm(6)=   0.000000

     crystal axes: (cart. coord. in units of alat)
               a(1) = (   6.579727   0.000000   0.000000 )
               a(2) = (  -0.000775   5.961596   0.000000 )
               a(3) = (   0.000000   0.000000  25.155947 )

     reciprocal axes: (cart. coord. in units 2 pi/alat)
               b(1) = (  0.151982  0.000020  0.000000 )
               b(2) = (  0.000000  0.167740  0.000000 )
               b(3) = (  0.000000  0.000000  0.039752 )

     PseudoPot. # 1 for Ti read from file:
     /storage/coda1/p-amedford6/0/shared/rich_project_chbe-medford/medford-share/data/pseudos_module/espresso/nninc/pbe/van/Ti.UPF
     MD5 check sum: 8e4df49b7f0d34bbd5052bf3f5ea0213
     Pseudo is Ultrasoft, Zval = 12.0
     Generated by new atomic code, or converted to UPF format
     Using radial grid of  851 points,  6 beta functions with:
                l(1) =   0
                l(2) =   0
                l(3) =   1
                l(4) =   1
                l(5) =   2
                l(6) =   2
     Q(r) pseudized with  8 coefficients,  rinner =    1.000   1.000   1.000
                                                       1.000   1.000

     PseudoPot. # 2 for O  read from file:
     /storage/coda1/p-amedford6/0/shared/rich_project_chbe-medford/medford-share/data/pseudos_module/espresso/nninc/pbe/van/O.UPF
     MD5 check sum: 78c19812648e8988a0fe644b0f25305e
     Pseudo is Ultrasoft, Zval =  6.0
     Generated by new atomic code, or converted to UPF format
     Using radial grid of  737 points,  4 beta functions with:
                l(1) =   0
                l(2) =   0
                l(3) =   1
                l(4) =   1
     Q(r) pseudized with  8 coefficients,  rinner =    0.800   0.800   0.800

     PseudoPot. # 3 for C  read from file:
     /storage/coda1/p-amedford6/0/shared/rich_project_chbe-medford/medford-share/data/pseudos_module/espresso/nninc/pbe/van/C.UPF
     MD5 check sum: 1a69bf6b8db32088f5b2163dbdb77a27
     Pseudo is Ultrasoft, Zval =  4.0
     Generated by new atomic code, or converted to UPF format
     Using radial grid of  721 points,  4 beta functions with:
                l(1) =   0
                l(2) =   0
                l(3) =   1
                l(4) =   1
     Q(r) pseudized with  8 coefficients,  rinner =    0.800   0.800   0.800

     PseudoPot. # 4 for H  read from file:
     /storage/coda1/p-amedford6/0/shared/rich_project_chbe-medford/medford-share/data/pseudos_module/espresso/nninc/pbe/van/H.UPF
     MD5 check sum: b5ee9d7bfd3a09ee7748110bda690ff7
     Pseudo is Ultrasoft, Zval =  1.0
     Generated by new atomic code, or converted to UPF format
     Using radial grid of  615 points,  1 beta functions with:
                l(1) =   0
     Q(r) pseudized with  8 coefficients,  rinner =    0.800

     atomic species   valence    mass     pseudopotential
        Ti1           12.00    47.86700     Ti( 1.00)
        O1             6.00    15.99900     O ( 1.00)
        C1             4.00    12.01100     C ( 1.00)
        H1             1.00     1.00800     H ( 1.00)

     No symmetry found

   Cartesian axes

     site n.     atom                  positions (alat units)
         1           Ti1 tau(   1) = (   0.0004258   2.9801865   6.0000000  )
         2           Ti1 tau(   2) = (   3.2906075   1.4906267   6.0002472  )
         3           O1  tau(   3) = (   0.0006271   0.0005054   7.9858123  )
         4           O1  tau(   4) = (   3.2906025   0.0005020   7.3038282  )
         5           O1  tau(   5) = (   4.5942328   1.4918067   9.2879030  )
         6           O1  tau(   6) = (   1.9868534   1.4903216   9.2879459  )
         7           Ti1 tau(   7) = (   3.3364693   3.0244086   9.1899460  )
         8           Ti1 tau(   8) = (   0.0614121   1.5180315   9.2736979  )
         9           O1  tau(   9) = (   3.3192415   0.0109611  11.3574448  )
        10           O1  tau(  10) = (   0.0135824   0.0030625  10.5923660  )
        11           O1  tau(  11) = (   1.3113730   1.4888140  12.6397483  )
        12           O1  tau(  12) = (   5.3365169   1.4868518  12.6422516  )
        13           Ti1 tau(  13) = (   0.0249591   3.0356721  12.5595363  )
        14           Ti1 tau(  14) = (   3.3216347   1.5719315  12.4302660  )
        15           O1  tau(  15) = (   0.0475996   5.9320359  14.6592625  )
        16           O1  tau(  16) = (   3.3253441   5.8716044  14.0084122  )
        17           O1  tau(  17) = (   4.6294077   1.4993822  16.1384749  )
        18           O1  tau(  18) = (   2.0712093   1.5368213  16.0656395  )
        19           Ti1 tau(  19) = (   3.3420502   2.9337026  15.6791356  )
        20           Ti1 tau(  20) = (   0.0819182   1.3209985  15.9439250  )
        21           O1  tau(  21) = (   3.2904802   0.0005063   4.7018136  )
        22           O1  tau(  22) = (   0.1121901   0.0005398  17.1797988  )
        23           O1  tau(  23) = (   1.3043587   1.4918075   6.0039043  )
        24           O1  tau(  24) = (   5.2767064   1.4903225   6.0039473  )
        25           Ti1 tau(  25) = (   0.0000382   5.9609847   6.0000000  )
        26           Ti1 tau(  26) = (   3.2902200   4.4714249   6.0002472  )
        27           O1  tau(  27) = (   0.0002396   2.9813036   7.9858123  )
        28           O1  tau(  28) = (   3.2902150   2.9813002   7.3038282  )
        29           O1  tau(  29) = (   4.5938453   4.4726049   9.2879030  )
        30           O1  tau(  30) = (   1.9864658   4.4711199   9.2879459  )
        31           Ti1 tau(  31) = (   3.3365859   0.0383882   9.1683042  )
        32           Ti1 tau(  32) = (   0.0607984   4.4756772   9.2727477  )
        33           O1  tau(  33) = (   3.3154497   2.9528697  11.3100477  )
        34           O1  tau(  34) = (   0.0130381   2.9821538  10.6068333  )
        35           O1  tau(  35) = (   1.3079814   4.4632751  12.6339740  )
        36           O1  tau(  36) = (   5.3374838   4.4678533  12.6371107  )
        37           Ti1 tau(  37) = (   0.0367351   0.0553833  12.4739561  )
        38           Ti1 tau(  38) = (   3.3178111   4.6524667  12.7070490  )
        39           O1  tau(  39) = (   0.0226182   2.9861015  14.7894940  )
        40           O1  tau(  40) = (   3.3464301   2.9603322  13.9061577  )
        41           O1  tau(  41) = (   4.6320376   4.4053937  16.1659747  )
        42           O1  tau(  42) = (   2.0651706   4.3480327  16.1155179  )
        43           Ti1 tau(  43) = (   3.4032537   5.9185344  16.2710929  )
        44           Ti1 tau(  44) = (   0.0646745   4.5145260  15.8553686  )
        45           O1  tau(  45) = (   3.2900926   2.9813045   4.7018136  )
        46           O1  tau(  46) = (   1.3039711   4.4726057   6.0039043  )
        47           O1  tau(  47) = (   5.2763189   4.4711207   6.0039473  )
        48           C1  tau(  48) = (   5.9353497   3.0583042  18.8699169  )
        49           O1  tau(  49) = (   0.1856485   3.0014673  17.6677584  )
        50           H1  tau(  50) = (   4.9577780   2.6849493  18.5881267  )
        51           H1  tau(  51) = (   1.1185258   3.1466834  17.9024234  )
        52           H1  tau(  52) = (   6.3707541   2.4080388  19.6265123  )
        53           H1  tau(  53) = (   5.8722695   4.0904670  19.2075282  )
        54           O1  tau(  54) = (   3.1427056   0.0023213  18.1124628  )
        55           H1  tau(  55) = (   2.2021640   0.0520986  18.3490109  )

     number of k points=    10  Fermi-Dirac smearing, width (Ry)=  0.0073
                       cart. coord. in units 2pi/alat
        k(    1) = (   0.0000000   0.0000000   0.0000000), wk =   0.1250000
        k(    2) = (   0.0000000   0.0419351   0.0000000), wk =   0.2500000
        k(    3) = (   0.0000000  -0.0838702   0.0000000), wk =   0.1250000
        k(    4) = (   0.0379955   0.0000049   0.0000000), wk =   0.2500000
        k(    5) = (   0.0379955   0.0419400   0.0000000), wk =   0.2500000
        k(    6) = (   0.0379955  -0.0838652   0.0000000), wk =   0.2500000
        k(    7) = (   0.0379955  -0.0419301   0.0000000), wk =   0.2500000
        k(    8) = (  -0.0759910  -0.0000099   0.0000000), wk =   0.1250000
        k(    9) = (  -0.0759910   0.0419252   0.0000000), wk =   0.2500000
        k(   10) = (  -0.0759910  -0.0838800   0.0000000), wk =   0.1250000

     Initial potential from superposition of free atoms

     starting charge  382.99916, renormalised to  399.00000

     negative rho (up, down):  1.652E-02 0.000E+00

     %%%%%%%%%%%%%%%%%%%%%%%%%%%%%%%%%%%%%%%%%%%%%%%%%%%%%%%%%%%%%%%%%%%%%%%%
     %                                                                      %
     % You are using vdW-DF, which was implemented by the Thonhauser group. %
     % Please cite the following two papers that made this development      %
     % possible and the two reviews that describe the various versions:     %
     %                                                                      %
     %   T. Thonhauser et al., PRL 115, 136402 (2015).                      %
     %   T. Thonhauser et al., PRB 76, 125112 (2007).                       %
     %   K. Berland et al., Rep. Prog. Phys. 78, 066501 (2015).             %
     %   D.C. Langreth et al., J. Phys.: Condens. Matter 21, 084203 (2009). %
     %                                                                      %
     %                                                                      %
     % If you are calculating the stress with vdW-DF, please also cite:     %
     %                                                                      %
     %   R. Sabatini et al., J. Phys.: Condens. Matter 24, 424209 (2012).   %
     %                                                                      %
     %%%%%%%%%%%%%%%%%%%%%%%%%%%%%%%%%%%%%%%%%%%%%%%%%%%%%%%%%%%%%%%%%%%%%%%%

     Adding external electric field

     Computed dipole along edir(3) :
        Dipole              -10.2322 Ry au,        -26.0076 Debye
        Dipole field         -0.0193 Ry au,

        Potential amp.        1.7900 Ry
        Total length         46.3494 bohr

     Starting wfcs are  301 atomic wfcs
  @ DRIVER MODE: Message from server: STATUS
  @ DRIVER MODE: Message from server: POSDATA
  @ DRIVER MODE: Reading and sharing cell
  @ DRIVER MODE: Reading and sharing positions
  @ DRIVER MODE: Received positions

     Self-consistent Calculation

     iteration #  1     ecut=    29.40 Ry     beta= 0.05
     Davidson diagonalization with overlap
     c_bands:  3 eigenvalues not converged
     c_bands:  3 eigenvalues not converged
     c_bands:  4 eigenvalues not converged
     c_bands:  1 eigenvalues not converged
     c_bands:  5 eigenvalues not converged
     c_bands:  5 eigenvalues not converged
     c_bands:  4 eigenvalues not converged
     c_bands:  4 eigenvalues not converged
     c_bands:  4 eigenvalues not converged
     ethr =  1.00E-05,  avg # of iterations = 21.1

[...]

     total energy              =   -2463.85469981 Ry
     estimated scf accuracy    <    5598.07201539 Ry

     iteration #  2     ecut=    29.40 Ry     beta= 0.05
     Davidson diagonalization with overlap
     ethr =  1.00E-02,  avg # of iterations = 25.4

[...]

     iteration # 75     ecut=    29.40 Ry     beta= 0.05
     Davidson diagonalization with overlap
     c_bands:  2 eigenvalues not converged
     ethr =  3.69E-09,  avg # of iterations = 16.6

[...]

     total energy              =   -2966.27816410 Ry
     estimated scf accuracy    <       0.00000008 Ry

     iteration # 84     ecut=    29.40 Ry     beta= 0.05
     Davidson diagonalization with overlap
     ethr =  2.06E-11,  avg # of iterations =  9.5

     negative rho (up, down):  1.671E-02 0.000E+00

     Adding external electric field

     Computed dipole along edir(3) :
        Dipole                1.0453 Ry au,          2.6568 Debye
        Dipole field          0.0020 Ry au,

        Potential amp.       -0.1829 Ry
        Total length         46.3494 bohr

     End of self-consistent calculation

          k = 0.0000 0.0000 0.0000 ( 18029 PWs)   bands (ev):

   -55.7017 -55.6320 -55.5971 -55.5176 -55.4945 -55.4666 -55.4344 -55.4271
   -55.4229 -55.4101 -55.3979 -55.3705 -55.2846 -55.2125 -54.5898 -54.5557
   -32.1110 -32.0935 -32.0127 -32.0022 -31.9589 -31.9498 -31.9219 -31.9194
   -31.8921 -31.8756 -31.8662 -31.7941 -31.7912 -31.7855 -31.7581 -31.7404
   -31.7331 -31.7212 -31.7112 -31.6989 -31.6947 -31.6906 -31.6463 -31.6455
   -31.6439 -31.6364 -31.6318 -31.6245 -31.6125 -31.5965 -31.5914 -31.5815
   -31.5757 -31.5604 -31.5561 -31.5467 -31.5365 -31.5123 -31.4733 -31.4566
   -31.4243 -31.4170 -30.9958 -30.9101 -30.8875 -30.8130 -30.7266 -30.6148
   -20.0623 -16.5184 -16.2850 -16.1054 -15.9041 -15.8406 -15.7821 -15.5937
   -15.5184 -15.3776 -15.2329 -15.2204 -15.1663 -15.1656 -15.1568 -15.1336
   -15.1026 -15.0586 -15.0491 -15.0431 -15.0376 -14.9821 -14.9401 -14.9324
   -14.9254 -14.8845 -14.7564 -14.7160 -14.6596 -14.4890 -14.4461 -13.0897
   -12.9736 -10.9300  -6.7708  -4.9664  -4.7705  -4.0111  -3.6369  -3.5364
    -3.5185  -3.4561  -3.3998  -3.1873  -3.0675  -3.0156  -2.9031  -2.7765
    -2.7376  -2.6815  -2.6575  -2.5658  -2.5439  -2.5136  -2.4888  -2.4313
    -2.4017  -2.3935  -2.3813  -2.3092  -2.2996  -2.1693  -2.1655  -2.0925
    -2.0240  -2.0032  -1.9843  -1.9660  -1.9346  -1.9338  -1.8877  -1.8672
    -1.8454  -1.8133  -1.7420  -1.7210  -1.6609  -1.6204  -1.3860  -1.2254
    -1.2027  -1.1327  -1.1151  -1.0829  -1.0462  -1.0313  -1.0254  -0.9864
    -0.9703  -0.8621  -0.7660  -0.7535  -0.6935  -0.6542  -0.6528  -0.5189
    -0.4708  -0.3972  -0.3713  -0.3461  -0.3232  -0.2307  -0.1877  -0.1703
    -0.1073  -0.0767   0.0348   0.0746   0.0922   0.1307   0.1865   0.2545
     0.2850   0.3216   0.3294   0.3616   0.4108   0.4358   0.4683   0.4947
     0.5341   0.6388   0.6782   0.6936   0.8372   0.8406   0.9254   1.0539
     1.1017   1.3830   1.4351   1.4731   1.6280   2.0027   2.0488   3.4870
     3.6036   3.6145   3.6329   3.7034   3.7936   3.9492   3.9770   4.0480
     4.1432

[...]

          k = 0.0380-0.0419 0.0000 ( 17876 PWs)   bands (ev):

[...]

          k =-0.0760-0.0000 0.0000 ( 17886 PWs)   bands (ev):

[...]

          k =-0.0760-0.0839 0.0000 ( 17948 PWs)   bands (ev):

   -55.7009 -55.6184 -55.6105 -55.5107 -55.4898 -55.4732 -55.4278 -55.4274
   -55.4218 -55.4101 -55.4010 -55.3800 -55.2807 -55.2163 -54.5729 -54.5725
   -32.0129 -31.9529 -31.9454 -31.9302 -31.9225 -31.9186 -31.9146 -31.9007
   -31.8336 -31.8324 -31.7971 -31.7676 -31.7626 -31.7551 -31.7388 -31.7383
   -31.7333 -31.7301 -31.7277 -31.7174 -31.7150 -31.7125 -31.7005 -31.6987
   -31.6722 -31.6691 -31.6357 -31.6303 -31.6293 -31.6289 -31.6187 -31.6149
   -31.6084 -31.6063 -31.5995 -31.5982 -31.5964 -31.5598 -31.5401 -31.4776
   -31.4636 -31.4209 -30.9003 -30.9001 -30.8095 -30.8080 -30.7699 -30.7690
   -20.0586 -16.4937 -15.9007 -15.7566 -15.5939 -15.5757 -15.4981 -15.4025
   -15.3858 -15.3574 -15.3469 -15.3269 -15.3015 -15.2987 -15.2526 -15.1960
   -15.1543 -15.1313 -15.1269 -15.0808 -15.0715 -15.0679 -15.0121 -14.9995
   -14.9901 -14.9515 -14.8917 -14.8634 -14.7852 -14.7576 -14.6041 -13.0758
   -13.0752 -10.9322  -6.7719  -4.9477  -4.7632  -3.9739  -3.0504  -2.9772
    -2.9036  -2.8169  -2.7359  -2.6784  -2.6276  -2.6087  -2.5657  -2.5455
    -2.4750  -2.4413  -2.4337  -2.4120  -2.4098  -2.3833  -2.3678  -2.3549
    -2.3324  -2.3022  -2.2881  -2.2742  -2.2558  -2.2353  -2.2146  -2.1952
    -2.1823  -2.1717  -2.1520  -2.0450  -2.0207  -1.9840  -1.8306  -1.8190
    -1.7536  -1.7212  -1.6908  -1.6855  -1.6528  -1.6448  -1.6018  -1.4927
    -1.4643  -1.4174  -1.3606  -1.2689  -1.2640  -1.2168  -1.1645  -1.1251
    -1.0958  -1.0486  -1.0457  -1.0002  -0.8587  -0.8323  -0.7935  -0.6696
    -0.5972  -0.5820  -0.5680  -0.5509  -0.5247  -0.4775  -0.4721  -0.4159
    -0.3946  -0.3224  -0.3198  -0.2959  -0.2716  -0.1649  -0.0511   0.0413
     0.0756   0.1319   0.1715   0.2071   0.2870   0.3619   0.4452   0.5311
     0.5578   0.5683   0.6897   0.7171   0.7677   0.8210   0.8357   0.8964
     0.9291   0.9718   1.0002   1.7961   1.8095   1.8653   1.8701   3.6750
     3.9242   3.9762   3.9943   4.0070   4.0405   4.0605   4.1070   4.1252
     4.1505

     the Fermi energy is     3.5004 ev

!    total energy              =   -2966.27816990 Ry
     estimated scf accuracy    <       0.00000005 Ry
     smearing contrib. (-TS)   =      -0.02072993 Ry
     internal energy E=F+TS    =   -2966.25743997 Ry

     The total energy is F=E-TS. E is the sum of the following terms:
     one-electron contribution =  -24038.93661318 Ry
     hartree contribution      =   12111.98031460 Ry
     xc contribution           =    -490.94433383 Ry
     ewald contribution        =    9451.64113064 Ry
     electric field correction =       0.00206180 Ry

     convergence has been achieved in  84 iterations

     Forces acting on atoms (cartesian axes, Ry/au):

     atom    1 type  1   force =    -0.00039732    0.00006097    0.09454965
     atom    2 type  1   force =    -0.00032568    0.00499518   -0.17463786
     atom    3 type  2   force =     0.00082206   -0.00023642   -0.02593455
     atom    4 type  2   force =     0.00125390    0.00074854    0.05286096
     atom    5 type  2   force =    -0.01097450   -0.00285616    0.00048910
     atom    6 type  2   force =     0.01163736   -0.00410351    0.00186654
     atom    7 type  1   force =     0.00052673    0.00039300   -0.00014271
     atom    8 type  1   force =    -0.00045041    0.00020034    0.00077954
     atom    9 type  2   force =    -0.00044435    0.00027731   -0.00025186
     atom   10 type  2   force =     0.00031640   -0.00035229   -0.00045340
     atom   11 type  2   force =     0.00061524    0.00032080   -0.00023622
     atom   12 type  2   force =    -0.00038956   -0.00045920   -0.00038281
     atom   13 type  1   force =    -0.00129938   -0.00080339    0.00031018
     atom   14 type  1   force =     0.00028103    0.00009482    0.00055441
     atom   15 type  2   force =     0.00048301    0.00061600    0.00017324
     atom   16 type  2   force =    -0.00049146    0.00053400    0.00056939
     atom   17 type  2   force =     0.00012919    0.00029596   -0.00009865
     atom   18 type  2   force =    -0.00054890    0.00029586   -0.00010000
     atom   19 type  1   force =    -0.00041341    0.00075521   -0.00023677
     atom   20 type  1   force =    -0.00001985   -0.00024538   -0.00066977
     atom   21 type  2   force =    -0.00001505    0.00005231    0.10308429
     atom   22 type  2   force =    -0.00037408   -0.00065703   -0.00046401
     atom   23 type  2   force =    -0.07206576    0.00005045   -0.02788224
     atom   24 type  2   force =     0.07192198    0.00054181   -0.02798996
     atom   25 type  1   force =    -0.00043798    0.00000114    0.10115222
     atom   26 type  1   force =    -0.00007184   -0.00460941   -0.17489118
     atom   27 type  2   force =     0.00089662    0.00114365   -0.02442439
     atom   28 type  2   force =     0.00113631    0.00015088    0.05242620
     atom   29 type  2   force =    -0.01186071    0.00306040    0.00195514
     atom   30 type  2   force =     0.01325871    0.00116015    0.00309121
     atom   31 type  1   force =     0.00058651    0.00003350   -0.00054394
     atom   32 type  1   force =    -0.00036580    0.00070666    0.00047953
     atom   33 type  2   force =    -0.00020249    0.00092856    0.00018255
     atom   34 type  2   force =     0.00013747   -0.00012849   -0.00095983
     atom   35 type  2   force =     0.00034868    0.00007264    0.00053942
     atom   36 type  2   force =     0.00008596    0.00016238    0.00047322
     atom   37 type  1   force =    -0.00145392   -0.00059952    0.00028977
     atom   38 type  1   force =     0.00078563   -0.00026639   -0.00014686
     atom   39 type  2   force =     0.00045579   -0.00014450    0.00123188
     atom   40 type  2   force =    -0.00010996    0.00035839    0.00050736
     atom   41 type  2   force =    -0.00055763   -0.00002001   -0.00051037
     atom   42 type  2   force =     0.00021978    0.00014860   -0.00006393
     atom   43 type  1   force =    -0.00007454    0.00034886   -0.00047782
     atom   44 type  1   force =    -0.00039218   -0.00042766   -0.00119331
     atom   45 type  2   force =    -0.00001427    0.00012886    0.10266601
     atom   46 type  2   force =    -0.07203468   -0.00056726   -0.02786315
     atom   47 type  2   force =     0.07188613   -0.00007829   -0.02794707
     atom   48 type  3   force =     0.00007215   -0.00095598   -0.00130033
     atom   49 type  2   force =    -0.00074103   -0.00039806   -0.00091834
     atom   50 type  4   force =     0.00012381   -0.00014633   -0.00004295
     atom   51 type  4   force =    -0.00009718   -0.00018356   -0.00030411
     atom   52 type  4   force =    -0.00006826   -0.00000033   -0.00001895
     atom   53 type  4   force =    -0.00079369    0.00056552   -0.00005363
     atom   54 type  2   force =     0.00211449   -0.00090813    0.00030656
     atom   55 type  4   force =    -0.00260912   -0.00005547    0.00060259

     Total force =     0.364411     Total SCF correction =     0.000507
  @ DRIVER MODE: Message from server: STATUS
  @ DRIVER MODE: Message from server: GETFORCE
  @ DRIVER MODE: Returning v,forces,stress,ensemble

     Writing output data file ./calc.save/
  @ DRIVER MODE: Message from server: EXIT
  @ DRIVE MODE: Exiting

     General routines

     Parallel routines

   This run was terminated on:  14:21:22  23Sep2021

   JOB DONE.