     Program PWSCF v.6.7GPU starts on 22Sep2021 at 19:32:29

     R & G space division:  proc/nbgrp/npool/nimage =      10
     Reading input from /storage/home/hcoda1/3/ntian30/research/carbon/CxH_vib/H2O_calc/ads_slab/CH3NNH3HO_a/out_0009/pw.inp
Warning: card &CELL ignored
Warning: card   CELL_DYNAMICS='IPI', ignored
Warning: card / ignored

     Current dimensions of program PWSCF are:
     Max number of different atomic species (ntypx) = 10
     Max number of k-points (npk) =  40000
     Max angular momentum in pseudopotentials (lmaxx) =  3
     Presently no symmetry can be used with electric field

     Message from routine cell_base_init:
     DEPRECATED: use true lattice parameter, not A to a.u. conversion factor

     IMPORTANT: XC functional enforced from input :
     Exchange-correlation= BEEF-VDW
                           (   1   4  43  14   2   0   0)
     Any further DFT definition will be discarded
     Please, verify this is what you really want

  @ DRIVER MODE: Connecting to
 qe_1139763_2937318.sched-torque.pace.gatech.edu3az6zch8_scratch
  using UNIX socket
  @ DRIVER MODE: Message from server: STATUS
  @ DRIVER MODE: Message from server: INIT
  @ DRIVER MODE: Receiving replica           0          -1
  @ DRIVER MODE: Receiving encoded integer          25
  @ DRIVER MODE:  SCF:  T  FORCE:  T  STRESS:  F  VC:  F  ENSEMBLE:  F
  @ DRIVER MODE:  SCF:  T  FORCE:  T  STRESS:  F  VC:  F  ENSEMBLE:  F

     Using Slab Decomposition

     bravais-lattice index     =            0
     lattice parameter (alat)  =       1.8897  a.u.
     unit-cell volume          =    6658.9804 (a.u.)^3
     number of atoms/cell      =           58
     number of atomic types    =            5
     number of electrons       =       405.00
     number of Kohn-Sham states=          212
     kinetic-energy cutoff     =      29.3995  Ry
     charge density cutoff     =     293.9946  Ry
     scf convergence threshold =      7.3E-08
     mixing beta               =       0.0500
     number of iterations used =            8  plain     mixing
     Exchange-correlation= BEEF-VDW
                           (   1   4  43  14   2   0   0)

     celldm(1)=   1.889726  celldm(2)=   0.000000  celldm(3)=   0.000000
     celldm(4)=   0.000000  celldm(5)=   0.000000  celldm(6)=   0.000000

     crystal axes: (cart. coord. in units of alat)
               a(1) = (   6.579727   0.000000   0.000000 )
               a(2) = (  -0.000775   5.961596   0.000000 )
               a(3) = (   0.000000   0.000000  25.155947 )

     reciprocal axes: (cart. coord. in units 2 pi/alat)
               b(1) = (  0.151982  0.000020  0.000000 )
               b(2) = (  0.000000  0.167740  0.000000 )
               b(3) = (  0.000000  0.000000  0.039752 )

     PseudoPot. # 1 for Ti read from file:
     /storage/coda1/p-amedford6/0/shared/rich_project_chbe-medford/medford-share/data/pseudos_module/espresso/nninc/pbe/van/Ti.UPF
     MD5 check sum: 8e4df49b7f0d34bbd5052bf3f5ea0213
     Pseudo is Ultrasoft, Zval = 12.0
     Generated by new atomic code, or converted to UPF format
     Using radial grid of  851 points,  6 beta functions with:
                l(1) =   0
                l(2) =   0
                l(3) =   1
                l(4) =   1
                l(5) =   2
                l(6) =   2
     Q(r) pseudized with  8 coefficients,  rinner =    1.000   1.000   1.000
                                                       1.000   1.000

     PseudoPot. # 2 for O  read from file:
     /storage/coda1/p-amedford6/0/shared/rich_project_chbe-medford/medford-share/data/pseudos_module/espresso/nninc/pbe/van/O.UPF
     MD5 check sum: 78c19812648e8988a0fe644b0f25305e
     Pseudo is Ultrasoft, Zval =  6.0
     Generated by new atomic code, or converted to UPF format
     Using radial grid of  737 points,  4 beta functions with:
                l(1) =   0
                l(2) =   0
                l(3) =   1
                l(4) =   1
     Q(r) pseudized with  8 coefficients,  rinner =    0.800   0.800   0.800

     PseudoPot. # 3 for N  read from file:
     /storage/coda1/p-amedford6/0/shared/rich_project_chbe-medford/medford-share/data/pseudos_module/espresso/nninc/pbe/van/N.UPF
     MD5 check sum: 90d10febe142ad51ac9d5be1deb811c4
     Pseudo is Ultrasoft, Zval =  5.0
     Generated by new atomic code, or converted to UPF format
     Using radial grid of  729 points,  4 beta functions with:
                l(1) =   0
                l(2) =   0
                l(3) =   1
                l(4) =   1
     Q(r) pseudized with  8 coefficients,  rinner =    0.800   0.800   0.800

     PseudoPot. # 4 for C  read from file:
     /storage/coda1/p-amedford6/0/shared/rich_project_chbe-medford/medford-share/data/pseudos_module/espresso/nninc/pbe/van/C.UPF
     MD5 check sum: 1a69bf6b8db32088f5b2163dbdb77a27
     Pseudo is Ultrasoft, Zval =  4.0
     Generated by new atomic code, or converted to UPF format
     Using radial grid of  721 points,  4 beta functions with:
                l(1) =   0
                l(2) =   0
                l(3) =   1
                l(4) =   1
     Q(r) pseudized with  8 coefficients,  rinner =    0.800   0.800   0.800

     PseudoPot. # 5 for H  read from file:
     /storage/coda1/p-amedford6/0/shared/rich_project_chbe-medford/medford-share/data/pseudos_module/espresso/nninc/pbe/van/H.UPF
     MD5 check sum: b5ee9d7bfd3a09ee7748110bda690ff7
     Pseudo is Ultrasoft, Zval =  1.0
     Generated by new atomic code, or converted to UPF format
     Using radial grid of  615 points,  1 beta functions with:
                l(1) =   0
     Q(r) pseudized with  8 coefficients,  rinner =    0.800

     atomic species   valence    mass     pseudopotential
        Ti1           12.00    47.86700     Ti( 1.00)
        O1             6.00    15.99900     O ( 1.00)
        N1             5.00    14.00700     N ( 1.00)
        C1             4.00    12.01100     C ( 1.00)
        H1             1.00     1.00800     H ( 1.00)

     No symmetry found

   Cartesian axes

     site n.     atom                  positions (alat units)
         1           Ti1 tau(   1) = (   0.0004258   2.9801865   6.0000000  )
         2           Ti1 tau(   2) = (   3.2906075   1.4906267   6.0002472  )
         3           O1  tau(   3) = (   0.0006271   0.0005054   7.9858123  )
         4           O1  tau(   4) = (   3.2906025   0.0005020   7.3038282  )
         5           O1  tau(   5) = (   4.5942328   1.4918067   9.2879030  )
         6           O1  tau(   6) = (   1.9868534   1.4903216   9.2879459  )
         7           Ti1 tau(   7) = (   3.2907910   2.8959150   9.1758416  )
         8           Ti1 tau(   8) = (   0.0015273   1.4827037   9.2680791  )
         9           O1  tau(   9) = (   3.2949357   5.9297256  11.2770696  )
        10           O1  tau(  10) = (   0.0116148   5.9584955  10.6183126  )
        11           O1  tau(  11) = (   1.2901270   1.4659759  12.6218969  )
        12           O1  tau(  12) = (   5.3029181   1.4690452  12.6271982  )
        13           Ti1 tau(  13) = (   6.5637346   3.0486055  12.7052252  )
        14           Ti1 tau(  14) = (   3.3207578   1.2909511  12.6638180  )
        15           O1  tau(  15) = (   0.0081040   5.9567798  14.6379979  )
        16           O1  tau(  16) = (   3.2944190   0.0149942  13.8863584  )
        17           O1  tau(  17) = (   4.5334936   1.5584448  16.0391558  )
        18           O1  tau(  18) = (   2.0244848   1.5379376  16.0854781  )
        19           Ti1 tau(  19) = (   3.2579824   3.0118882  15.6538344  )
        20           Ti1 tau(  20) = (   6.4918182   1.5199401  15.8876453  )
        21           O1  tau(  21) = (   3.2904802   0.0005063   4.7018136  )
        22           O1  tau(  22) = (   6.5166677   0.0216046  17.1949088  )
        23           O1  tau(  23) = (   1.3043587   1.4918075   6.0039043  )
        24           O1  tau(  24) = (   5.2767064   1.4903225   6.0039473  )
        25           Ti1 tau(  25) = (   0.0000382   5.9609847   6.0000000  )
        26           Ti1 tau(  26) = (   3.2902200   4.4714249   6.0002472  )
        27           O1  tau(  27) = (   0.0002396   2.9813036   7.9858123  )
        28           O1  tau(  28) = (   3.2902150   2.9813002   7.3038282  )
        29           O1  tau(  29) = (   4.5938453   4.4726049   9.2879030  )
        30           O1  tau(  30) = (   1.9864658   4.4711199   9.2879459  )
        31           Ti1 tau(  31) = (   3.2891106   5.8743827   9.1763621  )
        32           Ti1 tau(  32) = (   0.0006254   4.4649316   9.2693709  )
        33           O1  tau(  33) = (   3.2959121   3.0085915  11.2438341  )
        34           O1  tau(  34) = (   0.0092240   2.9805883  10.6323155  )
        35           O1  tau(  35) = (   1.2849535   4.4488585  12.6204231  )
        36           O1  tau(  36) = (   5.2878833   4.4365118  12.6243745  )
        37           Ti1 tau(  37) = (   0.0500071   0.0677371  12.6535751  )
        38           Ti1 tau(  38) = (   3.3027700   4.3871210  12.4110406  )
        39           O1  tau(  39) = (   6.5685058   2.9535060  14.6525041  )
        40           O1  tau(  40) = (   3.2696111   2.9719761  13.8704823  )
        41           O1  tau(  41) = (   4.5209813   4.4409030  16.0696701  )
        42           O1  tau(  42) = (   2.0131998   4.4599944  16.0916020  )
        43           Ti1 tau(  43) = (   3.2138439   0.0230873  16.3295100  )
        44           Ti1 tau(  44) = (   6.5234412   4.6200706  16.0754176  )
        45           O1  tau(  45) = (   3.2900926   2.9813045   4.7018136  )
        46           O1  tau(  46) = (   1.3039711   4.4726057   6.0039043  )
        47           O1  tau(  47) = (   5.2763189   4.4711207   6.0039473  )
        48           N1  tau(  48) = (   0.0251376   2.9556585  17.3246074  )
        49           N1  tau(  49) = (   6.3772498   2.5361882  22.2688425  )
        50           C1  tau(  50) = (   0.2111848   2.8484408  18.7116211  )
        51           H1  tau(  51) = (   0.3920758   3.8074029  19.2116250  )
        52           H1  tau(  52) = (   5.9044209   2.3708277  19.1722604  )
        53           H1  tau(  53) = (   1.0233575   2.1342068  18.9364007  )
        54           H1  tau(  54) = (   6.0930523   3.2289774  22.9628454  )
        55           H1  tau(  55) = (   0.2277240   1.7755739  22.7685771  )
        56           H1  tau(  56) = (   0.5282093   2.9785696  21.7129995  )
        57           O1  tau(  57) = (   3.3838229   0.0530270  18.1522483  )
        58           H1  tau(  58) = (   4.2718821   5.8932998  18.5223319  )

     number of k points=    10  Fermi-Dirac smearing, width (Ry)=  0.0073
                       cart. coord. in units 2pi/alat
        k(    1) = (   0.0000000   0.0000000   0.0000000), wk =   0.1250000
        k(    2) = (   0.0000000   0.0419351   0.0000000), wk =   0.2500000
        k(    3) = (   0.0000000  -0.0838702   0.0000000), wk =   0.1250000
        k(    4) = (   0.0379955   0.0000049   0.0000000), wk =   0.2500000
        k(    5) = (   0.0379955   0.0419400   0.0000000), wk =   0.2500000
        k(    6) = (   0.0379955  -0.0838652   0.0000000), wk =   0.2500000
        k(    7) = (   0.0379955  -0.0419301   0.0000000), wk =   0.2500000
        k(    8) = (  -0.0759910  -0.0000099   0.0000000), wk =   0.1250000
        k(    9) = (  -0.0759910   0.0419252   0.0000000), wk =   0.2500000
        k(   10) = (  -0.0759910  -0.0838800   0.0000000), wk =   0.1250000

     Initial potential from superposition of free atoms

     starting charge  388.99913, renormalised to  405.00000

     negative rho (up, down):  7.828E-03 0.000E+00

     %%%%%%%%%%%%%%%%%%%%%%%%%%%%%%%%%%%%%%%%%%%%%%%%%%%%%%%%%%%%%%%%%%%%%%%%
     %                                                                      %
     % You are using vdW-DF, which was implemented by the Thonhauser group. %
     % Please cite the following two papers that made this development      %
     % possible and the two reviews that describe the various versions:     %
     %                                                                      %
     %   T. Thonhauser et al., PRL 115, 136402 (2015).                      %
     %   T. Thonhauser et al., PRB 76, 125112 (2007).                       %
     %   K. Berland et al., Rep. Prog. Phys. 78, 066501 (2015).             %
     %   D.C. Langreth et al., J. Phys.: Condens. Matter 21, 084203 (2009). %
     %                                                                      %
     %                                                                      %
     % If you are calculating the stress with vdW-DF, please also cite:     %
     %                                                                      %
     %   R. Sabatini et al., J. Phys.: Condens. Matter 24, 424209 (2012).   %
     %                                                                      %
     %%%%%%%%%%%%%%%%%%%%%%%%%%%%%%%%%%%%%%%%%%%%%%%%%%%%%%%%%%%%%%%%%%%%%%%%

     Adding external electric field

     Computed dipole along edir(3) :
        Dipole              -15.1933 Ry au,        -38.6176 Debye
        Dipole field         -0.0287 Ry au,

        Potential amp.        2.6578 Ry
        Total length         46.3494 bohr

     Starting wfcs are  307 atomic wfcs
  @ DRIVER MODE: Message from server: STATUS
  @ DRIVER MODE: Message from server: POSDATA
  @ DRIVER MODE: Reading and sharing cell
  @ DRIVER MODE: Reading and sharing positions
  @ DRIVER MODE: Received positions

     Self-consistent Calculation

     iteration #  1     ecut=    29.40 Ry     beta= 0.05
     Davidson diagonalization with overlap
     c_bands:  4 eigenvalues not converged
     c_bands:  1 eigenvalues not converged
     c_bands:  1 eigenvalues not converged
     c_bands:  2 eigenvalues not converged
     c_bands:  1 eigenvalues not converged
     c_bands:  2 eigenvalues not converged
     ethr =  1.00E-05,  avg # of iterations = 31.5

[...]

     total energy              =   -2295.07998809 Ry
     estimated scf accuracy    <    7743.73355650 Ry

     iteration #  2     ecut=    29.40 Ry     beta= 0.05
     Davidson diagonalization with overlap
     ethr =  1.00E-02,  avg # of iterations = 22.6

[...]

     iteration # 50     ecut=    29.40 Ry     beta= 0.05
     Davidson diagonalization with overlap
     c_bands:  1 eigenvalues not converged
     ethr =  5.09E-07,  avg # of iterations = 10.6

[...]

     total energy              =   -2976.42333706 Ry
     estimated scf accuracy    <       0.00000010 Ry

     iteration # 73     ecut=    29.40 Ry     beta= 0.05
     Davidson diagonalization with overlap
     ethr =  2.56E-11,  avg # of iterations =  5.0

     negative rho (up, down):  9.594E-03 0.000E+00

     Adding external electric field

     Computed dipole along edir(3) :
        Dipole                0.6343 Ry au,          1.6122 Debye
        Dipole field          0.0012 Ry au,

        Potential amp.       -0.1110 Ry
        Total length         46.3494 bohr

     End of self-consistent calculation

          k = 0.0000 0.0000 0.0000 ( 18029 PWs)   bands (ev):

   -56.5657 -56.5321 -55.6411 -55.6060 -55.4253 -55.3588 -55.2306 -55.1168
   -55.0829 -55.0349 -55.0029 -54.9684 -54.9105 -54.8169 -54.7451 -54.6132
   -32.9844 -32.8361 -32.8080 -32.7451 -32.6549 -32.6115 -32.1229 -31.9002
   -31.8614 -31.8399 -31.7853 -31.7775 -31.7522 -31.6587 -31.6384 -31.5937
   -31.5619 -31.5461 -31.5221 -31.5097 -31.5047 -31.4943 -31.4639 -31.4626
   -31.4393 -31.4202 -31.3550 -31.3207 -31.2982 -31.2924 -31.2405 -31.2325
   -31.2156 -31.1939 -31.1812 -31.1661 -31.1588 -31.1290 -31.1231 -31.0914
   -31.0473 -31.0025 -31.0018 -30.9803 -30.9473 -30.8874 -30.8507 -30.8003
   -16.6690 -16.1109 -16.0875 -15.8822 -15.7597 -15.7543 -15.7111 -15.6423
   -15.4733 -15.4045 -15.3760 -15.3149 -15.1705 -15.0549 -14.9577 -14.7778
   -14.7042 -14.6990 -14.6801 -14.6726 -14.6556 -14.6347 -14.5758 -14.5173
   -14.4748 -14.4100 -14.3665 -14.2204 -14.0200 -13.9947 -13.9475 -13.6142
   -13.5073 -13.5026  -7.7376  -4.2445  -4.0702  -3.9455  -3.6981  -3.5775
    -3.4049  -3.2524  -3.2021  -3.1435  -3.0845  -3.0748  -2.9273  -2.9257
    -2.9139  -2.9069  -2.8289  -2.7700  -2.7054  -2.6185  -2.6029  -2.5082
    -2.4615  -2.3022  -2.2762  -2.1752  -2.1032  -2.0976  -2.0315  -2.0086
    -1.9613  -1.9162  -1.9069  -1.8722  -1.8286  -1.7817  -1.7635  -1.6521
    -1.6446  -1.5796  -1.5730  -1.5502  -1.4368  -1.4169  -1.3470  -1.2019
    -1.1805  -1.1772  -1.1301  -1.1127  -1.0310  -0.9349  -0.8678  -0.8411
    -0.7851  -0.6965  -0.6499  -0.6281  -0.5556  -0.5361  -0.4620  -0.4184
    -0.4055  -0.3849  -0.3429  -0.2284  -0.1416  -0.1087  -0.0550  -0.0296
     0.0031   0.0301   0.0492   0.0979   0.1676   0.2535   0.2746   0.4133
     0.4653   0.5021   0.5777   0.6120   0.6184   0.7076   0.7391   0.7688
     0.8152   0.8899   0.9044   0.9053   0.9643   1.0484   1.1030   1.1466
     1.1668   1.2034   1.2114   1.2624   1.3509   1.3716   1.4408   1.4958
     1.8197   1.8821   2.4842   2.7287   2.9002   3.1771   3.3692   3.6726
     3.7146   3.7325   3.7327   4.0389

[...]

          k = 0.0380-0.0419 0.0000 ( 17876 PWs)   bands (ev):

[...]

          k =-0.0760-0.0000 0.0000 ( 17886 PWs)   bands (ev):

[...]

          k =-0.0760-0.0839 0.0000 ( 17948 PWs)   bands (ev):

   -56.5495 -56.5482 -55.6287 -55.6183 -55.4207 -55.3633 -55.2298 -55.1004
   -55.0992 -55.0300 -55.0036 -54.9730 -54.9089 -54.8155 -54.7467 -54.6145
   -32.8226 -32.8211 -32.8023 -32.8009 -32.6992 -32.6981 -31.9474 -31.9383
   -31.8232 -31.8180 -31.8120 -31.8103 -31.7201 -31.6772 -31.6519 -31.6389
   -31.5892 -31.5874 -31.5015 -31.4742 -31.4646 -31.4529 -31.4520 -31.3692
   -31.3498 -31.3204 -31.3190 -31.3011 -31.2941 -31.2843 -31.2806 -31.2801
   -31.2516 -31.2326 -31.2146 -31.1998 -31.1960 -31.1580 -31.1578 -31.1018
   -31.0904 -31.0503 -31.0061 -30.9951 -30.9588 -30.9520 -30.8527 -30.8357
   -16.0754 -16.0274 -16.0255 -15.9821 -15.9805 -15.7187 -15.7142 -15.4638
   -15.4345 -15.2551 -15.1512 -15.1272 -15.0837 -15.0421 -14.9710 -14.9166
   -14.8870 -14.8550 -14.8290 -14.7669 -14.7371 -14.6324 -14.5997 -14.5523
   -14.5160 -14.4541 -14.4132 -14.3639 -14.1767 -14.1329 -13.9469 -13.6118
   -13.6113 -13.5275  -7.7367  -4.0817  -3.9445  -3.6893  -3.1587  -3.1034
    -3.0991  -3.0665  -3.0593  -2.9739  -2.8528  -2.8497  -2.7543  -2.6475
    -2.6210  -2.5981  -2.5375  -2.5281  -2.4280  -2.3784  -2.3735  -2.3591
    -2.3228  -2.2932  -2.2867  -2.2268  -2.0883  -2.0722  -2.0230  -1.9690
    -1.8945  -1.8860  -1.8767  -1.8399  -1.7982  -1.7728  -1.7618  -1.7347
    -1.7299  -1.7254  -1.6161  -1.5111  -1.4638  -1.3702  -1.3660  -1.3571
    -1.3193  -1.2922  -1.2586  -1.2524  -1.2234  -1.1435  -1.1173  -1.0474
    -0.9337  -0.9158  -0.8740  -0.8256  -0.7219  -0.7036  -0.6140  -0.5777
    -0.5663  -0.5069  -0.4779  -0.4618  -0.4037  -0.3644  -0.2327  -0.1928
    -0.1813  -0.1643  -0.1420  -0.1058  -0.0446   0.0169   0.0487   0.0506
     0.1552   0.2549   0.3428   0.4120   0.4214   0.4446   0.5310   0.6363
     0.6775   0.7021   0.7505   0.8741   0.9919   1.0216   1.1222   1.1485
     1.1603   1.2633   1.2810   1.2862   1.3062   1.3154   1.3505   1.4170
     1.4779   1.7644   2.3172   3.3213   3.3244   3.3826   3.3882   3.6989
     3.7012   3.8125   3.8175   4.1361

     the Fermi energy is     2.3941 ev

!    total energy              =   -2976.42335411 Ry
     estimated scf accuracy    <       0.00000005 Ry
     smearing contrib. (-TS)   =      -0.01084044 Ry
     internal energy E=F+TS    =   -2976.41251367 Ry

     The total energy is F=E-TS. E is the sum of the following terms:
     one-electron contribution =  -22707.49298734 Ry
     hartree contribution      =   11450.09499798 Ry
     xc contribution           =    -495.34077696 Ry
     ewald contribution        =    8776.32549341 Ry
     electric field correction =       0.00075924 Ry

     convergence has been achieved in  73 iterations

     Forces acting on atoms (cartesian axes, Ry/au):

     atom    1 type  1   force =     0.00002784   -0.00052616    0.12630988
     atom    2 type  1   force =    -0.00009363    0.00040763   -0.15471387
     atom    3 type  2   force =     0.00002882    0.00002798   -0.06829211
     atom    4 type  2   force =     0.00005988   -0.00010880    0.01705133
     atom    5 type  2   force =    -0.00487473   -0.00242540   -0.01323280
     atom    6 type  2   force =     0.00655781   -0.00180322   -0.01375020
     atom    7 type  1   force =    -0.00029373   -0.00661675    0.05924632
     atom    8 type  1   force =     0.00038808    0.00687077    0.10031530
     atom    9 type  2   force =    -0.00002238    0.00066602    0.00131653
     atom   10 type  2   force =    -0.00261444   -0.00001287   -0.06339190
     atom   11 type  2   force =     0.00043620   -0.00068790   -0.00028231
     atom   12 type  2   force =    -0.00085137   -0.00112424   -0.00109296
     atom   13 type  1   force =    -0.00030576    0.00070369   -0.00139459
     atom   14 type  1   force =    -0.00033186   -0.00038571   -0.00024632
     atom   15 type  2   force =    -0.00065838   -0.00039124   -0.00058555
     atom   16 type  2   force =     0.00019770    0.00092954   -0.00031826
     atom   17 type  2   force =     0.00078754    0.00009736   -0.00055404
     atom   18 type  2   force =    -0.00023045   -0.00014624   -0.00004075
     atom   19 type  1   force =    -0.00020805   -0.00011884   -0.00093386
     atom   20 type  1   force =     0.00069153    0.00083845   -0.00048819
     atom   21 type  2   force =     0.00006286    0.00015685    0.09779769
     atom   22 type  2   force =     0.00041382   -0.00033557    0.00141965
     atom   23 type  2   force =    -0.08276547    0.00005673   -0.03312776
     atom   24 type  2   force =     0.08270791    0.00050342   -0.03320419
     atom   25 type  1   force =     0.00006780   -0.00036004    0.12646267
     atom   26 type  1   force =    -0.00010664   -0.00148678   -0.15488725
     atom   27 type  2   force =     0.00011488   -0.00046795   -0.06666803
     atom   28 type  2   force =     0.00004884    0.00167358    0.01199184
     atom   29 type  2   force =    -0.00342811    0.00422349   -0.01620636
     atom   30 type  2   force =     0.00505741    0.00456762   -0.01660825
     atom   31 type  1   force =    -0.00015864    0.00217779    0.04256308
     atom   32 type  1   force =     0.00044384   -0.00894011    0.10088916
     atom   33 type  2   force =    -0.00048461   -0.00012304   -0.00038206
     atom   34 type  2   force =    -0.00212543   -0.00026220   -0.07625142
     atom   35 type  2   force =    -0.00010482    0.00069632    0.00086353
     atom   36 type  2   force =    -0.00048983    0.00051106    0.00038912
     atom   37 type  1   force =     0.00043629    0.00061521   -0.00018831
     atom   38 type  1   force =    -0.00042039   -0.00067867   -0.00067113
     atom   39 type  2   force =     0.00044913   -0.00032190   -0.00040873
     atom   40 type  2   force =     0.00037115   -0.00062955   -0.00001918
     atom   41 type  2   force =     0.00027097    0.00048004   -0.00004058
     atom   42 type  2   force =    -0.00020908   -0.00019321    0.00011365
     atom   43 type  1   force =     0.00051332    0.00135268   -0.00097042
     atom   44 type  1   force =    -0.00024549   -0.00107097    0.00081760
     atom   45 type  2   force =     0.00009449   -0.00001269    0.09764198
     atom   46 type  2   force =    -0.08281100    0.00003783   -0.03318152
     atom   47 type  2   force =     0.08272035    0.00045489   -0.03318622
     atom   48 type  3   force =     0.00001491    0.00040971    0.00039447
     atom   49 type  3   force =    -0.00377490    0.02223853   -0.00404669
     atom   50 type  4   force =     0.00073873    0.00033890    0.00059752
     atom   51 type  5   force =     0.00000388   -0.00027129   -0.00055695
     atom   52 type  5   force =     0.00011088    0.00089513   -0.00055918
     atom   53 type  5   force =    -0.00019283    0.00033497    0.00040934
     atom   54 type  5   force =     0.00180480   -0.00825496   -0.00615299
     atom   55 type  5   force =     0.00640554   -0.00927190    0.00648412
     atom   56 type  5   force =    -0.00394910   -0.00467576    0.00308374
     atom   57 type  2   force =    -0.00182984   -0.00056742    0.00034379
     atom   58 type  5   force =     0.00155375    0.00000521    0.00013257

     Total force =     0.421710     Total SCF correction =     0.000687
  @ DRIVER MODE: Message from server: STATUS
  @ DRIVER MODE: Message from server: GETFORCE
  @ DRIVER MODE: Returning v,forces,stress,ensemble

     Writing output data file ./calc.save/
  @ DRIVER MODE: Message from server: EXIT
  @ DRIVE MODE: Exiting

     General routines

     Parallel routines

   This run was terminated on:  19:52:32  22Sep2021

   JOB DONE.