     Program PWSCF v.6.7GPU starts on 15Sep2021 at 17:22:14

     R & G space division:  proc/nbgrp/npool/nimage =      10
     Reading input from /storage/home/hcoda1/3/ntian30/research/carbon/CxH_vib/H2O_calc/ads_slab/CH3NNHHHH2O_a/out_0005/pw.inp
Warning: card &CELL ignored
Warning: card   CELL_DYNAMICS='IPI', ignored
Warning: card / ignored

     Current dimensions of program PWSCF are:
     Max number of different atomic species (ntypx) = 10
     Max number of k-points (npk) =  40000
     Max angular momentum in pseudopotentials (lmaxx) =  3
     Presently no symmetry can be used with electric field

     Message from routine cell_base_init:
     DEPRECATED: use true lattice parameter, not A to a.u. conversion factor

     IMPORTANT: XC functional enforced from input :
     Exchange-correlation= BEEF-VDW
                           (   1   4  43  14   2   0   0)
     Any further DFT definition will be discarded
     Please, verify this is what you really want

  @ DRIVER MODE: Connecting to
 qe_1139763_2852622.sched-torque.pace.gatech.eduqgnzkj09_scratch
  using UNIX socket
  @ DRIVER MODE: Message from server: STATUS
  @ DRIVER MODE: Message from server: INIT
  @ DRIVER MODE: Receiving replica           0          -1
  @ DRIVER MODE: Receiving encoded integer          25
  @ DRIVER MODE:  SCF:  T  FORCE:  T  STRESS:  F  VC:  F  ENSEMBLE:  F
  @ DRIVER MODE:  SCF:  T  FORCE:  T  STRESS:  F  VC:  F  ENSEMBLE:  F

     Using Slab Decomposition

     bravais-lattice index     =            0
     lattice parameter (alat)  =       1.8897  a.u.
     unit-cell volume          =    6658.9804 (a.u.)^3
     number of atoms/cell      =           59
     number of atomic types    =            5
     number of electrons       =       406.00
     number of Kohn-Sham states=          213
     kinetic-energy cutoff     =      29.3995  Ry
     charge density cutoff     =     293.9946  Ry
     scf convergence threshold =      7.3E-08
     mixing beta               =       0.0500
     number of iterations used =            8  plain     mixing
     Exchange-correlation= BEEF-VDW
                           (   1   4  43  14   2   0   0)

     celldm(1)=   1.889726  celldm(2)=   0.000000  celldm(3)=   0.000000
     celldm(4)=   0.000000  celldm(5)=   0.000000  celldm(6)=   0.000000

     crystal axes: (cart. coord. in units of alat)
               a(1) = (   6.579727   0.000000   0.000000 )
               a(2) = (  -0.000775   5.961596   0.000000 )
               a(3) = (   0.000000   0.000000  25.155947 )

     reciprocal axes: (cart. coord. in units 2 pi/alat)
               b(1) = (  0.151982  0.000020  0.000000 )
               b(2) = (  0.000000  0.167740  0.000000 )
               b(3) = (  0.000000  0.000000  0.039752 )

     PseudoPot. # 1 for Ti read from file:
     /storage/coda1/p-amedford6/0/shared/rich_project_chbe-medford/medford-share/data/pseudos_module/espresso/nninc/pbe/van/Ti.UPF
     MD5 check sum: 8e4df49b7f0d34bbd5052bf3f5ea0213
     Pseudo is Ultrasoft, Zval = 12.0
     Generated by new atomic code, or converted to UPF format
     Using radial grid of  851 points,  6 beta functions with:
                l(1) =   0
                l(2) =   0
                l(3) =   1
                l(4) =   1
                l(5) =   2
                l(6) =   2
     Q(r) pseudized with  8 coefficients,  rinner =    1.000   1.000   1.000
                                                       1.000   1.000

     PseudoPot. # 2 for O  read from file:
     /storage/coda1/p-amedford6/0/shared/rich_project_chbe-medford/medford-share/data/pseudos_module/espresso/nninc/pbe/van/O.UPF
     MD5 check sum: 78c19812648e8988a0fe644b0f25305e
     Pseudo is Ultrasoft, Zval =  6.0
     Generated by new atomic code, or converted to UPF format
     Using radial grid of  737 points,  4 beta functions with:
                l(1) =   0
                l(2) =   0
                l(3) =   1
                l(4) =   1
     Q(r) pseudized with  8 coefficients,  rinner =    0.800   0.800   0.800

     PseudoPot. # 3 for N  read from file:
     /storage/coda1/p-amedford6/0/shared/rich_project_chbe-medford/medford-share/data/pseudos_module/espresso/nninc/pbe/van/N.UPF
     MD5 check sum: 90d10febe142ad51ac9d5be1deb811c4
     Pseudo is Ultrasoft, Zval =  5.0
     Generated by new atomic code, or converted to UPF format
     Using radial grid of  729 points,  4 beta functions with:
                l(1) =   0
                l(2) =   0
                l(3) =   1
                l(4) =   1
     Q(r) pseudized with  8 coefficients,  rinner =    0.800   0.800   0.800

     PseudoPot. # 4 for C  read from file:
     /storage/coda1/p-amedford6/0/shared/rich_project_chbe-medford/medford-share/data/pseudos_module/espresso/nninc/pbe/van/C.UPF
     MD5 check sum: 1a69bf6b8db32088f5b2163dbdb77a27
     Pseudo is Ultrasoft, Zval =  4.0
     Generated by new atomic code, or converted to UPF format
     Using radial grid of  721 points,  4 beta functions with:
                l(1) =   0
                l(2) =   0
                l(3) =   1
                l(4) =   1
     Q(r) pseudized with  8 coefficients,  rinner =    0.800   0.800   0.800

     PseudoPot. # 5 for H  read from file:
     /storage/coda1/p-amedford6/0/shared/rich_project_chbe-medford/medford-share/data/pseudos_module/espresso/nninc/pbe/van/H.UPF
     MD5 check sum: b5ee9d7bfd3a09ee7748110bda690ff7
     Pseudo is Ultrasoft, Zval =  1.0
     Generated by new atomic code, or converted to UPF format
     Using radial grid of  615 points,  1 beta functions with:
                l(1) =   0
     Q(r) pseudized with  8 coefficients,  rinner =    0.800

     atomic species   valence    mass     pseudopotential
        Ti1           12.00    47.86700     Ti( 1.00)
        O1             6.00    15.99900     O ( 1.00)
        N1             5.00    14.00700     N ( 1.00)
        C1             4.00    12.01100     C ( 1.00)
        H1             1.00     1.00800     H ( 1.00)

     No symmetry found

   Cartesian axes

     site n.     atom                  positions (alat units)
         1           Ti1 tau(   1) = (   0.0004258   2.9801865   6.0000000  )
         2           Ti1 tau(   2) = (   3.2906075   1.4906267   6.0002472  )
         3           O1  tau(   3) = (   0.0006271   0.0005054   7.9858123  )
         4           O1  tau(   4) = (   3.2906025   0.0005020   7.3038282  )
         5           O1  tau(   5) = (   4.5942328   1.4918067   9.2879030  )
         6           O1  tau(   6) = (   1.9868534   1.4903216   9.2879459  )
         7           Ti1 tau(   7) = (   3.2907910   2.8959150   9.1758416  )
         8           Ti1 tau(   8) = (   0.0015273   1.4827037   9.2680791  )
         9           O1  tau(   9) = (   3.2800960   5.9426830  11.3808346  )
        10           O1  tau(  10) = (   0.0116148   5.9584955  10.6183126  )
        11           O1  tau(  11) = (   1.2797812   1.4911726  12.6624455  )
        12           O1  tau(  12) = (   5.2824698   1.4871998  12.6412817  )
        13           Ti1 tau(  13) = (   0.0041451   2.9720195  12.5119452  )
        14           Ti1 tau(  14) = (   3.3095611   1.4699318  12.5307708  )
        15           O1  tau(  15) = (   6.5436702   0.0697967  14.6864816  )
        16           O1  tau(  16) = (   3.2812162   5.9597207  14.0300411  )
        17           O1  tau(  17) = (   4.5129646   1.5046642  16.2361130  )
        18           O1  tau(  18) = (   1.9708392   1.5012857  16.1671103  )
        19           Ti1 tau(  19) = (   3.2655272   2.9480959  15.7331506  )
        20           Ti1 tau(  20) = (   6.5674642   1.4497656  15.9937491  )
        21           O1  tau(  21) = (   3.2904802   0.0005063   4.7018136  )
        22           O1  tau(  22) = (   6.5217933   5.8323795  17.2454964  )
        23           O1  tau(  23) = (   1.3043587   1.4918075   6.0039043  )
        24           O1  tau(  24) = (   5.2767064   1.4903225   6.0039473  )
        25           Ti1 tau(  25) = (   0.0000382   5.9609847   6.0000000  )
        26           Ti1 tau(  26) = (   3.2902200   4.4714249   6.0002472  )
        27           O1  tau(  27) = (   0.0002396   2.9813036   7.9858123  )
        28           O1  tau(  28) = (   3.2902150   2.9813002   7.3038282  )
        29           O1  tau(  29) = (   4.5938453   4.4726049   9.2879030  )
        30           O1  tau(  30) = (   1.9864658   4.4711199   9.2879459  )
        31           Ti1 tau(  31) = (   3.2891106   5.8743827   9.1763621  )
        32           Ti1 tau(  32) = (   0.0006254   4.4649316   9.2693709  )
        33           O1  tau(  33) = (   3.2830490   2.9749636  11.3746576  )
        34           O1  tau(  34) = (   0.0092240   2.9805883  10.6323155  )
        35           O1  tau(  35) = (   1.2760807   4.4612897  12.6946019  )
        36           O1  tau(  36) = (   5.2846406   4.4647657  12.6742532  )
        37           Ti1 tau(  37) = (   0.0173662   5.9591775  12.4970172  )
        38           Ti1 tau(  38) = (   3.3070294   4.4569304  12.5379467  )
        39           O1  tau(  39) = (   6.5190077   2.9374781  14.9220565  )
        40           O1  tau(  40) = (   3.2909943   2.9519766  13.9498127  )
        41           O1  tau(  41) = (   4.5146313   4.4149292  16.1460290  )
        42           O1  tau(  42) = (   1.9668235   4.4047650  16.1116202  )
        43           Ti1 tau(  43) = (   3.2426406   5.9218513  15.8539982  )
        44           Ti1 tau(  44) = (   6.5337747   4.6515477  15.8702276  )
        45           O1  tau(  45) = (   3.2900926   2.9813045   4.7018136  )
        46           O1  tau(  46) = (   1.3039711   4.4726057   6.0039043  )
        47           O1  tau(  47) = (   5.2763189   4.4711207   6.0039473  )
        48           N1  tau(  48) = (   1.0802268   3.0592680  18.8337747  )
        49           N1  tau(  49) = (   6.4825355   2.6367244  18.1156036  )
        50           C1  tau(  50) = (   0.7269815   3.7261681  20.0984356  )
        51           H1  tau(  51) = (   0.0344531   4.5672025  19.9493712  )
        52           H1  tau(  52) = (   0.2718923   3.0081313  20.7822053  )
        53           H1  tau(  53) = (   1.6424345   4.1087450  20.5485440  )
        54           H1  tau(  54) = (   5.7152520   3.3097272  18.2274121  )
        55           H1  tau(  55) = (   6.1788988   1.7551022  18.5268573  )
        56           H1  tau(  56) = (   1.5478348   3.7306874  18.2371031  )
        57           O1  tau(  57) = (   3.1661568   0.0027346  18.3937517  )
        58           H1  tau(  58) = (   4.0701885   0.3469208  18.4697374  )
        59           H1  tau(  59) = (   2.5798038   0.7742236  18.5044111  )

     number of k points=    10  Fermi-Dirac smearing, width (Ry)=  0.0073
                       cart. coord. in units 2pi/alat
        k(    1) = (   0.0000000   0.0000000   0.0000000), wk =   0.1250000
        k(    2) = (   0.0000000   0.0419351   0.0000000), wk =   0.2500000
        k(    3) = (   0.0000000  -0.0838702   0.0000000), wk =   0.1250000
        k(    4) = (   0.0379955   0.0000049   0.0000000), wk =   0.2500000
        k(    5) = (   0.0379955   0.0419400   0.0000000), wk =   0.2500000
        k(    6) = (   0.0379955  -0.0838652   0.0000000), wk =   0.2500000
        k(    7) = (   0.0379955  -0.0419301   0.0000000), wk =   0.2500000
        k(    8) = (  -0.0759910  -0.0000099   0.0000000), wk =   0.1250000
        k(    9) = (  -0.0759910   0.0419252   0.0000000), wk =   0.2500000
        k(   10) = (  -0.0759910  -0.0838800   0.0000000), wk =   0.1250000

     Initial potential from superposition of free atoms

     starting charge  389.99912, renormalised to  406.00000

     negative rho (up, down):  1.306E-02 0.000E+00

     %%%%%%%%%%%%%%%%%%%%%%%%%%%%%%%%%%%%%%%%%%%%%%%%%%%%%%%%%%%%%%%%%%%%%%%%
     %                                                                      %
     % You are using vdW-DF, which was implemented by the Thonhauser group. %
     % Please cite the following two papers that made this development      %
     % possible and the two reviews that describe the various versions:     %
     %                                                                      %
     %   T. Thonhauser et al., PRL 115, 136402 (2015).                      %
     %   T. Thonhauser et al., PRB 76, 125112 (2007).                       %
     %   K. Berland et al., Rep. Prog. Phys. 78, 066501 (2015).             %
     %   D.C. Langreth et al., J. Phys.: Condens. Matter 21, 084203 (2009). %
     %                                                                      %
     %                                                                      %
     % If you are calculating the stress with vdW-DF, please also cite:     %
     %                                                                      %
     %   R. Sabatini et al., J. Phys.: Condens. Matter 24, 424209 (2012).   %
     %                                                                      %
     %%%%%%%%%%%%%%%%%%%%%%%%%%%%%%%%%%%%%%%%%%%%%%%%%%%%%%%%%%%%%%%%%%%%%%%%

     Adding external electric field

     Computed dipole along edir(3) :
        Dipole              -16.1119 Ry au,        -40.9525 Debye
        Dipole field         -0.0304 Ry au,

        Potential amp.        2.8185 Ry
        Total length         46.3494 bohr

     Starting wfcs are  308 atomic wfcs
  @ DRIVER MODE: Message from server: STATUS
  @ DRIVER MODE: Message from server: POSDATA
  @ DRIVER MODE: Reading and sharing cell
  @ DRIVER MODE: Reading and sharing positions
  @ DRIVER MODE: Received positions

     Self-consistent Calculation

     iteration #  1     ecut=    29.40 Ry     beta= 0.05
     Davidson diagonalization with overlap
     c_bands:  2 eigenvalues not converged
     c_bands:  3 eigenvalues not converged
     c_bands:  2 eigenvalues not converged
     c_bands:  3 eigenvalues not converged
     c_bands:  4 eigenvalues not converged
     c_bands:  2 eigenvalues not converged
     c_bands:  1 eigenvalues not converged
     c_bands:  5 eigenvalues not converged
     c_bands:  1 eigenvalues not converged
     ethr =  1.00E-05,  avg # of iterations = 23.1

[...]

     total energy              =   -2140.64467713 Ry
     estimated scf accuracy    <    9598.52879373 Ry

     iteration #  2     ecut=    29.40 Ry     beta= 0.05
     Davidson diagonalization with overlap
     ethr =  1.00E-02,  avg # of iterations = 32.6

[...]

     iteration # 88     ecut=    29.40 Ry     beta= 0.05
     Davidson diagonalization with overlap
     c_bands:  1 eigenvalues not converged
     ethr =  2.17E-10,  avg # of iterations = 11.3

[...]

     total energy              =   -2977.69997501 Ry
     estimated scf accuracy    <       0.00000009 Ry

     iteration # 95     ecut=    29.40 Ry     beta= 0.05
     Davidson diagonalization with overlap
     ethr =  2.12E-11,  avg # of iterations =  2.4

     negative rho (up, down):  1.407E-02 0.000E+00

     Adding external electric field

     Computed dipole along edir(3) :
        Dipole                1.3420 Ry au,          3.4110 Debye
        Dipole field          0.0025 Ry au,

        Potential amp.       -0.2348 Ry
        Total length         46.3494 bohr

     End of self-consistent calculation

          k = 0.0000 0.0000 0.0000 ( 18029 PWs)   bands (ev):

   -55.1168 -55.0801 -55.0726 -55.0385 -55.0326 -55.0275 -54.9959 -54.9600
   -54.9416 -54.9068 -54.9030 -54.8860 -54.8693 -54.8357 -54.1025 -54.0684
   -31.6786 -31.5925 -31.5651 -31.4850 -31.4307 -31.4279 -31.4144 -31.4085
   -31.3616 -31.3387 -31.3284 -31.3174 -31.3105 -31.3078 -31.2896 -31.2812
   -31.2611 -31.2583 -31.2562 -31.2378 -31.2253 -31.2157 -31.1983 -31.1940
   -31.1864 -31.1748 -31.1717 -31.1426 -31.1299 -31.1268 -31.1220 -31.1015
   -31.0988 -31.0911 -31.0878 -31.0639 -31.0550 -31.0383 -31.0310 -31.0291
   -31.0140 -31.0130 -30.5119 -30.4176 -30.3955 -30.3283 -30.2415 -30.1306
   -18.8063 -17.8448 -15.9478 -15.6924 -15.5558 -15.4547 -15.3202 -15.2139
   -15.1326 -15.0185 -14.9687 -14.8535 -14.8210 -14.8164 -14.7770 -14.7456
   -14.6969 -14.6582 -14.6560 -14.6336 -14.6143 -14.6065 -14.5636 -14.5568
   -14.5171 -14.5153 -14.4954 -14.3592 -14.2777 -14.2077 -14.0259 -13.1687
   -12.6050 -12.4875  -9.8056  -6.5388  -6.4166  -5.4771  -4.8999  -3.5279
    -3.2814  -3.1367  -3.0841  -3.0487  -3.0131  -2.9601  -2.8795  -2.8311
    -2.6491  -2.5790  -2.5539  -2.4016  -2.3276  -2.3181  -2.2614  -2.1617
    -2.1368  -2.0900  -2.0480  -1.9833  -1.9458  -1.9225  -1.9007  -1.8655
    -1.8618  -1.8079  -1.7543  -1.6846  -1.5950  -1.5637  -1.5176  -1.4740
    -1.4518  -1.4491  -1.4090  -1.4027  -1.3934  -1.3474  -1.3415  -1.3113
    -1.2649  -1.1558  -1.0052  -0.9438  -0.8517  -0.7589  -0.7294  -0.7084
    -0.6880  -0.6261  -0.6036  -0.5729  -0.4989  -0.4505  -0.3710  -0.3258
    -0.3022  -0.2226  -0.1180  -0.1010  -0.0941  -0.0056   0.0866   0.0996
     0.1141   0.1236   0.2219   0.2872   0.3208   0.3625   0.4269   0.4360
     0.4946   0.5226   0.5734   0.6408   0.6734   0.7524   0.7924   0.8125
     0.8188   0.8412   0.8600   0.8716   0.9533   0.9626   0.9881   1.0769
     1.1814   1.3354   1.4818   1.4926   1.8259   1.8270   1.9204   2.1040
     2.4965   2.5448   3.9776   4.0533   4.1117   4.1229   4.1285   4.2134
     4.4626   4.4803   4.4918   4.4933   4.5283

[...]

          k = 0.0380-0.0419 0.0000 ( 17876 PWs)   bands (ev):

[...]

          k =-0.0760-0.0000 0.0000 ( 17886 PWs)   bands (ev):

[...]

          k =-0.0760-0.0839 0.0000 ( 17948 PWs)   bands (ev):

   -55.1023 -55.0943 -55.0556 -55.0554 -55.0299 -55.0263 -54.9831 -54.9728
   -54.9271 -54.9209 -54.8880 -54.8868 -54.8856 -54.8373 -54.0854 -54.0854
   -31.5077 -31.4883 -31.4785 -31.3802 -31.3801 -31.3746 -31.3680 -31.3469
   -31.3468 -31.3263 -31.3212 -31.3155 -31.3059 -31.2869 -31.2734 -31.2590
   -31.2546 -31.2535 -31.2498 -31.2435 -31.2415 -31.2377 -31.2257 -31.2246
   -31.1954 -31.1946 -31.1774 -31.1754 -31.1752 -31.1664 -31.1662 -31.1602
   -31.1520 -31.1395 -31.1341 -31.1184 -31.1169 -31.1010 -31.0669 -31.0663
   -31.0650 -31.0417 -30.4082 -30.4081 -30.3244 -30.3243 -30.2849 -30.2848
   -18.8048 -17.8415 -15.5278 -15.3892 -15.2502 -15.1466 -15.1317 -15.0781
   -15.0289 -14.9870 -14.9456 -14.9012 -14.8912 -14.8731 -14.8448 -14.8178
   -14.7934 -14.7342 -14.7179 -14.7023 -14.6800 -14.6332 -14.6254 -14.6226
   -14.6155 -14.5693 -14.5667 -14.5417 -14.4731 -14.4710 -14.2852 -13.1706
   -12.5891 -12.5890  -9.8025  -6.5925  -6.3375  -5.4736  -4.9108  -3.5013
    -2.9561  -2.8468  -2.6514  -2.6154  -2.4699  -2.3695  -2.3244  -2.2959
    -2.2424  -2.1967  -2.1366  -2.1216  -2.1032  -2.0446  -2.0193  -2.0003
    -1.9690  -1.9500  -1.9362  -1.9173  -1.9004  -1.8724  -1.8460  -1.8374
    -1.8328  -1.8029  -1.7883  -1.7485  -1.7419  -1.7342  -1.6907  -1.6787
    -1.6526  -1.5961  -1.4885  -1.4782  -1.3258  -1.3235  -1.2873  -1.2440
    -1.2244  -1.2137  -1.1532  -1.1451  -1.1330  -0.8958  -0.8701  -0.8600
    -0.8328  -0.7750  -0.7574  -0.6943  -0.6849  -0.6012  -0.5864  -0.4846
    -0.4679  -0.4091  -0.3288  -0.3208  -0.3085  -0.1971  -0.1475  -0.1098
    -0.0837  -0.0736  -0.0559  -0.0182  -0.0181   0.0716   0.1151   0.1455
     0.1607   0.1905   0.3559   0.4038   0.4125   0.5515   0.5656   0.7128
     0.7770   0.7914   0.8767   0.8994   0.9867   0.9970   1.0366   1.1761
     1.1877   1.2106   1.2580   1.2864   1.3383   1.3434   2.2767   2.2780
     2.3647   2.3649   4.1101   4.2353   4.2417   4.3024   4.4116   4.4446
     4.4910   4.5247   4.5620   4.5649   4.6349

     the Fermi energy is     4.0397 ev

!    total energy              =   -2977.69998338 Ry
     estimated scf accuracy    <       0.00000004 Ry
     smearing contrib. (-TS)   =      -0.03675123 Ry
     internal energy E=F+TS    =   -2977.66323215 Ry

     The total energy is F=E-TS. E is the sum of the following terms:
     one-electron contribution =  -23085.20846399 Ry
     hartree contribution      =   11641.77160915 Ry
     xc contribution           =    -496.62396070 Ry
     ewald contribution        =    8962.39418487 Ry
     electric field correction =       0.00339852 Ry

     convergence has been achieved in  95 iterations

     Forces acting on atoms (cartesian axes, Ry/au):

     atom    1 type  1   force =     0.00017510   -0.00019610    0.09313542
     atom    2 type  1   force =    -0.00010903   -0.00033579   -0.17820510
     atom    3 type  2   force =     0.00002159   -0.00017782   -0.02037586
     atom    4 type  2   force =    -0.00002635   -0.00200393    0.05899145
     atom    5 type  2   force =    -0.01059301   -0.00142009    0.00861023
     atom    6 type  2   force =     0.01185654   -0.00070380    0.00714276
     atom    7 type  1   force =    -0.00089007    0.00312782   -0.01228478
     atom    8 type  1   force =     0.00055728    0.00113918   -0.00449836
     atom    9 type  2   force =    -0.00007596   -0.00037266    0.00014140
     atom   10 type  2   force =    -0.00129285   -0.00051068   -0.00193622
     atom   11 type  2   force =    -0.00021886   -0.00021332   -0.00005639
     atom   12 type  2   force =     0.00060972   -0.00007072   -0.00023871
     atom   13 type  1   force =    -0.00102000   -0.00062356    0.00021346
     atom   14 type  1   force =     0.00011294   -0.00004980    0.00019020
     atom   15 type  2   force =    -0.00027992   -0.00055551   -0.00005766
     atom   16 type  2   force =    -0.00000253   -0.00007532    0.00067619
     atom   17 type  2   force =    -0.00031483    0.00021812    0.00056311
     atom   18 type  2   force =     0.00013999    0.00002582    0.00026851
     atom   19 type  1   force =     0.00021345    0.00005364    0.00055575
     atom   20 type  1   force =    -0.00031854   -0.00017993    0.00019647
     atom   21 type  2   force =     0.00007073   -0.00001663    0.10395756
     atom   22 type  2   force =     0.00004964   -0.00020304   -0.00097549
     atom   23 type  2   force =    -0.07038213   -0.00010595   -0.02687689
     atom   24 type  2   force =     0.07026037    0.00033852   -0.02691338
     atom   25 type  1   force =    -0.00000318   -0.00022285    0.09274740
     atom   26 type  1   force =    -0.00019626   -0.00038271   -0.17831510
     atom   27 type  2   force =     0.00010330   -0.00028554   -0.01934978
     atom   28 type  2   force =     0.00003820   -0.00162462    0.05806553
     atom   29 type  2   force =    -0.01067450   -0.00080736    0.00800782
     atom   30 type  2   force =     0.01179347   -0.00047769    0.00653132
     atom   31 type  1   force =    -0.00072731    0.00504408   -0.01493602
     atom   32 type  1   force =     0.00039561   -0.00139485   -0.00478213
     atom   33 type  2   force =    -0.00011230    0.00021626    0.00029226
     atom   34 type  2   force =    -0.00128888    0.00140804   -0.00089221
     atom   35 type  2   force =     0.00019693    0.00013570    0.00002410
     atom   36 type  2   force =     0.00011720   -0.00001584   -0.00011331
     atom   37 type  1   force =    -0.00102428    0.00056068    0.00005735
     atom   38 type  1   force =     0.00014239   -0.00015508   -0.00002541
     atom   39 type  2   force =    -0.00002186   -0.00013774    0.00011916
     atom   40 type  2   force =    -0.00020467    0.00020716    0.00025134
     atom   41 type  2   force =     0.00000565   -0.00015066    0.00040873
     atom   42 type  2   force =    -0.00012446    0.00001073   -0.00004407
     atom   43 type  1   force =     0.00009452    0.00028522    0.00033309
     atom   44 type  1   force =    -0.00009579    0.00023061   -0.00050238
     atom   45 type  2   force =     0.00004294   -0.00004937    0.10393962
     atom   46 type  2   force =    -0.07037441   -0.00005632   -0.02690131
     atom   47 type  2   force =     0.07028325    0.00037254   -0.02693091
     atom   48 type  3   force =    -0.00381107   -0.00209447    0.01808667
     atom   49 type  3   force =    -0.00290500   -0.00047950   -0.00336582
     atom   50 type  4   force =     0.00296404   -0.00192463   -0.00632903
     atom   51 type  5   force =     0.00033227   -0.00068836   -0.00017274
     atom   52 type  5   force =     0.00059839   -0.00112100   -0.00047667
     atom   53 type  5   force =     0.00069793   -0.00011239   -0.00067053
     atom   54 type  5   force =     0.00070626   -0.00023345   -0.00050851
     atom   55 type  5   force =     0.00091594    0.00091628    0.00011248
     atom   56 type  5   force =     0.00296237    0.00605519   -0.00670609
     atom   57 type  2   force =    -0.00035525    0.00060829   -0.00054468
     atom   58 type  5   force =     0.00075722   -0.00043809    0.00008831
     atom   59 type  5   force =     0.00022806   -0.00028676    0.00027785

     Total force =     0.366742     Total SCF correction =     0.000510
  @ DRIVER MODE: Message from server: STATUS
  @ DRIVER MODE: Message from server: GETFORCE
  @ DRIVER MODE: Returning v,forces,stress,ensemble

     Writing output data file ./calc.save/
  @ DRIVER MODE: Message from server: EXIT
  @ DRIVE MODE: Exiting

     General routines

     Parallel routines

   This run was terminated on:  17:48: 0  15Sep2021

   JOB DONE.