     Program PWSCF v.6.7GPU starts on 22Sep2021 at 22:22:40

     R & G space division:  proc/nbgrp/npool/nimage =       8
     Reading input from /storage/home/hcoda1/3/ntian30/research/carbon/CxH_vib/H2O_calc/ads_slab/CH3N2HHO_a/out_0001/pw.inp
Warning: card &CELL ignored
Warning: card   CELL_DYNAMICS='IPI', ignored
Warning: card / ignored

     Current dimensions of program PWSCF are:
     Max number of different atomic species (ntypx) = 10
     Max number of k-points (npk) =  40000
     Max angular momentum in pseudopotentials (lmaxx) =  3
     Presently no symmetry can be used with electric field

     Message from routine cell_base_init:
     DEPRECATED: use true lattice parameter, not A to a.u. conversion factor

     IMPORTANT: XC functional enforced from input :
     Exchange-correlation= BEEF-VDW
                           (   1   4  43  14   2   0   0)
     Any further DFT definition will be discarded
     Please, verify this is what you really want

  @ DRIVER MODE: Connecting to
 qe_1139763_2941009.sched-torque.pace.gatech.edu4y4sm9bw_scratch
  using UNIX socket
  @ DRIVER MODE: Message from server: STATUS
  @ DRIVER MODE: Message from server: INIT
  @ DRIVER MODE: Receiving replica           0          -1
  @ DRIVER MODE: Receiving encoded integer          25
  @ DRIVER MODE:  SCF:  T  FORCE:  T  STRESS:  F  VC:  F  ENSEMBLE:  F
  @ DRIVER MODE:  SCF:  T  FORCE:  T  STRESS:  F  VC:  F  ENSEMBLE:  F

     Using Slab Decomposition

     bravais-lattice index     =            0
     lattice parameter (alat)  =       1.8897  a.u.
     unit-cell volume          =    6658.9804 (a.u.)^3
     number of atoms/cell      =           56
     number of atomic types    =            5
     number of electrons       =       403.00
     number of Kohn-Sham states=          211
     kinetic-energy cutoff     =      29.3995  Ry
     charge density cutoff     =     293.9946  Ry
     scf convergence threshold =      7.3E-08
     mixing beta               =       0.0500
     number of iterations used =            8  plain     mixing
     Exchange-correlation= BEEF-VDW
                           (   1   4  43  14   2   0   0)

     celldm(1)=   1.889726  celldm(2)=   0.000000  celldm(3)=   0.000000
     celldm(4)=   0.000000  celldm(5)=   0.000000  celldm(6)=   0.000000

     crystal axes: (cart. coord. in units of alat)
               a(1) = (   6.579727   0.000000   0.000000 )
               a(2) = (  -0.000775   5.961596   0.000000 )
               a(3) = (   0.000000   0.000000  25.155947 )

     reciprocal axes: (cart. coord. in units 2 pi/alat)
               b(1) = (  0.151982  0.000020  0.000000 )
               b(2) = (  0.000000  0.167740  0.000000 )
               b(3) = (  0.000000  0.000000  0.039752 )

     PseudoPot. # 1 for Ti read from file:
     /storage/coda1/p-amedford6/0/shared/rich_project_chbe-medford/medford-share/data/pseudos_module/espresso/nninc/pbe/van/Ti.UPF
     MD5 check sum: 8e4df49b7f0d34bbd5052bf3f5ea0213
     Pseudo is Ultrasoft, Zval = 12.0
     Generated by new atomic code, or converted to UPF format
     Using radial grid of  851 points,  6 beta functions with:
                l(1) =   0
                l(2) =   0
                l(3) =   1
                l(4) =   1
                l(5) =   2
                l(6) =   2
     Q(r) pseudized with  8 coefficients,  rinner =    1.000   1.000   1.000
                                                       1.000   1.000

     PseudoPot. # 2 for O  read from file:
     /storage/coda1/p-amedford6/0/shared/rich_project_chbe-medford/medford-share/data/pseudos_module/espresso/nninc/pbe/van/O.UPF
     MD5 check sum: 78c19812648e8988a0fe644b0f25305e
     Pseudo is Ultrasoft, Zval =  6.0
     Generated by new atomic code, or converted to UPF format
     Using radial grid of  737 points,  4 beta functions with:
                l(1) =   0
                l(2) =   0
                l(3) =   1
                l(4) =   1
     Q(r) pseudized with  8 coefficients,  rinner =    0.800   0.800   0.800

     PseudoPot. # 3 for N  read from file:
     /storage/coda1/p-amedford6/0/shared/rich_project_chbe-medford/medford-share/data/pseudos_module/espresso/nninc/pbe/van/N.UPF
     MD5 check sum: 90d10febe142ad51ac9d5be1deb811c4
     Pseudo is Ultrasoft, Zval =  5.0
     Generated by new atomic code, or converted to UPF format
     Using radial grid of  729 points,  4 beta functions with:
                l(1) =   0
                l(2) =   0
                l(3) =   1
                l(4) =   1
     Q(r) pseudized with  8 coefficients,  rinner =    0.800   0.800   0.800

     PseudoPot. # 4 for C  read from file:
     /storage/coda1/p-amedford6/0/shared/rich_project_chbe-medford/medford-share/data/pseudos_module/espresso/nninc/pbe/van/C.UPF
     MD5 check sum: 1a69bf6b8db32088f5b2163dbdb77a27
     Pseudo is Ultrasoft, Zval =  4.0
     Generated by new atomic code, or converted to UPF format
     Using radial grid of  721 points,  4 beta functions with:
                l(1) =   0
                l(2) =   0
                l(3) =   1
                l(4) =   1
     Q(r) pseudized with  8 coefficients,  rinner =    0.800   0.800   0.800

     PseudoPot. # 5 for H  read from file:
     /storage/coda1/p-amedford6/0/shared/rich_project_chbe-medford/medford-share/data/pseudos_module/espresso/nninc/pbe/van/H.UPF
     MD5 check sum: b5ee9d7bfd3a09ee7748110bda690ff7
     Pseudo is Ultrasoft, Zval =  1.0
     Generated by new atomic code, or converted to UPF format
     Using radial grid of  615 points,  1 beta functions with:
                l(1) =   0
     Q(r) pseudized with  8 coefficients,  rinner =    0.800

     atomic species   valence    mass     pseudopotential
        Ti1           12.00    47.86700     Ti( 1.00)
        O1             6.00    15.99900     O ( 1.00)
        N1             5.00    14.00700     N ( 1.00)
        C1             4.00    12.01100     C ( 1.00)
        H1             1.00     1.00800     H ( 1.00)

     No symmetry found

   Cartesian axes

     site n.     atom                  positions (alat units)
         1           Ti1 tau(   1) = (   0.0004258   2.9801865   6.0000000  )
         2           Ti1 tau(   2) = (   3.2906075   1.4906267   6.0002472  )
         3           O1  tau(   3) = (   0.0006271   0.0005054   7.9858123  )
         4           O1  tau(   4) = (   3.2906025   0.0005020   7.3038282  )
         5           O1  tau(   5) = (   4.5942328   1.4918067   9.2879030  )
         6           O1  tau(   6) = (   1.9868534   1.4903216   9.2879459  )
         7           Ti1 tau(   7) = (   3.2907910   2.8959150   9.1758416  )
         8           Ti1 tau(   8) = (   0.0015273   1.4827037   9.2680791  )
         9           O1  tau(   9) = (   3.2827749   5.9542966  11.3123607  )
        10           O1  tau(  10) = (   0.0116148   5.9584955  10.6183126  )
        11           O1  tau(  11) = (   1.2790800   1.4852124  12.6463597  )
        12           O1  tau(  12) = (   5.2943908   1.4901875  12.6352807  )
        13           Ti1 tau(  13) = (   6.5507123   3.1127926  12.6266869  )
        14           Ti1 tau(  14) = (   3.2873181   1.3120036  12.6863921  )
        15           O1  tau(  15) = (   6.5656690   0.0172326  14.6855350  )
        16           O1  tau(  16) = (   3.2842416   0.0515509  13.9244022  )
        17           O1  tau(  17) = (   4.5437539   1.5966601  16.0680646  )
        18           O1  tau(  18) = (   2.0303991   1.5956099  16.0781401  )
        19           Ti1 tau(  19) = (   3.2961159   3.0594788  15.6697774  )
        20           Ti1 tau(  20) = (   6.5318457   1.5630605  15.7780207  )
        21           O1  tau(  21) = (   3.2904802   0.0005063   4.7018136  )
        22           O1  tau(  22) = (   6.5726385   0.0820865  17.2550913  )
        23           O1  tau(  23) = (   1.3043587   1.4918075   6.0039043  )
        24           O1  tau(  24) = (   5.2767064   1.4903225   6.0039473  )
        25           Ti1 tau(  25) = (   0.0000382   5.9609847   6.0000000  )
        26           Ti1 tau(  26) = (   3.2902200   4.4714249   6.0002472  )
        27           O1  tau(  27) = (   0.0002396   2.9813036   7.9858123  )
        28           O1  tau(  28) = (   3.2902150   2.9813002   7.3038282  )
        29           O1  tau(  29) = (   4.5938453   4.4726049   9.2879030  )
        30           O1  tau(  30) = (   1.9864658   4.4711199   9.2879459  )
        31           Ti1 tau(  31) = (   3.2891106   5.8743827   9.1763621  )
        32           Ti1 tau(  32) = (   0.0006254   4.4649316   9.2693709  )
        33           O1  tau(  33) = (   3.2807365   3.0201584  11.2787527  )
        34           O1  tau(  34) = (   0.0092240   2.9805883  10.6323155  )
        35           O1  tau(  35) = (   1.2751182   4.4744369  12.6357194  )
        36           O1  tau(  36) = (   5.2842299   4.4734050  12.6250694  )
        37           Ti1 tau(  37) = (   0.0094520   0.1224552  12.5707632  )
        38           Ti1 tau(  38) = (   3.2670701   4.4034752  12.4162930  )
        39           O1  tau(  39) = (   6.5622168   3.0106679  14.6773207  )
        40           O1  tau(  40) = (   3.2891587   3.0115246  13.8909557  )
        41           O1  tau(  41) = (   4.5321968   4.4927823  16.1577793  )
        42           O1  tau(  42) = (   2.0250423   4.4919485  16.1304878  )
        43           Ti1 tau(  43) = (   3.2250977   0.0853664  16.3312049  )
        44           Ti1 tau(  44) = (   6.5532039   4.7053171  16.1332850  )
        45           O1  tau(  45) = (   3.2900926   2.9813045   4.7018136  )
        46           O1  tau(  46) = (   1.3039711   4.4726057   6.0039043  )
        47           O1  tau(  47) = (   5.2763189   4.4711207   6.0039473  )
        48           N1  tau(  48) = (   0.0550423   2.5931692  18.6004617  )
        49           N1  tau(  49) = (   0.0051179   2.9528117  17.3995676  )
        50           C1  tau(  50) = (   0.1360749   3.5155665  19.7334966  )
        51           H1  tau(  51) = (   6.1082608   4.3937080  19.5213757  )
        52           H1  tau(  52) = (   6.3628389   3.0028702  20.6266755  )
        53           H1  tau(  53) = (   1.1699357   3.8405576  19.8861820  )
        54           H1  tau(  54) = (   0.1060244   1.5775976  18.7788705  )
        55           O1  tau(  55) = (   3.2396048   0.1449850  18.2004881  )
        56           H1  tau(  56) = (   3.4111690   5.2654565  18.6466900  )

     number of k points=    10  Fermi-Dirac smearing, width (Ry)=  0.0073
                       cart. coord. in units 2pi/alat
        k(    1) = (   0.0000000   0.0000000   0.0000000), wk =   0.1250000
        k(    2) = (   0.0000000   0.0419351   0.0000000), wk =   0.2500000
        k(    3) = (   0.0000000  -0.0838702   0.0000000), wk =   0.1250000
        k(    4) = (   0.0379955   0.0000049   0.0000000), wk =   0.2500000
        k(    5) = (   0.0379955   0.0419400   0.0000000), wk =   0.2500000
        k(    6) = (   0.0379955  -0.0838652   0.0000000), wk =   0.2500000
        k(    7) = (   0.0379955  -0.0419301   0.0000000), wk =   0.2500000
        k(    8) = (  -0.0759910  -0.0000099   0.0000000), wk =   0.1250000
        k(    9) = (  -0.0759910   0.0419252   0.0000000), wk =   0.2500000
        k(   10) = (  -0.0759910  -0.0838800   0.0000000), wk =   0.1250000

     Initial potential from superposition of free atoms

     starting charge  386.99914, renormalised to  403.00000

     negative rho (up, down):  1.429E-02 0.000E+00

     %%%%%%%%%%%%%%%%%%%%%%%%%%%%%%%%%%%%%%%%%%%%%%%%%%%%%%%%%%%%%%%%%%%%%%%%
     %                                                                      %
     % You are using vdW-DF, which was implemented by the Thonhauser group. %
     % Please cite the following two papers that made this development      %
     % possible and the two reviews that describe the various versions:     %
     %                                                                      %
     %   T. Thonhauser et al., PRL 115, 136402 (2015).                      %
     %   T. Thonhauser et al., PRB 76, 125112 (2007).                       %
     %   K. Berland et al., Rep. Prog. Phys. 78, 066501 (2015).             %
     %   D.C. Langreth et al., J. Phys.: Condens. Matter 21, 084203 (2009). %
     %                                                                      %
     %                                                                      %
     % If you are calculating the stress with vdW-DF, please also cite:     %
     %                                                                      %
     %   R. Sabatini et al., J. Phys.: Condens. Matter 24, 424209 (2012).   %
     %                                                                      %
     %%%%%%%%%%%%%%%%%%%%%%%%%%%%%%%%%%%%%%%%%%%%%%%%%%%%%%%%%%%%%%%%%%%%%%%%

     Adding external electric field

     Computed dipole along edir(3) :
        Dipole              -12.7219 Ry au,        -32.3358 Debye
        Dipole field         -0.0240 Ry au,

        Potential amp.        2.2255 Ry
        Total length         46.3494 bohr

     Starting wfcs are  305 atomic wfcs
  @ DRIVER MODE: Message from server: STATUS
  @ DRIVER MODE: Message from server: POSDATA
  @ DRIVER MODE: Reading and sharing cell
  @ DRIVER MODE: Reading and sharing positions
  @ DRIVER MODE: Received positions

     Self-consistent Calculation

     iteration #  1     ecut=    29.40 Ry     beta= 0.05
     Davidson diagonalization with overlap
     c_bands:  5 eigenvalues not converged
     c_bands:  4 eigenvalues not converged
     c_bands:  3 eigenvalues not converged
     c_bands:  4 eigenvalues not converged
     c_bands:  5 eigenvalues not converged
     c_bands:  4 eigenvalues not converged
     c_bands:  1 eigenvalues not converged
     c_bands:  4 eigenvalues not converged
     ethr =  1.00E-05,  avg # of iterations = 25.4

[...]

     total energy              =   -2361.22563311 Ry
     estimated scf accuracy    <    6936.00054741 Ry

     iteration #  2     ecut=    29.40 Ry     beta= 0.05
     Davidson diagonalization with overlap
     ethr =  1.00E-02,  avg # of iterations = 23.9

[...]

     iteration # 44     ecut=    29.40 Ry     beta= 0.05
     Davidson diagonalization with overlap
     c_bands:  1 eigenvalues not converged
     ethr =  9.52E-07,  avg # of iterations = 10.0

[...]

     total energy              =   -2973.99526291 Ry
     estimated scf accuracy    <       0.00000008 Ry

     iteration # 71     ecut=    29.40 Ry     beta= 0.05
     Davidson diagonalization with overlap
     ethr =  1.92E-11,  avg # of iterations =  6.6

     negative rho (up, down):  1.502E-02 0.000E+00

     Adding external electric field

     Computed dipole along edir(3) :
        Dipole                1.1933 Ry au,          3.0330 Debye
        Dipole field          0.0023 Ry au,

        Potential amp.       -0.2087 Ry
        Total length         46.3494 bohr

     End of self-consistent calculation

          k = 0.0000 0.0000 0.0000 ( 18029 PWs)   bands (ev):

   -55.7019 -55.6681 -55.3877 -55.3537 -55.2780 -55.1708 -55.1157 -55.0376
   -54.9915 -54.9592 -54.8310 -54.7369 -54.6962 -54.6252 -54.5290 -54.4950
   -32.1618 -31.9962 -31.9723 -31.8632 -31.8570 -31.7853 -31.7638 -31.6530
   -31.6073 -31.6059 -31.5948 -31.5410 -31.5382 -31.5193 -31.4983 -31.4928
   -31.4890 -31.3964 -31.3880 -31.3717 -31.3364 -31.3174 -31.3066 -31.2958
   -31.2761 -31.2718 -31.2385 -31.2007 -31.1770 -31.1756 -31.1660 -31.1482
   -31.0980 -31.0310 -30.9922 -30.9530 -30.9512 -30.9283 -30.9214 -30.9072
   -30.8963 -30.8586 -30.8389 -30.8355 -30.8353 -30.7466 -30.6614 -30.5495
   -19.0789 -16.2305 -16.0583 -15.7668 -15.5958 -15.3888 -15.3600 -15.2652
   -15.1624 -15.1452 -15.0418 -14.9769 -14.8921 -14.8230 -14.8030 -14.7549
   -14.7251 -14.6967 -14.6821 -14.6726 -14.6339 -14.6026 -14.5856 -14.5099
   -14.4651 -14.4469 -14.4193 -14.3539 -14.2581 -13.9919 -13.9294 -13.0267
   -12.9133 -12.5742  -9.3402  -6.2086  -4.7752  -4.7136  -3.7777  -3.5373
    -3.4395  -3.3319  -3.1232  -3.0738  -2.8947  -2.7750  -2.7544  -2.5342
    -2.5066  -2.3948  -2.3798  -2.3348  -2.3267  -2.2927  -2.2261  -2.1978
    -2.1257  -2.0656  -2.0386  -2.0049  -1.9522  -1.8967  -1.8917  -1.8778
    -1.8205  -1.7530  -1.7243  -1.7156  -1.6714  -1.6079  -1.5995  -1.5827
    -1.5635  -1.5423  -1.3993  -1.2929  -1.2322  -1.1932  -1.1438  -1.0875
    -1.0349  -1.0210  -0.9208  -0.8411  -0.7998  -0.6822  -0.6542  -0.6141
    -0.5295  -0.5050  -0.4621  -0.4430  -0.4021  -0.3949  -0.2900  -0.2726
    -0.2384  -0.1958  -0.0763  -0.0285  -0.0205   0.0616   0.1200   0.2002
     0.2418   0.2575   0.2820   0.3678   0.3958   0.4130   0.4208   0.4935
     0.5125   0.5614   0.6147   0.6975   0.7101   0.7499   0.7840   0.7970
     0.9270   0.9352   1.0251   1.0488   1.0599   1.1242   1.2185   1.2782
     1.3902   1.4040   1.4963   1.4965   1.5168   1.7153   1.8899   2.0485
     2.0888   3.4995   3.6187   3.6806   3.7184   3.9293   3.9409   4.2043
     4.2790   4.2821   4.4118

[...]

          k = 0.0380-0.0419 0.0000 ( 17876 PWs)   bands (ev):

[...]

          k =-0.0760-0.0000 0.0000 ( 17886 PWs)   bands (ev):

[...]

          k =-0.0760-0.0839 0.0000 ( 17948 PWs)   bands (ev):

   -55.6851 -55.6847 -55.3732 -55.3679 -55.2774 -55.1650 -55.1215 -55.0298
   -54.9991 -54.9597 -54.8290 -54.7346 -54.6981 -54.6273 -54.5125 -54.5114
   -31.9820 -31.9817 -31.9773 -31.9773 -31.8087 -31.8082 -31.6914 -31.6859
   -31.5714 -31.5673 -31.5659 -31.5597 -31.5543 -31.4935 -31.4834 -31.4690
   -31.4361 -31.3869 -31.3852 -31.3623 -31.3475 -31.3472 -31.3354 -31.3351
   -31.2586 -31.2448 -31.2382 -31.2341 -31.2066 -31.1952 -31.1658 -31.1566
   -31.0901 -31.0407 -31.0362 -30.9926 -30.9595 -30.9547 -30.9534 -30.9121
   -30.8738 -30.8485 -30.8478 -30.8382 -30.7430 -30.7417 -30.7046 -30.7037
   -19.0756 -16.2233 -15.4730 -15.4628 -15.3187 -15.3094 -15.2312 -15.1421
   -15.1239 -15.0951 -15.0462 -15.0243 -14.9427 -14.8865 -14.8668 -14.8416
   -14.8225 -14.8085 -14.7510 -14.7477 -14.7324 -14.7184 -14.6525 -14.6141
   -14.5839 -14.5773 -14.4693 -14.3895 -14.3055 -14.1560 -14.0659 -13.0163
   -13.0158 -12.5746  -9.3468  -6.2014  -4.7650  -4.7143  -3.7708  -3.4110
    -2.6516  -2.6084  -2.5173  -2.4393  -2.4342  -2.3852  -2.3846  -2.3031
    -2.2504  -2.1926  -2.1684  -2.1600  -2.1597  -2.1285  -2.1192  -2.0651
    -2.0602  -2.0426  -2.0397  -1.9831  -1.9583  -1.9438  -1.8919  -1.8368
    -1.7859  -1.7492  -1.7274  -1.6863  -1.6687  -1.6656  -1.5810  -1.5678
    -1.5390  -1.5114  -1.4664  -1.4358  -1.3806  -1.3590  -1.3026  -1.1752
    -1.1036  -1.0185  -0.9128  -0.8916  -0.8587  -0.8252  -0.8128  -0.7901
    -0.7571  -0.6416  -0.6317  -0.5819  -0.5501  -0.5221  -0.5044  -0.4765
    -0.4540  -0.3527  -0.3106  -0.2815  -0.2413  -0.2074  -0.1794  -0.1461
    -0.0943  -0.0554  -0.0452  -0.0140   0.0199   0.0343   0.1873   0.2671
     0.3999   0.4285   0.5182   0.5647   0.5970   0.6261   0.6553   0.7734
     0.8210   0.8436   0.8802   0.9019   1.0007   1.0973   1.1177   1.1860
     1.2205   1.3253   1.3563   1.4440   1.4957   1.8782   1.8860   1.9070
     1.9075   3.3771   4.0445   4.0474   4.0590   4.0723   4.2375   4.2403
     4.3411   4.3651   4.4968

     the Fermi energy is     3.4559 ev

!    total energy              =   -2973.99528800 Ry
     estimated scf accuracy    <       0.00000002 Ry
     smearing contrib. (-TS)   =      -0.01689233 Ry
     internal energy E=F+TS    =   -2973.97839567 Ry

     The total energy is F=E-TS. E is the sum of the following terms:
     one-electron contribution =  -23437.84284004 Ry
     hartree contribution      =   11816.36690949 Ry
     xc contribution           =    -493.95564978 Ry
     ewald contribution        =    9141.45049761 Ry
     electric field correction =       0.00268704 Ry

     convergence has been achieved in  71 iterations

     Forces acting on atoms (cartesian axes, Ry/au):

     atom    1 type  1   force =     0.00011604   -0.00023732    0.10268557
     atom    2 type  1   force =    -0.00011475    0.00008868   -0.16807487
     atom    3 type  2   force =    -0.00000720    0.00045817   -0.03241275
     atom    4 type  2   force =     0.00002792   -0.00097366    0.04009767
     atom    5 type  2   force =    -0.00542900   -0.00191530   -0.00432834
     atom    6 type  2   force =     0.00666358   -0.00136087   -0.00592857
     atom    7 type  1   force =    -0.00053117   -0.00530409    0.03004658
     atom    8 type  1   force =     0.00069786    0.00860740    0.04851840
     atom    9 type  2   force =     0.00012435   -0.00130872   -0.00106988
     atom   10 type  2   force =    -0.00253530    0.00301111   -0.03414964
     atom   11 type  2   force =    -0.00038146   -0.00008683   -0.00023293
     atom   12 type  2   force =     0.00048128   -0.00037042   -0.00011701
     atom   13 type  1   force =     0.00023606   -0.00162695    0.00022399
     atom   14 type  1   force =     0.00017245   -0.00077446    0.00071629
     atom   15 type  2   force =     0.00005508    0.00004181   -0.00029185
     atom   16 type  2   force =    -0.00013296    0.00005325    0.00171498
     atom   17 type  2   force =    -0.00102812   -0.00058291    0.00035284
     atom   18 type  2   force =     0.00062507   -0.00107228    0.00054940
     atom   19 type  1   force =     0.00062220   -0.00097765   -0.00069648
     atom   20 type  1   force =    -0.00074624   -0.00039246   -0.00025224
     atom   21 type  2   force =     0.00004742    0.00012397    0.10113156
     atom   22 type  2   force =    -0.00007233    0.00050573    0.00026260
     atom   23 type  2   force =    -0.07542364   -0.00012212   -0.02931355
     atom   24 type  2   force =     0.07533579    0.00030087   -0.02933181
     atom   25 type  1   force =     0.00014071   -0.00023062    0.10279828
     atom   26 type  1   force =    -0.00004076   -0.00130894   -0.16848119
     atom   27 type  2   force =     0.00011922    0.00017312   -0.03117970
     atom   28 type  2   force =    -0.00000901    0.00072269    0.03581638
     atom   29 type  2   force =    -0.00425862    0.00378451   -0.00625867
     atom   30 type  2   force =     0.00528308    0.00442236   -0.00778446
     atom   31 type  1   force =    -0.00053674    0.00496254    0.01593644
     atom   32 type  1   force =     0.00076839   -0.01040985    0.04920428
     atom   33 type  2   force =     0.00002801   -0.00091003   -0.00138430
     atom   34 type  2   force =    -0.00240547    0.00222197   -0.04431571
     atom   35 type  2   force =     0.00055086    0.00020053   -0.00013925
     atom   36 type  2   force =    -0.00018111    0.00023186   -0.00007135
     atom   37 type  1   force =     0.00026814    0.00037758   -0.00043441
     atom   38 type  1   force =     0.00041853    0.00140076    0.00107182
     atom   39 type  2   force =     0.00039370    0.00045118    0.00008217
     atom   40 type  2   force =     0.00005926    0.00015117    0.00046962
     atom   41 type  2   force =    -0.00090726   -0.00024912    0.00011591
     atom   42 type  2   force =     0.00044950    0.00025122    0.00029776
     atom   43 type  1   force =     0.00028572    0.00024242   -0.00140897
     atom   44 type  1   force =    -0.00056177   -0.00014112   -0.00091664
     atom   45 type  2   force =     0.00006981   -0.00002145    0.10093710
     atom   46 type  2   force =    -0.07548005   -0.00004969   -0.02933178
     atom   47 type  2   force =     0.07539340    0.00038424   -0.02932793
     atom   48 type  3   force =     0.00320946   -0.00060466    0.00227480
     atom   49 type  3   force =    -0.00079019   -0.00035441   -0.00220560
     atom   50 type  4   force =    -0.00103626    0.00107220    0.00034738
     atom   51 type  5   force =     0.00026546   -0.00040592   -0.00078261
     atom   52 type  5   force =    -0.00019792   -0.00025226   -0.00025562
     atom   53 type  5   force =     0.00009392   -0.00123706   -0.00197051
     atom   54 type  5   force =    -0.00107624   -0.00017130   -0.00149488
     atom   55 type  2   force =    -0.00035458    0.00036523   -0.00104315
     atom   56 type  5   force =     0.00123587   -0.00115411   -0.00066517

     Total force =     0.372788     Total SCF correction =     0.000278
  @ DRIVER MODE: Message from server: STATUS
  @ DRIVER MODE: Message from server: GETFORCE
  @ DRIVER MODE: Returning v,forces,stress,ensemble

     Writing output data file ./calc.save/
  @ DRIVER MODE: Message from server: EXIT
  @ DRIVE MODE: Exiting

     General routines

     Parallel routines

   This run was terminated on:  22:47: 6  22Sep2021

   JOB DONE.