     Program PWSCF v.6.7GPU starts on 23Aug2021 at 13:14:34

     R & G space division:  proc/nbgrp/npool/nimage =       6
     Reading input from /storage/home/hcoda1/3/ntian30/research/carbon/CH_vib/ads_slab/CHNNHHH_a/out_0001/pw.inp
Warning: card &CELL ignored
Warning: card   CELL_DYNAMICS='IPI', ignored
Warning: card / ignored

     Current dimensions of program PWSCF are:
     Max number of different atomic species (ntypx) = 10
     Max number of k-points (npk) =  40000
     Max angular momentum in pseudopotentials (lmaxx) =  3
     Presently no symmetry can be used with electric field

     Message from routine cell_base_init:
     DEPRECATED: use true lattice parameter, not A to a.u. conversion factor

     IMPORTANT: XC functional enforced from input :
     Exchange-correlation= BEEF-VDW
                           (   1   4  43  14   2   0   0)
     Any further DFT definition will be discarded
     Please, verify this is what you really want

  @ DRIVER MODE: Connecting to
 qe_1139763_2632795.sched-torque.pace.gatech.eduqy157ktv_scratch
  using UNIX socket
  @ DRIVER MODE: Message from server: STATUS
  @ DRIVER MODE: Message from server: INIT
  @ DRIVER MODE: Receiving replica           0          -1
  @ DRIVER MODE: Receiving encoded integer          25
  @ DRIVER MODE:  SCF:  T  FORCE:  T  STRESS:  F  VC:  F  ENSEMBLE:  F
  @ DRIVER MODE:  SCF:  T  FORCE:  T  STRESS:  F  VC:  F  ENSEMBLE:  F

     Using Slab Decomposition

     bravais-lattice index     =            0
     lattice parameter (alat)  =       1.8897  a.u.
     unit-cell volume          =    6658.9804 (a.u.)^3
     number of atoms/cell      =           54
     number of atomic types    =            5
     number of electrons       =       396.00
     number of Kohn-Sham states=          208
     kinetic-energy cutoff     =      29.3995  Ry
     charge density cutoff     =     293.9946  Ry
     scf convergence threshold =      7.3E-08
     mixing beta               =       0.0500
     number of iterations used =            8  plain     mixing
     Exchange-correlation= BEEF-VDW
                           (   1   4  43  14   2   0   0)

     celldm(1)=   1.889726  celldm(2)=   0.000000  celldm(3)=   0.000000
     celldm(4)=   0.000000  celldm(5)=   0.000000  celldm(6)=   0.000000

     crystal axes: (cart. coord. in units of alat)
               a(1) = (   6.579727   0.000000   0.000000 )
               a(2) = (  -0.000775   5.961596   0.000000 )
               a(3) = (   0.000000   0.000000  25.155947 )

     reciprocal axes: (cart. coord. in units 2 pi/alat)
               b(1) = (  0.151982  0.000020  0.000000 )
               b(2) = (  0.000000  0.167740  0.000000 )
               b(3) = (  0.000000  0.000000  0.039752 )

     PseudoPot. # 1 for Ti read from file:
     /storage/coda1/p-amedford6/0/shared/rich_project_chbe-medford/medford-share/data/pseudos_module/espresso/nninc/pbe/van/Ti.UPF
     MD5 check sum: 8e4df49b7f0d34bbd5052bf3f5ea0213
     Pseudo is Ultrasoft, Zval = 12.0
     Generated by new atomic code, or converted to UPF format
     Using radial grid of  851 points,  6 beta functions with:
                l(1) =   0
                l(2) =   0
                l(3) =   1
                l(4) =   1
                l(5) =   2
                l(6) =   2
     Q(r) pseudized with  8 coefficients,  rinner =    1.000   1.000   1.000
                                                       1.000   1.000

     PseudoPot. # 2 for O  read from file:
     /storage/coda1/p-amedford6/0/shared/rich_project_chbe-medford/medford-share/data/pseudos_module/espresso/nninc/pbe/van/O.UPF
     MD5 check sum: 78c19812648e8988a0fe644b0f25305e
     Pseudo is Ultrasoft, Zval =  6.0
     Generated by new atomic code, or converted to UPF format
     Using radial grid of  737 points,  4 beta functions with:
                l(1) =   0
                l(2) =   0
                l(3) =   1
                l(4) =   1
     Q(r) pseudized with  8 coefficients,  rinner =    0.800   0.800   0.800

     PseudoPot. # 3 for N  read from file:
     /storage/coda1/p-amedford6/0/shared/rich_project_chbe-medford/medford-share/data/pseudos_module/espresso/nninc/pbe/van/N.UPF
     MD5 check sum: 90d10febe142ad51ac9d5be1deb811c4
     Pseudo is Ultrasoft, Zval =  5.0
     Generated by new atomic code, or converted to UPF format
     Using radial grid of  729 points,  4 beta functions with:
                l(1) =   0
                l(2) =   0
                l(3) =   1
                l(4) =   1
     Q(r) pseudized with  8 coefficients,  rinner =    0.800   0.800   0.800

     PseudoPot. # 4 for C  read from file:
     /storage/coda1/p-amedford6/0/shared/rich_project_chbe-medford/medford-share/data/pseudos_module/espresso/nninc/pbe/van/C.UPF
     MD5 check sum: 1a69bf6b8db32088f5b2163dbdb77a27
     Pseudo is Ultrasoft, Zval =  4.0
     Generated by new atomic code, or converted to UPF format
     Using radial grid of  721 points,  4 beta functions with:
                l(1) =   0
                l(2) =   0
                l(3) =   1
                l(4) =   1
     Q(r) pseudized with  8 coefficients,  rinner =    0.800   0.800   0.800

     PseudoPot. # 5 for H  read from file:
     /storage/coda1/p-amedford6/0/shared/rich_project_chbe-medford/medford-share/data/pseudos_module/espresso/nninc/pbe/van/H.UPF
     MD5 check sum: b5ee9d7bfd3a09ee7748110bda690ff7
     Pseudo is Ultrasoft, Zval =  1.0
     Generated by new atomic code, or converted to UPF format
     Using radial grid of  615 points,  1 beta functions with:
                l(1) =   0
     Q(r) pseudized with  8 coefficients,  rinner =    0.800

     atomic species   valence    mass     pseudopotential
        Ti1           12.00    47.86700     Ti( 1.00)
        O1             6.00    15.99900     O ( 1.00)
        N1             5.00    14.00700     N ( 1.00)
        C1             4.00    12.01100     C ( 1.00)
        H1             1.00     1.00800     H ( 1.00)

     No symmetry found

   Cartesian axes

     site n.     atom                  positions (alat units)
         1           Ti1 tau(   1) = (   0.0004258   2.9801865   6.0000000  )
         2           Ti1 tau(   2) = (   3.2906075   1.4906267   6.0002472  )
         3           O1  tau(   3) = (   0.0006271   0.0005054   7.9858123  )
         4           O1  tau(   4) = (   3.2906025   0.0005020   7.3038282  )
         5           O1  tau(   5) = (   4.5942328   1.4918067   9.2879030  )
         6           O1  tau(   6) = (   1.9868534   1.4903216   9.2879459  )
         7           Ti1 tau(   7) = (   3.2907910   2.8959150   9.1758416  )
         8           Ti1 tau(   8) = (   0.0015273   1.4827037   9.2680791  )
         9           O1  tau(   9) = (   3.3116888   5.9365513  11.3741315  )
        10           O1  tau(  10) = (   0.0116148   5.9584955  10.6183126  )
        11           O1  tau(  11) = (   1.3152863   1.4773744  12.6583839  )
        12           O1  tau(  12) = (   5.3185463   1.4781915  12.6604289  )
        13           Ti1 tau(  13) = (   0.0312267   2.9553392  12.5172039  )
        14           Ti1 tau(  14) = (   3.3247105   1.4628205  12.5237724  )
        15           O1  tau(  15) = (   0.0176705   0.0150782  14.7085838  )
        16           O1  tau(  16) = (   3.3263678   5.9469243  13.9928752  )
        17           O1  tau(  17) = (   4.5829619   1.4750097  16.2211409  )
        18           O1  tau(  18) = (   2.0801478   1.4636096  16.1819230  )
        19           Ti1 tau(  19) = (   3.3264833   2.9461821  15.7545810  )
        20           Ti1 tau(  20) = (   0.0064452   1.3478264  16.0581623  )
        21           O1  tau(  21) = (   3.2904802   0.0005063   4.7018136  )
        22           O1  tau(  22) = (   0.0393124   5.8647722  17.2449945  )
        23           O1  tau(  23) = (   1.3043587   1.4918075   6.0039043  )
        24           O1  tau(  24) = (   5.2767064   1.4903225   6.0039473  )
        25           Ti1 tau(  25) = (   0.0000382   5.9609847   6.0000000  )
        26           Ti1 tau(  26) = (   3.2902200   4.4714249   6.0002472  )
        27           O1  tau(  27) = (   0.0002396   2.9813036   7.9858123  )
        28           O1  tau(  28) = (   3.2902150   2.9813002   7.3038282  )
        29           O1  tau(  29) = (   4.5938453   4.4726049   9.2879030  )
        30           O1  tau(  30) = (   1.9864658   4.4711199   9.2879459  )
        31           Ti1 tau(  31) = (   3.2891106   5.8743827   9.1763621  )
        32           Ti1 tau(  32) = (   0.0006254   4.4649316   9.2693709  )
        33           O1  tau(  33) = (   3.3126387   2.9639063  11.3704323  )
        34           O1  tau(  34) = (   0.0092240   2.9805883  10.6323155  )
        35           O1  tau(  35) = (   1.3140505   4.4512041  12.6779488  )
        36           O1  tau(  36) = (   5.3186431   4.4503656  12.6784002  )
        37           Ti1 tau(  37) = (   0.0306983   5.9434578  12.5012515  )
        38           Ti1 tau(  38) = (   3.3249252   4.4426326  12.5284913  )
        39           O1  tau(  39) = (   0.0332616   2.9308952  14.9693926  )
        40           O1  tau(  40) = (   3.3269026   2.9510973  13.9662216  )
        41           O1  tau(  41) = (   4.5816979   4.4256876  16.1885362  )
        42           O1  tau(  42) = (   2.0739833   4.4348339  16.1471384  )
        43           Ti1 tau(  43) = (   3.3139036   5.9323143  15.7909994  )
        44           Ti1 tau(  44) = (   0.0257917   4.5791344  15.8913375  )
        45           O1  tau(  45) = (   3.2900926   2.9813045   4.7018136  )
        46           O1  tau(  46) = (   1.3039711   4.4726057   6.0039043  )
        47           O1  tau(  47) = (   5.2763189   4.4711207   6.0039473  )
        48           N1  tau(  48) = (   0.2511162   2.7486399  18.0384573  )
        49           C1  tau(  49) = (   1.0666652   3.1333113  18.7681872  )
        50           H1  tau(  50) = (   1.9496291   3.4674532  19.3170853  )
        51           N1  tau(  51) = (   3.9312863   3.7371558  19.5917579  )
        52           H1  tau(  52) = (   4.2637485   4.0673035  20.4913501  )
        53           H1  tau(  53) = (   4.3024207   4.3757745  18.8906580  )
        54           H1  tau(  54) = (   4.4024832   2.8518033  19.4177320  )

     number of k points=    10  Fermi-Dirac smearing, width (Ry)=  0.0073
                       cart. coord. in units 2pi/alat
        k(    1) = (   0.0000000   0.0000000   0.0000000), wk =   0.1250000
        k(    2) = (   0.0000000   0.0419351   0.0000000), wk =   0.2500000
        k(    3) = (   0.0000000  -0.0838702   0.0000000), wk =   0.1250000
        k(    4) = (   0.0379955   0.0000049   0.0000000), wk =   0.2500000
        k(    5) = (   0.0379955   0.0419400   0.0000000), wk =   0.2500000
        k(    6) = (   0.0379955  -0.0838652   0.0000000), wk =   0.2500000
        k(    7) = (   0.0379955  -0.0419301   0.0000000), wk =   0.2500000
        k(    8) = (  -0.0759910  -0.0000099   0.0000000), wk =   0.1250000
        k(    9) = (  -0.0759910   0.0419252   0.0000000), wk =   0.2500000
        k(   10) = (  -0.0759910  -0.0838800   0.0000000), wk =   0.1250000

     Initial potential from superposition of free atoms

     starting charge  379.99915, renormalised to  396.00000

     negative rho (up, down):  1.481E-02 0.000E+00

     %%%%%%%%%%%%%%%%%%%%%%%%%%%%%%%%%%%%%%%%%%%%%%%%%%%%%%%%%%%%%%%%%%%%%%%%
     %                                                                      %
     % You are using vdW-DF, which was implemented by the Thonhauser group. %
     % Please cite the following two papers that made this development      %
     % possible and the two reviews that describe the various versions:     %
     %                                                                      %
     %   T. Thonhauser et al., PRL 115, 136402 (2015).                      %
     %   T. Thonhauser et al., PRB 76, 125112 (2007).                       %
     %   K. Berland et al., Rep. Prog. Phys. 78, 066501 (2015).             %
     %   D.C. Langreth et al., J. Phys.: Condens. Matter 21, 084203 (2009). %
     %                                                                      %
     %                                                                      %
     % If you are calculating the stress with vdW-DF, please also cite:     %
     %                                                                      %
     %   R. Sabatini et al., J. Phys.: Condens. Matter 24, 424209 (2012).   %
     %                                                                      %
     %%%%%%%%%%%%%%%%%%%%%%%%%%%%%%%%%%%%%%%%%%%%%%%%%%%%%%%%%%%%%%%%%%%%%%%%

     Adding external electric field

     Computed dipole along edir(3) :
        Dipole              -10.3171 Ry au,        -26.2235 Debye
        Dipole field         -0.0195 Ry au,

        Potential amp.        1.8048 Ry
        Total length         46.3494 bohr

     Starting wfcs are  300 atomic wfcs
  @ DRIVER MODE: Message from server: STATUS
  @ DRIVER MODE: Message from server: POSDATA
  @ DRIVER MODE: Reading and sharing cell
  @ DRIVER MODE: Reading and sharing positions
  @ DRIVER MODE: Received positions

     Self-consistent Calculation

     iteration #  1     ecut=    29.40 Ry     beta= 0.05
     Davidson diagonalization with overlap
     c_bands:  1 eigenvalues not converged
     c_bands:  2 eigenvalues not converged
     c_bands:  2 eigenvalues not converged
     c_bands:  1 eigenvalues not converged
     c_bands:  3 eigenvalues not converged
     c_bands:  2 eigenvalues not converged
     c_bands:  3 eigenvalues not converged
     c_bands:  2 eigenvalues not converged
     c_bands:  2 eigenvalues not converged
     c_bands:  2 eigenvalues not converged
     ethr =  1.00E-05,  avg # of iterations = 20.0

[...]

     total energy              =   -2524.77224577 Ry
     estimated scf accuracy    <    4651.88584024 Ry

     iteration #  2     ecut=    29.40 Ry     beta= 0.05
     Davidson diagonalization with overlap
     ethr =  1.00E-02,  avg # of iterations = 24.4

[...]

     iteration # 68     ecut=    29.40 Ry     beta= 0.05
     Davidson diagonalization with overlap
     c_bands:  1 eigenvalues not converged
     c_bands:  2 eigenvalues not converged
     ethr =  4.65E-11,  avg # of iterations = 16.6

[...]

     total energy              =   -2940.41289080 Ry
     estimated scf accuracy    <       0.00000035 Ry

     iteration # 69     ecut=    29.40 Ry     beta= 0.05
     Davidson diagonalization with overlap
     ethr =  4.65E-11,  avg # of iterations = 12.3

     negative rho (up, down):  1.578E-02 0.000E+00

     Adding external electric field

     Computed dipole along edir(3) :
        Dipole                1.4828 Ry au,          3.7689 Debye
        Dipole field          0.0028 Ry au,

        Potential amp.       -0.2594 Ry
        Total length         46.3494 bohr

     End of self-consistent calculation

          k = 0.0000 0.0000 0.0000 ( 18029 PWs)   bands (ev):

   -55.2580 -55.2221 -55.2095 -55.1754 -55.1350 -55.1269 -55.1008 -55.0998
   -55.0757 -55.0564 -55.0414 -55.0383 -55.0047 -54.9860 -54.2374 -54.2033
   -31.8265 -31.7040 -31.7019 -31.6228 -31.5672 -31.5653 -31.5566 -31.5437
   -31.4984 -31.4855 -31.4667 -31.4633 -31.4540 -31.4292 -31.4131 -31.4079
   -31.3943 -31.3820 -31.3724 -31.3719 -31.3620 -31.3493 -31.3233 -31.3186
   -31.3129 -31.3063 -31.2782 -31.2749 -31.2667 -31.2653 -31.2567 -31.2377
   -31.2367 -31.2285 -31.2249 -31.2232 -31.1896 -31.1880 -31.1716 -31.1663
   -31.1494 -31.0956 -30.6467 -30.5526 -30.5306 -30.4631 -30.3763 -30.2654
   -16.7044 -16.0822 -15.8124 -15.6693 -15.5638 -15.4533 -15.3380 -15.3180
   -15.1812 -15.1430 -15.0928 -14.9739 -14.9224 -14.9034 -14.8896 -14.8750
   -14.8688 -14.7986 -14.7935 -14.7700 -14.7498 -14.7371 -14.6942 -14.6924
   -14.6519 -14.6310 -14.5832 -14.4955 -14.4128 -14.3434 -14.0185 -12.7399
   -12.6225  -7.9929  -5.2414  -5.0351  -4.0068  -3.4216  -3.2713  -3.1752
    -3.1490  -3.1312  -3.0035  -2.8545  -2.8209  -2.7244  -2.6370  -2.5870
    -2.5044  -2.4591  -2.4463  -2.4285  -2.2457  -2.2265  -2.1736  -2.1269
    -2.0971  -2.0620  -2.0417  -2.0216  -2.0042  -1.9959  -1.9287  -1.8178
    -1.7786  -1.7300  -1.6787  -1.6536  -1.5994  -1.5791  -1.5430  -1.5368
    -1.5359  -1.4882  -1.4612  -1.4387  -1.3607  -1.2759  -1.1610  -1.1095
    -0.9540  -0.8929  -0.8365  -0.8240  -0.7592  -0.7409  -0.7098  -0.6347
    -0.6256  -0.5941  -0.4753  -0.3793  -0.3407  -0.3252  -0.2730  -0.2379
    -0.2101  -0.1625  -0.0653  -0.0356  -0.0184  -0.0139   0.1365   0.1497
     0.2199   0.2664   0.2879   0.2885   0.4024   0.4186   0.4903   0.5282
     0.5645   0.6368   0.6768   0.6927   0.6955   0.7292   0.7327   0.8237
     0.8469   0.8545   0.9265   1.0763   1.3044   1.3510   1.3581   1.6918
     1.6935   1.7855   1.9691   2.3614   2.4096   3.8407   3.9122   3.9864
     3.9929   4.0192   4.0787   4.3203   4.3304   4.3432   4.3463   4.3882

[...]

          k = 0.0380-0.0419 0.0000 ( 17876 PWs)   bands (ev):

[...]

          k =-0.0760-0.0000 0.0000 ( 17886 PWs)   bands (ev):

[...]

          k =-0.0760-0.0839 0.0000 ( 17948 PWs)   bands (ev):

   -55.2400 -55.2398 -55.1925 -55.1923 -55.1222 -55.1213 -55.1135 -55.0980
   -55.0607 -55.0596 -55.0571 -55.0219 -55.0212 -54.9888 -54.2203 -54.2203
   -31.6303 -31.6298 -31.6271 -31.5287 -31.5170 -31.5169 -31.5162 -31.4837
   -31.4836 -31.4652 -31.4580 -31.4524 -31.4479 -31.3970 -31.3925 -31.3901
   -31.3892 -31.3890 -31.3835 -31.3779 -31.3521 -31.3501 -31.3378 -31.3307
   -31.3297 -31.3235 -31.3150 -31.3122 -31.3120 -31.3056 -31.2927 -31.2900
   -31.2833 -31.2726 -31.2700 -31.2531 -31.2516 -31.2478 -31.2024 -31.2021
   -31.1949 -31.1879 -30.5432 -30.5432 -30.4592 -30.4591 -30.4197 -30.4197
   -16.6946 -15.6139 -15.4985 -15.4575 -15.2700 -15.2615 -15.2307 -15.2182
   -15.1497 -15.0671 -15.0395 -15.0295 -15.0169 -14.9647 -14.9591 -14.9534
   -14.9310 -14.8612 -14.8528 -14.8509 -14.8338 -14.7679 -14.7631 -14.7587
   -14.7478 -14.7048 -14.7019 -14.6076 -14.6055 -14.5100 -14.3848 -12.7240
   -12.7240  -7.9893  -5.2364  -5.0456  -3.9944  -2.7790  -2.7563  -2.7187
    -2.7024  -2.6895  -2.4813  -2.4582  -2.4216  -2.3712  -2.3097  -2.2587
    -2.2498  -2.2338  -2.1668  -2.1274  -2.1110  -2.0977  -2.0794  -2.0637
    -2.0493  -2.0235  -1.9818  -1.9742  -1.9513  -1.9318  -1.9023  -1.8938
    -1.8628  -1.8421  -1.8260  -1.8089  -1.6929  -1.6686  -1.6120  -1.5716
    -1.5307  -1.4600  -1.4548  -1.3573  -1.3497  -1.2958  -1.2840  -1.2569
    -1.1640  -1.0651  -1.0033  -0.9975  -0.9910  -0.8632  -0.8263  -0.8012
    -0.7653  -0.7371  -0.6769  -0.5992  -0.5781  -0.5435  -0.4591  -0.4511
    -0.3942  -0.3120  -0.2798  -0.2491  -0.2184  -0.2124  -0.2015  -0.1493
    -0.1429  -0.0716  -0.0218   0.0115   0.0226   0.0571   0.2624   0.2783
     0.3317   0.4295   0.5042   0.6233   0.6810   0.7022   0.7732   0.8139
     0.8567   0.9195   1.0232   1.0524   1.0548   1.1295   1.1613   1.2031
     1.2071   2.1425   2.1428   2.2294   2.2297   3.9849   4.0782   4.1009
     4.1489   4.2386   4.2728   4.3583   4.3760   4.4260   4.4279   4.4962

     the Fermi energy is     3.9037 ev

!    total energy              =   -2940.41291678 Ry
     estimated scf accuracy    <       0.00000005 Ry
     smearing contrib. (-TS)   =      -0.03732893 Ry
     internal energy E=F+TS    =   -2940.37558786 Ry

     The total energy is F=E-TS. E is the sum of the following terms:
     one-electron contribution =  -23552.96585093 Ry
     hartree contribution      =   11869.14656664 Ry
     xc contribution           =    -485.95473463 Ry
     ewald contribution        =    9229.39428185 Ry
     electric field correction =       0.00414922 Ry

     convergence has been achieved in  69 iterations

     Forces acting on atoms (cartesian axes, Ry/au):

     atom    1 type  1   force =    -0.00002782   -0.00017802    0.09329484
     atom    2 type  1   force =    -0.00015532   -0.00021865   -0.17810552
     atom    3 type  2   force =     0.00006285   -0.00020428   -0.02046987
     atom    4 type  2   force =     0.00000307   -0.00194752    0.05845251
     atom    5 type  2   force =    -0.01027876   -0.00134661    0.00735395
     atom    6 type  2   force =     0.01227492   -0.00075006    0.00784810
     atom    7 type  1   force =     0.00036646    0.00277914   -0.01405885
     atom    8 type  1   force =    -0.00055976    0.00107568   -0.00334916
     atom    9 type  2   force =     0.00003941    0.00049660   -0.00008649
     atom   10 type  2   force =    -0.00055380   -0.00103219   -0.00008184
     atom   11 type  2   force =     0.00008626    0.00012487    0.00003177
     atom   12 type  2   force =    -0.00025531    0.00017776   -0.00008298
     atom   13 type  1   force =    -0.00002608    0.00090222   -0.00025196
     atom   14 type  1   force =     0.00010579    0.00025769   -0.00014478
     atom   15 type  2   force =    -0.00011253    0.00010792    0.00086408
     atom   16 type  2   force =     0.00004054    0.00010700   -0.00007319
     atom   17 type  2   force =     0.00008197   -0.00039615   -0.00015535
     atom   18 type  2   force =    -0.00024580   -0.00041533   -0.00043256
     atom   19 type  1   force =    -0.00054846   -0.00023164    0.00023465
     atom   20 type  1   force =    -0.00038843    0.00059335    0.00008749
     atom   21 type  2   force =    -0.00002020    0.00000643    0.10390422
     atom   22 type  2   force =    -0.00025540   -0.00064553   -0.00111675
     atom   23 type  2   force =    -0.07044106   -0.00008271   -0.02690702
     atom   24 type  2   force =     0.07027923    0.00035198   -0.02696185
     atom   25 type  1   force =     0.00003786   -0.00005636    0.09292426
     atom   26 type  1   force =    -0.00016784   -0.00018651   -0.17812815
     atom   27 type  2   force =     0.00012395   -0.00033641   -0.01948482
     atom   28 type  2   force =     0.00003142   -0.00168070    0.05802407
     atom   29 type  2   force =    -0.01039187   -0.00125106    0.00692746
     atom   30 type  2   force =     0.01227578   -0.00092472    0.00743724
     atom   31 type  1   force =     0.00035324    0.00516903   -0.01509090
     atom   32 type  1   force =    -0.00046667   -0.00162621   -0.00356878
     atom   33 type  2   force =    -0.00019410   -0.00021654   -0.00020575
     atom   34 type  2   force =     0.00029082   -0.00052684    0.00103213
     atom   35 type  2   force =    -0.00040048    0.00004375    0.00022212
     atom   36 type  2   force =     0.00033304   -0.00003835    0.00028655
     atom   37 type  1   force =    -0.00011815   -0.00042554    0.00000430
     atom   38 type  1   force =     0.00013019    0.00033061   -0.00027410
     atom   39 type  2   force =    -0.00032289   -0.00039519    0.00107791
     atom   40 type  2   force =     0.00006324    0.00007438   -0.00021593
     atom   41 type  2   force =    -0.00013828    0.00028687   -0.00042996
     atom   42 type  2   force =    -0.00011265   -0.00001485   -0.00038838
     atom   43 type  1   force =    -0.00075621   -0.00014529    0.00019134
     atom   44 type  1   force =     0.00006899    0.00045660    0.00027877
     atom   45 type  2   force =    -0.00001056    0.00000604    0.10388612
     atom   46 type  2   force =    -0.07046289   -0.00004611   -0.02691102
     atom   47 type  2   force =     0.07028438    0.00039277   -0.02698043
     atom   48 type  3   force =     0.02274782    0.00950826    0.01966379
     atom   49 type  4   force =    -0.02363715   -0.00965917   -0.02006291
     atom   50 type  5   force =     0.00078688   -0.00006332    0.00067120
     atom   51 type  3   force =    -0.00014173   -0.00108079   -0.00101907
     atom   52 type  5   force =     0.00071984    0.00086702    0.00087398
     atom   53 type  5   force =     0.00018437    0.00044909   -0.00045587
     atom   54 type  5   force =    -0.00058209    0.00155760   -0.00007860

     Total force =     0.368746     Total SCF correction =     0.000582
  @ DRIVER MODE: Message from server: STATUS
  @ DRIVER MODE: Message from server: GETFORCE
  @ DRIVER MODE: Returning v,forces,stress,ensemble

     Writing output data file ./calc.save/
  @ DRIVER MODE: Message from server: EXIT
  @ DRIVE MODE: Exiting

     General routines

     Parallel routines

   This run was terminated on:  13:46:48  23Aug2021

   JOB DONE.