     Program PWSCF v.6.7GPU starts on  9Sep2021 at 10:48:50

     R & G space division:  proc/nbgrp/npool/nimage =      10
     Reading input from /storage/home/hcoda1/3/ntian30/research/carbon/CxH_vib/CH3_calc/ads_slab/CH3NHNH2_a/out_0040/pw.inp
Warning: card &CELL ignored
Warning: card   CELL_DYNAMICS='IPI', ignored
Warning: card / ignored

     Current dimensions of program PWSCF are:
     Max number of different atomic species (ntypx) = 10
     Max number of k-points (npk) =  40000
     Max angular momentum in pseudopotentials (lmaxx) =  3
     Presently no symmetry can be used with electric field

     Message from routine cell_base_init:
     DEPRECATED: use true lattice parameter, not A to a.u. conversion factor

     IMPORTANT: XC functional enforced from input :
     Exchange-correlation= BEEF-VDW
                           (   1   4  43  14   2   0   0)
     Any further DFT definition will be discarded
     Please, verify this is what you really want

  @ DRIVER MODE: Connecting to
 qe_1139763_2767398.sched-torque.pace.gatech.eduytxmw2iu_scratch
  using UNIX socket
  @ DRIVER MODE: Message from server: STATUS
  @ DRIVER MODE: Message from server: INIT
  @ DRIVER MODE: Receiving replica           0          -1
  @ DRIVER MODE: Receiving encoded integer          25
  @ DRIVER MODE:  SCF:  T  FORCE:  T  STRESS:  F  VC:  F  ENSEMBLE:  F
  @ DRIVER MODE:  SCF:  T  FORCE:  T  STRESS:  F  VC:  F  ENSEMBLE:  F

     Using Slab Decomposition

     bravais-lattice index     =            0
     lattice parameter (alat)  =       1.8897  a.u.
     unit-cell volume          =    6658.9804 (a.u.)^3
     number of atoms/cell      =           56
     number of atomic types    =            5
     number of electrons       =       398.00
     number of Kohn-Sham states=          209
     kinetic-energy cutoff     =      29.3995  Ry
     charge density cutoff     =     293.9946  Ry
     scf convergence threshold =      7.3E-08
     mixing beta               =       0.0500
     number of iterations used =            8  plain     mixing
     Exchange-correlation= BEEF-VDW
                           (   1   4  43  14   2   0   0)

     celldm(1)=   1.889726  celldm(2)=   0.000000  celldm(3)=   0.000000
     celldm(4)=   0.000000  celldm(5)=   0.000000  celldm(6)=   0.000000

     crystal axes: (cart. coord. in units of alat)
               a(1) = (   6.579727   0.000000   0.000000 )
               a(2) = (  -0.000775   5.961596   0.000000 )
               a(3) = (   0.000000   0.000000  25.155947 )

     reciprocal axes: (cart. coord. in units 2 pi/alat)
               b(1) = (  0.151982  0.000020  0.000000 )
               b(2) = (  0.000000  0.167740  0.000000 )
               b(3) = (  0.000000  0.000000  0.039752 )

     PseudoPot. # 1 for Ti read from file:
     /storage/coda1/p-amedford6/0/shared/rich_project_chbe-medford/medford-share/data/pseudos_module/espresso/nninc/pbe/van/Ti.UPF
     MD5 check sum: 8e4df49b7f0d34bbd5052bf3f5ea0213
     Pseudo is Ultrasoft, Zval = 12.0
     Generated by new atomic code, or converted to UPF format
     Using radial grid of  851 points,  6 beta functions with:
                l(1) =   0
                l(2) =   0
                l(3) =   1
                l(4) =   1
                l(5) =   2
                l(6) =   2
     Q(r) pseudized with  8 coefficients,  rinner =    1.000   1.000   1.000
                                                       1.000   1.000

     PseudoPot. # 2 for O  read from file:
     /storage/coda1/p-amedford6/0/shared/rich_project_chbe-medford/medford-share/data/pseudos_module/espresso/nninc/pbe/van/O.UPF
     MD5 check sum: 78c19812648e8988a0fe644b0f25305e
     Pseudo is Ultrasoft, Zval =  6.0
     Generated by new atomic code, or converted to UPF format
     Using radial grid of  737 points,  4 beta functions with:
                l(1) =   0
                l(2) =   0
                l(3) =   1
                l(4) =   1
     Q(r) pseudized with  8 coefficients,  rinner =    0.800   0.800   0.800

     PseudoPot. # 3 for N  read from file:
     /storage/coda1/p-amedford6/0/shared/rich_project_chbe-medford/medford-share/data/pseudos_module/espresso/nninc/pbe/van/N.UPF
     MD5 check sum: 90d10febe142ad51ac9d5be1deb811c4
     Pseudo is Ultrasoft, Zval =  5.0
     Generated by new atomic code, or converted to UPF format
     Using radial grid of  729 points,  4 beta functions with:
                l(1) =   0
                l(2) =   0
                l(3) =   1
                l(4) =   1
     Q(r) pseudized with  8 coefficients,  rinner =    0.800   0.800   0.800

     PseudoPot. # 4 for C  read from file:
     /storage/coda1/p-amedford6/0/shared/rich_project_chbe-medford/medford-share/data/pseudos_module/espresso/nninc/pbe/van/C.UPF
     MD5 check sum: 1a69bf6b8db32088f5b2163dbdb77a27
     Pseudo is Ultrasoft, Zval =  4.0
     Generated by new atomic code, or converted to UPF format
     Using radial grid of  721 points,  4 beta functions with:
                l(1) =   0
                l(2) =   0
                l(3) =   1
                l(4) =   1
     Q(r) pseudized with  8 coefficients,  rinner =    0.800   0.800   0.800

     PseudoPot. # 5 for H  read from file:
     /storage/coda1/p-amedford6/0/shared/rich_project_chbe-medford/medford-share/data/pseudos_module/espresso/nninc/pbe/van/H.UPF
     MD5 check sum: b5ee9d7bfd3a09ee7748110bda690ff7
     Pseudo is Ultrasoft, Zval =  1.0
     Generated by new atomic code, or converted to UPF format
     Using radial grid of  615 points,  1 beta functions with:
                l(1) =   0
     Q(r) pseudized with  8 coefficients,  rinner =    0.800

     atomic species   valence    mass     pseudopotential
        Ti1           12.00    47.86700     Ti( 1.00)
        O1             6.00    15.99900     O ( 1.00)
        N1             5.00    14.00700     N ( 1.00)
        C1             4.00    12.01100     C ( 1.00)
        H1             1.00     1.00800     H ( 1.00)

     No symmetry found

   Cartesian axes

     site n.     atom                  positions (alat units)
         1           Ti1 tau(   1) = (   0.0004258   2.9801865   6.0000000  )
         2           Ti1 tau(   2) = (   3.2906075   1.4906267   6.0002472  )
         3           O1  tau(   3) = (   0.0006271   0.0005054   7.9858123  )
         4           O1  tau(   4) = (   3.2906025   0.0005020   7.3038282  )
         5           O1  tau(   5) = (   4.5942328   1.4918067   9.2879030  )
         6           O1  tau(   6) = (   1.9868534   1.4903216   9.2879459  )
         7           Ti1 tau(   7) = (   3.2907910   2.8959150   9.1758416  )
         8           Ti1 tau(   8) = (   0.0015273   1.4827037   9.2680791  )
         9           O1  tau(   9) = (   3.2714441   0.0289406  11.3813764  )
        10           O1  tau(  10) = (   0.0116148   5.9584955  10.6183126  )
        11           O1  tau(  11) = (   1.2692032   1.5162281  12.7122965  )
        12           O1  tau(  12) = (   5.2779133   1.5159715  12.6811497  )
        13           Ti1 tau(  13) = (   6.5579218   3.0031650  12.5037829  )
        14           Ti1 tau(  14) = (   3.2791490   1.5128154  12.5375672  )
        15           O1  tau(  15) = (   6.5208524   5.8954130  14.6845636  )
        16           O1  tau(  16) = (   3.2849572   0.0099931  14.0031570  )
        17           O1  tau(  17) = (   4.4884262   1.5607690  16.1641467  )
        18           O1  tau(  18) = (   1.9729656   1.5430890  16.0903287  )
        19           Ti1 tau(  19) = (   3.2372663   3.0309179  15.7728032  )
        20           Ti1 tau(  20) = (   6.5553692   1.3539605  15.8053163  )
        21           O1  tau(  21) = (   3.2904802   0.0005063   4.7018136  )
        22           O1  tau(  22) = (   6.5123495   0.2165906  17.2215032  )
        23           O1  tau(  23) = (   1.3043587   1.4918075   6.0039043  )
        24           O1  tau(  24) = (   5.2767064   1.4903225   6.0039473  )
        25           Ti1 tau(  25) = (   0.0000382   5.9609847   6.0000000  )
        26           Ti1 tau(  26) = (   3.2902200   4.4714249   6.0002472  )
        27           O1  tau(  27) = (   0.0002396   2.9813036   7.9858123  )
        28           O1  tau(  28) = (   3.2902150   2.9813002   7.3038282  )
        29           O1  tau(  29) = (   4.5938453   4.4726049   9.2879030  )
        30           O1  tau(  30) = (   1.9864658   4.4711199   9.2879459  )
        31           Ti1 tau(  31) = (   3.2891106   5.8743827   9.1763621  )
        32           Ti1 tau(  32) = (   0.0006254   4.4649316   9.2693709  )
        33           O1  tau(  33) = (   3.2699379   2.9911670  11.3762017  )
        34           O1  tau(  34) = (   0.0092240   2.9805883  10.6323155  )
        35           O1  tau(  35) = (   1.2730946   4.4825978  12.6662957  )
        36           O1  tau(  36) = (   5.2742290   4.4829497  12.6320226  )
        37           Ti1 tau(  37) = (   6.5783117   0.0079037  12.5026730  )
        38           Ti1 tau(  38) = (   3.2784283   4.4905194  12.5286134  )
        39           O1  tau(  39) = (   6.5033290   3.0824797  14.9867588  )
        40           O1  tau(  40) = (   3.2824109   3.0350539  13.9807796  )
        41           O1  tau(  41) = (   4.4804250   4.5097483  16.2808085  )
        42           O1  tau(  42) = (   1.9642025   4.5165872  16.2225063  )
        43           Ti1 tau(  43) = (   3.2609991   0.0502580  15.7998297  )
        44           Ti1 tau(  44) = (   6.5501253   4.5826093  16.0954727  )
        45           O1  tau(  45) = (   3.2900926   2.9813045   4.7018136  )
        46           O1  tau(  46) = (   1.3039711   4.4726057   6.0039043  )
        47           O1  tau(  47) = (   5.2763189   4.4711207   6.0039473  )
        48           N1  tau(  48) = (   0.8845045   3.2634721  19.1145209  )
        49           N1  tau(  49) = (   6.3504243   3.3997271  18.1887592  )
        50           C1  tau(  50) = (   1.2927081   4.5631590  19.6429350  )
        51           H1  tau(  51) = (   0.4658632   5.1229972  20.1056819  )
        52           H1  tau(  52) = (   2.0600825   4.3818216  20.3958833  )
        53           H1  tau(  53) = (   1.7018904   5.1738364  18.8453250  )
        54           H1  tau(  54) = (   0.5628611   2.6966381  19.8888112  )
        55           H1  tau(  55) = (   5.6051421   3.9827062  18.5884547  )
        56           H1  tau(  56) = (   5.9567982   2.4624696  18.0937858  )

     number of k points=    10  Fermi-Dirac smearing, width (Ry)=  0.0073
                       cart. coord. in units 2pi/alat
        k(    1) = (   0.0000000   0.0000000   0.0000000), wk =   0.1250000
        k(    2) = (   0.0000000   0.0419351   0.0000000), wk =   0.2500000
        k(    3) = (   0.0000000  -0.0838702   0.0000000), wk =   0.1250000
        k(    4) = (   0.0379955   0.0000049   0.0000000), wk =   0.2500000
        k(    5) = (   0.0379955   0.0419400   0.0000000), wk =   0.2500000
        k(    6) = (   0.0379955  -0.0838652   0.0000000), wk =   0.2500000
        k(    7) = (   0.0379955  -0.0419301   0.0000000), wk =   0.2500000
        k(    8) = (  -0.0759910  -0.0000099   0.0000000), wk =   0.1250000
        k(    9) = (  -0.0759910   0.0419252   0.0000000), wk =   0.2500000
        k(   10) = (  -0.0759910  -0.0838800   0.0000000), wk =   0.1250000

     Initial potential from superposition of free atoms

     starting charge  381.99914, renormalised to  398.00000

     negative rho (up, down):  1.416E-02 0.000E+00

     %%%%%%%%%%%%%%%%%%%%%%%%%%%%%%%%%%%%%%%%%%%%%%%%%%%%%%%%%%%%%%%%%%%%%%%%
     %                                                                      %
     % You are using vdW-DF, which was implemented by the Thonhauser group. %
     % Please cite the following two papers that made this development      %
     % possible and the two reviews that describe the various versions:     %
     %                                                                      %
     %   T. Thonhauser et al., PRL 115, 136402 (2015).                      %
     %   T. Thonhauser et al., PRB 76, 125112 (2007).                       %
     %   K. Berland et al., Rep. Prog. Phys. 78, 066501 (2015).             %
     %   D.C. Langreth et al., J. Phys.: Condens. Matter 21, 084203 (2009). %
     %                                                                      %
     %                                                                      %
     % If you are calculating the stress with vdW-DF, please also cite:     %
     %                                                                      %
     %   R. Sabatini et al., J. Phys.: Condens. Matter 24, 424209 (2012).   %
     %                                                                      %
     %%%%%%%%%%%%%%%%%%%%%%%%%%%%%%%%%%%%%%%%%%%%%%%%%%%%%%%%%%%%%%%%%%%%%%%%

     Adding external electric field

     Computed dipole along edir(3) :
        Dipole              -11.7171 Ry au,        -29.7818 Debye
        Dipole field         -0.0221 Ry au,

        Potential amp.        2.0497 Ry
        Total length         46.3494 bohr

     Starting wfcs are  302 atomic wfcs
  @ DRIVER MODE: Message from server: STATUS
  @ DRIVER MODE: Message from server: POSDATA
  @ DRIVER MODE: Reading and sharing cell
  @ DRIVER MODE: Reading and sharing positions
  @ DRIVER MODE: Received positions

     Self-consistent Calculation

     iteration #  1     ecut=    29.40 Ry     beta= 0.05
     Davidson diagonalization with overlap
     c_bands:  3 eigenvalues not converged
     c_bands:  1 eigenvalues not converged
     c_bands:  1 eigenvalues not converged
     c_bands:  4 eigenvalues not converged
     c_bands:  1 eigenvalues not converged
     c_bands:  4 eigenvalues not converged
     c_bands:  5 eigenvalues not converged
     c_bands:  2 eigenvalues not converged
     ethr =  1.00E-05,  avg # of iterations = 21.9

[...]

     total energy              =   -2424.58549841 Ry
     estimated scf accuracy    <    5829.89495685 Ry

     iteration #  2     ecut=    29.40 Ry     beta= 0.05
     Davidson diagonalization with overlap
     ethr =  1.00E-02,  avg # of iterations = 22.0

[...]

     iteration # 66     ecut=    29.40 Ry     beta= 0.05
     Davidson diagonalization with overlap
     c_bands:  1 eigenvalues not converged
     ethr =  3.72E-11,  avg # of iterations = 11.8

[...]

     total energy              =   -2942.84381690 Ry
     estimated scf accuracy    <       0.00000016 Ry

     iteration # 67     ecut=    29.40 Ry     beta= 0.05
     Davidson diagonalization with overlap
     ethr =  3.72E-11,  avg # of iterations =  6.4

     negative rho (up, down):  1.513E-02 0.000E+00

     Adding external electric field

     Computed dipole along edir(3) :
        Dipole                1.4969 Ry au,          3.8048 Debye
        Dipole field          0.0028 Ry au,

        Potential amp.       -0.2619 Ry
        Total length         46.3494 bohr

     End of self-consistent calculation

          k = 0.0000 0.0000 0.0000 ( 18029 PWs)   bands (ev):

   -55.2014 -55.1642 -55.1534 -55.1249 -55.1193 -55.0826 -55.0796 -55.0447
   -55.0255 -55.0126 -54.9911 -54.9862 -54.9526 -54.8560 -54.1858 -54.1517
   -31.7677 -31.6516 -31.6463 -31.5677 -31.5148 -31.5137 -31.5109 -31.4923
   -31.4423 -31.4389 -31.4110 -31.4089 -31.3984 -31.3818 -31.3686 -31.3630
   -31.3558 -31.3461 -31.3388 -31.3219 -31.3060 -31.3034 -31.2716 -31.2677
   -31.2572 -31.2563 -31.2378 -31.2282 -31.2106 -31.2100 -31.2057 -31.1851
   -31.1850 -31.1816 -31.1748 -31.1722 -31.1389 -31.1292 -31.1146 -31.0977
   -31.0692 -31.0498 -30.5954 -30.5007 -30.4787 -30.4116 -30.3248 -30.2140
   -17.9706 -16.0349 -15.7726 -15.6272 -15.5150 -15.4037 -15.2842 -15.2534
   -15.1337 -15.0576 -14.9236 -14.8973 -14.8748 -14.8513 -14.8394 -14.8267
   -14.7511 -14.7446 -14.7286 -14.7003 -14.6984 -14.6532 -14.6434 -14.6041
   -14.5791 -14.5578 -14.4532 -14.3650 -14.2910 -14.0742 -13.4525 -12.6886
   -12.5711  -9.7156  -6.6045  -6.0969  -4.5904  -3.3733  -3.2532  -3.2251
    -3.1379  -3.1041  -3.0958  -3.0001  -2.9494  -2.7917  -2.6493  -2.6236
    -2.4926  -2.4176  -2.4011  -2.3768  -2.2471  -2.2119  -2.1606  -2.1216
    -2.0624  -2.0321  -2.0082  -1.9926  -1.9614  -1.9523  -1.9272  -1.8381
    -1.7787  -1.6856  -1.6683  -1.6009  -1.5928  -1.5602  -1.5392  -1.4939
    -1.4835  -1.4339  -1.4266  -1.4140  -1.3942  -1.2654  -1.2227  -1.1128
    -1.0515  -0.9639  -0.8433  -0.8031  -0.7891  -0.6984  -0.6895  -0.6575
    -0.5811  -0.5780  -0.5473  -0.4391  -0.3741  -0.3105  -0.2516  -0.2251
    -0.1921  -0.1146  -0.0237   0.0124   0.0290   0.0522   0.1524   0.1874
     0.2431   0.3099   0.3214   0.3347   0.4144   0.4554   0.5307   0.5672
     0.5850   0.6736   0.7000   0.7278   0.7284   0.7662   0.7805   0.8201
     0.8688   0.8956   0.9821   1.0337   1.1027   1.3476   1.4004   1.4064
     1.7325   1.7403   1.8367   2.0202   2.4132   2.4616   3.8951   3.9639
     4.0396   4.0446   4.0670   4.1308   4.3687   4.3918   4.4007   4.4030
     4.4295

[...]

          k = 0.0380-0.0419 0.0000 ( 17876 PWs)   bands (ev):

[...]

          k =-0.0760-0.0000 0.0000 ( 17886 PWs)   bands (ev):

[...]

          k =-0.0760-0.0839 0.0000 ( 17948 PWs)   bands (ev):

   -55.1876 -55.1778 -55.1365 -55.1361 -55.1236 -55.0783 -55.0651 -55.0591
   -55.0169 -55.0097 -55.0065 -54.9698 -54.9691 -54.8571 -54.1689 -54.1685
   -31.5758 -31.5751 -31.5680 -31.4833 -31.4615 -31.4613 -31.4584 -31.4276
   -31.4275 -31.4122 -31.4014 -31.3998 -31.3911 -31.3656 -31.3562 -31.3432
   -31.3422 -31.3383 -31.3351 -31.3295 -31.3276 -31.3215 -31.2826 -31.2793
   -31.2791 -31.2777 -31.2601 -31.2585 -31.2561 -31.2558 -31.2512 -31.2427
   -31.2398 -31.2228 -31.2195 -31.2036 -31.2028 -31.1998 -31.1505 -31.1500
   -31.1257 -31.0736 -30.4915 -30.4912 -30.4080 -30.4077 -30.3683 -30.3681
   -17.9674 -15.5599 -15.4299 -15.4008 -15.2443 -15.2082 -15.1748 -15.1615
   -15.0406 -15.0033 -14.9786 -14.9693 -14.9517 -14.9113 -14.9057 -14.8987
   -14.8282 -14.8090 -14.8047 -14.7824 -14.7242 -14.7153 -14.7114 -14.7038
   -14.6533 -14.6496 -14.5691 -14.5589 -14.5557 -14.3754 -13.4560 -12.6726
   -12.6726  -9.7315  -6.5892  -6.0964  -4.5698  -3.2247  -2.9564  -2.6923
    -2.6874  -2.6594  -2.4583  -2.3956  -2.3649  -2.3594  -2.2621  -2.2255
    -2.2010  -2.1974  -2.1319  -2.1174  -2.0866  -2.0566  -2.0404  -2.0265
    -2.0108  -1.9966  -1.9712  -1.9338  -1.9257  -1.9174  -1.8854  -1.8640
    -1.8409  -1.8186  -1.8052  -1.7867  -1.7607  -1.7382  -1.6015  -1.5698
    -1.4995  -1.4561  -1.4131  -1.4088  -1.3371  -1.3006  -1.2505  -1.2383
    -1.2212  -1.0812  -1.0231  -0.9722  -0.9523  -0.9413  -0.8123  -0.7982
    -0.7250  -0.7075  -0.6912  -0.6159  -0.5655  -0.5273  -0.5137  -0.4204
    -0.4049  -0.3386  -0.2365  -0.2138  -0.1998  -0.1592  -0.1562  -0.1089
    -0.1019  -0.0178   0.0264   0.0615   0.0723   0.1081   0.3010   0.3170
     0.3270   0.4800   0.4960   0.6375   0.6810   0.7476   0.8065   0.8454
     0.9070   0.9442   1.0464   1.0853   1.1020   1.1092   1.1717   1.1837
     1.2464   1.2571   2.1928   2.1934   2.2815   2.2817   4.0410   4.1484
     4.1561   4.1977   4.3176   4.3478   4.4100   4.4373   4.4789   4.4821
     4.5426

     the Fermi energy is     3.9584 ev

!    total energy              =   -2942.84384403 Ry
     estimated scf accuracy    <       0.00000007 Ry
     smearing contrib. (-TS)   =      -0.03707782 Ry
     internal energy E=F+TS    =   -2942.80676622 Ry

     The total energy is F=E-TS. E is the sum of the following terms:
     one-electron contribution =  -23366.75299366 Ry
     hartree contribution      =   11777.54992025 Ry
     xc contribution           =    -487.74580412 Ry
     ewald contribution        =    9134.13788261 Ry
     electric field correction =       0.00422871 Ry

     convergence has been achieved in  67 iterations

     Forces acting on atoms (cartesian axes, Ry/au):

     atom    1 type  1   force =     0.00017833   -0.00032970    0.09332533
     atom    2 type  1   force =    -0.00006518   -0.00041928   -0.17821789
     atom    3 type  2   force =     0.00002758   -0.00031920   -0.02002699
     atom    4 type  2   force =     0.00002203   -0.00183063    0.05923063
     atom    5 type  2   force =    -0.01046777   -0.00026657    0.00864014
     atom    6 type  2   force =     0.01148119    0.00040500    0.00645170
     atom    7 type  1   force =    -0.00099950    0.00212636   -0.01398876
     atom    8 type  1   force =     0.00081807   -0.00095057   -0.00573610
     atom    9 type  2   force =    -0.00009868    0.00012364   -0.00001079
     atom   10 type  2   force =    -0.00185455    0.00411745    0.00024977
     atom   11 type  2   force =    -0.00006842   -0.00064155    0.00027160
     atom   12 type  2   force =    -0.00000908   -0.00041334    0.00052844
     atom   13 type  1   force =     0.00004350    0.00009388    0.00031007
     atom   14 type  1   force =    -0.00037879   -0.00000035    0.00006805
     atom   15 type  2   force =     0.00052201    0.00021534   -0.00031178
     atom   16 type  2   force =     0.00032187   -0.00035474   -0.00007921
     atom   17 type  2   force =    -0.00058047   -0.00002153   -0.00002380
     atom   18 type  2   force =     0.00053959   -0.00019286    0.00000401
     atom   19 type  1   force =    -0.00002158   -0.00055304    0.00023405
     atom   20 type  1   force =     0.00069901    0.00007217    0.00097913
     atom   21 type  2   force =     0.00012527   -0.00012367    0.10400630
     atom   22 type  2   force =    -0.00040499    0.00018325   -0.00035062
     atom   23 type  2   force =    -0.07027273   -0.00021108   -0.02685437
     atom   24 type  2   force =     0.07026545    0.00022794   -0.02688007
     atom   25 type  1   force =     0.00007670   -0.00032245    0.09264136
     atom   26 type  1   force =    -0.00003405   -0.00059478   -0.17833305
     atom   27 type  2   force =     0.00013060   -0.00016601   -0.01908754
     atom   28 type  2   force =     0.00005053   -0.00163300    0.05858814
     atom   29 type  2   force =    -0.01107004   -0.00055654    0.00932035
     atom   30 type  2   force =     0.01198920   -0.00001842    0.00720909
     atom   31 type  1   force =    -0.00093038    0.00647376   -0.01505897
     atom   32 type  1   force =     0.00086107    0.00101765   -0.00587783
     atom   33 type  2   force =     0.00017470   -0.00057181   -0.00004279
     atom   34 type  2   force =    -0.00185962   -0.00052354   -0.00051408
     atom   35 type  2   force =    -0.00044982    0.00006179   -0.00044578
     atom   36 type  2   force =     0.00034881   -0.00011803    0.00017256
     atom   37 type  1   force =    -0.00051270   -0.00025246    0.00018026
     atom   38 type  1   force =    -0.00004872   -0.00015154   -0.00009465
     atom   39 type  2   force =     0.00029613   -0.00059276    0.00000307
     atom   40 type  2   force =    -0.00060318   -0.00051009    0.00024006
     atom   41 type  2   force =    -0.00022696   -0.00073380   -0.00069243
     atom   42 type  2   force =     0.00045821   -0.00009728   -0.00011234
     atom   43 type  1   force =     0.00023206   -0.00020124   -0.00016663
     atom   44 type  1   force =     0.00052886    0.00010594    0.00082698
     atom   45 type  2   force =     0.00013615   -0.00014372    0.10397453
     atom   46 type  2   force =    -0.07027319   -0.00016917   -0.02682427
     atom   47 type  2   force =     0.07024631    0.00025111   -0.02688316
     atom   48 type  3   force =     0.00362319    0.00684148   -0.00572003
     atom   49 type  3   force =    -0.00023060   -0.00102419   -0.00001022
     atom   50 type  4   force =     0.00096004   -0.00065972   -0.00086047
     atom   51 type  5   force =    -0.00077913    0.00143026    0.00061796
     atom   52 type  5   force =     0.00038023   -0.00029261   -0.00018549
     atom   53 type  5   force =     0.00086536    0.00060089   -0.00106947
     atom   54 type  5   force =    -0.00322117   -0.00810869    0.00680627
     atom   55 type  5   force =     0.00008592   -0.00049231   -0.00021037
     atom   56 type  5   force =    -0.00102667    0.00021435   -0.00020988

     Total force =     0.366601     Total SCF correction =     0.000867
  @ DRIVER MODE: Message from server: STATUS
  @ DRIVER MODE: Message from server: GETFORCE
  @ DRIVER MODE: Returning v,forces,stress,ensemble

     Writing output data file ./calc.save/
  @ DRIVER MODE: Message from server: EXIT
  @ DRIVE MODE: Exiting

     General routines

     Parallel routines

   This run was terminated on:  11: 6:23   9Sep2021

   JOB DONE.