     Program PWSCF v.6.7GPU starts on 23Sep2021 at  4:15:57

     R & G space division:  proc/nbgrp/npool/nimage =       8
     Reading input from /storage/home/hcoda1/3/ntian30/research/carbon/CxH_vib/H2O_calc/ads_slab/CH3HO_a/out_0018/pw.inp
Warning: card &CELL ignored
Warning: card   CELL_DYNAMICS='IPI', ignored
Warning: card / ignored

     Current dimensions of program PWSCF are:
     Max number of different atomic species (ntypx) = 10
     Max number of k-points (npk) =  40000
     Max angular momentum in pseudopotentials (lmaxx) =  3
     Presently no symmetry can be used with electric field

     Message from routine cell_base_init:
     DEPRECATED: use true lattice parameter, not A to a.u. conversion factor

     IMPORTANT: XC functional enforced from input :
     Exchange-correlation= BEEF-VDW
                           (   1   4  43  14   2   0   0)
     Any further DFT definition will be discarded
     Please, verify this is what you really want

  @ DRIVER MODE: Connecting to
 qe_1139763_2941010.sched-torque.pace.gatech.eduab93phwr_scratch
  using UNIX socket
  @ DRIVER MODE: Message from server: STATUS
  @ DRIVER MODE: Message from server: INIT
  @ DRIVER MODE: Receiving replica           0          -1
  @ DRIVER MODE: Receiving encoded integer          25
  @ DRIVER MODE:  SCF:  T  FORCE:  T  STRESS:  F  VC:  F  ENSEMBLE:  F
  @ DRIVER MODE:  SCF:  T  FORCE:  T  STRESS:  F  VC:  F  ENSEMBLE:  F

     Using Slab Decomposition

     bravais-lattice index     =            0
     lattice parameter (alat)  =       1.8897  a.u.
     unit-cell volume          =    6658.9804 (a.u.)^3
     number of atoms/cell      =           53
     number of atomic types    =            4
     number of electrons       =       392.00
     number of Kohn-Sham states=          206
     kinetic-energy cutoff     =      29.3995  Ry
     charge density cutoff     =     293.9946  Ry
     scf convergence threshold =      7.3E-08
     mixing beta               =       0.0500
     number of iterations used =            8  plain     mixing
     Exchange-correlation= BEEF-VDW
                           (   1   4  43  14   2   0   0)

     celldm(1)=   1.889726  celldm(2)=   0.000000  celldm(3)=   0.000000
     celldm(4)=   0.000000  celldm(5)=   0.000000  celldm(6)=   0.000000

     crystal axes: (cart. coord. in units of alat)
               a(1) = (   6.579727   0.000000   0.000000 )
               a(2) = (  -0.000775   5.961596   0.000000 )
               a(3) = (   0.000000   0.000000  25.155947 )

     reciprocal axes: (cart. coord. in units 2 pi/alat)
               b(1) = (  0.151982  0.000020  0.000000 )
               b(2) = (  0.000000  0.167740  0.000000 )
               b(3) = (  0.000000  0.000000  0.039752 )

     PseudoPot. # 1 for Ti read from file:
     /storage/coda1/p-amedford6/0/shared/rich_project_chbe-medford/medford-share/data/pseudos_module/espresso/nninc/pbe/van/Ti.UPF
     MD5 check sum: 8e4df49b7f0d34bbd5052bf3f5ea0213
     Pseudo is Ultrasoft, Zval = 12.0
     Generated by new atomic code, or converted to UPF format
     Using radial grid of  851 points,  6 beta functions with:
                l(1) =   0
                l(2) =   0
                l(3) =   1
                l(4) =   1
                l(5) =   2
                l(6) =   2
     Q(r) pseudized with  8 coefficients,  rinner =    1.000   1.000   1.000
                                                       1.000   1.000

     PseudoPot. # 2 for O  read from file:
     /storage/coda1/p-amedford6/0/shared/rich_project_chbe-medford/medford-share/data/pseudos_module/espresso/nninc/pbe/van/O.UPF
     MD5 check sum: 78c19812648e8988a0fe644b0f25305e
     Pseudo is Ultrasoft, Zval =  6.0
     Generated by new atomic code, or converted to UPF format
     Using radial grid of  737 points,  4 beta functions with:
                l(1) =   0
                l(2) =   0
                l(3) =   1
                l(4) =   1
     Q(r) pseudized with  8 coefficients,  rinner =    0.800   0.800   0.800

     PseudoPot. # 3 for C  read from file:
     /storage/coda1/p-amedford6/0/shared/rich_project_chbe-medford/medford-share/data/pseudos_module/espresso/nninc/pbe/van/C.UPF
     MD5 check sum: 1a69bf6b8db32088f5b2163dbdb77a27
     Pseudo is Ultrasoft, Zval =  4.0
     Generated by new atomic code, or converted to UPF format
     Using radial grid of  721 points,  4 beta functions with:
                l(1) =   0
                l(2) =   0
                l(3) =   1
                l(4) =   1
     Q(r) pseudized with  8 coefficients,  rinner =    0.800   0.800   0.800

     PseudoPot. # 4 for H  read from file:
     /storage/coda1/p-amedford6/0/shared/rich_project_chbe-medford/medford-share/data/pseudos_module/espresso/nninc/pbe/van/H.UPF
     MD5 check sum: b5ee9d7bfd3a09ee7748110bda690ff7
     Pseudo is Ultrasoft, Zval =  1.0
     Generated by new atomic code, or converted to UPF format
     Using radial grid of  615 points,  1 beta functions with:
                l(1) =   0
     Q(r) pseudized with  8 coefficients,  rinner =    0.800

     atomic species   valence    mass     pseudopotential
        Ti1           12.00    47.86700     Ti( 1.00)
        O1             6.00    15.99900     O ( 1.00)
        C1             4.00    12.01100     C ( 1.00)
        H1             1.00     1.00800     H ( 1.00)

     No symmetry found

   Cartesian axes

     site n.     atom                  positions (alat units)
         1           Ti1 tau(   1) = (   0.0004258   2.9801865   6.0000000  )
         2           Ti1 tau(   2) = (   3.2906075   1.4906267   6.0002472  )
         3           O1  tau(   3) = (   0.0006271   0.0005054   7.9858123  )
         4           O1  tau(   4) = (   3.2906025   0.0005020   7.3038282  )
         5           O1  tau(   5) = (   4.5942328   1.4918067   9.2879030  )
         6           O1  tau(   6) = (   1.9868534   1.4903216   9.2879459  )
         7           Ti1 tau(   7) = (   3.2776386   2.8603028   9.2190116  )
         8           Ti1 tau(   8) = (   6.5598479   1.4304724   9.3580194  )
         9           O1  tau(   9) = (   3.2889234   5.9509398  11.3217173  )
        10           O1  tau(  10) = (   6.5764018   5.9495644  10.5876710  )
        11           O1  tau(  11) = (   1.2812264   1.4943635  12.6442538  )
        12           O1  tau(  12) = (   5.3065913   1.4950901  12.6410841  )
        13           Ti1 tau(  13) = (   0.0201148   2.8652118  12.8170930  )
        14           Ti1 tau(  14) = (   3.2957237   1.3106547  12.6889287  )
        15           O1  tau(  15) = (   6.5548780   5.9443598  14.6367865  )
        16           O1  tau(  16) = (   3.2877845   0.0417723  13.9217912  )
        17           O1  tau(  17) = (   4.5532326   1.5761655  16.0783859  )
        18           O1  tau(  18) = (   2.0366504   1.5601698  16.0762102  )
        19           Ti1 tau(  19) = (   3.2678531   3.0297845  15.6708759  )
        20           Ti1 tau(  20) = (   6.4629285   1.5188837  16.1410570  )
        21           O1  tau(  21) = (   3.2904802   0.0005063   4.7018136  )
        22           O1  tau(  22) = (   6.5629482   0.0231895  17.1619738  )
        23           O1  tau(  23) = (   1.3043587   1.4918075   6.0039043  )
        24           O1  tau(  24) = (   5.2767064   1.4903225   6.0039473  )
        25           Ti1 tau(  25) = (   0.0000382   5.9609847   6.0000000  )
        26           Ti1 tau(  26) = (   3.2902200   4.4714249   6.0002472  )
        27           O1  tau(  27) = (   0.0002396   2.9813036   7.9858123  )
        28           O1  tau(  28) = (   3.2902150   2.9813002   7.3038282  )
        29           O1  tau(  29) = (   4.5938453   4.4726049   9.2879030  )
        30           O1  tau(  30) = (   1.9864658   4.4711199   9.2879459  )
        31           Ti1 tau(  31) = (   3.2699525   5.8470351   9.1790592  )
        32           Ti1 tau(  32) = (   6.5580068   4.3764721   9.3475679  )
        33           O1  tau(  33) = (   3.2877686   3.0124297  11.2895287  )
        34           O1  tau(  34) = (   0.0005883   2.9642609  10.5504472  )
        35           O1  tau(  35) = (   1.2748618   4.4645017  12.6259732  )
        36           O1  tau(  36) = (   5.2954498   4.4639995  12.6225180  )
        37           Ti1 tau(  37) = (   6.5558271   5.8472513  12.6028672  )
        38           Ti1 tau(  38) = (   3.2807834   4.4064534  12.4217905  )
        39           O1  tau(  39) = (   6.5786029   2.9813041  14.7145626  )
        40           O1  tau(  40) = (   3.2869290   2.9992676  13.8921391  )
        41           O1  tau(  41) = (   4.5413935   4.4541386  16.0960746  )
        42           O1  tau(  42) = (   2.0104822   4.4576224  16.0708021  )
        43           Ti1 tau(  43) = (   3.1667734   0.0431258  16.3165854  )
        44           Ti1 tau(  44) = (   6.5007865   4.6242813  15.9014112  )
        45           O1  tau(  45) = (   3.2900926   2.9813045   4.7018136  )
        46           O1  tau(  46) = (   1.3039711   4.4726057   6.0039043  )
        47           O1  tau(  47) = (   5.2763189   4.4711207   6.0039473  )
        48           C1  tau(  48) = (   0.0287742   2.9159372  17.8309569  )
        49           H1  tau(  49) = (   0.0209232   3.9694834  18.1111783  )
        50           H1  tau(  50) = (   0.9459818   2.5003430  18.2652837  )
        51           H1  tau(  51) = (   5.7514102   2.4667126  18.3442606  )
        52           O1  tau(  52) = (   3.2249103   0.0683284  18.1361362  )
        53           H1  tau(  53) = (   3.4857875   5.2839856  18.6954204  )

     number of k points=    10  Fermi-Dirac smearing, width (Ry)=  0.0073
                       cart. coord. in units 2pi/alat
        k(    1) = (   0.0000000   0.0000000   0.0000000), wk =   0.1250000
        k(    2) = (   0.0000000   0.0419351   0.0000000), wk =   0.2500000
        k(    3) = (   0.0000000  -0.0838702   0.0000000), wk =   0.1250000
        k(    4) = (   0.0379955   0.0000049   0.0000000), wk =   0.2500000
        k(    5) = (   0.0379955   0.0419400   0.0000000), wk =   0.2500000
        k(    6) = (   0.0379955  -0.0838652   0.0000000), wk =   0.2500000
        k(    7) = (   0.0379955  -0.0419301   0.0000000), wk =   0.2500000
        k(    8) = (  -0.0759910  -0.0000099   0.0000000), wk =   0.1250000
        k(    9) = (  -0.0759910   0.0419252   0.0000000), wk =   0.2500000
        k(   10) = (  -0.0759910  -0.0838800   0.0000000), wk =   0.1250000

     Initial potential from superposition of free atoms

     starting charge  375.99917, renormalised to  392.00000

     negative rho (up, down):  1.890E-02 0.000E+00

     %%%%%%%%%%%%%%%%%%%%%%%%%%%%%%%%%%%%%%%%%%%%%%%%%%%%%%%%%%%%%%%%%%%%%%%%
     %                                                                      %
     % You are using vdW-DF, which was implemented by the Thonhauser group. %
     % Please cite the following two papers that made this development      %
     % possible and the two reviews that describe the various versions:     %
     %                                                                      %
     %   T. Thonhauser et al., PRL 115, 136402 (2015).                      %
     %   T. Thonhauser et al., PRB 76, 125112 (2007).                       %
     %   K. Berland et al., Rep. Prog. Phys. 78, 066501 (2015).             %
     %   D.C. Langreth et al., J. Phys.: Condens. Matter 21, 084203 (2009). %
     %                                                                      %
     %                                                                      %
     % If you are calculating the stress with vdW-DF, please also cite:     %
     %                                                                      %
     %   R. Sabatini et al., J. Phys.: Condens. Matter 24, 424209 (2012).   %
     %                                                                      %
     %%%%%%%%%%%%%%%%%%%%%%%%%%%%%%%%%%%%%%%%%%%%%%%%%%%%%%%%%%%%%%%%%%%%%%%%

     Adding external electric field

     Computed dipole along edir(3) :
        Dipole               -5.0042 Ry au,        -12.7194 Debye
        Dipole field         -0.0094 Ry au,

        Potential amp.        0.8754 Ry
        Total length         46.3494 bohr

     Starting wfcs are  296 atomic wfcs
  @ DRIVER MODE: Message from server: STATUS
  @ DRIVER MODE: Message from server: POSDATA
  @ DRIVER MODE: Reading and sharing cell
  @ DRIVER MODE: Reading and sharing positions
  @ DRIVER MODE: Received positions

     Self-consistent Calculation

     iteration #  1     ecut=    29.40 Ry     beta= 0.05
     Davidson diagonalization with overlap
     c_bands:  4 eigenvalues not converged
     c_bands:  4 eigenvalues not converged
     c_bands:  5 eigenvalues not converged
     c_bands:  3 eigenvalues not converged
     c_bands:  1 eigenvalues not converged
     c_bands:  2 eigenvalues not converged
     c_bands:  1 eigenvalues not converged
     c_bands:  2 eigenvalues not converged
     c_bands:  3 eigenvalues not converged
     ethr =  1.00E-05,  avg # of iterations = 19.7

[...]

     total energy              =   -2842.07026021 Ry
     estimated scf accuracy    <    1001.30913339 Ry

     iteration #  2     ecut=    29.40 Ry     beta= 0.05
     Davidson diagonalization with overlap
     ethr =  1.00E-02,  avg # of iterations = 16.0

[...]

     iteration # 39     ecut=    29.40 Ry     beta= 0.05
     Davidson diagonalization with overlap
     c_bands:  1 eigenvalues not converged
     ethr =  2.99E-07,  avg # of iterations =  7.4

[...]

     total energy              =   -2932.63112219 Ry
     estimated scf accuracy    <       0.00000021 Ry

     iteration # 62     ecut=    29.40 Ry     beta= 0.05
     Davidson diagonalization with overlap
     ethr =  5.37E-11,  avg # of iterations =  4.8

     negative rho (up, down):  1.832E-02 0.000E+00

     Adding external electric field

     Computed dipole along edir(3) :
        Dipole                0.4028 Ry au,          1.0237 Debye
        Dipole field          0.0008 Ry au,

        Potential amp.       -0.0705 Ry
        Total length         46.3494 bohr

     End of self-consistent calculation

          k = 0.0000 0.0000 0.0000 ( 18029 PWs)   bands (ev):

   -56.6139 -56.5637 -56.0770 -56.0399 -56.0048 -55.9341 -55.9082 -55.8941
   -55.8545 -55.8481 -55.8056 -55.7826 -55.7268 -55.6355 -55.2255 -55.1915
   -33.0256 -32.8788 -32.8245 -32.7926 -32.6969 -32.6517 -32.5036 -32.4884
   -32.4494 -32.3438 -32.3250 -32.3178 -32.3123 -32.3044 -32.2864 -32.2690
   -32.2453 -32.2247 -32.2187 -32.1432 -32.1401 -32.1382 -32.1252 -32.1135
   -32.1083 -32.1035 -32.0920 -32.0899 -32.0849 -32.0538 -32.0402 -32.0397
   -32.0098 -31.9992 -31.9955 -31.9834 -31.9678 -31.9510 -31.8920 -31.8589
   -31.8452 -31.8384 -31.6200 -31.5656 -31.5413 -31.4368 -31.3519 -31.2410
   -16.9212 -16.7700 -16.6315 -16.4087 -16.2683 -16.1580 -15.9405 -15.9297
   -15.8079 -15.8035 -15.7619 -15.6365 -15.6218 -15.5856 -15.5730 -15.5493
   -15.5364 -15.5262 -15.5220 -15.4973 -15.4617 -15.4391 -15.3958 -15.3244
   -15.2583 -15.2421 -15.2031 -15.1399 -15.1070 -14.8726 -13.7270 -13.6184
    -9.3663  -4.6666  -4.2963  -4.0803  -3.9661  -3.9234  -3.7866  -3.6404
    -3.4638  -3.3692  -3.2405  -3.2345  -3.1643  -3.1223  -3.1107  -3.1050
    -3.0211  -2.9743  -2.9413  -2.9182  -2.9040  -2.8512  -2.8172  -2.7755
    -2.7542  -2.7531  -2.7082  -2.6801  -2.5344  -2.5028  -2.4863  -2.4765
    -2.4410  -2.4237  -2.3882  -2.3724  -2.2905  -2.2090  -2.1897  -2.1293
    -2.0646  -2.0142  -1.8275  -1.8158  -1.7163  -1.6389  -1.6160  -1.5693
    -1.5300  -1.4885  -1.4218  -1.3935  -1.3077  -1.2531  -1.1997  -1.1875
    -1.1562  -1.1212  -1.0803  -0.9754  -0.9264  -0.9207  -0.8105  -0.7578
    -0.6925  -0.6880  -0.6318  -0.5990  -0.4961  -0.4778  -0.4453  -0.4096
    -0.3772  -0.3542  -0.2964  -0.2761  -0.2461  -0.1855  -0.1462  -0.1266
    -0.0974  -0.0823  -0.0183   0.0383   0.0573   0.1638   0.1829   0.2184
     0.2897   0.3795   0.4328   0.5201   0.6935   0.7921   0.8260   0.9314
     1.0065   1.0528   1.3435   1.3895   2.6876   2.8497   3.1291   3.2822
     3.3045   3.3597   3.4067   3.4627   3.6215   3.6521

[...]

          k = 0.0380-0.0419 0.0000 ( 17876 PWs)   bands (ev):

[...]

          k =-0.0760-0.0000 0.0000 ( 17886 PWs)   bands (ev):

[...]

          k =-0.0760-0.0839 0.0000 ( 17948 PWs)   bands (ev):

   -56.6074 -56.5700 -56.0759 -56.0377 -56.0001 -55.9385 -55.9102 -55.8949
   -55.8525 -55.8397 -55.8139 -55.7807 -55.7288 -55.6372 -55.2087 -55.2081
   -32.8747 -32.8581 -32.8284 -32.8261 -32.7592 -32.7274 -32.3818 -32.3577
   -32.3441 -32.3220 -32.2921 -32.2897 -32.2668 -32.2634 -32.2503 -32.2433
   -32.2199 -32.2173 -32.2076 -32.1880 -32.1839 -32.1657 -32.1607 -32.1370
   -32.1339 -32.1335 -32.1198 -32.1035 -32.0999 -32.0705 -32.0621 -32.0501
   -32.0477 -32.0408 -32.0067 -32.0044 -31.9905 -31.9873 -31.9688 -31.8931
   -31.8815 -31.8487 -31.5545 -31.5542 -31.4356 -31.4338 -31.3941 -31.3931
   -16.9066 -16.1663 -16.0831 -16.0769 -16.0661 -16.0363 -15.9910 -15.9217
   -15.9188 -15.8256 -15.7937 -15.7580 -15.7237 -15.7081 -15.6548 -15.6496
   -15.6328 -15.5688 -15.5264 -15.4998 -15.4816 -15.4772 -15.4489 -15.4298
   -15.4181 -15.3990 -15.3334 -15.2992 -15.2228 -15.0126 -13.7227 -13.7214
    -9.3809  -4.6740  -3.3948  -3.3252  -3.2540  -3.2348  -3.1569  -3.1113
    -3.0981  -3.0712  -3.0496  -3.0167  -2.9866  -2.9706  -2.9259  -2.9145
    -2.9090  -2.9061  -2.8973  -2.8849  -2.8588  -2.8057  -2.7959  -2.7896
    -2.7687  -2.7625  -2.7463  -2.7255  -2.6803  -2.6626  -2.6220  -2.4551
    -2.4304  -2.4229  -2.3742  -2.3516  -2.3018  -2.2726  -2.1943  -2.1816
    -2.1747  -2.1416  -2.0260  -1.9086  -1.7801  -1.7705  -1.7337  -1.6645
    -1.6289  -1.5645  -1.5367  -1.5127  -1.4875  -1.4448  -1.4253  -1.3382
    -1.3280  -1.2878  -1.2730  -1.2575  -1.1745  -1.1130  -1.0851  -1.0625
    -1.0233  -0.9879  -0.9278  -0.8822  -0.8696  -0.8400  -0.8216  -0.7041
    -0.6703  -0.6401  -0.4918  -0.4568  -0.4503  -0.4016  -0.2505  -0.2079
    -0.1576  -0.1129  -0.0839   0.0465   0.0914   0.1376   0.1449   0.1999
     0.3186   0.3418   0.3861   0.4526   0.4760   0.4866   0.5264   1.0219
     1.1850   1.1878   1.1960   1.2014   3.2291   3.2535   3.2660   3.2972
     3.4702   3.5396   3.5759   3.6037   3.6496   3.7099

     the Fermi energy is     2.0966 ev

!    total energy              =   -2932.63117278 Ry
     estimated scf accuracy    <       0.00000005 Ry
     smearing contrib. (-TS)   =      -0.00015668 Ry
     internal energy E=F+TS    =   -2932.63101610 Ry

     The total energy is F=E-TS. E is the sum of the following terms:
     one-electron contribution =  -24307.54257861 Ry
     hartree contribution      =   12237.94289380 Ry
     xc contribution           =    -482.64873524 Ry
     ewald contribution        =    9619.61709783 Ry
     electric field correction =       0.00030612 Ry

     convergence has been achieved in  62 iterations

     Forces acting on atoms (cartesian axes, Ry/au):

     atom    1 type  1   force =     0.00035627   -0.00030507    0.13240793
     atom    2 type  1   force =     0.00005541    0.00687878   -0.15774767
     atom    3 type  2   force =     0.00014753    0.00441239   -0.05307193
     atom    4 type  2   force =    -0.00038322   -0.00087068    0.04047132
     atom    5 type  2   force =    -0.00905939   -0.00264558    0.00214421
     atom    6 type  2   force =     0.00916466   -0.00495948    0.00181386
     atom    7 type  1   force =     0.00069267    0.00107929    0.00047313
     atom    8 type  1   force =    -0.00079231   -0.00014065   -0.00011026
     atom    9 type  2   force =     0.00000687   -0.00017406    0.00049603
     atom   10 type  2   force =     0.00004964   -0.00007019   -0.00013345
     atom   11 type  2   force =    -0.00059617    0.00021036   -0.00040116
     atom   12 type  2   force =    -0.00050782   -0.00055062   -0.00060707
     atom   13 type  1   force =     0.00096220   -0.00085910   -0.00002334
     atom   14 type  1   force =    -0.00105888   -0.00093949    0.00009859
     atom   15 type  2   force =     0.00003961    0.00010341   -0.00074547
     atom   16 type  2   force =     0.00010046    0.00003274   -0.00044426
     atom   17 type  2   force =     0.00007910   -0.00008494    0.00009427
     atom   18 type  2   force =    -0.00007251   -0.00010842    0.00017166
     atom   19 type  1   force =    -0.00000810   -0.00018509   -0.00081979
     atom   20 type  1   force =     0.00008006   -0.00039833    0.00017862
     atom   21 type  2   force =     0.00016153    0.00008514    0.09921991
     atom   22 type  2   force =     0.00013714    0.00016486   -0.00007744
     atom   23 type  2   force =    -0.08042859    0.00141500   -0.03415056
     atom   24 type  2   force =     0.08051537    0.00191541   -0.03419229
     atom   25 type  1   force =     0.00021463   -0.00004383    0.14220303
     atom   26 type  1   force =     0.00010156   -0.00848230   -0.15822312
     atom   27 type  2   force =    -0.00011019   -0.00043190   -0.05129089
     atom   28 type  2   force =    -0.00024919   -0.00030523    0.04226456
     atom   29 type  2   force =    -0.00855464    0.00487276    0.00030991
     atom   30 type  2   force =     0.00770600    0.00352280    0.00001153
     atom   31 type  1   force =     0.00054431   -0.00128938    0.00089996
     atom   32 type  1   force =    -0.00091478    0.00037579   -0.00075965
     atom   33 type  2   force =     0.00002015   -0.00028055   -0.00018867
     atom   34 type  2   force =     0.00000231   -0.00100276    0.00033099
     atom   35 type  2   force =    -0.00040259    0.00005284   -0.00021683
     atom   36 type  2   force =     0.00022729   -0.00021366   -0.00023803
     atom   37 type  1   force =     0.00101420    0.00078465    0.00044141
     atom   38 type  1   force =    -0.00048194    0.00000126    0.00019900
     atom   39 type  2   force =    -0.00028514   -0.00025993   -0.00011943
     atom   40 type  2   force =     0.00025118   -0.00028347   -0.00006938
     atom   41 type  2   force =     0.00021056   -0.00016644   -0.00006589
     atom   42 type  2   force =     0.00004243    0.00031966   -0.00004879
     atom   43 type  1   force =    -0.00008906    0.00044069   -0.00074052
     atom   44 type  1   force =     0.00036884    0.00033317   -0.00001517
     atom   45 type  2   force =     0.00015804    0.00004228    0.09874850
     atom   46 type  2   force =    -0.08046490   -0.00101235   -0.03415591
     atom   47 type  2   force =     0.08055687   -0.00053008   -0.03418947
     atom   48 type  3   force =     0.00359345   -0.00194185    0.00245417
     atom   49 type  4   force =    -0.00030928    0.00029243    0.00048280
     atom   50 type  4   force =    -0.00331560    0.00129377   -0.00223631
     atom   51 type  4   force =    -0.00088818    0.00007521    0.00000480
     atom   52 type  2   force =     0.00064240   -0.00164051   -0.00048488
     atom   53 type  4   force =     0.00076974    0.00147123   -0.00035255

     Total force =     0.383817     Total SCF correction =     0.000553
  @ DRIVER MODE: Message from server: STATUS
  @ DRIVER MODE: Message from server: GETFORCE
  @ DRIVER MODE: Returning v,forces,stress,ensemble

     Writing output data file ./calc.save/
  @ DRIVER MODE: Message from server: EXIT
  @ DRIVE MODE: Exiting

     General routines

     Parallel routines

   This run was terminated on:   4:35: 9  23Sep2021

   JOB DONE.