     Program PWSCF v.6.7GPU starts on 25Aug2021 at  1:30: 7

     R & G space division:  proc/nbgrp/npool/nimage =       6
     Reading input from /storage/home/hcoda1/3/ntian30/research/carbon/CH3_vib_end_on/ads_slab/CH3N_a/out_0022/pw.inp
Warning: card &CELL ignored
Warning: card   CELL_DYNAMICS='IPI', ignored
Warning: card / ignored

     Current dimensions of program PWSCF are:
     Max number of different atomic species (ntypx) = 10
     Max number of k-points (npk) =  40000
     Max angular momentum in pseudopotentials (lmaxx) =  3
     Presently no symmetry can be used with electric field

     Message from routine cell_base_init:
     DEPRECATED: use true lattice parameter, not A to a.u. conversion factor

     IMPORTANT: XC functional enforced from input :
     Exchange-correlation= BEEF-VDW
                           (   1   4  43  14   2   0   0)
     Any further DFT definition will be discarded
     Please, verify this is what you really want

  @ DRIVER MODE: Connecting to
 qe_1139763_2643872.sched-torque.pace.gatech.edu6sejnt7h_scratch
  using UNIX socket
  @ DRIVER MODE: Message from server: STATUS
  @ DRIVER MODE: Message from server: INIT
  @ DRIVER MODE: Receiving replica           0          -1
  @ DRIVER MODE: Receiving encoded integer          25
  @ DRIVER MODE:  SCF:  T  FORCE:  T  STRESS:  F  VC:  F  ENSEMBLE:  F
  @ DRIVER MODE:  SCF:  T  FORCE:  T  STRESS:  F  VC:  F  ENSEMBLE:  F

     Using Slab Decomposition

     bravais-lattice index     =            0
     lattice parameter (alat)  =       1.8897  a.u.
     unit-cell volume          =    6658.9804 (a.u.)^3
     number of atoms/cell      =           52
     number of atomic types    =            5
     number of electrons       =       390.00
     number of Kohn-Sham states=          205
     kinetic-energy cutoff     =      29.3995  Ry
     charge density cutoff     =     293.9946  Ry
     scf convergence threshold =      7.3E-08
     mixing beta               =       0.0500
     number of iterations used =            8  plain     mixing
     Exchange-correlation= BEEF-VDW
                           (   1   4  43  14   2   0   0)

     celldm(1)=   1.889726  celldm(2)=   0.000000  celldm(3)=   0.000000
     celldm(4)=   0.000000  celldm(5)=   0.000000  celldm(6)=   0.000000

     crystal axes: (cart. coord. in units of alat)
               a(1) = (   6.579727   0.000000   0.000000 )
               a(2) = (  -0.000775   5.961596   0.000000 )
               a(3) = (   0.000000   0.000000  25.155947 )

     reciprocal axes: (cart. coord. in units 2 pi/alat)
               b(1) = (  0.151982  0.000020  0.000000 )
               b(2) = (  0.000000  0.167740  0.000000 )
               b(3) = (  0.000000  0.000000  0.039752 )

     PseudoPot. # 1 for Ti read from file:
     /storage/coda1/p-amedford6/0/shared/rich_project_chbe-medford/medford-share/data/pseudos_module/espresso/nninc/pbe/van/Ti.UPF
     MD5 check sum: 8e4df49b7f0d34bbd5052bf3f5ea0213
     Pseudo is Ultrasoft, Zval = 12.0
     Generated by new atomic code, or converted to UPF format
     Using radial grid of  851 points,  6 beta functions with:
                l(1) =   0
                l(2) =   0
                l(3) =   1
                l(4) =   1
                l(5) =   2
                l(6) =   2
     Q(r) pseudized with  8 coefficients,  rinner =    1.000   1.000   1.000
                                                       1.000   1.000

     PseudoPot. # 2 for O  read from file:
     /storage/coda1/p-amedford6/0/shared/rich_project_chbe-medford/medford-share/data/pseudos_module/espresso/nninc/pbe/van/O.UPF
     MD5 check sum: 78c19812648e8988a0fe644b0f25305e
     Pseudo is Ultrasoft, Zval =  6.0
     Generated by new atomic code, or converted to UPF format
     Using radial grid of  737 points,  4 beta functions with:
                l(1) =   0
                l(2) =   0
                l(3) =   1
                l(4) =   1
     Q(r) pseudized with  8 coefficients,  rinner =    0.800   0.800   0.800

     PseudoPot. # 3 for N  read from file:
     /storage/coda1/p-amedford6/0/shared/rich_project_chbe-medford/medford-share/data/pseudos_module/espresso/nninc/pbe/van/N.UPF
     MD5 check sum: 90d10febe142ad51ac9d5be1deb811c4
     Pseudo is Ultrasoft, Zval =  5.0
     Generated by new atomic code, or converted to UPF format
     Using radial grid of  729 points,  4 beta functions with:
                l(1) =   0
                l(2) =   0
                l(3) =   1
                l(4) =   1
     Q(r) pseudized with  8 coefficients,  rinner =    0.800   0.800   0.800

     PseudoPot. # 4 for C  read from file:
     /storage/coda1/p-amedford6/0/shared/rich_project_chbe-medford/medford-share/data/pseudos_module/espresso/nninc/pbe/van/C.UPF
     MD5 check sum: 1a69bf6b8db32088f5b2163dbdb77a27
     Pseudo is Ultrasoft, Zval =  4.0
     Generated by new atomic code, or converted to UPF format
     Using radial grid of  721 points,  4 beta functions with:
                l(1) =   0
                l(2) =   0
                l(3) =   1
                l(4) =   1
     Q(r) pseudized with  8 coefficients,  rinner =    0.800   0.800   0.800

     PseudoPot. # 5 for H  read from file:
     /storage/coda1/p-amedford6/0/shared/rich_project_chbe-medford/medford-share/data/pseudos_module/espresso/nninc/pbe/van/H.UPF
     MD5 check sum: b5ee9d7bfd3a09ee7748110bda690ff7
     Pseudo is Ultrasoft, Zval =  1.0
     Generated by new atomic code, or converted to UPF format
     Using radial grid of  615 points,  1 beta functions with:
                l(1) =   0
     Q(r) pseudized with  8 coefficients,  rinner =    0.800

     atomic species   valence    mass     pseudopotential
        Ti1           12.00    47.86700     Ti( 1.00)
        O1             6.00    15.99900     O ( 1.00)
        N1             5.00    14.00700     N ( 1.00)
        C1             4.00    12.01100     C ( 1.00)
        H1             1.00     1.00800     H ( 1.00)

     No symmetry found

   Cartesian axes

     site n.     atom                  positions (alat units)
         1           Ti1 tau(   1) = (   0.0004258   2.9801865   6.0000000  )
         2           Ti1 tau(   2) = (   3.2906075   1.4906267   6.0002472  )
         3           O1  tau(   3) = (   0.0006271   0.0005054   7.9858123  )
         4           O1  tau(   4) = (   3.2906025   0.0005020   7.3038282  )
         5           O1  tau(   5) = (   4.5942328   1.4918067   9.2879030  )
         6           O1  tau(   6) = (   1.9868534   1.4903216   9.2879459  )
         7           Ti1 tau(   7) = (   3.2907910   2.8959150   9.1758416  )
         8           Ti1 tau(   8) = (   0.0015273   1.4827037   9.2680791  )
         9           O1  tau(   9) = (   3.3018735   5.9614316  11.2970789  )
        10           O1  tau(  10) = (   0.0116148   5.9584955  10.6183126  )
        11           O1  tau(  11) = (   1.3353665   1.4968727  12.6140821  )
        12           O1  tau(  12) = (   5.3123320   1.5002621  12.6324210  )
        13           Ti1 tau(  13) = (   6.4913169   2.9877414  12.7576577  )
        14           Ti1 tau(  14) = (   3.1819880   1.4874128  12.4666476  )
        15           O1  tau(  15) = (   0.0325390   5.9514364  14.5942808  )
        16           O1  tau(  16) = (   3.3157460   0.0104736  13.8786857  )
        17           O1  tau(  17) = (   4.5538541   1.5308062  16.0536203  )
        18           O1  tau(  18) = (   2.1012647   1.5271178  16.0466835  )
        19           Ti1 tau(  19) = (   3.3239613   3.0121693  15.6870930  )
        20           Ti1 tau(  20) = (   0.0188375   1.6096557  16.0875739  )
        21           O1  tau(  21) = (   3.2904802   0.0005063   4.7018136  )
        22           O1  tau(  22) = (   0.0443345   0.0604659  17.2041813  )
        23           O1  tau(  23) = (   1.3043587   1.4918075   6.0039043  )
        24           O1  tau(  24) = (   5.2767064   1.4903225   6.0039473  )
        25           Ti1 tau(  25) = (   0.0000382   5.9609847   6.0000000  )
        26           Ti1 tau(  26) = (   3.2902200   4.4714249   6.0002472  )
        27           O1  tau(  27) = (   0.0002396   2.9813036   7.9858123  )
        28           O1  tau(  28) = (   3.2902150   2.9813002   7.3038282  )
        29           O1  tau(  29) = (   4.5938453   4.4726049   9.2879030  )
        30           O1  tau(  30) = (   1.9864658   4.4711199   9.2879459  )
        31           Ti1 tau(  31) = (   3.2891106   5.8743827   9.1763621  )
        32           Ti1 tau(  32) = (   0.0006254   4.4649316   9.2693709  )
        33           O1  tau(  33) = (   3.3028429   2.9834257  11.2952420  )
        34           O1  tau(  34) = (   0.0092240   2.9805883  10.6323155  )
        35           O1  tau(  35) = (   1.3370139   4.4664586  12.6123119  )
        36           O1  tau(  36) = (   5.3107101   4.4655690  12.6333123  )
        37           Ti1 tau(  37) = (   6.5188704   0.0058144  12.7695920  )
        38           Ti1 tau(  38) = (   3.1805296   4.4670443  12.4671176  )
        39           O1  tau(  39) = (   0.0099197   2.9765079  14.6559069  )
        40           O1  tau(  40) = (   3.3143426   2.9928857  13.8797190  )
        41           O1  tau(  41) = (   4.5573730   4.5089470  16.0521860  )
        42           O1  tau(  42) = (   2.1018054   4.5121927  16.0508938  )
        43           Ti1 tau(  43) = (   3.3145791   0.0316975  15.6896801  )
        44           Ti1 tau(  44) = (   0.0207397   4.5876961  16.1385408  )
        45           O1  tau(  45) = (   3.2900926   2.9813045   4.7018136  )
        46           O1  tau(  46) = (   1.3039711   4.4726057   6.0039043  )
        47           O1  tau(  47) = (   5.2763189   4.4711207   6.0039473  )
        48           N1  tau(  48) = (   0.0936308   3.0233000  17.3257847  )
        49           C1  tau(  49) = (   0.4281149   3.0137428  18.7308649  )
        50           H1  tau(  50) = (   0.7292188   4.0033843  19.0862330  )
        51           H1  tau(  51) = (   6.1445545   2.6962439  19.3232575  )
        52           H1  tau(  52) = (   1.2401080   2.3040860  18.9332505  )

     number of k points=    10  Fermi-Dirac smearing, width (Ry)=  0.0073
                       cart. coord. in units 2pi/alat
        k(    1) = (   0.0000000   0.0000000   0.0000000), wk =   0.1250000
        k(    2) = (   0.0000000   0.0419351   0.0000000), wk =   0.2500000
        k(    3) = (   0.0000000  -0.0838702   0.0000000), wk =   0.1250000
        k(    4) = (   0.0379955   0.0000049   0.0000000), wk =   0.2500000
        k(    5) = (   0.0379955   0.0419400   0.0000000), wk =   0.2500000
        k(    6) = (   0.0379955  -0.0838652   0.0000000), wk =   0.2500000
        k(    7) = (   0.0379955  -0.0419301   0.0000000), wk =   0.2500000
        k(    8) = (  -0.0759910  -0.0000099   0.0000000), wk =   0.1250000
        k(    9) = (  -0.0759910   0.0419252   0.0000000), wk =   0.2500000
        k(   10) = (  -0.0759910  -0.0838800   0.0000000), wk =   0.1250000

     Initial potential from superposition of free atoms

     starting charge  373.99917, renormalised to  390.00000

     negative rho (up, down):  1.730E-02 0.000E+00

     %%%%%%%%%%%%%%%%%%%%%%%%%%%%%%%%%%%%%%%%%%%%%%%%%%%%%%%%%%%%%%%%%%%%%%%%
     %                                                                      %
     % You are using vdW-DF, which was implemented by the Thonhauser group. %
     % Please cite the following two papers that made this development      %
     % possible and the two reviews that describe the various versions:     %
     %                                                                      %
     %   T. Thonhauser et al., PRL 115, 136402 (2015).                      %
     %   T. Thonhauser et al., PRB 76, 125112 (2007).                       %
     %   K. Berland et al., Rep. Prog. Phys. 78, 066501 (2015).             %
     %   D.C. Langreth et al., J. Phys.: Condens. Matter 21, 084203 (2009). %
     %                                                                      %
     %                                                                      %
     % If you are calculating the stress with vdW-DF, please also cite:     %
     %                                                                      %
     %   R. Sabatini et al., J. Phys.: Condens. Matter 24, 424209 (2012).   %
     %                                                                      %
     %%%%%%%%%%%%%%%%%%%%%%%%%%%%%%%%%%%%%%%%%%%%%%%%%%%%%%%%%%%%%%%%%%%%%%%%

     Adding external electric field

     Computed dipole along edir(3) :
        Dipole               -4.6272 Ry au,        -11.7612 Debye
        Dipole field         -0.0087 Ry au,

        Potential amp.        0.8095 Ry
        Total length         46.3494 bohr

     Starting wfcs are  295 atomic wfcs
  @ DRIVER MODE: Message from server: STATUS
  @ DRIVER MODE: Message from server: POSDATA
  @ DRIVER MODE: Reading and sharing cell
  @ DRIVER MODE: Reading and sharing positions
  @ DRIVER MODE: Received positions

     Self-consistent Calculation

     iteration #  1     ecut=    29.40 Ry     beta= 0.05
     Davidson diagonalization with overlap
     c_bands:  3 eigenvalues not converged
     c_bands:  2 eigenvalues not converged
     c_bands:  2 eigenvalues not converged
     c_bands:  4 eigenvalues not converged
     c_bands:  4 eigenvalues not converged
     c_bands:  2 eigenvalues not converged
     c_bands:  2 eigenvalues not converged
     c_bands:  4 eigenvalues not converged
     ethr =  1.00E-05,  avg # of iterations = 19.7

[...]

     total energy              =   -2877.54042925 Ry
     estimated scf accuracy    <     479.95422463 Ry

     iteration #  2     ecut=    29.40 Ry     beta= 0.05
     Davidson diagonalization with overlap
     ethr =  1.00E-02,  avg # of iterations = 13.4

[...]

     iteration # 41     ecut=    29.40 Ry     beta= 0.05
     Davidson diagonalization with overlap
     c_bands:  4 eigenvalues not converged
     c_bands:  2 eigenvalues not converged
     c_bands:  1 eigenvalues not converged
     ethr =  1.69E-06,  avg # of iterations = 14.0

[...]

     total energy              =   -2919.13185945 Ry
     estimated scf accuracy    <       0.00000008 Ry

     iteration # 69     ecut=    29.40 Ry     beta= 0.05
     Davidson diagonalization with overlap
     ethr =  2.02E-11,  avg # of iterations =  6.0

     negative rho (up, down):  1.787E-02 0.000E+00

     Adding external electric field

     Computed dipole along edir(3) :
        Dipole                0.2594 Ry au,          0.6594 Debye
        Dipole field          0.0005 Ry au,

        Potential amp.       -0.0454 Ry
        Total length         46.3494 bohr

     End of self-consistent calculation

          k = 0.0000 0.0000 0.0000 ( 18029 PWs)   bands (ev):

   -56.8881 -56.8545 -56.0100 -55.9982 -55.9750 -55.9654 -55.8626 -55.8239
   -55.6461 -55.6108 -55.5522 -55.5485 -55.5183 -55.4392 -54.9673 -54.9203
   -33.3160 -33.1628 -33.1347 -33.0642 -32.9731 -32.9420 -32.4809 -32.4746
   -32.4032 -32.2942 -32.2477 -32.2237 -32.2054 -32.1840 -32.1504 -32.1461
   -32.1417 -32.1391 -32.1135 -32.1104 -32.0995 -32.0696 -32.0433 -32.0295
   -32.0164 -31.9968 -31.9897 -31.9662 -31.9445 -31.8908 -31.8774 -31.8667
   -31.7899 -31.7848 -31.7633 -31.7235 -31.7127 -31.6798 -31.6685 -31.6435
   -31.6249 -31.5688 -31.4972 -31.2180 -31.1924 -31.1715 -31.1412 -31.0260
   -17.0522 -16.6165 -16.3860 -16.2506 -16.1830 -16.1287 -16.0847 -15.9597
   -15.8872 -15.8826 -15.8425 -15.8096 -15.7390 -15.6010 -15.5024 -15.4447
   -15.4010 -15.2820 -15.2237 -15.1895 -15.1834 -15.1444 -15.1295 -14.9328
   -14.9063 -14.8186 -14.7982 -14.6717 -14.4388 -14.0508 -13.9407 -13.0816
    -7.8170  -4.6177  -4.1130  -3.8716  -3.7889  -3.6804  -3.6681  -3.5867
    -3.4688  -3.4217  -3.3754  -3.2593  -3.2554  -3.1094  -3.0967  -3.0637
    -3.0609  -3.0232  -2.9690  -2.9423  -2.9120  -2.8933  -2.8853  -2.7343
    -2.6327  -2.5650  -2.5387  -2.5256  -2.4955  -2.4228  -2.3932  -2.3845
    -2.3806  -2.2744  -2.1304  -2.1281  -2.0962  -2.0542  -2.0523  -2.0131
    -2.0005  -1.8761  -1.7854  -1.6761  -1.6667  -1.6293  -1.5679  -1.5614
    -1.4647  -1.3890  -1.3184  -1.3012  -1.1919  -1.1475  -1.1242  -1.0341
    -0.9730  -0.9356  -0.9123  -0.8963  -0.7932  -0.7774  -0.7695  -0.6760
    -0.6640  -0.6206  -0.5276  -0.5044  -0.4990  -0.4165  -0.4093  -0.3037
    -0.2762  -0.2310  -0.1984  -0.0932  -0.0727   0.0252   0.0620   0.0813
     0.2023   0.2196   0.2802   0.3527   0.4177   0.4344   0.4694   0.5004
     0.5165   0.5951   0.7071   0.7138   0.8184   0.8511   1.0219   1.0608
     1.3472   1.3555   2.0451   2.3865   2.5462   2.8446   3.0338   3.1471
     3.3614   3.3769   3.3822   3.5545   3.6067

[...]

          k = 0.0380-0.0419 0.0000 ( 17876 PWs)   bands (ev):

[...]

          k =-0.0760-0.0000 0.0000 ( 17886 PWs)   bands (ev):

[...]

          k =-0.0760-0.0839 0.0000 ( 17948 PWs)   bands (ev):

   -56.8714 -56.8711 -55.9948 -55.9890 -55.9826 -55.9819 -55.8510 -55.8352
   -55.6314 -55.6254 -55.5456 -55.5353 -55.5351 -55.4419 -54.9593 -54.9281
   -33.1486 -33.1484 -33.1328 -33.1327 -33.0172 -33.0170 -32.3108 -32.3084
   -32.2991 -32.2926 -32.2393 -32.2360 -32.1973 -32.1935 -32.1923 -32.1880
   -32.1843 -32.1815 -32.1793 -32.1777 -32.1014 -32.0889 -32.0502 -32.0379
   -31.9818 -31.9732 -31.9136 -31.9077 -31.8798 -31.8796 -31.8737 -31.8300
   -31.8282 -31.7986 -31.7618 -31.7608 -31.7606 -31.7218 -31.7216 -31.7193
   -31.6847 -31.6453 -31.3620 -31.2845 -31.1891 -31.1618 -31.1499 -31.1083
   -16.4008 -16.3988 -16.3661 -16.3658 -16.0968 -16.0933 -16.0467 -16.0433
   -15.8717 -15.8645 -15.6599 -15.6510 -15.6438 -15.6410 -15.5133 -15.5076
   -15.4440 -15.4298 -15.3416 -15.3391 -15.2764 -15.2704 -15.2316 -15.2118
   -14.9019 -14.8844 -14.7725 -14.7470 -14.5823 -14.0443 -14.0441 -13.0981
    -7.8078  -3.4993  -3.4986  -3.4350  -3.4340  -3.3092  -3.3033  -3.2306
    -3.2298  -3.1280  -3.1242  -3.0720  -2.9992  -2.9852  -2.9820  -2.9712
    -2.9661  -2.8311  -2.8281  -2.8168  -2.8009  -2.7450  -2.7428  -2.7304
    -2.6528  -2.6381  -2.6041  -2.5659  -2.4569  -2.4436  -2.4300  -2.3986
    -2.3434  -2.3293  -2.3162  -2.2746  -2.2514  -2.1639  -2.1071  -2.0548
    -1.9393  -1.9363  -1.9275  -1.9119  -1.7610  -1.7192  -1.6914  -1.6846
    -1.6761  -1.6324  -1.5345  -1.5278  -1.3929  -1.3924  -1.3122  -1.2334
    -1.2159  -1.1861  -1.0558  -1.0156  -0.9789  -0.9707  -0.9431  -0.9233
    -0.8999  -0.8623  -0.7210  -0.7079  -0.6711  -0.6360  -0.6309  -0.5758
    -0.5176  -0.4378  -0.3616  -0.3606  -0.3056  -0.2329  -0.1730  -0.0914
    -0.0782  -0.0735   0.2067   0.2862   0.3787   0.4552   0.5239   0.5770
     0.6120   0.6770   0.7154   0.8479   0.8525   0.8701   0.8704   0.9330
     0.9346   1.3391   1.9344   2.9595   2.9599   3.0267   3.0271   3.3507
     3.3565   3.4648   3.4743   3.5858   3.5881

     the Fermi energy is     2.2251 ev

!    total energy              =   -2919.13187621 Ry
     estimated scf accuracy    <       0.00000006 Ry
     smearing contrib. (-TS)   =      -0.00480491 Ry
     internal energy E=F+TS    =   -2919.12707130 Ry

     The total energy is F=E-TS. E is the sum of the following terms:
     one-electron contribution =  -24569.40843157 Ry
     hartree contribution      =   12368.93066944 Ry
     xc contribution           =    -479.90162402 Ry
     ewald contribution        =    9761.25218786 Ry
     electric field correction =       0.00012699 Ry

     convergence has been achieved in  69 iterations

     Forces acting on atoms (cartesian axes, Ry/au):

     atom    1 type  1   force =     0.00005425   -0.00050063    0.12429513
     atom    2 type  1   force =    -0.00009267   -0.00055810   -0.16063628
     atom    3 type  2   force =     0.00022155   -0.00024139   -0.06812952
     atom    4 type  2   force =    -0.00000167   -0.00032325    0.02757172
     atom    5 type  2   force =    -0.01620855    0.00174714   -0.00936989
     atom    6 type  2   force =     0.01826277    0.00228370   -0.00892156
     atom    7 type  1   force =     0.00112569   -0.00382561    0.02205263
     atom    8 type  1   force =    -0.00061678   -0.00325002    0.11125983
     atom    9 type  2   force =    -0.00010369    0.00138761   -0.00037229
     atom   10 type  2   force =    -0.00190593    0.00178585   -0.07348938
     atom   11 type  2   force =     0.00081942    0.00006254    0.00004894
     atom   12 type  2   force =    -0.00066189    0.00020333    0.00014919
     atom   13 type  1   force =     0.00005198    0.00022721   -0.00036291
     atom   14 type  1   force =    -0.00101456   -0.00024487   -0.00046837
     atom   15 type  2   force =     0.00000130   -0.00029519    0.00005540
     atom   16 type  2   force =    -0.00005886    0.00106808    0.00074231
     atom   17 type  2   force =     0.00008326    0.00013211   -0.00048463
     atom   18 type  2   force =     0.00005589    0.00019923   -0.00007167
     atom   19 type  1   force =     0.00013634    0.00002263   -0.00075312
     atom   20 type  1   force =     0.00032836   -0.00092969    0.00023708
     atom   21 type  2   force =     0.00004100   -0.00006669    0.09975235
     atom   22 type  2   force =     0.00016050   -0.00053226   -0.00013287
     atom   23 type  2   force =    -0.07920435   -0.00005305   -0.03243454
     atom   24 type  2   force =     0.07907124    0.00038088   -0.03246061
     atom   25 type  1   force =     0.00004013   -0.00049940    0.12374385
     atom   26 type  1   force =    -0.00009905   -0.00050464   -0.16064901
     atom   27 type  2   force =     0.00032558   -0.00048065   -0.06718443
     atom   28 type  2   force =     0.00002693   -0.00014094    0.02726522
     atom   29 type  2   force =    -0.01660817    0.00134810   -0.00957311
     atom   30 type  2   force =     0.01855084    0.00165434   -0.00914128
     atom   31 type  1   force =     0.00110326   -0.00129973    0.02160641
     atom   32 type  1   force =    -0.00051750    0.00069443    0.11191032
     atom   33 type  2   force =    -0.00033841   -0.00115265    0.00012936
     atom   34 type  2   force =    -0.00156483    0.00135627   -0.07242752
     atom   35 type  2   force =    -0.00178419   -0.00019832    0.00026639
     atom   36 type  2   force =     0.00068277   -0.00042192   -0.00005314
     atom   37 type  1   force =     0.00072278   -0.00033056    0.00074520
     atom   38 type  1   force =    -0.00016367    0.00052361    0.00022032
     atom   39 type  2   force =     0.00018137   -0.00030317   -0.00039382
     atom   40 type  2   force =     0.00010849   -0.00017190    0.00033004
     atom   41 type  2   force =     0.00003106    0.00045626   -0.00014868
     atom   42 type  2   force =     0.00024926    0.00053498   -0.00005083
     atom   43 type  1   force =     0.00037169    0.00017232   -0.00038409
     atom   44 type  1   force =    -0.00021139    0.00008865    0.00012384
     atom   45 type  2   force =     0.00002456   -0.00006935    0.09975679
     atom   46 type  2   force =    -0.07921197   -0.00000672   -0.03243636
     atom   47 type  2   force =     0.07908208    0.00042341   -0.03246092
     atom   48 type  3   force =    -0.00017522   -0.00101568   -0.00077041
     atom   49 type  4   force =     0.00174043    0.00232837   -0.00045742
     atom   50 type  5   force =     0.00020247    0.00037147   -0.00038541
     atom   51 type  5   force =    -0.00224283   -0.00231416    0.00177372
     atom   52 type  5   force =    -0.00107105    0.00027803    0.00056802

     Total force =     0.424689     Total SCF correction =     0.000481
  @ DRIVER MODE: Message from server: STATUS
  @ DRIVER MODE: Message from server: GETFORCE
  @ DRIVER MODE: Returning v,forces,stress,ensemble

     Writing output data file ./calc.save/
  @ DRIVER MODE: Message from server: EXIT
  @ DRIVE MODE: Exiting

     General routines

     Parallel routines

   This run was terminated on:   1:57:10  25Aug2021

   JOB DONE.