     Program PWSCF v.6.7GPU starts on 18Oct2021 at 22:55:41

     R & G space division:  proc/nbgrp/npool/nimage =       8
     Reading input from /storage/home/hcoda1/3/ntian30/research/carbon/CxH_vib/Thiel_calc/ads_slab/NNH2_perslab/out_0021/pw.inp
Warning: card &CELL ignored
Warning: card   CELL_DYNAMICS='IPI', ignored
Warning: card / ignored

     Current dimensions of program PWSCF are:
     Max number of different atomic species (ntypx) = 10
     Max number of k-points (npk) =  40000
     Max angular momentum in pseudopotentials (lmaxx) =  3
     Presently no symmetry can be used with electric field

     Message from routine cell_base_init:
     DEPRECATED: use true lattice parameter, not A to a.u. conversion factor

     IMPORTANT: XC functional enforced from input :
     Exchange-correlation= BEEF-VDW
                           (   1   4  43  14   2   0   0)
     Any further DFT definition will be discarded
     Please, verify this is what you really want

  @ DRIVER MODE: Connecting to
 qe_1139763_3255132.sched-torque.pace.gatech.educxw01qf1_scratch
  using UNIX socket
  @ DRIVER MODE: Message from server: STATUS
  @ DRIVER MODE: Message from server: INIT
  @ DRIVER MODE: Receiving replica           0          -1
  @ DRIVER MODE: Receiving encoded integer          25
  @ DRIVER MODE:  SCF:  T  FORCE:  T  STRESS:  F  VC:  F  ENSEMBLE:  F
  @ DRIVER MODE:  SCF:  T  FORCE:  T  STRESS:  F  VC:  F  ENSEMBLE:  F

     Using Slab Decomposition

     bravais-lattice index     =            0
     lattice parameter (alat)  =       1.8897  a.u.
     unit-cell volume          =    9988.4706 (a.u.)^3
     number of atoms/cell      =           57
     number of atomic types    =            4
     number of electrons       =       438.00
     number of Kohn-Sham states=          229
     kinetic-energy cutoff     =      29.3995  Ry
     charge density cutoff     =     293.9946  Ry
     scf convergence threshold =      7.3E-08
     mixing beta               =       0.0500
     number of iterations used =            8  plain     mixing
     Exchange-correlation= BEEF-VDW
                           (   1   4  43  14   2   0   0)

     celldm(1)=   1.889726  celldm(2)=   0.000000  celldm(3)=   0.000000
     celldm(4)=   0.000000  celldm(5)=   0.000000  celldm(6)=   0.000000

     crystal axes: (cart. coord. in units of alat)
               a(1) = (   6.579727   0.000000   0.000000 )
               a(2) = (  -0.001163   8.942395   0.000000 )
               a(3) = (   0.000000   0.000000  25.155947 )

     reciprocal axes: (cart. coord. in units 2 pi/alat)
               b(1) = (  0.151982  0.000020  0.000000 )
               b(2) = (  0.000000  0.111827  0.000000 )
               b(3) = (  0.000000  0.000000  0.039752 )

     PseudoPot. # 1 for O  read from file:
     /storage/coda1/p-amedford6/0/shared/rich_project_chbe-medford/medford-share/data/pseudos_module/espresso/nninc/pbe/van/O.UPF
     MD5 check sum: 78c19812648e8988a0fe644b0f25305e
     Pseudo is Ultrasoft, Zval =  6.0
     Generated by new atomic code, or converted to UPF format
     Using radial grid of  737 points,  4 beta functions with:
                l(1) =   0
                l(2) =   0
                l(3) =   1
                l(4) =   1
     Q(r) pseudized with  8 coefficients,  rinner =    0.800   0.800   0.800

     PseudoPot. # 2 for Ti read from file:
     /storage/coda1/p-amedford6/0/shared/rich_project_chbe-medford/medford-share/data/pseudos_module/espresso/nninc/pbe/van/Ti.UPF
     MD5 check sum: 8e4df49b7f0d34bbd5052bf3f5ea0213
     Pseudo is Ultrasoft, Zval = 12.0
     Generated by new atomic code, or converted to UPF format
     Using radial grid of  851 points,  6 beta functions with:
                l(1) =   0
                l(2) =   0
                l(3) =   1
                l(4) =   1
                l(5) =   2
                l(6) =   2
     Q(r) pseudized with  8 coefficients,  rinner =    1.000   1.000   1.000
                                                       1.000   1.000

     PseudoPot. # 3 for H  read from file:
     /storage/coda1/p-amedford6/0/shared/rich_project_chbe-medford/medford-share/data/pseudos_module/espresso/nninc/pbe/van/H.UPF
     MD5 check sum: b5ee9d7bfd3a09ee7748110bda690ff7
     Pseudo is Ultrasoft, Zval =  1.0
     Generated by new atomic code, or converted to UPF format
     Using radial grid of  615 points,  1 beta functions with:
                l(1) =   0
     Q(r) pseudized with  8 coefficients,  rinner =    0.800

     PseudoPot. # 4 for N  read from file:
     /storage/coda1/p-amedford6/0/shared/rich_project_chbe-medford/medford-share/data/pseudos_module/espresso/nninc/pbe/van/N.UPF
     MD5 check sum: 90d10febe142ad51ac9d5be1deb811c4
     Pseudo is Ultrasoft, Zval =  5.0
     Generated by new atomic code, or converted to UPF format
     Using radial grid of  729 points,  4 beta functions with:
                l(1) =   0
                l(2) =   0
                l(3) =   1
                l(4) =   1
     Q(r) pseudized with  8 coefficients,  rinner =    0.800   0.800   0.800

     atomic species   valence    mass     pseudopotential
        O1             6.00    15.99900     O ( 1.00)
        Ti1           12.00    47.86700     Ti( 1.00)
        H1             1.00     1.00800     H ( 1.00)
        N1             5.00    14.00700     N ( 1.00)

     No symmetry found

   Cartesian axes

     site n.     atom                  positions (alat units)
         1           O1  tau(   1) = (   0.0007354   0.0005023  10.5931620  )
         2           O1  tau(   2) = (   3.2894307   8.9151027  13.8626301  )
         3           O1  tau(   3) = (   6.5785074   8.9029937  17.1811234  )
         4           O1  tau(   4) = (   0.0006271   0.0005054   7.9858123  )
         5           O1  tau(   5) = (   3.2894531   8.9103059  11.1803102  )
         6           O1  tau(   6) = (   0.0001665   0.0898506  14.4854618  )
         7           O1  tau(   7) = (   1.9868534   1.4903216   9.2879459  )
         8           O1  tau(   8) = (   5.2077972   1.5880252  12.5310617  )
         9           O1  tau(   9) = (   2.0270748   1.5591520  16.0154840  )
        10           Ti1 tau(  10) = (   0.0007404   1.4906270   9.2895810  )
        11           Ti1 tau(  11) = (   3.2905041   1.3137855  12.4866761  )
        12           Ti1 tau(  12) = (   0.0002678   1.1980239  15.9503415  )
        13           O1  tau(  13) = (   4.5942328   1.4918067   9.2879030  )
        14           O1  tau(  14) = (   1.3724876   1.5877008  12.5310667  )
        15           O1  tau(  15) = (   4.5530873   1.5595562  16.0152608  )
        16           Ti1 tau(  16) = (   3.2902859   2.9801868   9.2893338  )
        17           Ti1 tau(  17) = (   0.0008780   2.7802750  12.4897906  )
        18           Ti1 tau(  18) = (   3.2898779   2.8637395  15.6733051  )
        19           O1  tau(  19) = (   0.0003479   2.9813005  10.5931620  )
        20           O1  tau(  20) = (   3.2899356   2.9525523  13.8505550  )
        21           O1  tau(  21) = (   0.0002396   2.9813036   7.9858123  )
        22           O1  tau(  22) = (   3.2901204   2.9601344  11.1763257  )
        23           O1  tau(  23) = (   0.0004730   3.0483324  14.4991547  )
        24           O1  tau(  24) = (   1.9864658   4.4711199   9.2879459  )
        25           O1  tau(  25) = (   5.2121867   4.5795871  12.5488104  )
        26           O1  tau(  26) = (   2.0380122   4.5167588  15.9960207  )
        27           Ti1 tau(  27) = (   0.0003529   4.4714252   9.2895810  )
        28           Ti1 tau(  28) = (   3.2900145   4.2996056  12.4866231  )
        29           Ti1 tau(  29) = (   0.0009039   4.3359069  15.7637737  )
        30           O1  tau(  30) = (   4.5938453   4.4726049   9.2879030  )
        31           O1  tau(  31) = (   1.3674610   4.5798255  12.5489393  )
        32           O1  tau(  32) = (   4.5418257   4.5152924  15.9960624  )
        33           Ti1 tau(  33) = (   3.2898983   5.9609850   9.2893338  )
        34           Ti1 tau(  34) = (   0.0004239   5.7833099  12.5042391  )
        35           Ti1 tau(  35) = (   3.2910320   5.8371074  15.6885635  )
        36           O1  tau(  36) = (  -0.0000397   5.9620987  10.5931620  )
        37           O1  tau(  37) = (   3.2901811   5.9367453  13.8700337  )
        38           O1  tau(  38) = (  -0.0004039   5.8805593  17.2333871  )
        39           O1  tau(  39) = (  -0.0001480   5.9621018   7.9858123  )
        40           O1  tau(  40) = (   3.2898277   5.9371809  11.1794419  )
        41           O1  tau(  41) = (  -0.0006310   6.0052776  14.6075531  )
        42           O1  tau(  42) = (   1.9860782   7.4519181   9.2879459  )
        43           O1  tau(  43) = (   5.2131951   7.5341658  12.5551123  )
        44           O1  tau(  44) = (   2.0327247   7.5116181  16.0212389  )
        45           Ti1 tau(  45) = (  -0.0000347   7.4522234   9.2895810  )
        46           Ti1 tau(  46) = (   3.2898580   7.2746474  12.4940400  )
        47           Ti1 tau(  47) = (  -0.0002525   7.1929251  16.1233257  )
        48           O1  tau(  48) = (   4.5934577   7.4534031   9.2879030  )
        49           O1  tau(  49) = (   1.3658113   7.5340457  12.5553947  )
        50           O1  tau(  50) = (   4.5451309   7.5107891  16.0219122  )
        51           Ti1 tau(  51) = (   3.2895107   8.9417832   9.2893338  )
        52           Ti1 tau(  52) = (   0.0004043   8.7442612  12.5370553  )
        53           Ti1 tau(  53) = (   3.2888508   8.8110328  15.6839088  )
        54           H1  tau(  54) = (   6.5771461   3.9800110  18.9428080  )
        55           N1  tau(  55) = (   6.5778577   3.0643241  18.4967573  )
        56           N1  tau(  56) = (   0.0000211   2.9855599  17.2125610  )
        57           H1  tau(  57) = (   6.5772452   2.2108360  19.0633684  )

     number of k points=    10  Fermi-Dirac smearing, width (Ry)=  0.0073
                       cart. coord. in units 2pi/alat
        k(    1) = (   0.0000000   0.0000000   0.0000000), wk =   0.1250000
        k(    2) = (   0.0000000   0.0279567   0.0000000), wk =   0.2500000
        k(    3) = (   0.0000000  -0.0559134   0.0000000), wk =   0.1250000
        k(    4) = (   0.0379955   0.0000049   0.0000000), wk =   0.2500000
        k(    5) = (   0.0379955   0.0279617   0.0000000), wk =   0.2500000
        k(    6) = (   0.0379955  -0.0559085   0.0000000), wk =   0.2500000
        k(    7) = (   0.0379955  -0.0279518   0.0000000), wk =   0.2500000
        k(    8) = (  -0.0759910  -0.0000099   0.0000000), wk =   0.1250000
        k(    9) = (  -0.0759910   0.0279468   0.0000000), wk =   0.2500000
        k(   10) = (  -0.0759910  -0.0559233   0.0000000), wk =   0.1250000

     Initial potential from superposition of free atoms

     starting charge  419.99912, renormalised to  438.00000

     negative rho (up, down):  3.819E-02 0.000E+00

     %%%%%%%%%%%%%%%%%%%%%%%%%%%%%%%%%%%%%%%%%%%%%%%%%%%%%%%%%%%%%%%%%%%%%%%%
     %                                                                      %
     % You are using vdW-DF, which was implemented by the Thonhauser group. %
     % Please cite the following two papers that made this development      %
     % possible and the two reviews that describe the various versions:     %
     %                                                                      %
     %   T. Thonhauser et al., PRL 115, 136402 (2015).                      %
     %   T. Thonhauser et al., PRB 76, 125112 (2007).                       %
     %   K. Berland et al., Rep. Prog. Phys. 78, 066501 (2015).             %
     %   D.C. Langreth et al., J. Phys.: Condens. Matter 21, 084203 (2009). %
     %                                                                      %
     %                                                                      %
     % If you are calculating the stress with vdW-DF, please also cite:     %
     %                                                                      %
     %   R. Sabatini et al., J. Phys.: Condens. Matter 24, 424209 (2012).   %
     %                                                                      %
     %%%%%%%%%%%%%%%%%%%%%%%%%%%%%%%%%%%%%%%%%%%%%%%%%%%%%%%%%%%%%%%%%%%%%%%%

     Adding external electric field

     Computed dipole along edir(3) :
        Dipole               -4.0077 Ry au,        -10.1866 Debye
        Dipole field         -0.0050 Ry au,

        Potential amp.        0.4674 Ry
        Total length         46.3494 bohr

     Starting wfcs are  330 atomic wfcs
  @ DRIVER MODE: Message from server: STATUS
  @ DRIVER MODE: Message from server: POSDATA
  @ DRIVER MODE: Reading and sharing cell
  @ DRIVER MODE: Reading and sharing positions
  @ DRIVER MODE: Received positions

     Self-consistent Calculation

     iteration #  1     ecut=    29.40 Ry     beta= 0.05
     Davidson diagonalization with overlap
     c_bands:  2 eigenvalues not converged
     c_bands:  4 eigenvalues not converged
     c_bands:  1 eigenvalues not converged
     c_bands:  4 eigenvalues not converged
     c_bands:  1 eigenvalues not converged
     c_bands:  1 eigenvalues not converged
     ethr =  1.00E-05,  avg # of iterations = 25.3

[...]

     total energy              =   -3291.58075405 Ry
     estimated scf accuracy    <      28.49937806 Ry

     iteration #  2     ecut=    29.40 Ry     beta= 0.05
     Davidson diagonalization with overlap
     ethr =  6.51E-03,  avg # of iterations =  4.7

[...]

     iteration # 22     ecut=    29.40 Ry     beta= 0.05
     Davidson diagonalization with overlap
     c_bands:  1 eigenvalues not converged
     ethr =  9.82E-07,  avg # of iterations = 10.9

[...]

     total energy              =   -3290.76815016 Ry
     estimated scf accuracy    <       0.00000016 Ry

     iteration # 50     ecut=    29.40 Ry     beta= 0.05
     Davidson diagonalization with overlap
     ethr =  3.68E-11,  avg # of iterations =  7.0

     negative rho (up, down):  3.579E-02 0.000E+00

     Adding external electric field

     Computed dipole along edir(3) :
        Dipole                1.4107 Ry au,          3.5857 Debye
        Dipole field          0.0018 Ry au,

        Potential amp.       -0.1645 Ry
        Total length         46.3494 bohr

     End of self-consistent calculation

          k = 0.0000 0.0000 0.0000 ( 26871 PWs)   bands (ev):

   -58.0992 -58.0749 -58.0719 -57.9801 -57.9565 -57.9507 -57.8988 -57.8650
   -57.8330 -57.6317 -57.5514 -57.5081 -57.0200 -56.9792 -56.9568 -56.8022
   -56.7746 -56.7646 -34.4582 -34.4563 -34.4538 -34.4426 -34.4395 -34.3906
   -34.3876 -34.3178 -34.2975 -34.2747 -34.2676 -34.2426 -34.2392 -34.2160
   -34.2111 -34.2054 -34.1987 -34.1968 -34.1806 -34.1597 -34.1545 -34.1459
   -34.1439 -34.1345 -34.0918 -34.0821 -34.0462 -34.0264 -33.9953 -33.9142
   -33.8471 -33.8052 -33.7974 -33.7895 -33.7319 -33.6601 -33.5328 -33.4377
   -33.2925 -33.2705 -33.2513 -33.2400 -33.2274 -33.2184 -33.1416 -33.1372
   -33.1195 -33.1112 -33.1077 -33.0911 -33.0134 -32.9526 -32.9389 -32.8124
   -20.4664 -18.8322 -18.3403 -18.2128 -18.2071 -18.1887 -18.1468 -18.1394
   -18.0714 -17.8251 -17.6987 -17.6768 -17.6736 -17.6451 -17.5724 -17.5701
   -17.5436 -17.5105 -17.4976 -17.4736 -17.3955 -17.3915 -17.3202 -17.2890
   -17.2355 -17.1642 -17.1165 -17.0879 -17.0187 -16.8984 -16.7212 -16.5756
   -16.4274 -15.2733 -15.2282 -15.2226 -12.9312  -9.1674  -6.9491  -6.1806
    -5.8692  -5.7463  -5.7238  -5.4576  -5.4454  -5.3704  -5.3605  -5.3145
    -5.2318  -5.2279  -5.2165  -5.2135  -5.1748  -5.0456  -5.0327  -4.9003
    -4.8441  -4.8269  -4.8131  -4.7884  -4.7304  -4.7154  -4.6576  -4.6471
    -4.6271  -4.6156  -4.6066  -4.5102  -4.4716  -4.3777  -4.3511  -4.3270
    -4.3089  -4.2591  -4.1924  -4.1463  -4.1350  -4.0696  -4.0447  -3.9749
    -3.9496  -3.9455  -3.9247  -3.8906  -3.8378  -3.6556  -3.6320  -3.5481
    -3.4201  -3.3503  -3.2662  -3.2567  -3.1784  -3.1672  -3.1442  -3.1333
    -3.1239  -3.1129  -3.0494  -2.9677  -2.9394  -2.8945  -2.8743  -2.8636
    -2.8340  -2.6968  -2.6963  -2.6860  -2.6759  -2.6270  -2.6215  -2.5841
    -2.5804  -2.5768  -2.4773  -2.3888  -2.3598  -2.3459  -2.3100  -2.2615
    -2.1904  -2.1796  -2.1539  -2.0668  -1.9865  -1.9587  -1.7864  -1.7374
    -1.6888  -1.6463  -1.6439  -1.6217  -1.5697  -1.4771  -1.4675  -1.4103
    -1.3597  -1.2024  -0.9952  -0.7219  -0.5009  -0.4904  -0.4637  -0.2931
    -0.2813  -0.1870   0.9421   0.9629   1.2045   1.4197   1.4239   1.5162
     1.6920   1.7070   1.7187   1.7352   1.7694

[...]

          k = 0.0380-0.0280 0.0000 ( 26873 PWs)   bands (ev):

[...]

          k =-0.0760-0.0000 0.0000 ( 26902 PWs)   bands (ev):

[...]

          k =-0.0760-0.0559 0.0000 ( 26868 PWs)   bands (ev):

   -58.0922 -58.0889 -58.0649 -57.9744 -57.9679 -57.9449 -57.8975 -57.8673
   -57.8319 -57.6314 -57.5520 -57.5077 -57.0191 -56.9815 -56.9554 -56.7993
   -56.7816 -56.7605 -34.5384 -34.5194 -34.4473 -34.4446 -34.4021 -34.3880
   -34.2960 -34.2782 -34.2575 -34.2544 -34.2429 -34.2409 -34.2286 -34.2263
   -34.2227 -34.2208 -34.2178 -34.2138 -34.1752 -34.1723 -34.1686 -34.1390
   -34.1336 -34.1122 -34.1069 -34.0984 -34.0757 -34.0370 -33.9262 -33.9099
   -33.8646 -33.8460 -33.8057 -33.7961 -33.7326 -33.6604 -33.5758 -33.3563
   -33.2975 -33.2731 -33.2536 -33.2502 -33.2210 -33.2180 -33.1913 -33.1649
   -33.1429 -33.1268 -33.1067 -33.0001 -32.9818 -32.9249 -32.9168 -32.9005
   -20.4657 -18.5503 -18.5411 -18.2340 -18.1102 -18.0956 -17.9478 -17.8903
   -17.8619 -17.8564 -17.8084 -17.7968 -17.7631 -17.7440 -17.6569 -17.6521
   -17.5970 -17.5875 -17.5827 -17.5506 -17.5353 -17.5200 -17.3216 -17.2650
   -17.1799 -17.1477 -17.1258 -17.0111 -16.9944 -16.9598 -16.7334 -16.5750
   -16.3955 -15.2812 -15.2729 -15.1605 -12.9295  -9.1680  -6.9070  -5.8533
    -5.8446  -5.7389  -5.7014  -5.4476  -5.2129  -5.2000  -5.1931  -5.1723
    -5.1616  -5.1108  -5.0902  -5.0855  -5.0446  -5.0339  -5.0014  -4.9708
    -4.8931  -4.8600  -4.8538  -4.8469  -4.8367  -4.7829  -4.7085  -4.6906
    -4.6616  -4.6365  -4.5825  -4.5158  -4.4667  -4.4354  -4.4122  -4.3243
    -4.2748  -4.2624  -4.0928  -4.0724  -4.0687  -3.9874  -3.9544  -3.8866
    -3.8495  -3.7590  -3.5693  -3.5680  -3.5611  -3.5559  -3.4820  -3.4682
    -3.4533  -3.4331  -3.3746  -3.3476  -3.3427  -3.3227  -3.2662  -3.2280
    -3.1476  -3.0898  -3.0873  -3.0795  -3.0565  -3.0477  -3.0261  -3.0020
    -2.9763  -2.9436  -2.9045  -2.8657  -2.8509  -2.7864  -2.7160  -2.6819
    -2.6619  -2.6451  -2.6252  -2.5337  -2.5022  -2.4004  -2.3758  -2.2668
    -2.1340  -2.0150  -1.9802  -1.9645  -1.9636  -1.8835  -1.8170  -1.8075
    -1.7693  -1.7151  -1.6408  -1.6397  -1.5772  -1.5037  -1.3346  -1.3258
    -1.3114  -1.2685  -1.1544  -1.1388  -0.7302  -0.4169  -0.4056  -0.3673
    -0.3139  -0.3098   0.8600   1.1325   1.2187   1.2342   1.3269   1.3386
     1.3898   1.4998   1.5587   1.5705   1.7551

     the Fermi energy is     0.9514 ev

!    total energy              =   -3290.76825269 Ry
     estimated scf accuracy    <       0.00000007 Ry
     smearing contrib. (-TS)   =      -0.02529037 Ry
     internal energy E=F+TS    =   -3290.74296232 Ry

     The total energy is F=E-TS. E is the sum of the following terms:
     one-electron contribution =  -34651.68633150 Ry
     hartree contribution      =   17388.85691257 Ry
     xc contribution           =    -540.56138318 Ry
     ewald contribution        =   14512.64533602 Ry
     electric field correction =       0.00250378 Ry

     convergence has been achieved in  50 iterations

     Forces acting on atoms (cartesian axes, Ry/au):

     atom    1 type  1   force =     0.00005482    0.00573448    0.05231026
     atom    2 type  1   force =    -0.00006606   -0.00107065   -0.00801446
     atom    3 type  1   force =     0.00001528   -0.00570474   -0.00128066
     atom    4 type  1   force =     0.00004735    0.00074615    0.10113362
     atom    5 type  1   force =    -0.00005910   -0.00053229    0.00808483
     atom    6 type  1   force =     0.00005331   -0.00065414    0.00130058
     atom    7 type  1   force =     0.07734328   -0.00001872   -0.03167487
     atom    8 type  1   force =     0.00603134   -0.02643509    0.00063372
     atom    9 type  1   force =     0.00715931   -0.01975339    0.00208203
     atom   10 type  2   force =    -0.00006673   -0.01109060   -0.16209963
     atom   11 type  2   force =     0.00030969    0.01947166   -0.00150188
     atom   12 type  2   force =    -0.00006921    0.02605028   -0.00123606
     atom   13 type  1   force =    -0.07744648   -0.00046033   -0.03164618
     atom   14 type  1   force =    -0.00578533   -0.02672006    0.00064955
     atom   15 type  1   force =    -0.00725746   -0.01972745    0.00207327
     atom   16 type  2   force =     0.00012009   -0.00267046    0.06041205
     atom   17 type  2   force =    -0.00051162    0.03270239    0.00349588
     atom   18 type  2   force =     0.00016108    0.01784447   -0.00036479
     atom   19 type  1   force =     0.00005524    0.00934338    0.05080462
     atom   20 type  1   force =    -0.00006541   -0.00146624   -0.00568654
     atom   21 type  1   force =     0.00004687    0.00264076    0.10242500
     atom   22 type  1   force =    -0.00005522   -0.00071767    0.00790237
     atom   23 type  1   force =     0.00004833   -0.00209224    0.00109613
     atom   24 type  1   force =     0.07606686   -0.00029573   -0.03166465
     atom   25 type  1   force =     0.00669637   -0.02613423    0.00079283
     atom   26 type  1   force =     0.00577036   -0.01950308    0.00052211
     atom   27 type  2   force =    -0.00005271   -0.00164112   -0.16993379
     atom   28 type  2   force =     0.00031732    0.02057128   -0.00172792
     atom   29 type  2   force =    -0.00012559    0.02399611    0.00159851
     atom   30 type  1   force =    -0.07617287   -0.00074702   -0.03163230
     atom   31 type  1   force =    -0.00642335   -0.02644197    0.00081162
     atom   32 type  1   force =    -0.00574844   -0.01935033    0.00051553
     atom   33 type  2   force =     0.00011233   -0.00117321    0.06161151
     atom   34 type  2   force =    -0.00054829    0.03173602    0.00371101
     atom   35 type  2   force =     0.00005659    0.02584526    0.00301752
     atom   36 type  1   force =     0.00004440    0.00404657    0.05967865
     atom   37 type  1   force =    -0.00006368   -0.00141292   -0.00681466
     atom   38 type  1   force =     0.00000239   -0.00311078   -0.00215311
     atom   39 type  1   force =     0.00005417   -0.00125989    0.10264196
     atom   40 type  1   force =    -0.00005878   -0.00076943    0.00710392
     atom   41 type  1   force =     0.00004457   -0.00321819    0.00252230
     atom   42 type  1   force =     0.07735236   -0.00092444   -0.03227612
     atom   43 type  1   force =     0.00826635   -0.02791413    0.00022713
     atom   44 type  1   force =     0.00768809   -0.02190111    0.00213897
     atom   45 type  2   force =    -0.00008369    0.00748518   -0.16112012
     atom   46 type  2   force =     0.00033405    0.02097972   -0.00163891
     atom   47 type  2   force =    -0.00008369    0.02086944   -0.00092705
     atom   48 type  1   force =    -0.07745347   -0.00137091   -0.03225251
     atom   49 type  1   force =    -0.00798745   -0.02822397    0.00024241
     atom   50 type  1   force =    -0.00769501   -0.02183596    0.00212830
     atom   51 type  2   force =     0.00011384   -0.00314978    0.06199394
     atom   52 type  2   force =    -0.00054379    0.03309143    0.00403447
     atom   53 type  2   force =     0.00006898    0.02975409    0.00533238
     atom   54 type  3   force =    -0.00000594   -0.00014813    0.00096091
     atom   55 type  4   force =     0.00000029   -0.01099134    0.00335901
     atom   56 type  4   force =     0.00000436   -0.00430472    0.00148864
     atom   57 type  3   force =    -0.00001031    0.01202784   -0.00519132

     Total force =     0.436784     Total SCF correction =     0.000756
  @ DRIVER MODE: Message from server: STATUS
  @ DRIVER MODE: Message from server: GETFORCE
  @ DRIVER MODE: Returning v,forces,stress,ensemble

     Writing output data file ./calc.save/
  @ DRIVER MODE: Message from server: EXIT
  @ DRIVE MODE: Exiting

     General routines

     Parallel routines

   This run was terminated on:  23:23:47  18Oct2021

   JOB DONE.