     Program PWSCF v.6.7GPU starts on 11Sep2021 at  5:50:47

     R & G space division:  proc/nbgrp/npool/nimage =      10
     Reading input from /storage/home/hcoda1/3/ntian30/research/carbon/CxH_vib/CH2_calc/ads_slab/CH2NHNH_b/out_0034/pw.inp
Warning: card &CELL ignored
Warning: card   CELL_DYNAMICS='IPI', ignored
Warning: card / ignored

     Current dimensions of program PWSCF are:
     Max number of different atomic species (ntypx) = 10
     Max number of k-points (npk) =  40000
     Max angular momentum in pseudopotentials (lmaxx) =  3
     Presently no symmetry can be used with electric field

     Message from routine cell_base_init:
     DEPRECATED: use true lattice parameter, not A to a.u. conversion factor

     IMPORTANT: XC functional enforced from input :
     Exchange-correlation= BEEF-VDW
                           (   1   4  43  14   2   0   0)
     Any further DFT definition will be discarded
     Please, verify this is what you really want

  @ DRIVER MODE: Connecting to
 qe_1139763_2792040.sched-torque.pace.gatech.edupeob3_1q_scratch
  using UNIX socket
  @ DRIVER MODE: Message from server: STATUS
  @ DRIVER MODE: Message from server: INIT
  @ DRIVER MODE: Receiving replica           0          -1
  @ DRIVER MODE: Receiving encoded integer          25
  @ DRIVER MODE:  SCF:  T  FORCE:  T  STRESS:  F  VC:  F  ENSEMBLE:  F
  @ DRIVER MODE:  SCF:  T  FORCE:  T  STRESS:  F  VC:  F  ENSEMBLE:  F

     Using Slab Decomposition

     bravais-lattice index     =            0
     lattice parameter (alat)  =       1.8897  a.u.
     unit-cell volume          =    6658.9804 (a.u.)^3
     number of atoms/cell      =           54
     number of atomic types    =            5
     number of electrons       =       396.00
     number of Kohn-Sham states=          208
     kinetic-energy cutoff     =      29.3995  Ry
     charge density cutoff     =     293.9946  Ry
     scf convergence threshold =      7.3E-08
     mixing beta               =       0.0500
     number of iterations used =            8  plain     mixing
     Exchange-correlation= BEEF-VDW
                           (   1   4  43  14   2   0   0)

     celldm(1)=   1.889726  celldm(2)=   0.000000  celldm(3)=   0.000000
     celldm(4)=   0.000000  celldm(5)=   0.000000  celldm(6)=   0.000000

     crystal axes: (cart. coord. in units of alat)
               a(1) = (   6.579727   0.000000   0.000000 )
               a(2) = (  -0.000775   5.961596   0.000000 )
               a(3) = (   0.000000   0.000000  25.155947 )

     reciprocal axes: (cart. coord. in units 2 pi/alat)
               b(1) = (  0.151982  0.000020  0.000000 )
               b(2) = (  0.000000  0.167740  0.000000 )
               b(3) = (  0.000000  0.000000  0.039752 )

     PseudoPot. # 1 for Ti read from file:
     /storage/coda1/p-amedford6/0/shared/rich_project_chbe-medford/medford-share/data/pseudos_module/espresso/nninc/pbe/van/Ti.UPF
     MD5 check sum: 8e4df49b7f0d34bbd5052bf3f5ea0213
     Pseudo is Ultrasoft, Zval = 12.0
     Generated by new atomic code, or converted to UPF format
     Using radial grid of  851 points,  6 beta functions with:
                l(1) =   0
                l(2) =   0
                l(3) =   1
                l(4) =   1
                l(5) =   2
                l(6) =   2
     Q(r) pseudized with  8 coefficients,  rinner =    1.000   1.000   1.000
                                                       1.000   1.000

     PseudoPot. # 2 for O  read from file:
     /storage/coda1/p-amedford6/0/shared/rich_project_chbe-medford/medford-share/data/pseudos_module/espresso/nninc/pbe/van/O.UPF
     MD5 check sum: 78c19812648e8988a0fe644b0f25305e
     Pseudo is Ultrasoft, Zval =  6.0
     Generated by new atomic code, or converted to UPF format
     Using radial grid of  737 points,  4 beta functions with:
                l(1) =   0
                l(2) =   0
                l(3) =   1
                l(4) =   1
     Q(r) pseudized with  8 coefficients,  rinner =    0.800   0.800   0.800

     PseudoPot. # 3 for N  read from file:
     /storage/coda1/p-amedford6/0/shared/rich_project_chbe-medford/medford-share/data/pseudos_module/espresso/nninc/pbe/van/N.UPF
     MD5 check sum: 90d10febe142ad51ac9d5be1deb811c4
     Pseudo is Ultrasoft, Zval =  5.0
     Generated by new atomic code, or converted to UPF format
     Using radial grid of  729 points,  4 beta functions with:
                l(1) =   0
                l(2) =   0
                l(3) =   1
                l(4) =   1
     Q(r) pseudized with  8 coefficients,  rinner =    0.800   0.800   0.800

     PseudoPot. # 4 for C  read from file:
     /storage/coda1/p-amedford6/0/shared/rich_project_chbe-medford/medford-share/data/pseudos_module/espresso/nninc/pbe/van/C.UPF
     MD5 check sum: 1a69bf6b8db32088f5b2163dbdb77a27
     Pseudo is Ultrasoft, Zval =  4.0
     Generated by new atomic code, or converted to UPF format
     Using radial grid of  721 points,  4 beta functions with:
                l(1) =   0
                l(2) =   0
                l(3) =   1
                l(4) =   1
     Q(r) pseudized with  8 coefficients,  rinner =    0.800   0.800   0.800

     PseudoPot. # 5 for H  read from file:
     /storage/coda1/p-amedford6/0/shared/rich_project_chbe-medford/medford-share/data/pseudos_module/espresso/nninc/pbe/van/H.UPF
     MD5 check sum: b5ee9d7bfd3a09ee7748110bda690ff7
     Pseudo is Ultrasoft, Zval =  1.0
     Generated by new atomic code, or converted to UPF format
     Using radial grid of  615 points,  1 beta functions with:
                l(1) =   0
     Q(r) pseudized with  8 coefficients,  rinner =    0.800

     atomic species   valence    mass     pseudopotential
        Ti1           12.00    47.86700     Ti( 1.00)
        O1             6.00    15.99900     O ( 1.00)
        N1             5.00    14.00700     N ( 1.00)
        C1             4.00    12.01100     C ( 1.00)
        H1             1.00     1.00800     H ( 1.00)

     No symmetry found

   Cartesian axes

     site n.     atom                  positions (alat units)
         1           Ti1 tau(   1) = (   0.0004258   2.9801865   6.0000000  )
         2           Ti1 tau(   2) = (   3.2906075   1.4906267   6.0002472  )
         3           O1  tau(   3) = (   0.0006271   0.0005054   7.9858123  )
         4           O1  tau(   4) = (   3.2906025   0.0005020   7.3038282  )
         5           O1  tau(   5) = (   4.5942328   1.4918067   9.2879030  )
         6           O1  tau(   6) = (   1.9868534   1.4903216   9.2879459  )
         7           Ti1 tau(   7) = (   3.2907910   2.8959150   9.1758416  )
         8           Ti1 tau(   8) = (   0.0015273   1.4827037   9.2680791  )
         9           O1  tau(   9) = (   3.3006942   5.9534781  11.3553798  )
        10           O1  tau(  10) = (   0.0116148   5.9584955  10.6183126  )
        11           O1  tau(  11) = (   1.3049435   1.4862809  12.6371303  )
        12           O1  tau(  12) = (   5.2939446   1.4839232  12.6419886  )
        13           Ti1 tau(  13) = (   0.0297220   2.9630369  12.5573518  )
        14           Ti1 tau(  14) = (   3.3261824   1.4838644  12.4981318  )
        15           O1  tau(  15) = (   0.0289408   0.0313188  14.6920809  )
        16           O1  tau(  16) = (   3.2926898   0.0103323  13.9875539  )
        17           O1  tau(  17) = (   4.5688264   1.5151599  16.1499861  )
        18           O1  tau(  18) = (   2.0666082   1.5432664  16.2461230  )
        19           Ti1 tau(  19) = (   3.3290317   3.0025141  15.7092439  )
        20           Ti1 tau(  20) = (   6.5420716   1.4859973  15.9011789  )
        21           O1  tau(  21) = (   3.2904802   0.0005063   4.7018136  )
        22           O1  tau(  22) = (   0.0300787   5.9197746  17.2397460  )
        23           O1  tau(  23) = (   1.3043587   1.4918075   6.0039043  )
        24           O1  tau(  24) = (   5.2767064   1.4903225   6.0039473  )
        25           Ti1 tau(  25) = (   0.0000382   5.9609847   6.0000000  )
        26           Ti1 tau(  26) = (   3.2902200   4.4714249   6.0002472  )
        27           O1  tau(  27) = (   0.0002396   2.9813036   7.9858123  )
        28           O1  tau(  28) = (   3.2902150   2.9813002   7.3038282  )
        29           O1  tau(  29) = (   4.5938453   4.4726049   9.2879030  )
        30           O1  tau(  30) = (   1.9864658   4.4711199   9.2879459  )
        31           Ti1 tau(  31) = (   3.2891106   5.8743827   9.1763621  )
        32           Ti1 tau(  32) = (   0.0006254   4.4649316   9.2693709  )
        33           O1  tau(  33) = (   3.3021489   2.9801797  11.3479352  )
        34           O1  tau(  34) = (   0.0092240   2.9805883  10.6323155  )
        35           O1  tau(  35) = (   1.3026635   4.4666190  12.6547599  )
        36           O1  tau(  36) = (   5.2965037   4.4700493  12.6603964  )
        37           Ti1 tau(  37) = (   0.0280624   5.9437424  12.5124334  )
        38           Ti1 tau(  38) = (   3.3252324   4.4624078  12.5019987  )
        39           O1  tau(  39) = (   0.0181394   2.9416354  14.7876853  )
        40           O1  tau(  40) = (   3.2997337   2.9731399  13.9284607  )
        41           O1  tau(  41) = (   4.5639665   4.4616582  16.1522005  )
        42           O1  tau(  42) = (   2.0594857   4.4554260  16.1407723  )
        43           Ti1 tau(  43) = (   3.2991394   0.0041700  15.7772358  )
        44           Ti1 tau(  44) = (   0.0501841   4.6507117  16.0116611  )
        45           O1  tau(  45) = (   3.2900926   2.9813045   4.7018136  )
        46           O1  tau(  46) = (   1.3039711   4.4726057   6.0039043  )
        47           O1  tau(  47) = (   5.2763189   4.4711207   6.0039473  )
        48           N1  tau(  48) = (   1.0195810   2.7978639  18.4834737  )
        49           N1  tau(  49) = (   6.5530482   2.9315443  17.6565599  )
        50           C1  tau(  50) = (   1.1739936   3.1992704  19.7158448  )
        51           H1  tau(  51) = (   2.1028141   2.9667422  20.2081369  )
        52           H1  tau(  52) = (   0.3908697   3.7596525  20.2009034  )
        53           H1  tau(  53) = (   1.7673082   2.2898185  17.9998463  )
        54           H1  tau(  54) = (   5.7337981   3.2184162  18.1887256  )

     number of k points=    10  Fermi-Dirac smearing, width (Ry)=  0.0073
                       cart. coord. in units 2pi/alat
        k(    1) = (   0.0000000   0.0000000   0.0000000), wk =   0.1250000
        k(    2) = (   0.0000000   0.0419351   0.0000000), wk =   0.2500000
        k(    3) = (   0.0000000  -0.0838702   0.0000000), wk =   0.1250000
        k(    4) = (   0.0379955   0.0000049   0.0000000), wk =   0.2500000
        k(    5) = (   0.0379955   0.0419400   0.0000000), wk =   0.2500000
        k(    6) = (   0.0379955  -0.0838652   0.0000000), wk =   0.2500000
        k(    7) = (   0.0379955  -0.0419301   0.0000000), wk =   0.2500000
        k(    8) = (  -0.0759910  -0.0000099   0.0000000), wk =   0.1250000
        k(    9) = (  -0.0759910   0.0419252   0.0000000), wk =   0.2500000
        k(   10) = (  -0.0759910  -0.0838800   0.0000000), wk =   0.1250000

     Initial potential from superposition of free atoms

     starting charge  379.99915, renormalised to  396.00000

     negative rho (up, down):  1.484E-02 0.000E+00

     %%%%%%%%%%%%%%%%%%%%%%%%%%%%%%%%%%%%%%%%%%%%%%%%%%%%%%%%%%%%%%%%%%%%%%%%
     %                                                                      %
     % You are using vdW-DF, which was implemented by the Thonhauser group. %
     % Please cite the following two papers that made this development      %
     % possible and the two reviews that describe the various versions:     %
     %                                                                      %
     %   T. Thonhauser et al., PRL 115, 136402 (2015).                      %
     %   T. Thonhauser et al., PRB 76, 125112 (2007).                       %
     %   K. Berland et al., Rep. Prog. Phys. 78, 066501 (2015).             %
     %   D.C. Langreth et al., J. Phys.: Condens. Matter 21, 084203 (2009). %
     %                                                                      %
     %                                                                      %
     % If you are calculating the stress with vdW-DF, please also cite:     %
     %                                                                      %
     %   R. Sabatini et al., J. Phys.: Condens. Matter 24, 424209 (2012).   %
     %                                                                      %
     %%%%%%%%%%%%%%%%%%%%%%%%%%%%%%%%%%%%%%%%%%%%%%%%%%%%%%%%%%%%%%%%%%%%%%%%

     Adding external electric field

     Computed dipole along edir(3) :
        Dipole               -9.8032 Ry au,        -24.9172 Debye
        Dipole field         -0.0185 Ry au,

        Potential amp.        1.7149 Ry
        Total length         46.3494 bohr

     Starting wfcs are  300 atomic wfcs
  @ DRIVER MODE: Message from server: STATUS
  @ DRIVER MODE: Message from server: POSDATA
  @ DRIVER MODE: Reading and sharing cell
  @ DRIVER MODE: Reading and sharing positions
  @ DRIVER MODE: Received positions

     Self-consistent Calculation

     iteration #  1     ecut=    29.40 Ry     beta= 0.05
     Davidson diagonalization with overlap
     c_bands:  1 eigenvalues not converged
     c_bands:  2 eigenvalues not converged
     c_bands:  1 eigenvalues not converged
     c_bands:  1 eigenvalues not converged
     c_bands:  2 eigenvalues not converged
     c_bands:  1 eigenvalues not converged
     c_bands:  1 eigenvalues not converged
     c_bands:  1 eigenvalues not converged
     c_bands:  3 eigenvalues not converged
     ethr =  1.00E-05,  avg # of iterations = 19.6

[...]

     total energy              =   -2538.07161474 Ry
     estimated scf accuracy    <    4487.08440216 Ry

     iteration #  2     ecut=    29.40 Ry     beta= 0.05
     Davidson diagonalization with overlap
     ethr =  1.00E-02,  avg # of iterations = 25.0

[...]

     iteration # 67     ecut=    29.40 Ry     beta= 0.05
     Davidson diagonalization with overlap
     c_bands:  1 eigenvalues not converged
     ethr =  5.30E-11,  avg # of iterations = 11.5

[...]

     total energy              =   -2940.35786352 Ry
     estimated scf accuracy    <       0.00000012 Ry

     iteration # 68     ecut=    29.40 Ry     beta= 0.05
     Davidson diagonalization with overlap
     ethr =  3.10E-11,  avg # of iterations =  9.9

     negative rho (up, down):  1.442E-02 0.000E+00

     Adding external electric field

     Computed dipole along edir(3) :
        Dipole                1.4620 Ry au,          3.7161 Debye
        Dipole field          0.0028 Ry au,

        Potential amp.       -0.2558 Ry
        Total length         46.3494 bohr

     End of self-consistent calculation

          k = 0.0000 0.0000 0.0000 ( 18029 PWs)   bands (ev):

   -55.2604 -55.2263 -55.2240 -55.1922 -55.1564 -55.1330 -55.0915 -55.0671
   -55.0643 -55.0534 -55.0516 -55.0292 -55.0187 -54.9129 -54.2381 -54.2041
   -31.8340 -31.7158 -31.6206 -31.5925 -31.5878 -31.5725 -31.5541 -31.5532
   -31.5188 -31.5162 -31.4722 -31.4708 -31.4688 -31.4368 -31.4167 -31.3969
   -31.3918 -31.3789 -31.3714 -31.3662 -31.3374 -31.3159 -31.3144 -31.3096
   -31.2949 -31.2864 -31.2832 -31.2667 -31.2625 -31.2590 -31.2477 -31.2374
   -31.2342 -31.2226 -31.2142 -31.1939 -31.1848 -31.1829 -31.1788 -31.1594
   -31.1373 -31.0962 -30.6467 -30.5546 -30.5324 -30.4632 -30.3765 -30.2655
   -19.5607 -16.0901 -15.8121 -15.6855 -15.5075 -15.4470 -15.3538 -15.2049
   -15.1547 -15.0396 -15.0054 -14.9980 -14.9690 -14.9313 -14.8609 -14.7892
   -14.7887 -14.7867 -14.7440 -14.7435 -14.6969 -14.6820 -14.6796 -14.6441
   -14.6300 -14.5839 -14.4736 -14.4008 -14.3443 -14.0277 -13.8893 -12.7407
   -12.6236 -10.2713  -7.0568  -6.6663  -4.2680  -4.0985  -3.4377  -3.2626
    -3.2455  -3.1746  -3.1552  -2.9829  -2.9067  -2.7438  -2.6103  -2.5227
    -2.4807  -2.4601  -2.4556  -2.2785  -2.2266  -2.1764  -2.1547  -2.1413
    -2.1100  -2.0732  -2.0573  -2.0229  -2.0147  -1.9997  -1.8245  -1.7444
    -1.7058  -1.6808  -1.6423  -1.5810  -1.5711  -1.5452  -1.5366  -1.5328
    -1.5076  -1.4771  -1.4611  -1.4204  -1.2869  -1.2436  -1.2089  -1.1214
    -1.0342  -0.8864  -0.8094  -0.8055  -0.7719  -0.7259  -0.6873  -0.6431
    -0.6355  -0.6012  -0.4582  -0.4141  -0.3490  -0.3227  -0.2830  -0.2355
    -0.2210  -0.0823  -0.0390  -0.0335  -0.0087   0.1160   0.1565   0.2126
     0.2419   0.3041   0.3502   0.4151   0.4291   0.4530   0.4980   0.5204
     0.6312   0.6827   0.6967   0.7057   0.7340   0.7990   0.8538   0.8765
     0.8991   0.9150   1.0841   1.1236   1.2028   1.3542   1.3673   1.6964
     1.7353   1.7844   1.9707   2.3587   2.4060   3.8442   3.9139   3.9735
     3.9923   3.9971   4.0789   4.1971   4.3170   4.3375   4.3427   4.3460

[...]

          k = 0.0380-0.0419 0.0000 ( 17876 PWs)   bands (ev):

[...]

          k =-0.0760-0.0000 0.0000 ( 17886 PWs)   bands (ev):

[...]

          k =-0.0760-0.0839 0.0000 ( 17948 PWs)   bands (ev):

   -55.2447 -55.2396 -55.2093 -55.2090 -55.1534 -55.1240 -55.1004 -55.0651
   -55.0563 -55.0479 -55.0445 -55.0362 -55.0349 -54.9147 -54.2211 -54.2210
   -31.6395 -31.6345 -31.5681 -31.5311 -31.5309 -31.5281 -31.5018 -31.5017
   -31.5015 -31.4683 -31.4663 -31.4584 -31.4556 -31.4148 -31.3864 -31.3827
   -31.3791 -31.3789 -31.3729 -31.3631 -31.3598 -31.3447 -31.3301 -31.3286
   -31.3283 -31.3256 -31.3243 -31.2961 -31.2944 -31.2819 -31.2810 -31.2779
   -31.2621 -31.2587 -31.2580 -31.2554 -31.2552 -31.2248 -31.2155 -31.2149
   -31.1722 -31.1421 -30.5451 -30.5450 -30.4593 -30.4592 -30.4199 -30.4199
   -19.5587 -15.5629 -15.4740 -15.4128 -15.2811 -15.2576 -15.2242 -15.2186
   -15.1500 -15.1169 -15.0557 -15.0218 -14.9832 -14.9636 -14.9612 -14.9395
   -14.8337 -14.8300 -14.8257 -14.8149 -14.7603 -14.7549 -14.7264 -14.7056
   -14.7021 -14.6484 -14.5999 -14.5975 -14.5111 -14.2666 -13.9013 -12.7253
   -12.7252 -10.2745  -7.0497  -6.6624  -4.2474  -4.0943  -2.8375  -2.7360
    -2.6533  -2.5765  -2.4904  -2.4473  -2.4248  -2.2926  -2.2497  -2.2386
    -2.2240  -2.2081  -2.1611  -2.1343  -2.1167  -2.1028  -2.0861  -2.0811
    -2.0636  -2.0434  -2.0300  -1.9695  -1.9595  -1.9427  -1.9170  -1.8965
    -1.8734  -1.8525  -1.8277  -1.8163  -1.7058  -1.6297  -1.5913  -1.5165
    -1.4638  -1.4430  -1.4356  -1.3451  -1.3102  -1.2999  -1.2853  -1.2152
    -1.0986  -1.0451  -0.9864  -0.9841  -0.9581  -0.8196  -0.8044  -0.7516
    -0.7308  -0.7119  -0.6732  -0.6342  -0.6035  -0.5193  -0.4738  -0.4434
    -0.4089  -0.2898  -0.2558  -0.2303  -0.2171  -0.2116  -0.0947  -0.0851
    -0.0589  -0.0301   0.0119   0.0351   0.0960   0.1054   0.2434   0.3176
     0.3929   0.4750   0.5747   0.6291   0.7042   0.7708   0.7749   0.8726
     0.9324   1.0084   1.0183   1.0534   1.0590   1.1779   1.2204   1.2257
     1.2633   2.1432   2.1442   2.2259   2.2261   4.0182   4.0296   4.1047
     4.1357   4.1683   4.2329   4.3578   4.3784   4.4189   4.4205   4.5044

     the Fermi energy is     3.8935 ev

!    total energy              =   -2940.35790412 Ry
     estimated scf accuracy    <       0.00000005 Ry
     smearing contrib. (-TS)   =      -0.03839236 Ry
     internal energy E=F+TS    =   -2940.31951176 Ry

     The total energy is F=E-TS. E is the sum of the following terms:
     one-electron contribution =  -23947.44576264 Ry
     hartree contribution      =   12066.33104906 Ry
     xc contribution           =    -486.10867309 Ry
     ewald contribution        =    9426.89984103 Ry
     electric field correction =       0.00403387 Ry

     convergence has been achieved in  68 iterations

     Forces acting on atoms (cartesian axes, Ry/au):

     atom    1 type  1   force =     0.00001072   -0.00024937    0.09436967
     atom    2 type  1   force =    -0.00015716   -0.00034451   -0.17720829
     atom    3 type  2   force =     0.00003849   -0.00013355   -0.02177430
     atom    4 type  2   force =    -0.00000495   -0.00173284    0.05672585
     atom    5 type  2   force =    -0.01090487   -0.00112661    0.00621709
     atom    6 type  2   force =     0.01267078   -0.00046280    0.00595365
     atom    7 type  1   force =    -0.00028973    0.00190888   -0.01477064
     atom    8 type  1   force =    -0.00006639    0.00584350    0.00723585
     atom    9 type  2   force =    -0.00014775   -0.00025676   -0.00001970
     atom   10 type  2   force =    -0.00136009    0.00013981   -0.00582596
     atom   11 type  2   force =    -0.00011614    0.00006675   -0.00007180
     atom   12 type  2   force =     0.00014177    0.00003737    0.00018284
     atom   13 type  1   force =     0.00010385    0.00010819    0.00020915
     atom   14 type  1   force =    -0.00005268    0.00001540    0.00023390
     atom   15 type  2   force =    -0.00028478    0.00021167   -0.00009110
     atom   16 type  2   force =     0.00001967    0.00022498   -0.00018961
     atom   17 type  2   force =     0.00029582    0.00020651    0.00005092
     atom   18 type  2   force =     0.00035003   -0.00014453   -0.00012111
     atom   19 type  1   force =    -0.00046706   -0.00029643   -0.00018928
     atom   20 type  1   force =    -0.00028497   -0.00007245    0.00012934
     atom   21 type  2   force =    -0.00000744   -0.00003957    0.10370200
     atom   22 type  2   force =     0.00019771    0.00021762    0.00003589
     atom   23 type  2   force =    -0.07083804   -0.00012144   -0.02714833
     atom   24 type  2   force =     0.07068445    0.00031025   -0.02722914
     atom   25 type  1   force =     0.00002418   -0.00021743    0.09409350
     atom   26 type  1   force =    -0.00024862   -0.00046809   -0.17717349
     atom   27 type  2   force =     0.00009170   -0.00030022   -0.02084230
     atom   28 type  2   force =     0.00002681   -0.00141490    0.05609605
     atom   29 type  2   force =    -0.01102924   -0.00017282    0.00583303
     atom   30 type  2   force =     0.01268912    0.00014180    0.00559035
     atom   31 type  1   force =    -0.00017126    0.00465371   -0.01582025
     atom   32 type  1   force =    -0.00003430   -0.00692802    0.00711319
     atom   33 type  2   force =     0.00010656    0.00047525   -0.00010006
     atom   34 type  2   force =    -0.00097238    0.00063001   -0.00549899
     atom   35 type  2   force =     0.00059746    0.00025429   -0.00012356
     atom   36 type  2   force =    -0.00069570    0.00026659   -0.00021471
     atom   37 type  1   force =     0.00012226   -0.00020931    0.00007167
     atom   38 type  1   force =     0.00002347   -0.00019597   -0.00007714
     atom   39 type  2   force =     0.00075864   -0.00025027   -0.00008770
     atom   40 type  2   force =     0.00017267    0.00057640    0.00001923
     atom   41 type  2   force =    -0.00022162   -0.00044174    0.00033786
     atom   42 type  2   force =     0.00034908    0.00007116   -0.00008312
     atom   43 type  1   force =    -0.00012056    0.00030456    0.00007822
     atom   44 type  1   force =    -0.00016800    0.00054059    0.00023189
     atom   45 type  2   force =    -0.00000448   -0.00006185    0.10368427
     atom   46 type  2   force =    -0.07084195   -0.00008843   -0.02712338
     atom   47 type  2   force =     0.07067311    0.00034861   -0.02718542
     atom   48 type  3   force =    -0.00371240    0.00398133    0.00430370
     atom   49 type  3   force =    -0.00089557    0.00024750   -0.00063605
     atom   50 type  4   force =    -0.00079095   -0.00026416    0.00051438
     atom   51 type  5   force =    -0.00043015    0.00003934   -0.00028626
     atom   52 type  5   force =     0.00010559   -0.00092223   -0.00037266
     atom   53 type  5   force =     0.00524601   -0.00480993   -0.00208307
     atom   54 type  5   force =    -0.00018072   -0.00009582   -0.00066605

     Total force =     0.365893     Total SCF correction =     0.000419
  @ DRIVER MODE: Message from server: STATUS
  @ DRIVER MODE: Message from server: GETFORCE
  @ DRIVER MODE: Returning v,forces,stress,ensemble

     Writing output data file ./calc.save/
  @ DRIVER MODE: Message from server: EXIT
  @ DRIVE MODE: Exiting

     General routines

     Parallel routines

   This run was terminated on:   6:10: 2  11Sep2021

   JOB DONE.