     Program PWSCF v.6.7GPU starts on 28Sep2021 at  5: 2:41

     R & G space division:  proc/nbgrp/npool/nimage =       8
     Reading input from /storage/home/hcoda1/3/ntian30/research/carbon/CxH_vib/H2O_calc/ads_slab/CHNHO_a/out_0018/pw.inp
Warning: card &CELL ignored
Warning: card   CELL_DYNAMICS='IPI', ignored
Warning: card / ignored

     Current dimensions of program PWSCF are:
     Max number of different atomic species (ntypx) = 10
     Max number of k-points (npk) =  40000
     Max angular momentum in pseudopotentials (lmaxx) =  3
     Presently no symmetry can be used with electric field

     Message from routine cell_base_init:
     DEPRECATED: use true lattice parameter, not A to a.u. conversion factor

     IMPORTANT: XC functional enforced from input :
     Exchange-correlation= BEEF-VDW
                           (   1   4  43  14   2   0   0)
     Any further DFT definition will be discarded
     Please, verify this is what you really want

  @ DRIVER MODE: Connecting to
 qe_1139763_3003541.sched-torque.pace.gatech.eduiy4t_e5c_scratch
  using UNIX socket
  @ DRIVER MODE: Message from server: STATUS
  @ DRIVER MODE: Message from server: INIT
  @ DRIVER MODE: Receiving replica           0          -1
  @ DRIVER MODE: Receiving encoded integer          25
  @ DRIVER MODE:  SCF:  T  FORCE:  T  STRESS:  F  VC:  F  ENSEMBLE:  F
  @ DRIVER MODE:  SCF:  T  FORCE:  T  STRESS:  F  VC:  F  ENSEMBLE:  F

     Using Slab Decomposition

     bravais-lattice index     =            0
     lattice parameter (alat)  =       1.8897  a.u.
     unit-cell volume          =    6658.9804 (a.u.)^3
     number of atoms/cell      =           52
     number of atomic types    =            5
     number of electrons       =       395.00
     number of Kohn-Sham states=          207
     kinetic-energy cutoff     =      29.3995  Ry
     charge density cutoff     =     293.9946  Ry
     scf convergence threshold =      7.3E-08
     mixing beta               =       0.0500
     number of iterations used =            8  plain     mixing
     Exchange-correlation= BEEF-VDW
                           (   1   4  43  14   2   0   0)

     celldm(1)=   1.889726  celldm(2)=   0.000000  celldm(3)=   0.000000
     celldm(4)=   0.000000  celldm(5)=   0.000000  celldm(6)=   0.000000

     crystal axes: (cart. coord. in units of alat)
               a(1) = (   6.579727   0.000000   0.000000 )
               a(2) = (  -0.000775   5.961596   0.000000 )
               a(3) = (   0.000000   0.000000  25.155947 )

     reciprocal axes: (cart. coord. in units 2 pi/alat)
               b(1) = (  0.151982  0.000020  0.000000 )
               b(2) = (  0.000000  0.167740  0.000000 )
               b(3) = (  0.000000  0.000000  0.039752 )

     PseudoPot. # 1 for Ti read from file:
     /storage/coda1/p-amedford6/0/shared/rich_project_chbe-medford/medford-share/data/pseudos_module/espresso/nninc/pbe/van/Ti.UPF
     MD5 check sum: 8e4df49b7f0d34bbd5052bf3f5ea0213
     Pseudo is Ultrasoft, Zval = 12.0
     Generated by new atomic code, or converted to UPF format
     Using radial grid of  851 points,  6 beta functions with:
                l(1) =   0
                l(2) =   0
                l(3) =   1
                l(4) =   1
                l(5) =   2
                l(6) =   2
     Q(r) pseudized with  8 coefficients,  rinner =    1.000   1.000   1.000
                                                       1.000   1.000

     PseudoPot. # 2 for O  read from file:
     /storage/coda1/p-amedford6/0/shared/rich_project_chbe-medford/medford-share/data/pseudos_module/espresso/nninc/pbe/van/O.UPF
     MD5 check sum: 78c19812648e8988a0fe644b0f25305e
     Pseudo is Ultrasoft, Zval =  6.0
     Generated by new atomic code, or converted to UPF format
     Using radial grid of  737 points,  4 beta functions with:
                l(1) =   0
                l(2) =   0
                l(3) =   1
                l(4) =   1
     Q(r) pseudized with  8 coefficients,  rinner =    0.800   0.800   0.800

     PseudoPot. # 3 for N  read from file:
     /storage/coda1/p-amedford6/0/shared/rich_project_chbe-medford/medford-share/data/pseudos_module/espresso/nninc/pbe/van/N.UPF
     MD5 check sum: 90d10febe142ad51ac9d5be1deb811c4
     Pseudo is Ultrasoft, Zval =  5.0
     Generated by new atomic code, or converted to UPF format
     Using radial grid of  729 points,  4 beta functions with:
                l(1) =   0
                l(2) =   0
                l(3) =   1
                l(4) =   1
     Q(r) pseudized with  8 coefficients,  rinner =    0.800   0.800   0.800

     PseudoPot. # 4 for C  read from file:
     /storage/coda1/p-amedford6/0/shared/rich_project_chbe-medford/medford-share/data/pseudos_module/espresso/nninc/pbe/van/C.UPF
     MD5 check sum: 1a69bf6b8db32088f5b2163dbdb77a27
     Pseudo is Ultrasoft, Zval =  4.0
     Generated by new atomic code, or converted to UPF format
     Using radial grid of  721 points,  4 beta functions with:
                l(1) =   0
                l(2) =   0
                l(3) =   1
                l(4) =   1
     Q(r) pseudized with  8 coefficients,  rinner =    0.800   0.800   0.800

     PseudoPot. # 5 for H  read from file:
     /storage/coda1/p-amedford6/0/shared/rich_project_chbe-medford/medford-share/data/pseudos_module/espresso/nninc/pbe/van/H.UPF
     MD5 check sum: b5ee9d7bfd3a09ee7748110bda690ff7
     Pseudo is Ultrasoft, Zval =  1.0
     Generated by new atomic code, or converted to UPF format
     Using radial grid of  615 points,  1 beta functions with:
                l(1) =   0
     Q(r) pseudized with  8 coefficients,  rinner =    0.800

     atomic species   valence    mass     pseudopotential
        Ti1           12.00    47.86700     Ti( 1.00)
        O1             6.00    15.99900     O ( 1.00)
        N1             5.00    14.00700     N ( 1.00)
        C1             4.00    12.01100     C ( 1.00)
        H1             1.00     1.00800     H ( 1.00)

     No symmetry found

   Cartesian axes

     site n.     atom                  positions (alat units)
         1           Ti1 tau(   1) = (   0.0004258   2.9801865   6.0000000  )
         2           Ti1 tau(   2) = (   3.2906075   1.4906267   6.0002472  )
         3           O1  tau(   3) = (   0.0006271   0.0005054   7.9858123  )
         4           O1  tau(   4) = (   3.2906025   0.0005020   7.3038282  )
         5           O1  tau(   5) = (   4.5942328   1.4918067   9.2879030  )
         6           O1  tau(   6) = (   1.9868534   1.4903216   9.2879459  )
         7           Ti1 tau(   7) = (   3.2907910   2.8959150   9.1758416  )
         8           Ti1 tau(   8) = (   0.0015273   1.4827037   9.2680791  )
         9           O1  tau(   9) = (   3.2959632   0.0395795  11.3506057  )
        10           O1  tau(  10) = (   0.0116148   5.9584955  10.6183126  )
        11           O1  tau(  11) = (   1.2788542   1.5152540  12.6826201  )
        12           O1  tau(  12) = (   5.3118026   1.5181145  12.6771052  )
        13           Ti1 tau(  13) = (   6.5565567   2.9614743  12.5245697  )
        14           Ti1 tau(  14) = (   3.2956814   1.5864178  12.4516600  )
        15           O1  tau(  15) = (   0.0252471   5.9065102  14.6673769  )
        16           O1  tau(  16) = (   3.3061784   5.9134112  13.9760755  )
        17           O1  tau(  17) = (   4.5493393   1.5513651  16.1111979  )
        18           O1  tau(  18) = (   2.0154464   1.5530992  16.0877549  )
        19           Ti1 tau(  19) = (   3.2773477   2.9896638  15.7021987  )
        20           Ti1 tau(  20) = (   0.0480268   1.3694702  15.7882682  )
        21           O1  tau(  21) = (   3.2904802   0.0005063   4.7018136  )
        22           O1  tau(  22) = (   6.5727385   0.1062933  17.1740559  )
        23           O1  tau(  23) = (   1.3043587   1.4918075   6.0039043  )
        24           O1  tau(  24) = (   5.2767064   1.4903225   6.0039473  )
        25           Ti1 tau(  25) = (   0.0000382   5.9609847   6.0000000  )
        26           Ti1 tau(  26) = (   3.2902200   4.4714249   6.0002472  )
        27           O1  tau(  27) = (   0.0002396   2.9813036   7.9858123  )
        28           O1  tau(  28) = (   3.2902150   2.9813002   7.3038282  )
        29           O1  tau(  29) = (   4.5938453   4.4726049   9.2879030  )
        30           O1  tau(  30) = (   1.9864658   4.4711199   9.2879459  )
        31           Ti1 tau(  31) = (   3.2891106   5.8743827   9.1763621  )
        32           Ti1 tau(  32) = (   0.0006254   4.4649316   9.2693709  )
        33           O1  tau(  33) = (   3.2965180   2.9598593  11.3174316  )
        34           O1  tau(  34) = (   0.0092240   2.9805883  10.6323155  )
        35           O1  tau(  35) = (   1.2824442   4.4846720  12.6503842  )
        36           O1  tau(  36) = (   5.3188658   4.4853930  12.6478368  )
        37           Ti1 tau(  37) = (   0.0485215   5.9261111  12.5025588  )
        38           Ti1 tau(  38) = (   3.3111372   4.6778342  12.7091208  )
        39           O1  tau(  39) = (   6.5585416   3.0335453  14.9077256  )
        40           O1  tau(  40) = (   3.2962521   3.0064119  13.9315977  )
        41           O1  tau(  41) = (   4.5433468   4.4479239  16.1972702  )
        42           O1  tau(  42) = (   2.0131479   4.4365031  16.1967174  )
        43           Ti1 tau(  43) = (   3.3705753   0.0290894  16.3529554  )
        44           Ti1 tau(  44) = (   0.0540424   4.5922997  16.0496824  )
        45           O1  tau(  45) = (   3.2900926   2.9813045   4.7018136  )
        46           O1  tau(  46) = (   1.3039711   4.4726057   6.0039043  )
        47           O1  tau(  47) = (   5.2763189   4.4711207   6.0039473  )
        48           N1  tau(  48) = (   6.5754701   3.2032128  17.9785674  )
        49           C1  tau(  49) = (   6.5468619   2.3444050  18.7439128  )
        50           H1  tau(  50) = (   6.5191205   1.5204410  19.4289644  )
        51           O1  tau(  51) = (   3.3183073   0.1146119  18.2142577  )
        52           H1  tau(  52) = (   3.2686675   5.2273609  18.6755658  )

     number of k points=    10  Fermi-Dirac smearing, width (Ry)=  0.0073
                       cart. coord. in units 2pi/alat
        k(    1) = (   0.0000000   0.0000000   0.0000000), wk =   0.1250000
        k(    2) = (   0.0000000   0.0419351   0.0000000), wk =   0.2500000
        k(    3) = (   0.0000000  -0.0838702   0.0000000), wk =   0.1250000
        k(    4) = (   0.0379955   0.0000049   0.0000000), wk =   0.2500000
        k(    5) = (   0.0379955   0.0419400   0.0000000), wk =   0.2500000
        k(    6) = (   0.0379955  -0.0838652   0.0000000), wk =   0.2500000
        k(    7) = (   0.0379955  -0.0419301   0.0000000), wk =   0.2500000
        k(    8) = (  -0.0759910  -0.0000099   0.0000000), wk =   0.1250000
        k(    9) = (  -0.0759910   0.0419252   0.0000000), wk =   0.2500000
        k(   10) = (  -0.0759910  -0.0838800   0.0000000), wk =   0.1250000

     Initial potential from superposition of free atoms

     starting charge  378.99918, renormalised to  395.00000

     negative rho (up, down):  1.717E-02 0.000E+00

     %%%%%%%%%%%%%%%%%%%%%%%%%%%%%%%%%%%%%%%%%%%%%%%%%%%%%%%%%%%%%%%%%%%%%%%%
     %                                                                      %
     % You are using vdW-DF, which was implemented by the Thonhauser group. %
     % Please cite the following two papers that made this development      %
     % possible and the two reviews that describe the various versions:     %
     %                                                                      %
     %   T. Thonhauser et al., PRL 115, 136402 (2015).                      %
     %   T. Thonhauser et al., PRB 76, 125112 (2007).                       %
     %   K. Berland et al., Rep. Prog. Phys. 78, 066501 (2015).             %
     %   D.C. Langreth et al., J. Phys.: Condens. Matter 21, 084203 (2009). %
     %                                                                      %
     %                                                                      %
     % If you are calculating the stress with vdW-DF, please also cite:     %
     %                                                                      %
     %   R. Sabatini et al., J. Phys.: Condens. Matter 24, 424209 (2012).   %
     %                                                                      %
     %%%%%%%%%%%%%%%%%%%%%%%%%%%%%%%%%%%%%%%%%%%%%%%%%%%%%%%%%%%%%%%%%%%%%%%%

     Adding external electric field

     Computed dipole along edir(3) :
        Dipole               -8.1504 Ry au,        -20.7163 Debye
        Dipole field         -0.0154 Ry au,

        Potential amp.        1.4258 Ry
        Total length         46.3494 bohr

     Starting wfcs are  298 atomic wfcs
  @ DRIVER MODE: Message from server: STATUS
  @ DRIVER MODE: Message from server: POSDATA
  @ DRIVER MODE: Reading and sharing cell
  @ DRIVER MODE: Reading and sharing positions
  @ DRIVER MODE: Received positions

     Self-consistent Calculation

     iteration #  1     ecut=    29.40 Ry     beta= 0.05
     Davidson diagonalization with overlap
     c_bands:  1 eigenvalues not converged
     c_bands:  2 eigenvalues not converged
     c_bands:  2 eigenvalues not converged
     c_bands:  3 eigenvalues not converged
     c_bands:  3 eigenvalues not converged
     c_bands:  1 eigenvalues not converged
     c_bands:  1 eigenvalues not converged
     ethr =  1.00E-05,  avg # of iterations = 19.3

[...]

     total energy              =   -2615.13791873 Ry
     estimated scf accuracy    <    3704.51331565 Ry

     iteration #  2     ecut=    29.40 Ry     beta= 0.05
     Davidson diagonalization with overlap
     ethr =  1.00E-02,  avg # of iterations = 23.1

[...]

     iteration # 42     ecut=    29.40 Ry     beta= 0.05
     Davidson diagonalization with overlap
     c_bands:  1 eigenvalues not converged
     c_bands:  1 eigenvalues not converged
     ethr =  1.20E-06,  avg # of iterations = 14.4

[...]

     total energy              =   -2950.24116447 Ry
     estimated scf accuracy    <       0.00000008 Ry

     iteration # 68     ecut=    29.40 Ry     beta= 0.05
     Davidson diagonalization with overlap
     ethr =  1.99E-11,  avg # of iterations =  8.7

     negative rho (up, down):  1.735E-02 0.000E+00

     Adding external electric field

     Computed dipole along edir(3) :
        Dipole                1.2407 Ry au,          3.1537 Debye
        Dipole field          0.0023 Ry au,

        Potential amp.       -0.2170 Ry
        Total length         46.3494 bohr

     End of self-consistent calculation

          k = 0.0000 0.0000 0.0000 ( 18029 PWs)   bands (ev):

   -55.6654 -55.6143 -55.5802 -55.4431 -55.4389 -55.4381 -55.4065 -55.4056
   -55.4055 -55.3651 -55.3219 -55.2852 -55.2031 -55.0948 -54.5773 -54.5433
   -32.0980 -32.0140 -32.0099 -31.9425 -31.9306 -31.9053 -31.8882 -31.8785
   -31.8600 -31.8519 -31.8162 -31.7669 -31.7265 -31.7200 -31.7112 -31.7053
   -31.6946 -31.6882 -31.6720 -31.6506 -31.6466 -31.6379 -31.6346 -31.6180
   -31.6150 -31.5873 -31.5871 -31.5837 -31.5669 -31.5622 -31.5547 -31.5399
   -31.5385 -31.5180 -31.4870 -31.4755 -31.4729 -31.4166 -31.3967 -31.3462
   -31.3140 -31.3052 -30.9827 -30.8980 -30.8754 -30.8004 -30.7141 -30.6022
   -17.2601 -16.5933 -16.2397 -16.0764 -15.8575 -15.7771 -15.7455 -15.5590
   -15.4474 -15.3990 -15.1884 -15.1456 -15.1289 -15.1111 -15.0876 -15.0835
   -15.0685 -15.0290 -15.0287 -15.0118 -14.9925 -14.9581 -14.9413 -14.8925
   -14.8135 -14.8061 -14.7439 -14.6692 -14.6232 -14.3515 -14.3298 -13.0756
   -12.9595  -8.6959  -4.4701  -4.1493  -3.5950  -3.5118  -3.4835  -3.4392
    -3.3647  -3.2675  -3.0960  -3.0879  -2.9755  -2.9186  -2.8115  -2.7126
    -2.6423  -2.5959  -2.5382  -2.5052  -2.4683  -2.4250  -2.3885  -2.3486
    -2.3221  -2.3129  -2.2540  -2.2252  -2.1277  -2.1211  -2.0833  -1.9904
    -1.9730  -1.9260  -1.9184  -1.9146  -1.8608  -1.8458  -1.8291  -1.7948
    -1.6744  -1.6500  -1.6442  -1.5849  -1.5209  -1.2100  -1.2001  -1.1410
    -1.0650  -1.0335  -1.0074  -0.9892  -0.9282  -0.8900  -0.8762  -0.8585
    -0.7846  -0.6899  -0.6573  -0.6090  -0.4559  -0.4489  -0.3949  -0.3755
    -0.3486  -0.3094  -0.2571  -0.1879  -0.1608  -0.1375  -0.0068   0.0143
     0.0621   0.0759   0.1207   0.1694   0.2037   0.2703   0.3209   0.3424
     0.3598   0.3709   0.4033   0.4234   0.5153   0.5478   0.5974   0.6626
     0.7217   0.7389   0.7916   0.9494   1.0449   1.0730   1.1833   1.4024
     1.4493   1.5017   1.6453   2.0148   2.0597   3.4748   3.6242   3.6412
     3.7304   3.7422   3.8276   3.9622   4.0559   4.1660   4.1769

[...]

          k = 0.0380-0.0419 0.0000 ( 17876 PWs)   bands (ev):

[...]

          k =-0.0760-0.0000 0.0000 ( 17886 PWs)   bands (ev):

[...]

          k =-0.0760-0.0839 0.0000 ( 17948 PWs)   bands (ev):

   -55.6647 -55.5973 -55.5971 -55.4366 -55.4283 -55.4234 -55.4218 -55.4193
   -55.4063 -55.3570 -55.3300 -55.2871 -55.2006 -55.0973 -54.5603 -54.5602
   -31.9529 -31.9408 -31.9134 -31.9132 -31.8909 -31.8907 -31.8905 -31.8667
   -31.7963 -31.7541 -31.7523 -31.7447 -31.7320 -31.7173 -31.7170 -31.7045
   -31.6992 -31.6967 -31.6905 -31.6682 -31.6676 -31.6547 -31.6404 -31.6251
   -31.6234 -31.6206 -31.6120 -31.6032 -31.6017 -31.5950 -31.5921 -31.5767
   -31.5702 -31.5532 -31.5463 -31.5038 -31.4914 -31.4655 -31.4345 -31.4006
   -31.3520 -31.3097 -30.8882 -30.8881 -30.7958 -30.7954 -30.7574 -30.7571
   -17.2529 -16.5845 -15.8673 -15.6471 -15.5772 -15.5721 -15.4371 -15.3670
   -15.3446 -15.3152 -15.2993 -15.2628 -15.2385 -15.2226 -15.1795 -15.1561
   -15.1225 -15.1043 -15.0895 -15.0504 -15.0399 -15.0145 -15.0052 -14.9888
   -14.9319 -14.9099 -14.9008 -14.7682 -14.7337 -14.6614 -14.4700 -13.0615
   -13.0613  -8.6937  -4.4502  -4.1622  -3.3013  -3.1044  -3.0184  -2.8591
    -2.7927  -2.6708  -2.6461  -2.6101  -2.5433  -2.5267  -2.4962  -2.4511
    -2.3911  -2.3696  -2.3641  -2.3394  -2.3291  -2.2983  -2.2830  -2.2728
    -2.2676  -2.2419  -2.2269  -2.2146  -2.1892  -2.1590  -2.1564  -2.1399
    -2.1236  -2.0502  -1.9857  -1.9377  -1.8133  -1.7589  -1.7480  -1.7336
    -1.7186  -1.6810  -1.6744  -1.6358  -1.6103  -1.4987  -1.4187  -1.3754
    -1.3043  -1.1940  -1.1746  -1.1657  -1.1029  -1.0709  -1.0366  -1.0348
    -0.9296  -0.8992  -0.8136  -0.7597  -0.7249  -0.6595  -0.5681  -0.5530
    -0.5433  -0.5208  -0.5006  -0.4850  -0.4586  -0.4210  -0.3394  -0.3021
    -0.2972  -0.2966  -0.2452  -0.1709  -0.1073   0.0791   0.1670   0.1748
     0.2227   0.2604   0.4539   0.4888   0.5172   0.5318   0.5795   0.6317
     0.6957   0.7119   0.7599   0.8249   0.9152   0.9412   0.9739   0.9849
     1.0315   1.8136   1.8212   1.8800   1.8801   3.6447   3.9514   3.9899
     4.0082   4.0165   4.0547   4.0585   4.0780   4.1564   4.1675

     the Fermi energy is     3.5087 ev

!    total energy              =   -2950.24118318 Ry
     estimated scf accuracy    <       0.00000006 Ry
     smearing contrib. (-TS)   =      -0.01957354 Ry
     internal energy E=F+TS    =   -2950.22160963 Ry

     The total energy is F=E-TS. E is the sum of the following terms:
     one-electron contribution =  -23960.33786634 Ry
     hartree contribution      =   12071.17289762 Ry
     xc contribution           =    -486.32127271 Ry
     ewald contribution        =    9425.26172667 Ry
     electric field correction =       0.00290513 Ry

     convergence has been achieved in  68 iterations

     Forces acting on atoms (cartesian axes, Ry/au):

     atom    1 type  1   force =     0.00007120   -0.00022964    0.09444682
     atom    2 type  1   force =     0.00000444    0.00017196   -0.17482147
     atom    3 type  2   force =     0.00002746   -0.00043740   -0.02144278
     atom    4 type  2   force =     0.00004157   -0.00080211    0.05274305
     atom    5 type  2   force =    -0.00430545   -0.00229235    0.00043630
     atom    6 type  2   force =     0.00596986   -0.00164170    0.00006992
     atom    7 type  1   force =    -0.00012301    0.00326237    0.01150026
     atom    8 type  1   force =     0.00013928    0.00254873    0.00476457
     atom    9 type  2   force =    -0.00017513    0.00026781   -0.00023305
     atom   10 type  2   force =    -0.00077621    0.00345289   -0.01161625
     atom   11 type  2   force =     0.00053173   -0.00039222    0.00028794
     atom   12 type  2   force =    -0.00003057   -0.00024008    0.00012662
     atom   13 type  1   force =    -0.00102581   -0.00038898    0.00001658
     atom   14 type  1   force =     0.00081043    0.00052035   -0.00016169
     atom   15 type  2   force =     0.00021727   -0.00010741   -0.00060397
     atom   16 type  2   force =    -0.00033137   -0.00073024    0.00087761
     atom   17 type  2   force =     0.00073163    0.00007530   -0.00058837
     atom   18 type  2   force =    -0.00039835   -0.00016955    0.00016568
     atom   19 type  1   force =     0.00054486    0.00084753    0.00023874
     atom   20 type  1   force =     0.00010015   -0.00024070   -0.00017678
     atom   21 type  2   force =     0.00008742    0.00000443    0.10299424
     atom   22 type  2   force =     0.00007435    0.00080450   -0.00017154
     atom   23 type  2   force =    -0.07228226   -0.00017698   -0.02736797
     atom   24 type  2   force =     0.07225755    0.00023374   -0.02741728
     atom   25 type  1   force =     0.00014255   -0.00025147    0.09437203
     atom   26 type  1   force =    -0.00008470   -0.00124671   -0.17480004
     atom   27 type  2   force =     0.00020614   -0.00006346   -0.02022213
     atom   28 type  2   force =     0.00009437   -0.00096006    0.04854312
     atom   29 type  2   force =    -0.00683856    0.00193145    0.00269599
     atom   30 type  2   force =     0.00838952    0.00226685    0.00215786
     atom   31 type  1   force =     0.00004526    0.00104453    0.00137287
     atom   32 type  1   force =     0.00009888   -0.00336919    0.00512372
     atom   33 type  2   force =    -0.00015933   -0.00022703    0.00012804
     atom   34 type  2   force =    -0.00192607   -0.00084113   -0.01107857
     atom   35 type  2   force =     0.00067328   -0.00020438    0.00002720
     atom   36 type  2   force =    -0.00004787    0.00010248    0.00002280
     atom   37 type  1   force =    -0.00124345   -0.00011014   -0.00038332
     atom   38 type  1   force =     0.00068130    0.00014414    0.00067579
     atom   39 type  2   force =     0.00025266   -0.00078813    0.00005931
     atom   40 type  2   force =    -0.00035757   -0.00014583    0.00024263
     atom   41 type  2   force =    -0.00085067   -0.00049128    0.00020158
     atom   42 type  2   force =     0.00039420   -0.00052905   -0.00020014
     atom   43 type  1   force =     0.00026478   -0.00008937   -0.00009179
     atom   44 type  1   force =    -0.00086300   -0.00037384   -0.00001420
     atom   45 type  2   force =     0.00008289    0.00003804    0.10284278
     atom   46 type  2   force =    -0.07221384   -0.00008149   -0.02729643
     atom   47 type  2   force =     0.07221145    0.00037878   -0.02735070
     atom   48 type  3   force =     0.00002220    0.00037183   -0.00140159
     atom   49 type  4   force =    -0.00031162   -0.00752968    0.00737268
     atom   50 type  5   force =    -0.00006425    0.00712771   -0.00636670
     atom   51 type  2   force =    -0.00024188    0.00075962   -0.00122609
     atom   52 type  5   force =    -0.00051771   -0.00120341    0.00052612

     Total force =     0.361827     Total SCF correction =     0.000600
  @ DRIVER MODE: Message from server: STATUS
  @ DRIVER MODE: Message from server: GETFORCE
  @ DRIVER MODE: Returning v,forces,stress,ensemble

     Writing output data file ./calc.save/
  @ DRIVER MODE: Message from server: EXIT
  @ DRIVE MODE: Exiting

     General routines

     Parallel routines

   This run was terminated on:   5:25:17  28Sep2021

   JOB DONE.