     Program PWSCF v.6.7GPU starts on 27Sep2021 at  5:13:10

     R & G space division:  proc/nbgrp/npool/nimage =       8
     Reading input from /storage/home/hcoda1/3/ntian30/research/carbon/CxH_vib/CH_calc/ads_slab/CHONHNH_a/out_0026/pw.inp
Warning: card &CELL ignored
Warning: card   CELL_DYNAMICS='IPI', ignored
Warning: card / ignored

     Current dimensions of program PWSCF are:
     Max number of different atomic species (ntypx) = 10
     Max number of k-points (npk) =  40000
     Max angular momentum in pseudopotentials (lmaxx) =  3
     Presently no symmetry can be used with electric field

     Message from routine cell_base_init:
     DEPRECATED: use true lattice parameter, not A to a.u. conversion factor

     IMPORTANT: XC functional enforced from input :
     Exchange-correlation= BEEF-VDW
                           (   1   4  43  14   2   0   0)
     Any further DFT definition will be discarded
     Please, verify this is what you really want

  @ DRIVER MODE: Connecting to
 qe_1139763_2982671.sched-torque.pace.gatech.eduq2twux51_scratch
  using UNIX socket
  @ DRIVER MODE: Message from server: STATUS
  @ DRIVER MODE: Message from server: INIT
  @ DRIVER MODE: Receiving replica           0          -1
  @ DRIVER MODE: Receiving encoded integer          25
  @ DRIVER MODE:  SCF:  T  FORCE:  T  STRESS:  F  VC:  F  ENSEMBLE:  F
  @ DRIVER MODE:  SCF:  T  FORCE:  T  STRESS:  F  VC:  F  ENSEMBLE:  F

     Using Slab Decomposition

     bravais-lattice index     =            0
     lattice parameter (alat)  =       1.8897  a.u.
     unit-cell volume          =    6658.9804 (a.u.)^3
     number of atoms/cell      =           54
     number of atomic types    =            5
     number of electrons       =       401.00
     number of Kohn-Sham states=          210
     kinetic-energy cutoff     =      29.3995  Ry
     charge density cutoff     =     293.9946  Ry
     scf convergence threshold =      7.3E-08
     mixing beta               =       0.0500
     number of iterations used =            8  plain     mixing
     Exchange-correlation= BEEF-VDW
                           (   1   4  43  14   2   0   0)

     celldm(1)=   1.889726  celldm(2)=   0.000000  celldm(3)=   0.000000
     celldm(4)=   0.000000  celldm(5)=   0.000000  celldm(6)=   0.000000

     crystal axes: (cart. coord. in units of alat)
               a(1) = (   6.579727   0.000000   0.000000 )
               a(2) = (  -0.000775   5.961596   0.000000 )
               a(3) = (   0.000000   0.000000  25.155947 )

     reciprocal axes: (cart. coord. in units 2 pi/alat)
               b(1) = (  0.151982  0.000020  0.000000 )
               b(2) = (  0.000000  0.167740  0.000000 )
               b(3) = (  0.000000  0.000000  0.039752 )

     PseudoPot. # 1 for O  read from file:
     /storage/coda1/p-amedford6/0/shared/rich_project_chbe-medford/medford-share/data/pseudos_module/espresso/nninc/pbe/van/O.UPF
     MD5 check sum: 78c19812648e8988a0fe644b0f25305e
     Pseudo is Ultrasoft, Zval =  6.0
     Generated by new atomic code, or converted to UPF format
     Using radial grid of  737 points,  4 beta functions with:
                l(1) =   0
                l(2) =   0
                l(3) =   1
                l(4) =   1
     Q(r) pseudized with  8 coefficients,  rinner =    0.800   0.800   0.800

     PseudoPot. # 2 for Ti read from file:
     /storage/coda1/p-amedford6/0/shared/rich_project_chbe-medford/medford-share/data/pseudos_module/espresso/nninc/pbe/van/Ti.UPF
     MD5 check sum: 8e4df49b7f0d34bbd5052bf3f5ea0213
     Pseudo is Ultrasoft, Zval = 12.0
     Generated by new atomic code, or converted to UPF format
     Using radial grid of  851 points,  6 beta functions with:
                l(1) =   0
                l(2) =   0
                l(3) =   1
                l(4) =   1
                l(5) =   2
                l(6) =   2
     Q(r) pseudized with  8 coefficients,  rinner =    1.000   1.000   1.000
                                                       1.000   1.000

     PseudoPot. # 3 for N  read from file:
     /storage/coda1/p-amedford6/0/shared/rich_project_chbe-medford/medford-share/data/pseudos_module/espresso/nninc/pbe/van/N.UPF
     MD5 check sum: 90d10febe142ad51ac9d5be1deb811c4
     Pseudo is Ultrasoft, Zval =  5.0
     Generated by new atomic code, or converted to UPF format
     Using radial grid of  729 points,  4 beta functions with:
                l(1) =   0
                l(2) =   0
                l(3) =   1
                l(4) =   1
     Q(r) pseudized with  8 coefficients,  rinner =    0.800   0.800   0.800

     PseudoPot. # 4 for C  read from file:
     /storage/coda1/p-amedford6/0/shared/rich_project_chbe-medford/medford-share/data/pseudos_module/espresso/nninc/pbe/van/C.UPF
     MD5 check sum: 1a69bf6b8db32088f5b2163dbdb77a27
     Pseudo is Ultrasoft, Zval =  4.0
     Generated by new atomic code, or converted to UPF format
     Using radial grid of  721 points,  4 beta functions with:
                l(1) =   0
                l(2) =   0
                l(3) =   1
                l(4) =   1
     Q(r) pseudized with  8 coefficients,  rinner =    0.800   0.800   0.800

     PseudoPot. # 5 for H  read from file:
     /storage/coda1/p-amedford6/0/shared/rich_project_chbe-medford/medford-share/data/pseudos_module/espresso/nninc/pbe/van/H.UPF
     MD5 check sum: b5ee9d7bfd3a09ee7748110bda690ff7
     Pseudo is Ultrasoft, Zval =  1.0
     Generated by new atomic code, or converted to UPF format
     Using radial grid of  615 points,  1 beta functions with:
                l(1) =   0
     Q(r) pseudized with  8 coefficients,  rinner =    0.800

     atomic species   valence    mass     pseudopotential
        O1             6.00    15.99900     O ( 1.00)
        Ti1           12.00    47.86700     Ti( 1.00)
        N1             5.00    14.00700     N ( 1.00)
        C1             4.00    12.01100     C ( 1.00)
        H1             1.00     1.00800     H ( 1.00)

     No symmetry found

   Cartesian axes

     site n.     atom                  positions (alat units)
         1           O1  tau(   1) = (   3.2904802   0.0005063   4.7018136  )
         2           O1  tau(   2) = (   3.2900926   2.9813045   4.7018136  )
         3           Ti1 tau(   3) = (   0.0004258   2.9801865   6.0000000  )
         4           Ti1 tau(   4) = (   0.0000382   5.9609847   6.0000000  )
         5           Ti1 tau(   5) = (   3.2906075   1.4906267   6.0002472  )
         6           Ti1 tau(   6) = (   3.2902200   4.4714249   6.0002472  )
         7           O1  tau(   7) = (   1.3043587   1.4918075   6.0039043  )
         8           O1  tau(   8) = (   1.3039711   4.4726057   6.0039043  )
         9           O1  tau(   9) = (   5.2767064   1.4903225   6.0039473  )
        10           O1  tau(  10) = (   5.2763189   4.4711207   6.0039473  )
        11           O1  tau(  11) = (   3.2906025   0.0005020   7.3038282  )
        12           O1  tau(  12) = (   3.2902150   2.9813002   7.3038282  )
        13           O1  tau(  13) = (   0.0006271   0.0005054   7.9858123  )
        14           O1  tau(  14) = (   0.0002396   2.9813036   7.9858123  )
        15           Ti1 tau(  15) = (   3.2907910   2.8959150   9.1758416  )
        16           Ti1 tau(  16) = (   3.2891106   5.8743827   9.1763621  )
        17           Ti1 tau(  17) = (   0.0015273   1.4827037   9.2680791  )
        18           Ti1 tau(  18) = (   0.0006254   4.4649316   9.2693709  )
        19           O1  tau(  19) = (   4.5942328   1.4918067   9.2879030  )
        20           O1  tau(  20) = (   4.5938453   4.4726049   9.2879030  )
        21           O1  tau(  21) = (   1.9868534   1.4903216   9.2879459  )
        22           O1  tau(  22) = (   1.9864658   4.4711199   9.2879459  )
        23           O1  tau(  23) = (   0.0116148   5.9584955  10.6183126  )
        24           O1  tau(  24) = (   0.0092240   2.9805883  10.6323155  )
        25           O1  tau(  25) = (   3.2531556   2.9620241  11.3322950  )
        26           O1  tau(  26) = (   3.2474763   5.9435521  11.3438280  )
        27           Ti1 tau(  27) = (   3.3237694   4.3814390  12.5572636  )
        28           Ti1 tau(  28) = (   0.0094504   0.0092305  12.5172013  )
        29           Ti1 tau(  29) = (   3.3224445   1.4452456  12.4745429  )
        30           Ti1 tau(  30) = (   0.0090234   2.9988230  12.5821063  )
        31           O1  tau(  31) = (   5.2496676   1.4726344  12.6006421  )
        32           O1  tau(  32) = (   5.2531746   4.4496067  12.6010712  )
        33           O1  tau(  33) = (   1.2410339   1.4659728  12.6671891  )
        34           O1  tau(  34) = (   1.2387123   4.4686174  12.6665250  )
        35           O1  tau(  35) = (   3.3067986   5.9564546  13.9007842  )
        36           O1  tau(  36) = (   3.2420318   3.0005841  13.9279729  )
        37           O1  tau(  37) = (   6.4209026   5.9439257  14.7021623  )
        38           O1  tau(  38) = (   6.4587925   2.9577525  14.6988961  )
        39           Ti1 tau(  39) = (   3.2423495   0.0283394  15.6829305  )
        40           Ti1 tau(  40) = (   6.4236859   1.5154006  15.7784978  )
        41           Ti1 tau(  41) = (   3.0799157   3.0146384  15.8599260  )
        42           O1  tau(  42) = (   1.9357555   1.4358950  15.9107064  )
        43           O1  tau(  43) = (   1.9271111   4.5447382  15.9660097  )
        44           Ti1 tau(  44) = (   6.4519450   4.6669281  16.1370820  )
        45           O1  tau(  45) = (   4.4443926   1.5071054  16.1134243  )
        46           O1  tau(  46) = (   4.4397279   4.4733020  16.1527106  )
        47           O1  tau(  47) = (   6.5167551   0.0277669  17.2715591  )
        48           N1  tau(  48) = (   0.3759035   2.6095042  18.6336219  )
        49           C1  tau(  49) = (   2.8136782   2.9081565  18.1516972  )
        50           H1  tau(  50) = (   0.1656462   1.5987175  18.7006542  )
        51           N1  tau(  51) = (   1.8163940   2.6652851  18.9293397  )
        52           H1  tau(  52) = (   3.7361332   2.9868749  18.7514029  )
        53           H1  tau(  53) = (   1.8928842   2.5952305  19.9427491  )
        54           O1  tau(  54) = (   0.0982553   2.9165792  17.3165359  )

     number of k points=    10  Fermi-Dirac smearing, width (Ry)=  0.0073
                       cart. coord. in units 2pi/alat
        k(    1) = (   0.0000000   0.0000000   0.0000000), wk =   0.1250000
        k(    2) = (   0.0000000   0.0419351   0.0000000), wk =   0.2500000
        k(    3) = (   0.0000000  -0.0838702   0.0000000), wk =   0.1250000
        k(    4) = (   0.0379955   0.0000049   0.0000000), wk =   0.2500000
        k(    5) = (   0.0379955   0.0419400   0.0000000), wk =   0.2500000
        k(    6) = (   0.0379955  -0.0838652   0.0000000), wk =   0.2500000
        k(    7) = (   0.0379955  -0.0419301   0.0000000), wk =   0.2500000
        k(    8) = (  -0.0759910  -0.0000099   0.0000000), wk =   0.1250000
        k(    9) = (  -0.0759910   0.0419252   0.0000000), wk =   0.2500000
        k(   10) = (  -0.0759910  -0.0838800   0.0000000), wk =   0.1250000

     Initial potential from superposition of free atoms

     starting charge  384.99916, renormalised to  401.00000

     negative rho (up, down):  1.631E-02 0.000E+00

     %%%%%%%%%%%%%%%%%%%%%%%%%%%%%%%%%%%%%%%%%%%%%%%%%%%%%%%%%%%%%%%%%%%%%%%%
     %                                                                      %
     % You are using vdW-DF, which was implemented by the Thonhauser group. %
     % Please cite the following two papers that made this development      %
     % possible and the two reviews that describe the various versions:     %
     %                                                                      %
     %   T. Thonhauser et al., PRL 115, 136402 (2015).                      %
     %   T. Thonhauser et al., PRB 76, 125112 (2007).                       %
     %   K. Berland et al., Rep. Prog. Phys. 78, 066501 (2015).             %
     %   D.C. Langreth et al., J. Phys.: Condens. Matter 21, 084203 (2009). %
     %                                                                      %
     %                                                                      %
     % If you are calculating the stress with vdW-DF, please also cite:     %
     %                                                                      %
     %   R. Sabatini et al., J. Phys.: Condens. Matter 24, 424209 (2012).   %
     %                                                                      %
     %%%%%%%%%%%%%%%%%%%%%%%%%%%%%%%%%%%%%%%%%%%%%%%%%%%%%%%%%%%%%%%%%%%%%%%%

     Adding external electric field

     Computed dipole along edir(3) :
        Dipole              -11.6315 Ry au,        -29.5642 Debye
        Dipole field         -0.0220 Ry au,

        Potential amp.        2.0347 Ry
        Total length         46.3494 bohr

     Starting wfcs are  303 atomic wfcs
  @ DRIVER MODE: Message from server: STATUS
  @ DRIVER MODE: Message from server: POSDATA
  @ DRIVER MODE: Reading and sharing cell
  @ DRIVER MODE: Reading and sharing positions
  @ DRIVER MODE: Received positions

     Self-consistent Calculation

     iteration #  1     ecut=    29.40 Ry     beta= 0.05
     Davidson diagonalization with overlap
     c_bands:  3 eigenvalues not converged
     c_bands:  3 eigenvalues not converged
     c_bands:  5 eigenvalues not converged
     c_bands:  4 eigenvalues not converged
     c_bands:  4 eigenvalues not converged
     c_bands:  3 eigenvalues not converged
     c_bands:  1 eigenvalues not converged
     c_bands:  3 eigenvalues not converged
     ethr =  1.00E-05,  avg # of iterations = 22.0

[...]

     total energy              =   -2394.27600057 Ry
     estimated scf accuracy    <    6495.55577047 Ry

     iteration #  2     ecut=    29.40 Ry     beta= 0.05
     Davidson diagonalization with overlap
     ethr =  1.00E-02,  avg # of iterations = 24.4

[...]

     iteration # 72     ecut=    29.40 Ry     beta= 0.05
     Davidson diagonalization with overlap
     ethr =  1.10E-10,  avg # of iterations =  2.5

[...]

     total energy              =   -2971.36032746 Ry
     estimated scf accuracy    <       0.00000028 Ry

     iteration # 73     ecut=    29.40 Ry     beta= 0.05
     Davidson diagonalization with overlap
     c_bands:  1 eigenvalues not converged
     ethr =  7.01E-11,  avg # of iterations = 12.8

     negative rho (up, down):  1.694E-02 0.000E+00

     Adding external electric field

     Computed dipole along edir(3) :
        Dipole                1.3753 Ry au,          3.4956 Debye
        Dipole field          0.0026 Ry au,

        Potential amp.       -0.2406 Ry
        Total length         46.3494 bohr

     End of self-consistent calculation

          k = 0.0000 0.0000 0.0000 ( 18029 PWs)   bands (ev):

   -55.3639 -55.3299 -55.2842 -55.2398 -55.2339 -55.2240 -55.1965 -55.1849
   -55.1509 -55.1427 -55.1302 -55.1074 -55.0346 -54.9948 -54.3435 -54.3095
   -31.8484 -31.8088 -31.7325 -31.6853 -31.6799 -31.6557 -31.6329 -31.6092
   -31.5997 -31.5692 -31.5409 -31.5163 -31.5027 -31.4961 -31.4703 -31.4669
   -31.4630 -31.4492 -31.4374 -31.4211 -31.4026 -31.3991 -31.3939 -31.3824
   -31.3784 -31.3776 -31.3736 -31.3645 -31.3421 -31.3410 -31.3341 -31.3246
   -31.3229 -31.3153 -31.2970 -31.2940 -31.2866 -31.2555 -31.2356 -31.2241
   -31.2093 -31.1793 -30.7504 -30.6625 -30.6401 -30.5674 -30.4809 -30.3696
   -20.1987 -17.3465 -16.0548 -15.8428 -15.6383 -15.5296 -15.4812 -15.2488
   -15.1313 -15.1016 -15.0148 -14.9440 -14.9280 -14.9038 -14.8927 -14.8740
   -14.8152 -14.8027 -14.7914 -14.7882 -14.7599 -14.7390 -14.7158 -14.7031
   -14.5822 -14.5689 -14.5400 -14.5079 -14.4856 -14.4247 -14.1666 -12.8446
   -12.7326 -12.7282  -9.0548  -7.2244  -5.7121  -4.9443  -3.4274  -3.3139
    -3.2866  -3.2705  -3.1876  -3.1452  -3.0224  -2.8061  -2.6584  -2.5582
    -2.5328  -2.4531  -2.3824  -2.3585  -2.3157  -2.2603  -2.2060  -2.1597
    -2.1349  -2.1106  -2.1025  -2.0966  -2.0038  -1.9843  -1.9440  -1.8920
    -1.8570  -1.7604  -1.7434  -1.6867  -1.6788  -1.6375  -1.6271  -1.6178
    -1.6090  -1.5905  -1.5071  -1.4919  -1.4437  -1.3670  -1.1767  -1.1242
    -1.0241  -0.9718  -0.8687  -0.8442  -0.8019  -0.7719  -0.7652  -0.7569
    -0.7097  -0.6164  -0.5741  -0.5220  -0.4609  -0.3829  -0.3135  -0.2736
    -0.1633  -0.1497  -0.1230  -0.1152  -0.0831   0.0587   0.1174   0.1677
     0.1921   0.2296   0.2954   0.3563   0.3705   0.4164   0.4404   0.5060
     0.5427   0.5620   0.5818   0.6096   0.6232   0.6523   0.6676   0.7173
     0.8420   0.8526   0.9009   0.9437   1.0056   1.1213   1.1286   1.2893
     1.3751   1.5601   1.6182   1.6802   1.7424   1.8719   2.2499   2.2956
     3.7418   3.8568   3.8889   3.9172   4.0007   4.0400   4.2101   4.2751
     4.2982   4.3365

[...]

          k = 0.0380-0.0419 0.0000 ( 17876 PWs)   bands (ev):

[...]

          k =-0.0760-0.0000 0.0000 ( 17886 PWs)   bands (ev):

[...]

          k =-0.0760-0.0839 0.0000 ( 17948 PWs)   bands (ev):

   -55.3468 -55.3468 -55.2782 -55.2312 -55.2311 -55.2296 -55.2050 -55.1680
   -55.1675 -55.1328 -55.1304 -55.1199 -55.0268 -55.0025 -54.3265 -54.3263
   -31.6637 -31.6636 -31.6501 -31.6412 -31.6411 -31.5911 -31.5683 -31.5494
   -31.5420 -31.5260 -31.5055 -31.4956 -31.4926 -31.4859 -31.4799 -31.4723
   -31.4665 -31.4663 -31.4635 -31.4598 -31.4562 -31.4397 -31.4381 -31.4307
   -31.4218 -31.4161 -31.4043 -31.3845 -31.3717 -31.3696 -31.3574 -31.3467
   -31.3464 -31.3437 -31.3417 -31.3408 -31.3376 -31.3315 -31.2631 -31.2495
   -31.2313 -31.2110 -30.6528 -30.6528 -30.5632 -30.5631 -30.5243 -30.5241
   -20.1937 -17.3439 -15.4866 -15.3742 -15.3705 -15.3037 -15.2497 -15.1782
   -15.1288 -15.0982 -15.0591 -15.0409 -15.0143 -14.9729 -14.9328 -14.9215
   -14.8967 -14.8879 -14.8663 -14.8225 -14.8137 -14.8057 -14.7995 -14.7727
   -14.7325 -14.7059 -14.6840 -14.6794 -14.6498 -14.5124 -14.3667 -12.8300
   -12.8300 -12.7372  -9.0480  -7.1670  -5.7227  -4.9646  -3.3267  -2.7516
    -2.6606  -2.5744  -2.5037  -2.4319  -2.3929  -2.3705  -2.3123  -2.3073
    -2.2781  -2.2182  -2.1989  -2.1831  -2.1675  -2.1373  -2.1292  -2.1068
    -2.0967  -2.0894  -2.0486  -2.0455  -2.0206  -2.0184  -1.9928  -1.9854
    -1.9559  -1.9273  -1.9063  -1.8679  -1.8233  -1.7224  -1.6375  -1.5661
    -1.5123  -1.5011  -1.4918  -1.4371  -1.4199  -1.3882  -1.3605  -1.3252
    -1.1908  -1.0521  -1.0417  -1.0070  -0.9419  -0.9104  -0.8718  -0.8503
    -0.7746  -0.7588  -0.7252  -0.6983  -0.6273  -0.5369  -0.4924  -0.4513
    -0.4212  -0.3656  -0.3379  -0.3184  -0.3014  -0.2873  -0.2524  -0.1856
    -0.1417  -0.1180  -0.0858  -0.0596  -0.0376  -0.0125   0.1594   0.1772
     0.2755   0.3439   0.4021   0.5376   0.6391   0.6777   0.7199   0.7791
     0.8468   0.8987   0.9324   0.9497   0.9679   1.0326   1.0888   1.1544
     1.1700   1.2026   1.2811   1.4464   2.0438   2.0462   2.1157   2.1158
     4.1129   4.1616   4.1857   4.1963   4.2638   4.2880   4.3050   4.3085
     4.4134   4.4297

     the Fermi energy is     3.7621 ev

!    total energy              =   -2971.36034043 Ry
     estimated scf accuracy    <       0.00000007 Ry
     smearing contrib. (-TS)   =      -0.02057438 Ry
     internal energy E=F+TS    =   -2971.33976605 Ry

     The total energy is F=E-TS. E is the sum of the following terms:
     one-electron contribution =  -24168.73175303 Ry
     hartree contribution      =   12180.00204098 Ry
     xc contribution           =    -492.42368833 Ry
     ewald contribution        =    9509.81006512 Ry
     electric field correction =       0.00356920 Ry

     convergence has been achieved in  73 iterations

     Forces acting on atoms (cartesian axes, Ry/au):

     atom    1 type  1   force =     0.00007299   -0.00012015    0.10309904
     atom    2 type  1   force =     0.00007546   -0.00010192    0.10312426
     atom    3 type  2   force =     0.00002576   -0.00019712    0.09531357
     atom    4 type  2   force =     0.00007589   -0.00047990    0.09488295
     atom    5 type  2   force =    -0.00021348   -0.00071827   -0.17560718
     atom    6 type  2   force =    -0.00005271   -0.00023205   -0.17573367
     atom    7 type  1   force =    -0.07168937   -0.00019375   -0.02754836
     atom    8 type  1   force =    -0.07167110   -0.00020424   -0.02747962
     atom    9 type  1   force =     0.07155679    0.00025072   -0.02755261
     atom   10 type  1   force =     0.07152426    0.00027097   -0.02753043
     atom   11 type  1   force =    -0.00007912   -0.00143978    0.05242724
     atom   12 type  1   force =    -0.00000307   -0.00150219    0.05289612
     atom   13 type  1   force =    -0.00013179   -0.00017866   -0.02268700
     atom   14 type  1   force =    -0.00005930   -0.00028828   -0.02180164
     atom   15 type  2   force =    -0.00222012    0.00205278   -0.00872665
     atom   16 type  2   force =    -0.00226884    0.00206752   -0.00150796
     atom   17 type  2   force =     0.00139902    0.00931779    0.01491738
     atom   18 type  2   force =     0.00155116   -0.01041732    0.01569219
     atom   19 type  1   force =    -0.01011891   -0.00094235    0.00484489
     atom   20 type  1   force =    -0.01049690   -0.00075506    0.00459183
     atom   21 type  1   force =     0.01028885   -0.00000920    0.00094050
     atom   22 type  1   force =     0.01056712   -0.00053395    0.00075849
     atom   23 type  1   force =    -0.00214336    0.00036939   -0.01185020
     atom   24 type  1   force =    -0.00061510   -0.00078163   -0.01485699
     atom   25 type  1   force =     0.00002322    0.00040555    0.00000010
     atom   26 type  1   force =     0.00010362   -0.00026089   -0.00045116
     atom   27 type  2   force =     0.00053440   -0.00012755   -0.00072176
     atom   28 type  2   force =    -0.00020875   -0.00021013   -0.00004634
     atom   29 type  2   force =     0.00019935    0.00077145    0.00010863
     atom   30 type  2   force =    -0.00030568   -0.00027024   -0.00000925
     atom   31 type  1   force =     0.00024050    0.00057333    0.00024288
     atom   32 type  1   force =    -0.00064145    0.00046299    0.00002884
     atom   33 type  1   force =     0.00043337    0.00052443    0.00009825
     atom   34 type  1   force =     0.00070946    0.00022539   -0.00017173
     atom   35 type  1   force =    -0.00010203   -0.00034862   -0.00002227
     atom   36 type  1   force =     0.00080510    0.00058133   -0.00073758
     atom   37 type  1   force =     0.00038602    0.00021956    0.00024332
     atom   38 type  1   force =     0.00057362    0.00067946    0.00067597
     atom   39 type  2   force =     0.00041515   -0.00021741   -0.00029619
     atom   40 type  2   force =    -0.00023964   -0.00028743   -0.00006696
     atom   41 type  2   force =     0.00061595    0.00020722    0.00013420
     atom   42 type  1   force =     0.00036006    0.00015222    0.00008193
     atom   43 type  1   force =     0.00034658    0.00014799    0.00020965
     atom   44 type  2   force =    -0.00025773    0.00071166   -0.00041109
     atom   45 type  1   force =     0.00006393   -0.00006873   -0.00053463
     atom   46 type  1   force =     0.00012143    0.00070463    0.00018699
     atom   47 type  1   force =    -0.00032552    0.00038176    0.00000895
     atom   48 type  3   force =    -0.00105106   -0.00079957    0.00032642
     atom   49 type  4   force =     0.00776429    0.00002650    0.00397799
     atom   50 type  5   force =     0.00060426    0.00084302   -0.00050220
     atom   51 type  3   force =     0.00140174    0.00046172   -0.00041710
     atom   52 type  5   force =    -0.00764750   -0.00079597   -0.00353263
     atom   53 type  5   force =    -0.00035960   -0.00014473    0.00109120
     atom   54 type  1   force =     0.00006280    0.00021772   -0.00010060

     Total force =     0.364599     Total SCF correction =     0.000855
  @ DRIVER MODE: Message from server: STATUS
  @ DRIVER MODE: Message from server: GETFORCE
  @ DRIVER MODE: Returning v,forces,stress,ensemble

     Writing output data file ./calc.save/
  @ DRIVER MODE: Message from server: EXIT
  @ DRIVE MODE: Exiting

     General routines

     Parallel routines

   This run was terminated on:   6:45: 7  27Sep2021

   JOB DONE.