     Program PWSCF v.6.7GPU starts on 11Oct2021 at 17:43:47

     R & G space division:  proc/nbgrp/npool/nimage =       8
     Reading input from /storage/home/hcoda1/3/ntian30/research/carbon/CxH_vib/CH2_calc/ads_slab/CH2NHH_b/out_0002/pw.inp
Warning: card &CELL ignored
Warning: card   CELL_DYNAMICS='IPI', ignored
Warning: card / ignored

     Current dimensions of program PWSCF are:
     Max number of different atomic species (ntypx) = 10
     Max number of k-points (npk) =  40000
     Max angular momentum in pseudopotentials (lmaxx) =  3
     Presently no symmetry can be used with electric field

     Message from routine cell_base_init:
     DEPRECATED: use true lattice parameter, not A to a.u. conversion factor

     IMPORTANT: XC functional enforced from input :
     Exchange-correlation= BEEF-VDW
                           (   1   4  43  14   2   0   0)
     Any further DFT definition will be discarded
     Please, verify this is what you really want

  @ DRIVER MODE: Connecting to
 qe_1139763_3171005.sched-torque.pace.gatech.edu3x4faokt_scratch
  using UNIX socket
  @ DRIVER MODE: Message from server: STATUS
  @ DRIVER MODE: Message from server: INIT
  @ DRIVER MODE: Receiving replica           0          -1
  @ DRIVER MODE: Receiving encoded integer          25
  @ DRIVER MODE:  SCF:  T  FORCE:  T  STRESS:  F  VC:  F  ENSEMBLE:  F
  @ DRIVER MODE:  SCF:  T  FORCE:  T  STRESS:  F  VC:  F  ENSEMBLE:  F

     Using Slab Decomposition

     bravais-lattice index     =            0
     lattice parameter (alat)  =       1.8897  a.u.
     unit-cell volume          =    6658.9804 (a.u.)^3
     number of atoms/cell      =           53
     number of atomic types    =            5
     number of electrons       =       391.00
     number of Kohn-Sham states=          205
     kinetic-energy cutoff     =      29.3995  Ry
     charge density cutoff     =     293.9946  Ry
     scf convergence threshold =      7.3E-08
     mixing beta               =       0.0500
     number of iterations used =            8  plain     mixing
     Exchange-correlation= BEEF-VDW
                           (   1   4  43  14   2   0   0)

     celldm(1)=   1.889726  celldm(2)=   0.000000  celldm(3)=   0.000000
     celldm(4)=   0.000000  celldm(5)=   0.000000  celldm(6)=   0.000000

     crystal axes: (cart. coord. in units of alat)
               a(1) = (   6.579727   0.000000   0.000000 )
               a(2) = (  -0.000775   5.961596   0.000000 )
               a(3) = (   0.000000   0.000000  25.155947 )

     reciprocal axes: (cart. coord. in units 2 pi/alat)
               b(1) = (  0.151982  0.000020  0.000000 )
               b(2) = (  0.000000  0.167740  0.000000 )
               b(3) = (  0.000000  0.000000  0.039752 )

     PseudoPot. # 1 for Ti read from file:
     /storage/coda1/p-amedford6/0/shared/rich_project_chbe-medford/medford-share/data/pseudos_module/espresso/nninc/pbe/van/Ti.UPF
     MD5 check sum: 8e4df49b7f0d34bbd5052bf3f5ea0213
     Pseudo is Ultrasoft, Zval = 12.0
     Generated by new atomic code, or converted to UPF format
     Using radial grid of  851 points,  6 beta functions with:
                l(1) =   0
                l(2) =   0
                l(3) =   1
                l(4) =   1
                l(5) =   2
                l(6) =   2
     Q(r) pseudized with  8 coefficients,  rinner =    1.000   1.000   1.000
                                                       1.000   1.000

     PseudoPot. # 2 for O  read from file:
     /storage/coda1/p-amedford6/0/shared/rich_project_chbe-medford/medford-share/data/pseudos_module/espresso/nninc/pbe/van/O.UPF
     MD5 check sum: 78c19812648e8988a0fe644b0f25305e
     Pseudo is Ultrasoft, Zval =  6.0
     Generated by new atomic code, or converted to UPF format
     Using radial grid of  737 points,  4 beta functions with:
                l(1) =   0
                l(2) =   0
                l(3) =   1
                l(4) =   1
     Q(r) pseudized with  8 coefficients,  rinner =    0.800   0.800   0.800

     PseudoPot. # 3 for H  read from file:
     /storage/coda1/p-amedford6/0/shared/rich_project_chbe-medford/medford-share/data/pseudos_module/espresso/nninc/pbe/van/H.UPF
     MD5 check sum: b5ee9d7bfd3a09ee7748110bda690ff7
     Pseudo is Ultrasoft, Zval =  1.0
     Generated by new atomic code, or converted to UPF format
     Using radial grid of  615 points,  1 beta functions with:
                l(1) =   0
     Q(r) pseudized with  8 coefficients,  rinner =    0.800

     PseudoPot. # 4 for N  read from file:
     /storage/coda1/p-amedford6/0/shared/rich_project_chbe-medford/medford-share/data/pseudos_module/espresso/nninc/pbe/van/N.UPF
     MD5 check sum: 90d10febe142ad51ac9d5be1deb811c4
     Pseudo is Ultrasoft, Zval =  5.0
     Generated by new atomic code, or converted to UPF format
     Using radial grid of  729 points,  4 beta functions with:
                l(1) =   0
                l(2) =   0
                l(3) =   1
                l(4) =   1
     Q(r) pseudized with  8 coefficients,  rinner =    0.800   0.800   0.800

     PseudoPot. # 5 for C  read from file:
     /storage/coda1/p-amedford6/0/shared/rich_project_chbe-medford/medford-share/data/pseudos_module/espresso/nninc/pbe/van/C.UPF
     MD5 check sum: 1a69bf6b8db32088f5b2163dbdb77a27
     Pseudo is Ultrasoft, Zval =  4.0
     Generated by new atomic code, or converted to UPF format
     Using radial grid of  721 points,  4 beta functions with:
                l(1) =   0
                l(2) =   0
                l(3) =   1
                l(4) =   1
     Q(r) pseudized with  8 coefficients,  rinner =    0.800   0.800   0.800

     atomic species   valence    mass     pseudopotential
        Ti1           12.00    47.86700     Ti( 1.00)
        O1             6.00    15.99900     O ( 1.00)
        H1             1.00     1.00800     H ( 1.00)
        N1             5.00    14.00700     N ( 1.00)
        C1             4.00    12.01100     C ( 1.00)

     No symmetry found

   Cartesian axes

     site n.     atom                  positions (alat units)
         1           Ti1 tau(   1) = (   0.0004258   2.9801865   6.0000000  )
         2           Ti1 tau(   2) = (   3.2906075   1.4906267   6.0002472  )
         3           O1  tau(   3) = (   0.0006271   0.0005054   7.9858123  )
         4           O1  tau(   4) = (   3.2906025   0.0005020   7.3038282  )
         5           O1  tau(   5) = (   4.5942328   1.4918067   9.2879030  )
         6           O1  tau(   6) = (   1.9868534   1.4903216   9.2879459  )
         7           Ti1 tau(   7) = (   3.2907910   2.8959150   9.1758416  )
         8           Ti1 tau(   8) = (   0.0015273   1.4827037   9.2680791  )
         9           O1  tau(   9) = (   3.3750462   0.0034689  11.3324641  )
        10           O1  tau(  10) = (   0.0116148   5.9584955  10.6183126  )
        11           O1  tau(  11) = (   1.3977860   1.4758343  12.6375763  )
        12           O1  tau(  12) = (   5.4232152   1.4913549  12.6657899  )
        13           Ti1 tau(  13) = (   0.0691229   2.9530050  12.5389017  )
        14           Ti1 tau(  14) = (   3.3643908   1.4039863  12.4577757  )
        15           O1  tau(  15) = (   0.1477665   0.0132832  14.6652528  )
        16           O1  tau(  16) = (   3.5189244   0.0045933  13.9158019  )
        17           O1  tau(  17) = (   4.7861523   1.5333885  16.1913275  )
        18           O1  tau(  18) = (   2.2541876   1.4026900  15.9427082  )
        19           Ti1 tau(  19) = (   3.5811307   2.9972434  16.0687679  )
        20           Ti1 tau(  20) = (   0.2998503   1.4255696  15.8726171  )
        21           O1  tau(  21) = (   3.2904802   0.0005063   4.7018136  )
        22           O1  tau(  22) = (   0.2643450   0.0038197  17.1846268  )
        23           O1  tau(  23) = (   1.3043587   1.4918075   6.0039043  )
        24           O1  tau(  24) = (   5.2767064   1.4903225   6.0039473  )
        25           Ti1 tau(  25) = (   0.0000382   5.9609847   6.0000000  )
        26           Ti1 tau(  26) = (   3.2902200   4.4714249   6.0002472  )
        27           O1  tau(  27) = (   0.0002396   2.9813036   7.9858123  )
        28           O1  tau(  28) = (   3.2902150   2.9813002   7.3038282  )
        29           O1  tau(  29) = (   4.5938453   4.4726049   9.2879030  )
        30           O1  tau(  30) = (   1.9864658   4.4711199   9.2879459  )
        31           Ti1 tau(  31) = (   3.2891106   5.8743827   9.1763621  )
        32           Ti1 tau(  32) = (   0.0006254   4.4649316   9.2693709  )
        33           O1  tau(  33) = (   3.3836021   2.9593565  11.3526375  )
        34           O1  tau(  34) = (   0.0092240   2.9805883  10.6323155  )
        35           O1  tau(  35) = (   1.3957467   4.4736095  12.6396340  )
        36           O1  tau(  36) = (   5.4261019   4.4541359  12.6685409  )
        37           Ti1 tau(  37) = (   0.0939275   5.9312067  12.4916740  )
        38           Ti1 tau(  38) = (   3.3665170   4.3046527  12.6650499  )
        39           O1  tau(  39) = (   0.1734719   2.9828917  14.8532074  )
        40           O1  tau(  40) = (   3.4150578   3.0309863  13.9715028  )
        41           O1  tau(  41) = (   4.7877001   4.4493464  16.1994792  )
        42           O1  tau(  42) = (   2.2536850   4.5881152  15.9586447  )
        43           Ti1 tau(  43) = (   3.5332629   0.0183730  15.6991940  )
        44           Ti1 tau(  44) = (   0.2986595   4.6220906  15.9451660  )
        45           O1  tau(  45) = (   3.2900926   2.9813045   4.7018136  )
        46           O1  tau(  46) = (   1.3039711   4.4726057   6.0039043  )
        47           O1  tau(  47) = (   5.2763189   4.4711207   6.0039473  )
        48           H1  tau(  48) = (   0.6816682   3.7174429  18.3617054  )
        49           H1  tau(  49) = (   0.7299512   2.1188458  18.2939656  )
        50           N1  tau(  50) = (   1.0883034   2.9530349  17.8291855  )
        51           C1  tau(  51) = (   2.6610371   2.9951180  18.0825860  )
        52           H1  tau(  52) = (   2.6895649   3.8224559  18.7561578  )
        53           H1  tau(  53) = (   2.7295784   2.2142559  18.8115579  )

     number of k points=    10  Fermi-Dirac smearing, width (Ry)=  0.0073
                       cart. coord. in units 2pi/alat
        k(    1) = (   0.0000000   0.0000000   0.0000000), wk =   0.1250000
        k(    2) = (   0.0000000   0.0419351   0.0000000), wk =   0.2500000
        k(    3) = (   0.0000000  -0.0838702   0.0000000), wk =   0.1250000
        k(    4) = (   0.0379955   0.0000049   0.0000000), wk =   0.2500000
        k(    5) = (   0.0379955   0.0419400   0.0000000), wk =   0.2500000
        k(    6) = (   0.0379955  -0.0838652   0.0000000), wk =   0.2500000
        k(    7) = (   0.0379955  -0.0419301   0.0000000), wk =   0.2500000
        k(    8) = (  -0.0759910  -0.0000099   0.0000000), wk =   0.1250000
        k(    9) = (  -0.0759910   0.0419252   0.0000000), wk =   0.2500000
        k(   10) = (  -0.0759910  -0.0838800   0.0000000), wk =   0.1250000

     Initial potential from superposition of free atoms

     starting charge  374.99916, renormalised to  391.00000

     negative rho (up, down):  1.820E-02 0.000E+00

     %%%%%%%%%%%%%%%%%%%%%%%%%%%%%%%%%%%%%%%%%%%%%%%%%%%%%%%%%%%%%%%%%%%%%%%%
     %                                                                      %
     % You are using vdW-DF, which was implemented by the Thonhauser group. %
     % Please cite the following two papers that made this development      %
     % possible and the two reviews that describe the various versions:     %
     %                                                                      %
     %   T. Thonhauser et al., PRL 115, 136402 (2015).                      %
     %   T. Thonhauser et al., PRB 76, 125112 (2007).                       %
     %   K. Berland et al., Rep. Prog. Phys. 78, 066501 (2015).             %
     %   D.C. Langreth et al., J. Phys.: Condens. Matter 21, 084203 (2009). %
     %                                                                      %
     %                                                                      %
     % If you are calculating the stress with vdW-DF, please also cite:     %
     %                                                                      %
     %   R. Sabatini et al., J. Phys.: Condens. Matter 24, 424209 (2012).   %
     %                                                                      %
     %%%%%%%%%%%%%%%%%%%%%%%%%%%%%%%%%%%%%%%%%%%%%%%%%%%%%%%%%%%%%%%%%%%%%%%%

     Adding external electric field

     Computed dipole along edir(3) :
        Dipole               -5.7422 Ry au,        -14.5952 Debye
        Dipole field         -0.0108 Ry au,

        Potential amp.        1.0045 Ry
        Total length         46.3494 bohr

     Starting wfcs are  296 atomic wfcs
  @ DRIVER MODE: Message from server: STATUS
  @ DRIVER MODE: Message from server: POSDATA
  @ DRIVER MODE: Reading and sharing cell
  @ DRIVER MODE: Reading and sharing positions
  @ DRIVER MODE: Received positions

     Self-consistent Calculation

     iteration #  1     ecut=    29.40 Ry     beta= 0.05
     Davidson diagonalization with overlap
     c_bands:  2 eigenvalues not converged
     c_bands:  1 eigenvalues not converged
     c_bands:  5 eigenvalues not converged
     c_bands:  2 eigenvalues not converged
     c_bands:  2 eigenvalues not converged
     c_bands:  2 eigenvalues not converged
     c_bands:  2 eigenvalues not converged
     ethr =  1.00E-05,  avg # of iterations = 20.8

[...]

     total energy              =   -2767.49339682 Ry
     estimated scf accuracy    <    1677.76445427 Ry

[...]

     iteration #  3     ecut=    29.40 Ry     beta= 0.05
     Davidson diagonalization with overlap
     ethr =  1.00E-02,  avg # of iterations = 14.9

[...]

     iteration # 56     ecut=    29.40 Ry     beta= 0.05
     Davidson diagonalization with overlap
     c_bands:  1 eigenvalues not converged
     ethr =  5.63E-10,  avg # of iterations = 13.7

[...]

     total energy              =   -2920.27070047 Ry
     estimated scf accuracy    <       0.00000014 Ry

     iteration # 61     ecut=    29.40 Ry     beta= 0.05
     Davidson diagonalization with overlap
     ethr =  2.76E-11,  avg # of iterations =  7.5

     negative rho (up, down):  1.845E-02 0.000E+00

     Adding external electric field

     Computed dipole along edir(3) :
        Dipole                0.8701 Ry au,          2.2116 Debye
        Dipole field          0.0016 Ry au,

        Potential amp.       -0.1522 Ry
        Total length         46.3494 bohr

     End of self-consistent calculation

          k = 0.0000 0.0000 0.0000 ( 18029 PWs)   bands (ev):

   -55.8838 -55.8498 -55.7540 -55.7156 -55.7105 -55.7083 -55.6973 -55.6765
   -55.6696 -55.6320 -55.6307 -55.6271 -55.5935 -55.5620 -54.8645 -54.8305
   -32.3696 -32.2813 -32.2439 -32.2130 -32.1770 -32.1746 -32.1564 -32.1555
   -32.1294 -32.0775 -32.0366 -32.0186 -32.0091 -31.9959 -31.9943 -31.9915
   -31.9794 -31.9481 -31.9414 -31.9313 -31.9219 -31.9102 -31.8994 -31.8906
   -31.8793 -31.8755 -31.8542 -31.8535 -31.8470 -31.8455 -31.8385 -31.8289
   -31.8224 -31.8223 -31.8204 -31.8051 -31.7922 -31.7804 -31.7792 -31.7676
   -31.7126 -31.6254 -31.2710 -31.1836 -31.1612 -31.0884 -31.0019 -30.8902
   -16.5735 -16.4027 -16.1959 -16.0688 -16.0511 -15.8577 -15.7648 -15.6873
   -15.4929 -15.4539 -15.4253 -15.4097 -15.3984 -15.3970 -15.3796 -15.3604
   -15.3402 -15.3305 -15.3090 -15.2576 -15.2528 -15.2455 -15.2167 -15.2140
   -15.0334 -15.0251 -14.9813 -14.9444 -14.8664 -14.5665 -13.3637 -13.2472
    -8.9187  -5.6544  -3.9566  -3.8889  -3.8166  -3.7913  -3.7754  -3.6567
    -3.4838  -3.2962  -3.2081  -3.1738  -3.0580  -3.0123  -2.9163  -2.8384
    -2.8244  -2.7626  -2.7213  -2.6986  -2.6724  -2.6605  -2.6069  -2.5841
    -2.5775  -2.4434  -2.3855  -2.3667  -2.3035  -2.2781  -2.2502  -2.2069
    -2.2009  -2.1870  -2.1703  -2.1333  -2.1046  -2.0877  -2.0064  -1.9355
    -1.8959  -1.8565  -1.6324  -1.5263  -1.5002  -1.4663  -1.4119  -1.3794
    -1.3348  -1.2961  -1.2801  -1.2613  -1.1933  -1.1034  -1.0222  -1.0145
    -0.9129  -0.8880  -0.8014  -0.7263  -0.7091  -0.6457  -0.6229  -0.6188
    -0.6143  -0.5228  -0.4710  -0.3881  -0.3386  -0.3012  -0.2353  -0.1692
    -0.1125  -0.1017  -0.0631  -0.0201   0.0224   0.0331   0.0578   0.0879
     0.1262   0.1641   0.2035   0.2850   0.3269   0.3616   0.4079   0.4204
     0.5230   0.7332   0.7733   0.9122   1.0928   1.1613   1.1870   1.2087
     1.3529   1.7297   1.7754   3.1980   3.3428   3.3605   3.4322   3.4625
     3.5149   3.6858   3.7721   3.8131   3.8703

[...]

          k = 0.0380-0.0419 0.0000 ( 17876 PWs)   bands (ev):

[...]

          k =-0.0760-0.0000 0.0000 ( 17886 PWs)   bands (ev):

[...]

          k =-0.0760-0.0839 0.0000 ( 17948 PWs)   bands (ev):

   -55.8669 -55.8665 -55.7427 -55.7265 -55.7058 -55.6935 -55.6932 -55.6928
   -55.6614 -55.6357 -55.6355 -55.6223 -55.6031 -55.5637 -54.8476 -54.8472
   -32.2055 -32.1850 -32.1848 -32.1602 -32.1599 -32.1000 -32.0671 -32.0491
   -32.0336 -32.0269 -32.0238 -32.0170 -32.0014 -31.9872 -31.9864 -31.9846
   -31.9768 -31.9691 -31.9617 -31.9475 -31.9459 -31.9366 -31.9337 -31.9254
   -31.9119 -31.9032 -31.8990 -31.8945 -31.8820 -31.8780 -31.8699 -31.8690
   -31.8684 -31.8604 -31.8572 -31.8469 -31.8443 -31.8319 -31.8134 -31.8130
   -31.7977 -31.6257 -31.1741 -31.1738 -31.0841 -31.0834 -31.0454 -31.0450
   -16.1462 -15.9772 -15.8682 -15.8534 -15.7902 -15.6817 -15.6679 -15.6403
   -15.6211 -15.5845 -15.5652 -15.5522 -15.5031 -15.4641 -15.4273 -15.4030
   -15.3991 -15.3523 -15.3479 -15.3382 -15.3161 -15.2818 -15.2731 -15.2088
   -15.2001 -15.1122 -15.0908 -15.0682 -15.0200 -14.8985 -13.3491 -13.3489
    -8.9247  -5.6251  -3.8055  -3.3044  -3.2065  -3.0701  -3.0022  -2.9621
    -2.9138  -2.8807  -2.8594  -2.8407  -2.7907  -2.7767  -2.7455  -2.7020
    -2.6837  -2.6666  -2.6464  -2.6198  -2.5988  -2.5871  -2.5685  -2.5507
    -2.5181  -2.5028  -2.4763  -2.4616  -2.4513  -2.4394  -2.4303  -2.4200
    -2.2353  -2.1433  -2.0516  -2.0431  -2.0329  -2.0074  -1.9808  -1.9651
    -1.9480  -1.9261  -1.9005  -1.8715  -1.8408  -1.5901  -1.5585  -1.5235
    -1.4656  -1.4285  -1.3804  -1.3665  -1.3342  -1.3048  -1.2236  -1.1873
    -1.1603  -1.0822  -1.0101  -0.9462  -0.9006  -0.8631  -0.8325  -0.8207
    -0.7812  -0.7424  -0.7335  -0.7091  -0.6931  -0.5864  -0.5844  -0.5816
    -0.4366  -0.3999  -0.3792  -0.2866  -0.2670  -0.0879  -0.0278   0.0010
     0.1358   0.1467   0.1832   0.2930   0.3201   0.3656   0.4222   0.4433
     0.5295   0.5820   0.6236   0.6632   0.6870   0.7037   1.1677   1.5237
     1.5295   1.5956   1.5958   3.5987   3.6396   3.7061   3.7319   3.7519
     3.7874   3.8099   3.8212   3.8667   3.8763

     the Fermi energy is     3.2368 ev

!    total energy              =   -2920.27073770 Ry
     estimated scf accuracy    <       0.00000004 Ry
     smearing contrib. (-TS)   =      -0.01953118 Ry
     internal energy E=F+TS    =   -2920.25120652 Ry

     The total energy is F=E-TS. E is the sum of the following terms:
     one-electron contribution =  -24543.72868557 Ry
     hartree contribution      =   12357.65718523 Ry
     xc contribution           =    -480.81607759 Ry
     ewald contribution        =    9746.63494269 Ry
     electric field correction =       0.00142872 Ry

     convergence has been achieved in  61 iterations

     Forces acting on atoms (cartesian axes, Ry/au):

     atom    1 type  1   force =     0.00006911   -0.00038410    0.09441315
     atom    2 type  1   force =    -0.00007583   -0.00123308   -0.17582740
     atom    3 type  2   force =     0.00046600   -0.00020756   -0.02135536
     atom    4 type  2   force =     0.00017560   -0.00093018    0.05146571
     atom    5 type  2   force =    -0.00541856    0.00100449   -0.00035226
     atom    6 type  2   force =     0.00990873    0.00143642    0.00527938
     atom    7 type  1   force =     0.00311805    0.00406474   -0.00383490
     atom    8 type  1   force =    -0.00264212    0.00537394    0.00463264
     atom    9 type  2   force =     0.00031739    0.00018441    0.00042372
     atom   10 type  2   force =     0.00290192    0.00077338   -0.01334519
     atom   11 type  2   force =     0.00009597    0.00027541   -0.00001043
     atom   12 type  2   force =    -0.00016280   -0.00005676   -0.00008346
     atom   13 type  1   force =    -0.00028033   -0.00029152    0.00137184
     atom   14 type  1   force =    -0.00061733    0.00042566   -0.00123339
     atom   15 type  2   force =     0.00027689    0.00002138   -0.00000612
     atom   16 type  2   force =     0.00004919   -0.00016251    0.00023849
     atom   17 type  2   force =     0.00031803   -0.00089492    0.00067093
     atom   18 type  2   force =     0.00014117    0.00009225   -0.00018414
     atom   19 type  1   force =    -0.00014629    0.00032712   -0.00086912
     atom   20 type  1   force =    -0.00011467    0.00183043   -0.00047677
     atom   21 type  2   force =     0.00004953   -0.00009746    0.10311404
     atom   22 type  2   force =    -0.00058370    0.00076374    0.00086801
     atom   23 type  2   force =    -0.07169182   -0.00014355   -0.02718795
     atom   24 type  2   force =     0.07175379    0.00034781   -0.02733334
     atom   25 type  1   force =    -0.00009048   -0.00021795    0.09389203
     atom   26 type  1   force =     0.00003864    0.00040198   -0.17579309
     atom   27 type  2   force =     0.00046553   -0.00026478   -0.02044898
     atom   28 type  2   force =     0.00023802   -0.00170828    0.05409145
     atom   29 type  2   force =    -0.00647081   -0.00169720    0.00028855
     atom   30 type  2   force =     0.01071093   -0.00155621    0.00560113
     atom   31 type  1   force =     0.00345598    0.00044464    0.00535894
     atom   32 type  1   force =    -0.00266688   -0.00668970    0.00504406
     atom   33 type  2   force =     0.00024765    0.00031332    0.00055422
     atom   34 type  2   force =     0.00503911   -0.00079139   -0.00877130
     atom   35 type  2   force =     0.00011790   -0.00000871    0.00000399
     atom   36 type  2   force =    -0.00012539   -0.00002398   -0.00001914
     atom   37 type  1   force =     0.00075168   -0.00042087    0.00087781
     atom   38 type  1   force =    -0.00027991   -0.00120465    0.00002147
     atom   39 type  2   force =    -0.00073294   -0.00016837    0.00045640
     atom   40 type  2   force =     0.00035716    0.00041095   -0.00009224
     atom   41 type  2   force =     0.00020209    0.00156319    0.00068958
     atom   42 type  2   force =     0.00052297    0.00037040    0.00006282
     atom   43 type  1   force =     0.00079265    0.00009195    0.00005220
     atom   44 type  1   force =    -0.00008600   -0.00183460   -0.00065748
     atom   45 type  2   force =     0.00005381   -0.00002019    0.10328835
     atom   46 type  2   force =    -0.07167492   -0.00015214   -0.02721561
     atom   47 type  2   force =     0.07171497    0.00030296   -0.02732520
     atom   48 type  3   force =    -0.00370405    0.00380717    0.00246133
     atom   49 type  3   force =     0.00000892   -0.00044334    0.00010202
     atom   50 type  4   force =     0.00348812   -0.00269106   -0.00234461
     atom   51 type  5   force =    -0.08472650   -0.00454909   -0.00088120
     atom   52 type  3   force =     0.03108999    0.05166113    0.00010889
     atom   53 type  3   force =     0.03335386   -0.04744473    0.00021551

     Total force =     0.382084     Total SCF correction =     0.000723
  @ DRIVER MODE: Message from server: STATUS
  @ DRIVER MODE: Message from server: GETFORCE
  @ DRIVER MODE: Returning v,forces,stress,ensemble

     Writing output data file ./calc.save/
  @ DRIVER MODE: Message from server: EXIT
  @ DRIVE MODE: Exiting

     General routines

     Parallel routines

   This run was terminated on:  18: 4:14  11Oct2021

   JOB DONE.