     Program PWSCF v.6.7GPU starts on 12Oct2021 at 14:58:12

     R & G space division:  proc/nbgrp/npool/nimage =       8
     Reading input from /storage/home/hcoda1/3/ntian30/research/carbon/ACS_vib/ads_slab/NH3/out_0020/pw.inp
Warning: card &CELL ignored
Warning: card   CELL_DYNAMICS='IPI', ignored
Warning: card / ignored

     Current dimensions of program PWSCF are:
     Max number of different atomic species (ntypx) = 10
     Max number of k-points (npk) =  40000
     Max angular momentum in pseudopotentials (lmaxx) =  3
     Presently no symmetry can be used with electric field

     Message from routine cell_base_init:
     DEPRECATED: use true lattice parameter, not A to a.u. conversion factor

     IMPORTANT: XC functional enforced from input :
     Exchange-correlation= BEEF-VDW
                           (   1   4  43  14   2   0   0)
     Any further DFT definition will be discarded
     Please, verify this is what you really want

  @ DRIVER MODE: Connecting to
 qe_1139763_3181317.sched-torque.pace.gatech.educ9x83kj__scratch
  using UNIX socket
  @ DRIVER MODE: Message from server: STATUS
  @ DRIVER MODE: Message from server: INIT
  @ DRIVER MODE: Receiving replica           0          -1
  @ DRIVER MODE: Receiving encoded integer          25
  @ DRIVER MODE:  SCF:  T  FORCE:  T  STRESS:  F  VC:  F  ENSEMBLE:  F
  @ DRIVER MODE:  SCF:  T  FORCE:  T  STRESS:  F  VC:  F  ENSEMBLE:  F

     Using Slab Decomposition

     bravais-lattice index     =            0
     lattice parameter (alat)  =       1.8897  a.u.
     unit-cell volume          =    6658.9804 (a.u.)^3
     number of atoms/cell      =           51
     number of atomic types    =            4
     number of electrons       =       386.00
     number of Kohn-Sham states=          203
     kinetic-energy cutoff     =      29.3995  Ry
     charge density cutoff     =     293.9946  Ry
     scf convergence threshold =      7.3E-08
     mixing beta               =       0.0500
     number of iterations used =            8  plain     mixing
     Exchange-correlation= BEEF-VDW
                           (   1   4  43  14   2   0   0)

     celldm(1)=   1.889726  celldm(2)=   0.000000  celldm(3)=   0.000000
     celldm(4)=   0.000000  celldm(5)=   0.000000  celldm(6)=   0.000000

     crystal axes: (cart. coord. in units of alat)
               a(1) = (   6.579727   0.000000   0.000000 )
               a(2) = (  -0.000775   5.961596   0.000000 )
               a(3) = (   0.000000   0.000000  25.155947 )

     reciprocal axes: (cart. coord. in units 2 pi/alat)
               b(1) = (  0.151982  0.000020  0.000000 )
               b(2) = (  0.000000  0.167740  0.000000 )
               b(3) = (  0.000000  0.000000  0.039752 )

     PseudoPot. # 1 for Ti read from file:
     /storage/coda1/p-amedford6/0/shared/rich_project_chbe-medford/medford-share/data/pseudos_module/espresso/nninc/pbe/van/Ti.UPF
     MD5 check sum: 8e4df49b7f0d34bbd5052bf3f5ea0213
     Pseudo is Ultrasoft, Zval = 12.0
     Generated by new atomic code, or converted to UPF format
     Using radial grid of  851 points,  6 beta functions with:
                l(1) =   0
                l(2) =   0
                l(3) =   1
                l(4) =   1
                l(5) =   2
                l(6) =   2
     Q(r) pseudized with  8 coefficients,  rinner =    1.000   1.000   1.000
                                                       1.000   1.000

     PseudoPot. # 2 for O  read from file:
     /storage/coda1/p-amedford6/0/shared/rich_project_chbe-medford/medford-share/data/pseudos_module/espresso/nninc/pbe/van/O.UPF
     MD5 check sum: 78c19812648e8988a0fe644b0f25305e
     Pseudo is Ultrasoft, Zval =  6.0
     Generated by new atomic code, or converted to UPF format
     Using radial grid of  737 points,  4 beta functions with:
                l(1) =   0
                l(2) =   0
                l(3) =   1
                l(4) =   1
     Q(r) pseudized with  8 coefficients,  rinner =    0.800   0.800   0.800

     PseudoPot. # 3 for N  read from file:
     /storage/coda1/p-amedford6/0/shared/rich_project_chbe-medford/medford-share/data/pseudos_module/espresso/nninc/pbe/van/N.UPF
     MD5 check sum: 90d10febe142ad51ac9d5be1deb811c4
     Pseudo is Ultrasoft, Zval =  5.0
     Generated by new atomic code, or converted to UPF format
     Using radial grid of  729 points,  4 beta functions with:
                l(1) =   0
                l(2) =   0
                l(3) =   1
                l(4) =   1
     Q(r) pseudized with  8 coefficients,  rinner =    0.800   0.800   0.800

     PseudoPot. # 4 for H  read from file:
     /storage/coda1/p-amedford6/0/shared/rich_project_chbe-medford/medford-share/data/pseudos_module/espresso/nninc/pbe/van/H.UPF
     MD5 check sum: b5ee9d7bfd3a09ee7748110bda690ff7
     Pseudo is Ultrasoft, Zval =  1.0
     Generated by new atomic code, or converted to UPF format
     Using radial grid of  615 points,  1 beta functions with:
                l(1) =   0
     Q(r) pseudized with  8 coefficients,  rinner =    0.800

     atomic species   valence    mass     pseudopotential
        Ti1           12.00    47.86700     Ti( 1.00)
        O1             6.00    15.99900     O ( 1.00)
        N1             5.00    14.00700     N ( 1.00)
        H1             1.00     1.00800     H ( 1.00)

     No symmetry found

   Cartesian axes

     site n.     atom                  positions (alat units)
         1           Ti1 tau(   1) = (   0.0004258   2.9801865   6.0000000  )
         2           Ti1 tau(   2) = (   3.2906075   1.4906267   6.0002472  )
         3           O1  tau(   3) = (   0.0006271   0.0005054   7.9858123  )
         4           O1  tau(   4) = (   3.2906025   0.0005020   7.3038282  )
         5           O1  tau(   5) = (   4.5942328   1.4918067   9.2879030  )
         6           O1  tau(   6) = (   1.9868534   1.4903216   9.2879459  )
         7           Ti1 tau(   7) = (   3.2905188   2.9817269   9.1608671  )
         8           Ti1 tau(   8) = (   0.0008727   1.4903491   9.2579811  )
         9           O1  tau(   9) = (   3.2954587   0.0012773  11.3746546  )
        10           O1  tau(  10) = (   0.0020290   0.0006084  10.6073296  )
        11           O1  tau(  11) = (   1.2942686   1.4887116  12.6629798  )
        12           O1  tau(  12) = (   5.2972733   1.4890718  12.6650130  )
        13           Ti1 tau(  13) = (   0.0067627   2.9786896  12.5148789  )
        14           Ti1 tau(  14) = (   3.2982433   1.4907855  12.5198723  )
        15           O1  tau(  15) = (   0.0088675   5.9288053  14.6873217  )
        16           O1  tau(  16) = (   3.2976659   5.9545549  13.9976866  )
        17           O1  tau(  17) = (   4.5618459   1.5065800  16.1616785  )
        18           O1  tau(  18) = (   2.0406978   1.5054917  16.1618958  )
        19           Ti1 tau(  19) = (   3.3003398   2.9801551  15.7464260  )
        20           Ti1 tau(  20) = (   0.0122322   1.3591711  15.8926631  )
        21           O1  tau(  21) = (   3.2904802   0.0005063   4.7018136  )
        22           O1  tau(  22) = (   0.0111396   0.0327255  17.2179391  )
        23           O1  tau(  23) = (   1.3043587   1.4918075   6.0039043  )
        24           O1  tau(  24) = (   5.2767064   1.4903225   6.0039473  )
        25           Ti1 tau(  25) = (   0.0000382   5.9609847   6.0000000  )
        26           Ti1 tau(  26) = (   3.2902200   4.4714249   6.0002472  )
        27           O1  tau(  27) = (   0.0002396   2.9813036   7.9858123  )
        28           O1  tau(  28) = (   3.2902150   2.9813002   7.3038282  )
        29           O1  tau(  29) = (   4.5938453   4.4726049   9.2879030  )
        30           O1  tau(  30) = (   1.9864658   4.4711199   9.2879459  )
        31           Ti1 tau(  31) = (   3.2908958   0.0009406   9.1591437  )
        32           Ti1 tau(  32) = (   0.0004876   4.4725358   9.2579169  )
        33           O1  tau(  33) = (   3.2950182   2.9773574  11.3676543  )
        34           O1  tau(  34) = (   0.0019984   2.9784031  10.6274637  )
        35           O1  tau(  35) = (   1.2946310   4.4674284  12.6500497  )
        36           O1  tau(  36) = (   5.2961322   4.4668132  12.6522398  )
        37           Ti1 tau(  37) = (   0.0072964   5.9565020  12.4821340  )
        38           Ti1 tau(  38) = (   3.2980713   4.4687862  12.5160290  )
        39           O1  tau(  39) = (   0.0098827   2.9916113  14.9005182  )
        40           O1  tau(  40) = (   3.2960480   2.9848727  13.9584560  )
        41           O1  tau(  41) = (   4.5591248   4.4529439  16.1935040  )
        42           O1  tau(  42) = (   2.0431063   4.4547719  16.1917947  )
        43           Ti1 tau(  43) = (   3.3030955   0.0010839  15.7925060  )
        44           Ti1 tau(  44) = (   0.0111621   4.5610188  15.9796684  )
        45           O1  tau(  45) = (   3.2900926   2.9813045   4.7018136  )
        46           O1  tau(  46) = (   1.3039711   4.4726057   6.0039043  )
        47           O1  tau(  47) = (   5.2763189   4.4711207   6.0039473  )
        48           N1  tau(  48) = (   0.0348475   3.0484350  18.0388005  )
        49           H1  tau(  49) = (   0.0344738   2.0763216  18.3478120  )
        50           H1  tau(  50) = (   0.8651728   3.4882926  18.4252144  )
        51           H1  tau(  51) = (   5.8133537   3.4985160  18.4509717  )

     number of k points=    10  Fermi-Dirac smearing, width (Ry)=  0.0073
                       cart. coord. in units 2pi/alat
        k(    1) = (   0.0000000   0.0000000   0.0000000), wk =   0.1250000
        k(    2) = (   0.0000000   0.0419351   0.0000000), wk =   0.2500000
        k(    3) = (   0.0000000  -0.0838702   0.0000000), wk =   0.1250000
        k(    4) = (   0.0379955   0.0000049   0.0000000), wk =   0.2500000
        k(    5) = (   0.0379955   0.0419400   0.0000000), wk =   0.2500000
        k(    6) = (   0.0379955  -0.0838652   0.0000000), wk =   0.2500000
        k(    7) = (   0.0379955  -0.0419301   0.0000000), wk =   0.2500000
        k(    8) = (  -0.0759910  -0.0000099   0.0000000), wk =   0.1250000
        k(    9) = (  -0.0759910   0.0419252   0.0000000), wk =   0.2500000
        k(   10) = (  -0.0759910  -0.0838800   0.0000000), wk =   0.1250000

     Initial potential from superposition of free atoms

     starting charge  369.99921, renormalised to  386.00000

     negative rho (up, down):  1.973E-02 0.000E+00

     %%%%%%%%%%%%%%%%%%%%%%%%%%%%%%%%%%%%%%%%%%%%%%%%%%%%%%%%%%%%%%%%%%%%%%%%
     %                                                                      %
     % You are using vdW-DF, which was implemented by the Thonhauser group. %
     % Please cite the following two papers that made this development      %
     % possible and the two reviews that describe the various versions:     %
     %                                                                      %
     %   T. Thonhauser et al., PRL 115, 136402 (2015).                      %
     %   T. Thonhauser et al., PRB 76, 125112 (2007).                       %
     %   K. Berland et al., Rep. Prog. Phys. 78, 066501 (2015).             %
     %   D.C. Langreth et al., J. Phys.: Condens. Matter 21, 084203 (2009). %
     %                                                                      %
     %                                                                      %
     % If you are calculating the stress with vdW-DF, please also cite:     %
     %                                                                      %
     %   R. Sabatini et al., J. Phys.: Condens. Matter 24, 424209 (2012).   %
     %                                                                      %
     %%%%%%%%%%%%%%%%%%%%%%%%%%%%%%%%%%%%%%%%%%%%%%%%%%%%%%%%%%%%%%%%%%%%%%%%

     Adding external electric field

     Computed dipole along edir(3) :
        Dipole               -3.5656 Ry au,         -9.0628 Debye
        Dipole field         -0.0067 Ry au,

        Potential amp.        0.6237 Ry
        Total length         46.3494 bohr

     Starting wfcs are  291 atomic wfcs
  @ DRIVER MODE: Message from server: STATUS
  @ DRIVER MODE: Message from server: POSDATA
  @ DRIVER MODE: Reading and sharing cell
  @ DRIVER MODE: Reading and sharing positions
  @ DRIVER MODE: Received positions

     Self-consistent Calculation

     iteration #  1     ecut=    29.40 Ry     beta= 0.05
     Davidson diagonalization with overlap
     c_bands:  1 eigenvalues not converged
     c_bands:  2 eigenvalues not converged
     c_bands:  1 eigenvalues not converged
     c_bands:  4 eigenvalues not converged
     c_bands:  1 eigenvalues not converged
     c_bands:  1 eigenvalues not converged
     c_bands:  3 eigenvalues not converged
     ethr =  1.00E-05,  avg # of iterations = 20.0

[...]

     total energy              =   -2896.14906355 Ry
     estimated scf accuracy    <     156.14547038 Ry

     iteration #  2     ecut=    29.40 Ry     beta= 0.05
     Davidson diagonalization with overlap
     ethr =  1.00E-02,  avg # of iterations = 15.4

[...]

     iteration # 56     ecut=    29.40 Ry     beta= 0.05
     Davidson diagonalization with overlap
     c_bands:  1 eigenvalues not converged
     ethr =  2.83E-11,  avg # of iterations = 15.5

[...]

     total energy              =   -2907.69376061 Ry
     estimated scf accuracy    <       0.00000012 Ry

     iteration # 57     ecut=    29.40 Ry     beta= 0.05
     Davidson diagonalization with overlap
     ethr =  2.83E-11,  avg # of iterations = 11.9

     negative rho (up, down):  1.931E-02 0.000E+00

     Adding external electric field

     Computed dipole along edir(3) :
        Dipole                1.2465 Ry au,          3.1682 Debye
        Dipole field          0.0024 Ry au,

        Potential amp.       -0.2181 Ry
        Total length         46.3494 bohr

     End of self-consistent calculation

          k = 0.0000 0.0000 0.0000 ( 18029 PWs)   bands (ev):

   -55.6683 -55.6321 -55.6257 -55.5915 -55.5782 -55.5500 -55.5406 -55.5030
   -55.4973 -55.4955 -55.4613 -55.4601 -55.4504 -55.4165 -54.7112 -54.6771
   -32.2374 -32.1732 -32.1240 -32.0268 -31.9851 -31.9700 -31.9685 -31.9625
   -31.9164 -31.9116 -31.8749 -31.8742 -31.8718 -31.8708 -31.8426 -31.8229
   -31.8215 -31.8128 -31.8035 -31.7967 -31.7789 -31.7741 -31.7524 -31.7491
   -31.7447 -31.7296 -31.7210 -31.7201 -31.6860 -31.6814 -31.6697 -31.6544
   -31.6542 -31.6422 -31.6349 -31.6297 -31.6274 -31.6007 -31.5945 -31.5843
   -31.5825 -31.5642 -31.1229 -31.0219 -31.0003 -30.9391 -30.8527 -30.7417
   -16.5047 -16.2655 -16.1418 -15.9979 -15.8989 -15.8716 -15.7568 -15.7235
   -15.6100 -15.5218 -15.3974 -15.3526 -15.3256 -15.3199 -15.3079 -15.2893
   -15.2800 -15.2168 -15.1779 -15.1693 -15.1489 -15.1475 -15.1050 -15.1042
   -15.0474 -15.0314 -14.8947 -14.8200 -14.7591 -14.5084 -13.2125 -13.0934
    -6.0956  -5.9796  -3.8322  -3.6727  -3.6455  -3.5953  -3.5845  -3.4284
    -3.2687  -3.1362  -3.0909  -2.9530  -2.9191  -2.8712  -2.8428  -2.6950
    -2.6616  -2.6312  -2.5738  -2.5447  -2.5427  -2.5344  -2.5210  -2.4397
    -2.4370  -2.4187  -2.3035  -2.2528  -2.1420  -2.1115  -2.0477  -2.0306
    -1.9935  -1.9924  -1.9821  -1.9314  -1.9303  -1.9062  -1.8726  -1.8035
    -1.7077  -1.6576  -1.5632  -1.5304  -1.4202  -1.4168  -1.2496  -1.2300
    -1.1644  -1.1218  -1.1105  -1.0776  -1.0678  -1.0177  -0.9083  -0.8242
    -0.7853  -0.7232  -0.6723  -0.6398  -0.6027  -0.5297  -0.4590  -0.4519
    -0.4203  -0.3047  -0.2628  -0.2077  -0.1548  -0.1461  -0.1109  -0.0118
    -0.0065   0.0925   0.0992   0.1318   0.1602   0.2664   0.2748   0.2840
     0.3039   0.3050   0.3925   0.4305   0.4921   0.5078   0.6531   0.8676
     0.9045   0.9354   1.2073   1.2825   1.3142   1.4776   1.8968   1.9490
     3.4307   3.4950   3.5297   3.5594   3.5733   3.6402   3.9204   3.9232
     3.9362   3.9511   3.9868

[...]

          k = 0.0380-0.0419 0.0000 ( 17876 PWs)   bands (ev):

[...]

          k =-0.0760-0.0000 0.0000 ( 17886 PWs)   bands (ev):

[...]

          k =-0.0760-0.0839 0.0000 ( 17948 PWs)   bands (ev):

   -55.6519 -55.6482 -55.6088 -55.6083 -55.5736 -55.5468 -55.5295 -55.5141
   -55.5015 -55.4792 -55.4772 -55.4633 -55.4349 -55.4321 -54.6941 -54.6941
   -32.0926 -32.0420 -32.0387 -31.9554 -31.9390 -31.9386 -31.9272 -31.9019
   -31.9015 -31.8715 -31.8692 -31.8647 -31.8610 -31.8391 -31.8285 -31.8183
   -31.7957 -31.7950 -31.7947 -31.7915 -31.7891 -31.7865 -31.7847 -31.7458
   -31.7441 -31.7422 -31.7363 -31.7320 -31.7269 -31.7267 -31.7265 -31.7249
   -31.7064 -31.7034 -31.6910 -31.6773 -31.6757 -31.6582 -31.6553 -31.6459
   -31.6207 -31.6180 -31.0129 -31.0128 -30.9356 -30.9354 -30.8960 -30.8959
   -16.0629 -15.9653 -15.9117 -15.8581 -15.6956 -15.6825 -15.6520 -15.6331
   -15.4923 -15.4748 -15.4591 -15.4527 -15.4089 -15.3992 -15.3925 -15.3823
   -15.2622 -15.2579 -15.2475 -15.2442 -15.1761 -15.1729 -15.1698 -15.1530
   -15.1276 -15.1147 -15.0788 -15.0744 -14.9983 -14.8427 -13.1945 -13.1944
    -6.0560  -5.9820  -3.1874  -3.1473  -3.1221  -2.9044  -2.8702  -2.8423
    -2.8295  -2.7469  -2.6864  -2.6816  -2.6674  -2.6296  -2.5749  -2.5596
    -2.5538  -2.5186  -2.5081  -2.4931  -2.4599  -2.4461  -2.3903  -2.3612
    -2.3486  -2.3469  -2.3347  -2.3278  -2.3124  -2.2939  -2.2718  -2.2663
    -2.1489  -2.0444  -1.9982  -1.9892  -1.8873  -1.8843  -1.8832  -1.7959
    -1.7755  -1.7229  -1.7178  -1.6962  -1.4819  -1.4661  -1.4468  -1.4428
    -1.4179  -1.3399  -1.2619  -1.2345  -1.2183  -1.1639  -1.0499  -1.0180
    -0.9970  -0.9267  -0.8804  -0.8655  -0.8155  -0.6818  -0.6689  -0.6643
    -0.6501  -0.6447  -0.5872  -0.5816  -0.5005  -0.4540  -0.4027  -0.3903
    -0.3698  -0.1776  -0.1438  -0.0776   0.0192   0.0246   0.2007   0.2463
     0.2531   0.3563   0.3788   0.4161   0.4718   0.5934   0.6068   0.6434
     0.7191   0.7755   0.7761   0.7783   1.6657   1.6671   1.7671   1.7673
     3.5775   3.6669   3.6837   3.7469   3.8401   3.9429   3.9443   3.9594
     3.9888   3.9904   4.0961

     the Fermi energy is     3.4905 ev

!    total energy              =   -2907.69381015 Ry
     estimated scf accuracy    <       0.00000003 Ry
     smearing contrib. (-TS)   =      -0.03697551 Ry
     internal energy E=F+TS    =   -2907.65683464 Ry

     The total energy is F=E-TS. E is the sum of the following terms:
     one-electron contribution =  -24676.02614587 Ry
     hartree contribution      =   12422.82899499 Ry
     xc contribution           =    -476.55682505 Ry
     ewald contribution        =    9822.09420922 Ry
     electric field correction =       0.00293208 Ry

     convergence has been achieved in  57 iterations

     Forces acting on atoms (cartesian axes, Ry/au):

     atom    1 type  1   force =    -0.00000252    0.00004845    0.09122434
     atom    2 type  1   force =    -0.00012200    0.00034387   -0.18251916
     atom    3 type  2   force =     0.00003451   -0.00041455   -0.02467625
     atom    4 type  2   force =     0.00001231    0.00000623    0.05209772
     atom    5 type  2   force =    -0.01338959   -0.00056927    0.00484858
     atom    6 type  2   force =     0.01363814   -0.00009798    0.00501089
     atom    7 type  1   force =    -0.00000623   -0.00033975   -0.00325846
     atom    8 type  1   force =    -0.00006780    0.00367940    0.00359840
     atom    9 type  2   force =     0.00000719    0.00016244   -0.00017306
     atom   10 type  2   force =     0.00003568    0.00004499   -0.00037564
     atom   11 type  2   force =    -0.00002926    0.00018871    0.00017187
     atom   12 type  2   force =     0.00007261    0.00014136    0.00013404
     atom   13 type  1   force =     0.00012380    0.00055436   -0.00019941
     atom   14 type  1   force =     0.00010411   -0.00015722   -0.00074373
     atom   15 type  2   force =     0.00010963   -0.00004671   -0.00010487
     atom   16 type  2   force =    -0.00004313    0.00006094    0.00026147
     atom   17 type  2   force =     0.00055609    0.00009189    0.00000687
     atom   18 type  2   force =    -0.00057305    0.00018235    0.00010710
     atom   19 type  1   force =     0.00028832    0.00028386    0.00047315
     atom   20 type  1   force =    -0.00005828   -0.00170514   -0.00044917
     atom   21 type  2   force =     0.00001255    0.00011459    0.10480633
     atom   22 type  2   force =     0.00010901    0.00047549    0.00145738
     atom   23 type  2   force =    -0.06845541   -0.00024737   -0.02642260
     atom   24 type  2   force =     0.06829001    0.00017221   -0.02647227
     atom   25 type  1   force =     0.00006855    0.00001269    0.09096566
     atom   26 type  1   force =    -0.00009626   -0.00043375   -0.18245645
     atom   27 type  2   force =     0.00002497    0.00005694   -0.02327940
     atom   28 type  2   force =     0.00000539    0.00001580    0.05198725
     atom   29 type  2   force =    -0.01322159   -0.00010391    0.00518707
     atom   30 type  2   force =     0.01345618    0.00040741    0.00533207
     atom   31 type  1   force =     0.00004661    0.00024043   -0.00292958
     atom   32 type  1   force =    -0.00008587   -0.00359877    0.00348640
     atom   33 type  2   force =     0.00001389   -0.00019961    0.00018671
     atom   34 type  2   force =     0.00001520   -0.00006782   -0.00064171
     atom   35 type  2   force =    -0.00008534   -0.00028099   -0.00003317
     atom   36 type  2   force =     0.00012415   -0.00023415   -0.00005947
     atom   37 type  1   force =     0.00008998   -0.00064787    0.00076006
     atom   38 type  1   force =     0.00009547    0.00015522   -0.00069289
     atom   39 type  2   force =     0.00007395   -0.00017983    0.00014016
     atom   40 type  2   force =     0.00008718   -0.00010832    0.00066790
     atom   41 type  2   force =     0.00040406   -0.00016208    0.00016285
     atom   42 type  2   force =    -0.00037311   -0.00026687    0.00037190
     atom   43 type  1   force =     0.00011677   -0.00037927    0.00003882
     atom   44 type  1   force =    -0.00013582    0.00046225    0.00004404
     atom   45 type  2   force =     0.00001405    0.00009431    0.10478441
     atom   46 type  2   force =    -0.06843030   -0.00014516   -0.02640658
     atom   47 type  2   force =     0.06829037    0.00028478   -0.02646014
     atom   48 type  3   force =     0.01140972   -0.00371616   -0.00407977
     atom   49 type  4   force =    -0.00036556   -0.00023929   -0.00073820
     atom   50 type  4   force =     0.00054992   -0.00014636   -0.00083328
     atom   51 type  4   force =    -0.01273924    0.00620723    0.00569185

     Total force =     0.366782     Total SCF correction =     0.000415
  @ DRIVER MODE: Message from server: STATUS
  @ DRIVER MODE: Message from server: GETFORCE
  @ DRIVER MODE: Returning v,forces,stress,ensemble

     Writing output data file ./calc.save/
  @ DRIVER MODE: Message from server: EXIT
  @ DRIVE MODE: Exiting

     General routines

     Parallel routines

   This run was terminated on:  15:15:49  12Oct2021

   JOB DONE.