     Program PWSCF v.6.7GPU starts on 22Sep2021 at 23: 6:42

     R & G space division:  proc/nbgrp/npool/nimage =       8
     Reading input from /storage/home/hcoda1/3/ntian30/research/carbon/CxH_vib/H2O_calc/ads_slab/CH3NHNHHO_a/out_0003/pw.inp
Warning: card &CELL ignored
Warning: card   CELL_DYNAMICS='IPI', ignored
Warning: card / ignored

     Current dimensions of program PWSCF are:
     Max number of different atomic species (ntypx) = 10
     Max number of k-points (npk) =  40000
     Max angular momentum in pseudopotentials (lmaxx) =  3
     Presently no symmetry can be used with electric field

     Message from routine cell_base_init:
     DEPRECATED: use true lattice parameter, not A to a.u. conversion factor

     IMPORTANT: XC functional enforced from input :
     Exchange-correlation= BEEF-VDW
                           (   1   4  43  14   2   0   0)
     Any further DFT definition will be discarded
     Please, verify this is what you really want

  @ DRIVER MODE: Connecting to
 qe_1139763_2941006.sched-torque.pace.gatech.edufdfzjlzl_scratch
  using UNIX socket
  @ DRIVER MODE: Message from server: STATUS
  @ DRIVER MODE: Message from server: INIT
  @ DRIVER MODE: Receiving replica           0          -1
  @ DRIVER MODE: Receiving encoded integer          25
  @ DRIVER MODE:  SCF:  T  FORCE:  T  STRESS:  F  VC:  F  ENSEMBLE:  F
  @ DRIVER MODE:  SCF:  T  FORCE:  T  STRESS:  F  VC:  F  ENSEMBLE:  F

     Using Slab Decomposition

     bravais-lattice index     =            0
     lattice parameter (alat)  =       1.8897  a.u.
     unit-cell volume          =    6658.9804 (a.u.)^3
     number of atoms/cell      =           57
     number of atomic types    =            5
     number of electrons       =       404.00
     number of Kohn-Sham states=          212
     kinetic-energy cutoff     =      29.3995  Ry
     charge density cutoff     =     293.9946  Ry
     scf convergence threshold =      7.3E-08
     mixing beta               =       0.0500
     number of iterations used =            8  plain     mixing
     Exchange-correlation= BEEF-VDW
                           (   1   4  43  14   2   0   0)

     celldm(1)=   1.889726  celldm(2)=   0.000000  celldm(3)=   0.000000
     celldm(4)=   0.000000  celldm(5)=   0.000000  celldm(6)=   0.000000

     crystal axes: (cart. coord. in units of alat)
               a(1) = (   6.579727   0.000000   0.000000 )
               a(2) = (  -0.000775   5.961596   0.000000 )
               a(3) = (   0.000000   0.000000  25.155947 )

     reciprocal axes: (cart. coord. in units 2 pi/alat)
               b(1) = (  0.151982  0.000020  0.000000 )
               b(2) = (  0.000000  0.167740  0.000000 )
               b(3) = (  0.000000  0.000000  0.039752 )

     PseudoPot. # 1 for Ti read from file:
     /storage/coda1/p-amedford6/0/shared/rich_project_chbe-medford/medford-share/data/pseudos_module/espresso/nninc/pbe/van/Ti.UPF
     MD5 check sum: 8e4df49b7f0d34bbd5052bf3f5ea0213
     Pseudo is Ultrasoft, Zval = 12.0
     Generated by new atomic code, or converted to UPF format
     Using radial grid of  851 points,  6 beta functions with:
                l(1) =   0
                l(2) =   0
                l(3) =   1
                l(4) =   1
                l(5) =   2
                l(6) =   2
     Q(r) pseudized with  8 coefficients,  rinner =    1.000   1.000   1.000
                                                       1.000   1.000

     PseudoPot. # 2 for O  read from file:
     /storage/coda1/p-amedford6/0/shared/rich_project_chbe-medford/medford-share/data/pseudos_module/espresso/nninc/pbe/van/O.UPF
     MD5 check sum: 78c19812648e8988a0fe644b0f25305e
     Pseudo is Ultrasoft, Zval =  6.0
     Generated by new atomic code, or converted to UPF format
     Using radial grid of  737 points,  4 beta functions with:
                l(1) =   0
                l(2) =   0
                l(3) =   1
                l(4) =   1
     Q(r) pseudized with  8 coefficients,  rinner =    0.800   0.800   0.800

     PseudoPot. # 3 for N  read from file:
     /storage/coda1/p-amedford6/0/shared/rich_project_chbe-medford/medford-share/data/pseudos_module/espresso/nninc/pbe/van/N.UPF
     MD5 check sum: 90d10febe142ad51ac9d5be1deb811c4
     Pseudo is Ultrasoft, Zval =  5.0
     Generated by new atomic code, or converted to UPF format
     Using radial grid of  729 points,  4 beta functions with:
                l(1) =   0
                l(2) =   0
                l(3) =   1
                l(4) =   1
     Q(r) pseudized with  8 coefficients,  rinner =    0.800   0.800   0.800

     PseudoPot. # 4 for C  read from file:
     /storage/coda1/p-amedford6/0/shared/rich_project_chbe-medford/medford-share/data/pseudos_module/espresso/nninc/pbe/van/C.UPF
     MD5 check sum: 1a69bf6b8db32088f5b2163dbdb77a27
     Pseudo is Ultrasoft, Zval =  4.0
     Generated by new atomic code, or converted to UPF format
     Using radial grid of  721 points,  4 beta functions with:
                l(1) =   0
                l(2) =   0
                l(3) =   1
                l(4) =   1
     Q(r) pseudized with  8 coefficients,  rinner =    0.800   0.800   0.800

     PseudoPot. # 5 for H  read from file:
     /storage/coda1/p-amedford6/0/shared/rich_project_chbe-medford/medford-share/data/pseudos_module/espresso/nninc/pbe/van/H.UPF
     MD5 check sum: b5ee9d7bfd3a09ee7748110bda690ff7
     Pseudo is Ultrasoft, Zval =  1.0
     Generated by new atomic code, or converted to UPF format
     Using radial grid of  615 points,  1 beta functions with:
                l(1) =   0
     Q(r) pseudized with  8 coefficients,  rinner =    0.800

     atomic species   valence    mass     pseudopotential
        Ti1           12.00    47.86700     Ti( 1.00)
        O1             6.00    15.99900     O ( 1.00)
        N1             5.00    14.00700     N ( 1.00)
        C1             4.00    12.01100     C ( 1.00)
        H1             1.00     1.00800     H ( 1.00)

     No symmetry found

   Cartesian axes

     site n.     atom                  positions (alat units)
         1           Ti1 tau(   1) = (   0.0004258   2.9801865   6.0000000  )
         2           Ti1 tau(   2) = (   3.2906075   1.4906267   6.0002472  )
         3           O1  tau(   3) = (   0.0006271   0.0005054   7.9858123  )
         4           O1  tau(   4) = (   3.2906025   0.0005020   7.3038282  )
         5           O1  tau(   5) = (   4.5942328   1.4918067   9.2879030  )
         6           O1  tau(   6) = (   1.9868534   1.4903216   9.2879459  )
         7           Ti1 tau(   7) = (   3.2907910   2.8959150   9.1758416  )
         8           Ti1 tau(   8) = (   0.0015273   1.4827037   9.2680791  )
         9           O1  tau(   9) = (   3.2953096   5.9421394  11.2884464  )
        10           O1  tau(  10) = (   0.0116148   5.9584955  10.6183126  )
        11           O1  tau(  11) = (   1.3041449   1.4755329  12.6321863  )
        12           O1  tau(  12) = (   5.3089623   1.4871430  12.6059879  )
        13           Ti1 tau(  13) = (   6.5683417   3.1096339  12.6902584  )
        14           Ti1 tau(  14) = (   3.3171551   1.3050273  12.6602886  )
        15           O1  tau(  15) = (   6.5441980   0.0188234  14.6400653  )
        16           O1  tau(  16) = (   3.3305379   0.0354930  13.9003223  )
        17           O1  tau(  17) = (   4.5569828   1.5958521  16.0354584  )
        18           O1  tau(  18) = (   2.0254723   1.5302355  15.9749146  )
        19           Ti1 tau(  19) = (   3.2479256   3.0467527  15.6517507  )
        20           Ti1 tau(  20) = (   6.4631478   1.5268535  15.8454044  )
        21           O1  tau(  21) = (   3.2904802   0.0005063   4.7018136  )
        22           O1  tau(  22) = (   6.5640117   0.0389496  17.1838934  )
        23           O1  tau(  23) = (   1.3043587   1.4918075   6.0039043  )
        24           O1  tau(  24) = (   5.2767064   1.4903225   6.0039473  )
        25           Ti1 tau(  25) = (   0.0000382   5.9609847   6.0000000  )
        26           Ti1 tau(  26) = (   3.2902200   4.4714249   6.0002472  )
        27           O1  tau(  27) = (   0.0002396   2.9813036   7.9858123  )
        28           O1  tau(  28) = (   3.2902150   2.9813002   7.3038282  )
        29           O1  tau(  29) = (   4.5938453   4.4726049   9.2879030  )
        30           O1  tau(  30) = (   1.9864658   4.4711199   9.2879459  )
        31           Ti1 tau(  31) = (   3.2891106   5.8743827   9.1763621  )
        32           Ti1 tau(  32) = (   0.0006254   4.4649316   9.2693709  )
        33           O1  tau(  33) = (   3.2909858   3.0116154  11.2527998  )
        34           O1  tau(  34) = (   0.0092240   2.9805883  10.6323155  )
        35           O1  tau(  35) = (   1.2990260   4.4726261  12.6330189  )
        36           O1  tau(  36) = (   5.2946483   4.4606482  12.6134978  )
        37           Ti1 tau(  37) = (   0.0333947   0.1262769  12.6104238  )
        38           Ti1 tau(  38) = (   3.2900473   4.3917186  12.4086616  )
        39           O1  tau(  39) = (   6.5591047   2.9728048  14.6463482  )
        40           O1  tau(  40) = (   3.3071982   2.9909887  13.8663713  )
        41           O1  tau(  41) = (   4.5374868   4.4330245  16.1128471  )
        42           O1  tau(  42) = (   2.0037144   4.4952966  15.9584979  )
        43           Ti1 tau(  43) = (   3.1911318   0.0573200  16.2061952  )
        44           Ti1 tau(  44) = (   6.5299348   4.6473693  16.0672121  )
        45           O1  tau(  45) = (   3.2900926   2.9813045   4.7018136  )
        46           O1  tau(  46) = (   1.3039711   4.4726057   6.0039043  )
        47           O1  tau(  47) = (   5.2763189   4.4711207   6.0039473  )
        48           N1  tau(  48) = (   1.2509970   2.8452009  18.3001485  )
        49           N1  tau(  49) = (   0.1090600   2.9410495  17.4585617  )
        50           C1  tau(  50) = (   1.1117997   3.5424446  19.5707766  )
        51           H1  tau(  51) = (   0.2696121   3.1616043  20.1716506  )
        52           H1  tau(  52) = (   2.0314425   3.4001925  20.1392599  )
        53           H1  tau(  53) = (   0.9679189   4.6079482  19.3970517  )
        54           H1  tau(  54) = (   1.5306055   1.8840965  18.4148701  )
        55           H1  tau(  55) = (   5.8389999   2.9001924  18.0325661  )
        56           O1  tau(  56) = (   3.2424369   0.1001929  18.0579484  )
        57           H1  tau(  57) = (   3.9792659   5.6040190  18.4897823  )

     number of k points=    10  Fermi-Dirac smearing, width (Ry)=  0.0073
                       cart. coord. in units 2pi/alat
        k(    1) = (   0.0000000   0.0000000   0.0000000), wk =   0.1250000
        k(    2) = (   0.0000000   0.0419351   0.0000000), wk =   0.2500000
        k(    3) = (   0.0000000  -0.0838702   0.0000000), wk =   0.1250000
        k(    4) = (   0.0379955   0.0000049   0.0000000), wk =   0.2500000
        k(    5) = (   0.0379955   0.0419400   0.0000000), wk =   0.2500000
        k(    6) = (   0.0379955  -0.0838652   0.0000000), wk =   0.2500000
        k(    7) = (   0.0379955  -0.0419301   0.0000000), wk =   0.2500000
        k(    8) = (  -0.0759910  -0.0000099   0.0000000), wk =   0.1250000
        k(    9) = (  -0.0759910   0.0419252   0.0000000), wk =   0.2500000
        k(   10) = (  -0.0759910  -0.0838800   0.0000000), wk =   0.1250000

     Initial potential from superposition of free atoms

     starting charge  387.99913, renormalised to  404.00000

     negative rho (up, down):  1.467E-02 0.000E+00

     %%%%%%%%%%%%%%%%%%%%%%%%%%%%%%%%%%%%%%%%%%%%%%%%%%%%%%%%%%%%%%%%%%%%%%%%
     %                                                                      %
     % You are using vdW-DF, which was implemented by the Thonhauser group. %
     % Please cite the following two papers that made this development      %
     % possible and the two reviews that describe the various versions:     %
     %                                                                      %
     %   T. Thonhauser et al., PRL 115, 136402 (2015).                      %
     %   T. Thonhauser et al., PRB 76, 125112 (2007).                       %
     %   K. Berland et al., Rep. Prog. Phys. 78, 066501 (2015).             %
     %   D.C. Langreth et al., J. Phys.: Condens. Matter 21, 084203 (2009). %
     %                                                                      %
     %                                                                      %
     % If you are calculating the stress with vdW-DF, please also cite:     %
     %                                                                      %
     %   R. Sabatini et al., J. Phys.: Condens. Matter 24, 424209 (2012).   %
     %                                                                      %
     %%%%%%%%%%%%%%%%%%%%%%%%%%%%%%%%%%%%%%%%%%%%%%%%%%%%%%%%%%%%%%%%%%%%%%%%

     Adding external electric field

     Computed dipole along edir(3) :
        Dipole              -12.7315 Ry au,        -32.3602 Debye
        Dipole field         -0.0240 Ry au,

        Potential amp.        2.2272 Ry
        Total length         46.3494 bohr

     Starting wfcs are  306 atomic wfcs
  @ DRIVER MODE: Message from server: STATUS
  @ DRIVER MODE: Message from server: POSDATA
  @ DRIVER MODE: Reading and sharing cell
  @ DRIVER MODE: Reading and sharing positions
  @ DRIVER MODE: Received positions

     Self-consistent Calculation

     iteration #  1     ecut=    29.40 Ry     beta= 0.05
     Davidson diagonalization with overlap
     c_bands:  4 eigenvalues not converged
     c_bands:  5 eigenvalues not converged
     c_bands:  5 eigenvalues not converged
     c_bands:  5 eigenvalues not converged
     c_bands:  1 eigenvalues not converged
     c_bands:  3 eigenvalues not converged
     c_bands:  4 eigenvalues not converged
     c_bands:  4 eigenvalues not converged
     ethr =  1.00E-05,  avg # of iterations = 24.4

[...]

     total energy              =   -2345.45920551 Ry
     estimated scf accuracy    <    7121.26553114 Ry

     iteration #  2     ecut=    29.40 Ry     beta= 0.05
     Davidson diagonalization with overlap
     ethr =  1.00E-02,  avg # of iterations = 23.9

[...]

     iteration # 68     ecut=    29.40 Ry     beta= 0.05
     Davidson diagonalization with overlap
     c_bands:  1 eigenvalues not converged
     ethr =  6.81E-11,  avg # of iterations =  6.7

[...]

     total energy              =   -2975.25015485 Ry
     estimated scf accuracy    <       0.00000016 Ry

     iteration # 69     ecut=    29.40 Ry     beta= 0.05
     Davidson diagonalization with overlap
     ethr =  4.07E-11,  avg # of iterations =  5.3

     negative rho (up, down):  1.543E-02 0.000E+00

     Adding external electric field

     Computed dipole along edir(3) :
        Dipole                0.5385 Ry au,          1.3687 Debye
        Dipole field          0.0010 Ry au,

        Potential amp.       -0.0942 Ry
        Total length         46.3494 bohr

     End of self-consistent calculation

          k = 0.0000 0.0000 0.0000 ( 18029 PWs)   bands (ev):

   -56.4268 -56.3931 -55.7710 -55.7361 -55.5392 -55.4782 -55.3662 -55.2107
   -55.2067 -55.1384 -55.1031 -55.0894 -55.0555 -55.0490 -54.9842 -54.8651
   -32.8599 -32.7111 -32.6831 -32.5944 -32.5031 -32.4855 -32.2511 -32.0174
   -31.9904 -31.9675 -31.9147 -31.9092 -31.8796 -31.7673 -31.7553 -31.7458
   -31.7042 -31.6954 -31.6804 -31.6401 -31.6341 -31.6238 -31.5751 -31.5543
   -31.5131 -31.4821 -31.4798 -31.4293 -31.4169 -31.4100 -31.4052 -31.3859
   -31.3660 -31.3657 -31.3289 -31.3107 -31.3043 -31.2997 -31.2815 -31.2363
   -31.2339 -31.2168 -31.2044 -31.1840 -31.1132 -31.1089 -31.1051 -31.0579
   -16.6166 -16.5603 -16.1892 -16.1722 -15.8650 -15.8007 -15.7755 -15.7406
   -15.6789 -15.5555 -15.4377 -15.3923 -15.3842 -15.3360 -15.1765 -15.0793
   -14.9841 -14.9127 -14.9052 -14.8580 -14.8498 -14.8205 -14.8089 -14.8008
   -14.7350 -14.7002 -14.5921 -14.5474 -14.4511 -14.2565 -14.1775 -13.5874
   -13.4775 -11.5215  -8.6975  -5.0529  -4.2406  -4.1673  -3.7806  -3.6923
    -3.5178  -3.4388  -3.2923  -3.2617  -3.1735  -3.0726  -3.0109  -2.9537
    -2.9427  -2.8376  -2.6891  -2.6373  -2.6325  -2.6094  -2.6032  -2.5134
    -2.4438  -2.4104  -2.3430  -2.2729  -2.2411  -2.1561  -2.1520  -2.1251
    -2.1037  -2.0747  -2.0288  -1.9841  -1.9542  -1.9398  -1.8236  -1.7825
    -1.7559  -1.7099  -1.6776  -1.6034  -1.5678  -1.5214  -1.4438  -1.3836
    -1.2597  -1.2331  -1.1672  -1.1533  -1.1238  -1.0014  -0.9614  -0.9268
    -0.8655  -0.8321  -0.7665  -0.7432  -0.7112  -0.6730  -0.6649  -0.6253
    -0.5179  -0.4875  -0.3619  -0.3445  -0.2917  -0.2219  -0.2118  -0.1574
    -0.1354  -0.0998  -0.0541  -0.0179   0.0248   0.0926   0.1314   0.2180
     0.2622   0.3247   0.4209   0.4502   0.4717   0.5345   0.5522   0.5855
     0.6310   0.7251   0.7338   0.7945   0.8706   0.9153   0.9333   0.9944
     1.0539   1.0732   1.1727   1.2002   1.2108   1.2671   1.4733   1.5136
     1.6912   2.4474   2.8375   2.9842   3.2700   3.3016   3.5619   3.7967
     3.8267   3.8287   3.9115   4.0132

[...]

          k = 0.0380-0.0419 0.0000 ( 17876 PWs)   bands (ev):

[...]

          k =-0.0760-0.0000 0.0000 ( 17886 PWs)   bands (ev):

[...]

          k =-0.0760-0.0839 0.0000 ( 17948 PWs)   bands (ev):

   -56.4100 -56.4097 -55.7582 -55.7487 -55.5341 -55.4832 -55.3648 -55.2119
   -55.2020 -55.1428 -55.1009 -55.0730 -55.0718 -55.0475 -54.9864 -54.8664
   -32.6969 -32.6966 -32.6768 -32.6762 -32.5472 -32.5471 -32.0762 -32.0678
   -31.9523 -31.9448 -31.9411 -31.9387 -31.8372 -31.7984 -31.7614 -31.7531
   -31.7087 -31.7035 -31.6642 -31.6151 -31.5827 -31.5637 -31.5393 -31.4992
   -31.4868 -31.4840 -31.4334 -31.4313 -31.4186 -31.4178 -31.4163 -31.3954
   -31.3821 -31.3560 -31.3345 -31.3223 -31.3084 -31.2975 -31.2962 -31.2961
   -31.2591 -31.2580 -31.2410 -31.2335 -31.1910 -31.1753 -31.1145 -31.0894
   -16.5348 -16.1759 -15.9974 -15.9935 -15.9139 -15.9113 -15.7032 -15.6976
   -15.5268 -15.4976 -15.4230 -15.3047 -15.2531 -15.1968 -15.1886 -15.1464
   -15.0920 -15.0727 -15.0299 -15.0131 -14.9502 -14.9067 -14.8579 -14.8121
   -14.7932 -14.7543 -14.6335 -14.5844 -14.5776 -14.3909 -14.3583 -13.5815
   -13.5808 -11.5281  -8.7040  -5.0608  -4.2378  -3.7523  -3.3896  -3.0994
    -3.0813  -3.0357  -3.0267  -2.8111  -2.7904  -2.7649  -2.6917  -2.6790
    -2.6290  -2.6218  -2.5299  -2.4892  -2.4471  -2.4326  -2.4180  -2.3630
    -2.3357  -2.2914  -2.2880  -2.2527  -2.2184  -2.1842  -2.1616  -2.1235
    -2.0930  -2.0792  -2.0431  -2.0093  -1.9830  -1.9338  -1.9117  -1.8846
    -1.8701  -1.8505  -1.6917  -1.6370  -1.5813  -1.5394  -1.5084  -1.4422
    -1.4320  -1.3769  -1.3178  -1.2844  -1.2559  -1.2378  -1.1519  -1.1199
    -1.1033  -1.0677  -1.0255  -0.9652  -0.9066  -0.8588  -0.7814  -0.6884
    -0.6584  -0.6407  -0.6137  -0.6062  -0.5656  -0.5131  -0.4244  -0.3728
    -0.3205  -0.3035  -0.2602  -0.2544  -0.2226  -0.1868  -0.1170   0.0055
     0.0707   0.1068   0.1619   0.2187   0.2743   0.3390   0.3814   0.4631
     0.5420   0.5637   0.6490   0.6829   0.8082   0.8497   0.9650   1.0063
     1.0440   1.0899   1.1581   1.2555   1.2810   1.3244   1.3262   1.3430
     1.3575   2.4730   3.4043   3.4072   3.4578   3.4652   3.7397   3.7479
     3.8814   3.8832   4.0077   4.0204

     the Fermi energy is     2.7188 ev

!    total energy              =   -2975.25018528 Ry
     estimated scf accuracy    <       0.00000006 Ry
     smearing contrib. (-TS)   =      -0.00755088 Ry
     internal energy E=F+TS    =   -2975.24263441 Ry

     The total energy is F=E-TS. E is the sum of the following terms:
     one-electron contribution =  -23773.56444844 Ry
     hartree contribution      =   11982.41757849 Ry
     xc contribution           =    -494.81227727 Ry
     ewald contribution        =    9310.71596561 Ry
     electric field correction =       0.00054721 Ry

     convergence has been achieved in  69 iterations

     Forces acting on atoms (cartesian axes, Ry/au):

     atom    1 type  1   force =     0.00001460   -0.00035487    0.11623610
     atom    2 type  1   force =    -0.00014065    0.00031208   -0.16021285
     atom    3 type  2   force =     0.00004455    0.00032734   -0.05316833
     atom    4 type  2   force =     0.00007076   -0.00041690    0.02650398
     atom    5 type  2   force =    -0.00501886   -0.00226108   -0.01002025
     atom    6 type  2   force =     0.00670215   -0.00183467   -0.01075286
     atom    7 type  1   force =    -0.00038196   -0.00639888    0.04568614
     atom    8 type  1   force =     0.00057209    0.01078922    0.08182514
     atom    9 type  2   force =    -0.00001651    0.00035942   -0.00015729
     atom   10 type  2   force =    -0.00139970    0.00155005   -0.05455919
     atom   11 type  2   force =     0.00074065    0.00028851   -0.00024464
     atom   12 type  2   force =    -0.00115812    0.00021273    0.00017714
     atom   13 type  1   force =    -0.00021369   -0.00091062    0.00038265
     atom   14 type  1   force =     0.00046950    0.00124874   -0.00028738
     atom   15 type  2   force =     0.00003831   -0.00066225    0.00040700
     atom   16 type  2   force =    -0.00030476    0.00058607    0.00096228
     atom   17 type  2   force =    -0.00079238   -0.00046412    0.00015660
     atom   18 type  2   force =     0.00075112   -0.00030425    0.00011582
     atom   19 type  1   force =    -0.00059341   -0.00065043   -0.00040801
     atom   20 type  1   force =     0.00022451   -0.00039760   -0.00040595
     atom   21 type  2   force =     0.00007538    0.00015149    0.09916889
     atom   22 type  2   force =     0.00025771   -0.00040045    0.00075166
     atom   23 type  2   force =    -0.07949328   -0.00001670   -0.03161811
     atom   24 type  2   force =     0.07941273    0.00041280   -0.03165179
     atom   25 type  1   force =     0.00018055   -0.00037378    0.11648464
     atom   26 type  1   force =    -0.00008504   -0.00142275   -0.16035660
     atom   27 type  2   force =     0.00013417   -0.00011617   -0.05155796
     atom   28 type  2   force =     0.00003040    0.00129846    0.02169250
     atom   29 type  2   force =    -0.00383710    0.00422726   -0.01242046
     atom   30 type  2   force =     0.00541863    0.00483830   -0.01301208
     atom   31 type  1   force =    -0.00014726    0.00313234    0.03067304
     atom   32 type  1   force =     0.00051857   -0.01300913    0.08269662
     atom   33 type  2   force =     0.00017961   -0.00050980    0.00023640
     atom   34 type  2   force =    -0.00049852    0.00168429   -0.06792171
     atom   35 type  2   force =    -0.00044073   -0.00064672   -0.00010927
     atom   36 type  2   force =     0.00006432   -0.00002861   -0.00002964
     atom   37 type  1   force =    -0.00013134   -0.00122771   -0.00014614
     atom   38 type  1   force =     0.00047940   -0.00033101    0.00013622
     atom   39 type  2   force =     0.00014456    0.00034513    0.00000056
     atom   40 type  2   force =    -0.00013291   -0.00023052    0.00020233
     atom   41 type  2   force =     0.00120474   -0.00006302    0.00025156
     atom   42 type  2   force =    -0.00108140   -0.00045801    0.00038014
     atom   43 type  1   force =     0.00011816   -0.00071167   -0.00000245
     atom   44 type  1   force =     0.00052616    0.00062357   -0.00036924
     atom   45 type  2   force =     0.00007444   -0.00002731    0.09899631
     atom   46 type  2   force =    -0.07950755   -0.00001975   -0.03163444
     atom   47 type  2   force =     0.07944474    0.00042648   -0.03165647
     atom   48 type  3   force =    -0.00690685    0.02274884    0.00152390
     atom   49 type  3   force =     0.00042566   -0.00213475   -0.00011405
     atom   50 type  4   force =     0.00087907   -0.00365787   -0.00265670
     atom   51 type  5   force =    -0.00093626    0.00045212   -0.00021078
     atom   52 type  5   force =    -0.00003868   -0.00035190    0.00043140
     atom   53 type  5   force =     0.00073904   -0.00046481   -0.00199903
     atom   54 type  5   force =     0.00277725   -0.01647093    0.00167027
     atom   55 type  5   force =    -0.00041852    0.00010167    0.00033113
     atom   56 type  2   force =     0.00111546   -0.00022362    0.00006488
     atom   57 type  5   force =    -0.00015351    0.00143574   -0.00046166

     Total force =     0.400158     Total SCF correction =     0.000613
  @ DRIVER MODE: Message from server: STATUS
  @ DRIVER MODE: Message from server: GETFORCE
  @ DRIVER MODE: Returning v,forces,stress,ensemble

     Writing output data file ./calc.save/
  @ DRIVER MODE: Message from server: EXIT
  @ DRIVE MODE: Exiting

     General routines

     Parallel routines

   This run was terminated on:  23:30:56  22Sep2021

   JOB DONE.