     Program PWSCF v.6.7GPU starts on 24Sep2021 at  0:32:17

     R & G space division:  proc/nbgrp/npool/nimage =       8
     Reading input from /storage/home/hcoda1/3/ntian30/research/carbon/CxH_vib/H2O_calc/ads_slab/CH2ON2HO_b/out_0031/pw.inp
Warning: card &CELL ignored
Warning: card   CELL_DYNAMICS='IPI', ignored
Warning: card / ignored

     Current dimensions of program PWSCF are:
     Max number of different atomic species (ntypx) = 10
     Max number of k-points (npk) =  40000
     Max angular momentum in pseudopotentials (lmaxx) =  3
     Presently no symmetry can be used with electric field

     Message from routine cell_base_init:
     DEPRECATED: use true lattice parameter, not A to a.u. conversion factor

     IMPORTANT: XC functional enforced from input :
     Exchange-correlation= BEEF-VDW
                           (   1   4  43  14   2   0   0)
     Any further DFT definition will be discarded
     Please, verify this is what you really want

  @ DRIVER MODE: Connecting to
 qe_1139763_2947315.sched-torque.pace.gatech.eduq4s9i3po_scratch
  using UNIX socket
  @ DRIVER MODE: Message from server: STATUS
  @ DRIVER MODE: Message from server: INIT
  @ DRIVER MODE: Receiving replica           0          -1
  @ DRIVER MODE: Receiving encoded integer          25
  @ DRIVER MODE:  SCF:  T  FORCE:  T  STRESS:  F  VC:  F  ENSEMBLE:  F
  @ DRIVER MODE:  SCF:  T  FORCE:  T  STRESS:  F  VC:  F  ENSEMBLE:  F

     Using Slab Decomposition

     bravais-lattice index     =            0
     lattice parameter (alat)  =       1.8897  a.u.
     unit-cell volume          =    6658.9804 (a.u.)^3
     number of atoms/cell      =           55
     number of atomic types    =            5
     number of electrons       =       407.00
     number of Kohn-Sham states=          213
     kinetic-energy cutoff     =      29.3995  Ry
     charge density cutoff     =     293.9946  Ry
     scf convergence threshold =      7.3E-08
     mixing beta               =       0.0500
     number of iterations used =            8  plain     mixing
     Exchange-correlation= BEEF-VDW
                           (   1   4  43  14   2   0   0)

     celldm(1)=   1.889726  celldm(2)=   0.000000  celldm(3)=   0.000000
     celldm(4)=   0.000000  celldm(5)=   0.000000  celldm(6)=   0.000000

     crystal axes: (cart. coord. in units of alat)
               a(1) = (   6.579727   0.000000   0.000000 )
               a(2) = (  -0.000775   5.961596   0.000000 )
               a(3) = (   0.000000   0.000000  25.155947 )

     reciprocal axes: (cart. coord. in units 2 pi/alat)
               b(1) = (  0.151982  0.000020  0.000000 )
               b(2) = (  0.000000  0.167740  0.000000 )
               b(3) = (  0.000000  0.000000  0.039752 )

     PseudoPot. # 1 for C  read from file:
     /storage/coda1/p-amedford6/0/shared/rich_project_chbe-medford/medford-share/data/pseudos_module/espresso/nninc/pbe/van/C.UPF
     MD5 check sum: 1a69bf6b8db32088f5b2163dbdb77a27
     Pseudo is Ultrasoft, Zval =  4.0
     Generated by new atomic code, or converted to UPF format
     Using radial grid of  721 points,  4 beta functions with:
                l(1) =   0
                l(2) =   0
                l(3) =   1
                l(4) =   1
     Q(r) pseudized with  8 coefficients,  rinner =    0.800   0.800   0.800

     PseudoPot. # 2 for H  read from file:
     /storage/coda1/p-amedford6/0/shared/rich_project_chbe-medford/medford-share/data/pseudos_module/espresso/nninc/pbe/van/H.UPF
     MD5 check sum: b5ee9d7bfd3a09ee7748110bda690ff7
     Pseudo is Ultrasoft, Zval =  1.0
     Generated by new atomic code, or converted to UPF format
     Using radial grid of  615 points,  1 beta functions with:
                l(1) =   0
     Q(r) pseudized with  8 coefficients,  rinner =    0.800

     PseudoPot. # 3 for O  read from file:
     /storage/coda1/p-amedford6/0/shared/rich_project_chbe-medford/medford-share/data/pseudos_module/espresso/nninc/pbe/van/O.UPF
     MD5 check sum: 78c19812648e8988a0fe644b0f25305e
     Pseudo is Ultrasoft, Zval =  6.0
     Generated by new atomic code, or converted to UPF format
     Using radial grid of  737 points,  4 beta functions with:
                l(1) =   0
                l(2) =   0
                l(3) =   1
                l(4) =   1
     Q(r) pseudized with  8 coefficients,  rinner =    0.800   0.800   0.800

     PseudoPot. # 4 for Ti read from file:
     /storage/coda1/p-amedford6/0/shared/rich_project_chbe-medford/medford-share/data/pseudos_module/espresso/nninc/pbe/van/Ti.UPF
     MD5 check sum: 8e4df49b7f0d34bbd5052bf3f5ea0213
     Pseudo is Ultrasoft, Zval = 12.0
     Generated by new atomic code, or converted to UPF format
     Using radial grid of  851 points,  6 beta functions with:
                l(1) =   0
                l(2) =   0
                l(3) =   1
                l(4) =   1
                l(5) =   2
                l(6) =   2
     Q(r) pseudized with  8 coefficients,  rinner =    1.000   1.000   1.000
                                                       1.000   1.000

     PseudoPot. # 5 for N  read from file:
     /storage/coda1/p-amedford6/0/shared/rich_project_chbe-medford/medford-share/data/pseudos_module/espresso/nninc/pbe/van/N.UPF
     MD5 check sum: 90d10febe142ad51ac9d5be1deb811c4
     Pseudo is Ultrasoft, Zval =  5.0
     Generated by new atomic code, or converted to UPF format
     Using radial grid of  729 points,  4 beta functions with:
                l(1) =   0
                l(2) =   0
                l(3) =   1
                l(4) =   1
     Q(r) pseudized with  8 coefficients,  rinner =    0.800   0.800   0.800

     atomic species   valence    mass     pseudopotential
        C1             4.00    12.01100     C ( 1.00)
        H1             1.00     1.00800     H ( 1.00)
        O1             6.00    15.99900     O ( 1.00)
        Ti1           12.00    47.86700     Ti( 1.00)
        N1             5.00    14.00700     N ( 1.00)

     No symmetry found

   Cartesian axes

     site n.     atom                  positions (alat units)
         1           C1  tau(   1) = (   6.3959394   2.9948767  18.7016815  )
         2           H1  tau(   2) = (   6.3118651   3.9496324  19.2181435  )
         3           H1  tau(   3) = (   6.2946090   2.0524817  19.2375006  )
         4           O1  tau(   4) = (   3.2904802   0.0005063   4.7018136  )
         5           O1  tau(   5) = (   3.2900926   2.9813045   4.7018136  )
         6           O1  tau(   6) = (   1.3043587   1.4918075   6.0039043  )
         7           O1  tau(   7) = (   1.3039711   4.4726057   6.0039043  )
         8           O1  tau(   8) = (   5.2767064   1.4903225   6.0039473  )
         9           O1  tau(   9) = (   5.2763189   4.4711207   6.0039473  )
        10           O1  tau(  10) = (   3.2906025   0.0005020   7.3038282  )
        11           O1  tau(  11) = (   3.2902150   2.9813002   7.3038282  )
        12           O1  tau(  12) = (   0.0006271   0.0005054   7.9858123  )
        13           O1  tau(  13) = (   0.0002396   2.9813036   7.9858123  )
        14           O1  tau(  14) = (   4.5942328   1.4918067   9.2879030  )
        15           O1  tau(  15) = (   4.5938453   4.4726049   9.2879030  )
        16           O1  tau(  16) = (   1.9868534   1.4903216   9.2879459  )
        17           O1  tau(  17) = (   1.9864658   4.4711199   9.2879459  )
        18           O1  tau(  18) = (   0.0129981   2.9922367  10.5657274  )
        19           O1  tau(  19) = (   0.0144279   0.0091559  10.5889743  )
        20           O1  tau(  20) = (   3.3117767   2.9674386  11.3102582  )
        21           O1  tau(  21) = (   3.3129298   0.0243810  11.3450129  )
        22           O1  tau(  22) = (   5.3345884   1.4970258  12.6342112  )
        23           O1  tau(  23) = (   5.3394917   4.4808886  12.6396439  )
        24           O1  tau(  24) = (   1.3039726   1.5040805  12.6380785  )
        25           O1  tau(  25) = (   1.3005587   4.4728597  12.6427203  )
        26           O1  tau(  26) = (   3.3397831   2.9746101  13.9049785  )
        27           O1  tau(  27) = (   3.3223070   5.9049495  13.9699414  )
        28           O1  tau(  28) = (   0.0408547   5.9558716  14.6791314  )
        29           O1  tau(  29) = (   0.0240783   2.9814708  14.7219997  )
        30           O1  tau(  30) = (   4.6055448   4.4181431  16.1204950  )
        31           O1  tau(  31) = (   4.6084482   1.5084077  16.0967128  )
        32           O1  tau(  32) = (   2.0524258   4.3896087  16.0537013  )
        33           O1  tau(  33) = (   2.0565100   1.5382275  16.0573534  )
        34           O1  tau(  34) = (   0.0881354   5.9599038  17.1931241  )
        35           O1  tau(  35) = (   0.0264254   2.9794292  17.4619454  )
        36           Ti1 tau(  36) = (   0.0004258   2.9801865   6.0000000  )
        37           Ti1 tau(  37) = (   0.0000382   5.9609847   6.0000000  )
        38           Ti1 tau(  38) = (   3.2906075   1.4906267   6.0002472  )
        39           Ti1 tau(  39) = (   3.2902200   4.4714249   6.0002472  )
        40           Ti1 tau(  40) = (   3.3176177   0.0844252   9.1703869  )
        41           Ti1 tau(  41) = (   3.3271239   3.0668301   9.1994626  )
        42           Ti1 tau(  42) = (   0.0459265   4.5214211   9.2633915  )
        43           Ti1 tau(  43) = (   0.0410032   1.6055327   9.3499854  )
        44           Ti1 tau(  44) = (   3.3214603   4.6642404  12.6916750  )
        45           Ti1 tau(  45) = (   3.3199143   1.5801738  12.4350604  )
        46           Ti1 tau(  46) = (   0.0219714   0.0386744  12.4748393  )
        47           Ti1 tau(  47) = (   0.0368166   3.0234317  12.7766128  )
        48           Ti1 tau(  48) = (   3.3281430   2.9430002  15.6816790  )
        49           Ti1 tau(  49) = (   3.4175200   5.9218210  16.2589141  )
        50           Ti1 tau(  50) = (   0.0864224   1.3736379  15.9343534  )
        51           Ti1 tau(  51) = (   0.1056494   4.5744356  15.9464672  )
        52           N1  tau(  52) = (   3.6299987   3.2157240  20.3374172  )
        53           N1  tau(  53) = (   2.7120030   2.6454082  20.0695964  )
        54           O1  tau(  54) = (   3.1925635   5.9265077  18.0938652  )
        55           H1  tau(  55) = (   2.2801939   0.0950383  18.3989923  )

     number of k points=    10  Fermi-Dirac smearing, width (Ry)=  0.0073
                       cart. coord. in units 2pi/alat
        k(    1) = (   0.0000000   0.0000000   0.0000000), wk =   0.1250000
        k(    2) = (   0.0000000   0.0419351   0.0000000), wk =   0.2500000
        k(    3) = (   0.0000000  -0.0838702   0.0000000), wk =   0.1250000
        k(    4) = (   0.0379955   0.0000049   0.0000000), wk =   0.2500000
        k(    5) = (   0.0379955   0.0419400   0.0000000), wk =   0.2500000
        k(    6) = (   0.0379955  -0.0838652   0.0000000), wk =   0.2500000
        k(    7) = (   0.0379955  -0.0419301   0.0000000), wk =   0.2500000
        k(    8) = (  -0.0759910  -0.0000099   0.0000000), wk =   0.1250000
        k(    9) = (  -0.0759910   0.0419252   0.0000000), wk =   0.2500000
        k(   10) = (  -0.0759910  -0.0838800   0.0000000), wk =   0.1250000

     Initial potential from superposition of free atoms

     starting charge  390.99916, renormalised to  407.00000

     negative rho (up, down):  1.489E-02 0.000E+00

     %%%%%%%%%%%%%%%%%%%%%%%%%%%%%%%%%%%%%%%%%%%%%%%%%%%%%%%%%%%%%%%%%%%%%%%%
     %                                                                      %
     % You are using vdW-DF, which was implemented by the Thonhauser group. %
     % Please cite the following two papers that made this development      %
     % possible and the two reviews that describe the various versions:     %
     %                                                                      %
     %   T. Thonhauser et al., PRL 115, 136402 (2015).                      %
     %   T. Thonhauser et al., PRB 76, 125112 (2007).                       %
     %   K. Berland et al., Rep. Prog. Phys. 78, 066501 (2015).             %
     %   D.C. Langreth et al., J. Phys.: Condens. Matter 21, 084203 (2009). %
     %                                                                      %
     %                                                                      %
     % If you are calculating the stress with vdW-DF, please also cite:     %
     %                                                                      %
     %   R. Sabatini et al., J. Phys.: Condens. Matter 24, 424209 (2012).   %
     %                                                                      %
     %%%%%%%%%%%%%%%%%%%%%%%%%%%%%%%%%%%%%%%%%%%%%%%%%%%%%%%%%%%%%%%%%%%%%%%%

     Adding external electric field

     Computed dipole along edir(3) :
        Dipole              -15.3787 Ry au,        -39.0886 Debye
        Dipole field         -0.0290 Ry au,

        Potential amp.        2.6903 Ry
        Total length         46.3494 bohr

     Starting wfcs are  307 atomic wfcs
  @ DRIVER MODE: Message from server: STATUS
  @ DRIVER MODE: Message from server: POSDATA
  @ DRIVER MODE: Reading and sharing cell
  @ DRIVER MODE: Reading and sharing positions
  @ DRIVER MODE: Received positions

     Self-consistent Calculation

     iteration #  1     ecut=    29.40 Ry     beta= 0.05
     Davidson diagonalization with overlap
     c_bands:  1 eigenvalues not converged
     c_bands:  1 eigenvalues not converged
     c_bands:  1 eigenvalues not converged
     c_bands:  1 eigenvalues not converged
     c_bands:  3 eigenvalues not converged
     ethr =  1.00E-05,  avg # of iterations = 34.7

[...]

     total energy              =   -2231.78573174 Ry
     estimated scf accuracy    <    8831.87714133 Ry

     iteration #  2     ecut=    29.40 Ry     beta= 0.05
     Davidson diagonalization with overlap
     ethr =  1.00E-02,  avg # of iterations = 31.4

[...]

     iteration # 62     ecut=    29.40 Ry     beta= 0.05
     Davidson diagonalization with overlap
     c_bands:  1 eigenvalues not converged
     ethr =  6.86E-10,  avg # of iterations = 14.6

[...]

     total energy              =   -3003.97471998 Ry
     estimated scf accuracy    <       0.00000010 Ry

     iteration # 70     ecut=    29.40 Ry     beta= 0.05
     Davidson diagonalization with overlap
     ethr =  2.22E-11,  avg # of iterations = 10.1

     negative rho (up, down):  1.521E-02 0.000E+00

     Adding external electric field

     Computed dipole along edir(3) :
        Dipole                0.8982 Ry au,          2.2830 Debye
        Dipole field          0.0017 Ry au,

        Potential amp.       -0.1571 Ry
        Total length         46.3494 bohr

     End of self-consistent calculation

          k = 0.0000 0.0000 0.0000 ( 18029 PWs)   bands (ev):

   -55.6628 -55.6202 -55.5452 -55.4601 -55.4256 -55.4145 -55.4020 -55.3638
   -55.3084 -55.2755 -55.2703 -55.2373 -55.1938 -55.1017 -54.5112 -54.4772
   -32.1145 -32.0132 -31.9572 -31.9297 -31.9166 -31.8743 -31.8684 -31.8243
   -31.8209 -31.7636 -31.7576 -31.7456 -31.7375 -31.7307 -31.7259 -31.7032
   -31.6824 -31.6769 -31.6364 -31.6257 -31.6132 -31.6018 -31.5995 -31.5981
   -31.5614 -31.5561 -31.5173 -31.5124 -31.5098 -31.5000 -31.4985 -31.4905
   -31.4659 -31.4641 -31.4368 -31.4341 -31.4318 -31.3868 -31.3863 -31.3488
   -31.3100 -31.3069 -30.9139 -30.8374 -30.8141 -30.7308 -30.6449 -30.5336
   -20.9943 -20.0522 -16.3333 -16.1589 -15.9919 -15.8037 -15.7047 -15.6426
   -15.4358 -15.3769 -15.2999 -15.1446 -15.1174 -15.0805 -15.0519 -15.0301
   -15.0215 -14.9977 -14.9880 -14.9471 -14.9234 -14.9196 -14.8745 -14.8109
   -14.7651 -14.7562 -14.7121 -14.6534 -14.6074 -14.5950 -14.5373 -14.3475
   -13.0124 -12.8985  -9.2726  -6.4538  -5.5878  -5.5544  -4.2194  -4.2014
    -3.9035  -3.5550  -3.5163  -3.4717  -3.3886  -3.3661  -3.2378  -3.0701
    -3.0413  -2.8910  -2.7611  -2.6885  -2.6548  -2.6197  -2.5044  -2.4568
    -2.4302  -2.3924  -2.3606  -2.3364  -2.2969  -2.2795  -2.2455  -2.2007
    -2.1718  -2.0811  -2.0775  -2.0308  -1.9501  -1.9145  -1.9085  -1.9049
    -1.8833  -1.8375  -1.7978  -1.7522  -1.7249  -1.6741  -1.5679  -1.5484
    -1.5430  -1.4745  -1.2303  -1.0946  -1.0665  -0.9934  -0.9567  -0.9393
    -0.9009  -0.8960  -0.8813  -0.8456  -0.8172  -0.6985  -0.6362  -0.5748
    -0.5689  -0.5484  -0.5040  -0.4035  -0.3418  -0.3075  -0.2638  -0.2498
    -0.1800  -0.1626  -0.0824  -0.0489   0.0193   0.1240   0.1678   0.1974
     0.2170   0.2313   0.2808   0.3356   0.3895   0.4207   0.4327   0.4616
     0.5318   0.5553   0.5688   0.5954   0.6826   0.7484   0.7657   0.8269
     0.9104   0.9378   1.0332   1.1627   1.2365   1.4844   1.5104   1.5927
     1.7247   2.0726   2.1183   3.5518   3.6300   3.6599   3.7440   3.8060
     3.8336   3.9173   4.0014   4.0885   4.1224

[...]

          k = 0.0380-0.0419 0.0000 ( 17876 PWs)   bands (ev):

[...]

          k =-0.0760-0.0000 0.0000 ( 17886 PWs)   bands (ev):

[...]

          k =-0.0760-0.0839 0.0000 ( 17948 PWs)   bands (ev):

   -55.6544 -55.6284 -55.5443 -55.4480 -55.4375 -55.4076 -55.3996 -55.3706
   -55.3092 -55.2733 -55.2638 -55.2481 -55.1907 -55.1046 -54.4948 -54.4935
   -31.9518 -31.9405 -31.9245 -31.9184 -31.9113 -31.8147 -31.7979 -31.7808
   -31.7649 -31.7621 -31.7606 -31.7502 -31.7426 -31.6996 -31.6992 -31.6775
   -31.6616 -31.6542 -31.6424 -31.6333 -31.6276 -31.6247 -31.6126 -31.5973
   -31.5907 -31.5885 -31.5751 -31.5621 -31.5568 -31.5465 -31.5062 -31.5016
   -31.4954 -31.4781 -31.4731 -31.4685 -31.4547 -31.4513 -31.4211 -31.3892
   -31.3522 -31.3103 -30.8276 -30.8263 -30.7283 -30.7265 -30.6882 -30.6868
   -20.9940 -20.0466 -16.3036 -15.6754 -15.6136 -15.4691 -15.4479 -15.3899
   -15.3593 -15.2835 -15.2401 -15.2305 -15.2016 -15.1832 -15.1577 -15.1396
   -15.1009 -15.0794 -15.0289 -15.0230 -14.9726 -14.9678 -14.9589 -14.9353
   -14.8871 -14.8329 -14.8264 -14.8237 -14.7609 -14.7530 -14.6548 -14.4817
   -13.0021 -12.9998  -9.2812  -6.4498  -5.5765  -5.5098  -4.2292  -4.2027
    -3.8602  -3.6220  -3.0327  -2.9038  -2.8295  -2.6892  -2.6012  -2.5410
    -2.5294  -2.5084  -2.4721  -2.3997  -2.3887  -2.3342  -2.3299  -2.3226
    -2.3117  -2.2926  -2.2487  -2.2262  -2.2110  -2.2015  -2.1754  -2.1527
    -2.1386  -2.1263  -2.1185  -2.1064  -2.0930  -2.0496  -1.9839  -1.9174
    -1.8817  -1.8665  -1.7248  -1.7115  -1.6446  -1.6297  -1.6197  -1.5935
    -1.5858  -1.5071  -1.4561  -1.3130  -1.2897  -1.2559  -1.1975  -1.1540
    -1.0705  -1.0641  -1.0372  -0.9791  -0.9595  -0.9293  -0.9139  -0.8168
    -0.7398  -0.6949  -0.6574  -0.5438  -0.5268  -0.5118  -0.4508  -0.4244
    -0.4165  -0.4024  -0.3575  -0.2857  -0.2391  -0.2175  -0.1804  -0.1684
    -0.1058  -0.0580   0.0125   0.0823   0.1648   0.1844   0.2905   0.3655
     0.4126   0.5258   0.5828   0.6116   0.6422   0.7152   0.7639   0.7776
     0.8759   0.9350   0.9551   1.0233   1.0518   1.0926   1.1271   1.8815
     1.8944   1.9275   1.9396   3.5027   4.0392   4.0492   4.0630   4.0852
     4.1093   4.1328   4.2076   4.2480   4.2636

     the Fermi energy is     3.4930 ev

!    total energy              =   -3003.97474993 Ry
     estimated scf accuracy    <       0.00000005 Ry
     smearing contrib. (-TS)   =      -0.01900113 Ry
     internal energy E=F+TS    =   -3003.95574880 Ry

     The total energy is F=E-TS. E is the sum of the following terms:
     one-electron contribution =  -23046.55349962 Ry
     hartree contribution      =   11620.35428417 Ry
     xc contribution           =    -499.44610194 Ry
     ewald contribution        =    8921.68804618 Ry
     electric field correction =       0.00152241 Ry

     convergence has been achieved in  70 iterations

     Forces acting on atoms (cartesian axes, Ry/au):

     atom    1 type  1   force =    -0.00039344   -0.00003155    0.00054663
     atom    2 type  2   force =    -0.00046412   -0.00008453   -0.00022394
     atom    3 type  2   force =    -0.00054500    0.00010296   -0.00028099
     atom    4 type  3   force =    -0.00006551    0.00011950    0.10176464
     atom    5 type  3   force =    -0.00006498    0.00014652    0.10143129
     atom    6 type  3   force =    -0.07458741    0.00082308   -0.03018432
     atom    7 type  3   force =    -0.07406004   -0.00148368   -0.03017343
     atom    8 type  3   force =     0.07426515    0.00138096   -0.03023769
     atom    9 type  3   force =     0.07390919   -0.00108538   -0.03028143
     atom   10 type  3   force =     0.00081760    0.00107196    0.04834178
     atom   11 type  3   force =     0.00087498    0.00075606    0.05010120
     atom   12 type  3   force =     0.00040447   -0.00629153   -0.03722580
     atom   13 type  3   force =     0.00063701    0.00422410   -0.03096129
     atom   14 type  3   force =    -0.01075498   -0.00219922    0.00090958
     atom   15 type  3   force =    -0.01063235    0.00460187    0.00171809
     atom   16 type  3   force =     0.01296681   -0.00502431    0.00200698
     atom   17 type  3   force =     0.01232749    0.00211863    0.00232749
     atom   18 type  3   force =    -0.00037514    0.00005103    0.00008259
     atom   19 type  3   force =    -0.00020768    0.00027648    0.00002392
     atom   20 type  3   force =     0.00003015   -0.00076912    0.00008971
     atom   21 type  3   force =    -0.00022434   -0.00039569    0.00001084
     atom   22 type  3   force =     0.00024414   -0.00046761   -0.00003950
     atom   23 type  3   force =     0.00005364    0.00034827    0.00061034
     atom   24 type  3   force =    -0.00046710   -0.00033967   -0.00034838
     atom   25 type  3   force =    -0.00014923    0.00043195    0.00015938
     atom   26 type  3   force =    -0.00040673   -0.00025099   -0.00030323
     atom   27 type  3   force =    -0.00011484    0.00013559    0.00008143
     atom   28 type  3   force =     0.00047544    0.00008728    0.00009841
     atom   29 type  3   force =    -0.00011803   -0.00023474    0.00015207
     atom   30 type  3   force =    -0.00046980   -0.00009335   -0.00051734
     atom   31 type  3   force =    -0.00045219    0.00004854   -0.00027162
     atom   32 type  3   force =    -0.00025223    0.00031946   -0.00006660
     atom   33 type  3   force =    -0.00044231   -0.00015667    0.00002503
     atom   34 type  3   force =    -0.00067012   -0.00023796   -0.00050112
     atom   35 type  3   force =    -0.00029264   -0.00010656    0.00050400
     atom   36 type  4   force =    -0.00032653   -0.00159666    0.10373035
     atom   37 type  4   force =    -0.00012186    0.00149482    0.11783674
     atom   38 type  4   force =    -0.00038493    0.00605834   -0.16914031
     atom   39 type  4   force =    -0.00011624   -0.00504177   -0.16938574
     atom   40 type  4   force =     0.00030877    0.00007654   -0.00055681
     atom   41 type  4   force =     0.00003238   -0.00019714   -0.00019278
     atom   42 type  4   force =    -0.00017693    0.00083396   -0.00003303
     atom   43 type  4   force =    -0.00019996   -0.00053232   -0.00002227
     atom   44 type  4   force =    -0.00006561   -0.00024891    0.00032168
     atom   45 type  4   force =     0.00001005   -0.00018498   -0.00106635
     atom   46 type  4   force =    -0.00034104    0.00032227    0.00059376
     atom   47 type  4   force =    -0.00079368    0.00066711    0.00000095
     atom   48 type  4   force =     0.00050767   -0.00021780    0.00008797
     atom   49 type  4   force =     0.00073337    0.00010357   -0.00024767
     atom   50 type  4   force =     0.00038753    0.00005481   -0.00028126
     atom   51 type  4   force =     0.00018100   -0.00013917   -0.00045304
     atom   52 type  5   force =    -0.03896808   -0.02428191   -0.01168008
     atom   53 type  5   force =     0.03865705    0.02418031    0.01126536
     atom   54 type  3   force =    -0.00109093    0.00092237   -0.00006621
     atom   55 type  2   force =     0.00097212   -0.00006514   -0.00007999

     Total force =     0.375071     Total SCF correction =     0.000703
  @ DRIVER MODE: Message from server: STATUS
  @ DRIVER MODE: Message from server: GETFORCE
  @ DRIVER MODE: Returning v,forces,stress,ensemble

     Writing output data file ./calc.save/
  @ DRIVER MODE: Message from server: EXIT
  @ DRIVE MODE: Exiting

     General routines

     Parallel routines

   This run was terminated on:   0:59:44  24Sep2021

   JOB DONE.