     Program PWSCF v.6.7GPU starts on 10Sep2021 at 20:42:19

     R & G space division:  proc/nbgrp/npool/nimage =      10
     Reading input from /storage/home/hcoda1/3/ntian30/research/carbon/CxH_vib/CH2_calc/ads_slab/CH2NHNH_b/out_0009/pw.inp
Warning: card &CELL ignored
Warning: card   CELL_DYNAMICS='IPI', ignored
Warning: card / ignored

     Current dimensions of program PWSCF are:
     Max number of different atomic species (ntypx) = 10
     Max number of k-points (npk) =  40000
     Max angular momentum in pseudopotentials (lmaxx) =  3
     Presently no symmetry can be used with electric field

     Message from routine cell_base_init:
     DEPRECATED: use true lattice parameter, not A to a.u. conversion factor

     IMPORTANT: XC functional enforced from input :
     Exchange-correlation= BEEF-VDW
                           (   1   4  43  14   2   0   0)
     Any further DFT definition will be discarded
     Please, verify this is what you really want

  @ DRIVER MODE: Connecting to
 qe_1139763_2792040.sched-torque.pace.gatech.eduubpm7dn4_scratch
  using UNIX socket
  @ DRIVER MODE: Message from server: STATUS
  @ DRIVER MODE: Message from server: INIT
  @ DRIVER MODE: Receiving replica           0          -1
  @ DRIVER MODE: Receiving encoded integer          25
  @ DRIVER MODE:  SCF:  T  FORCE:  T  STRESS:  F  VC:  F  ENSEMBLE:  F
  @ DRIVER MODE:  SCF:  T  FORCE:  T  STRESS:  F  VC:  F  ENSEMBLE:  F

     Using Slab Decomposition

     bravais-lattice index     =            0
     lattice parameter (alat)  =       1.8897  a.u.
     unit-cell volume          =    6658.9804 (a.u.)^3
     number of atoms/cell      =           54
     number of atomic types    =            5
     number of electrons       =       396.00
     number of Kohn-Sham states=          208
     kinetic-energy cutoff     =      29.3995  Ry
     charge density cutoff     =     293.9946  Ry
     scf convergence threshold =      7.3E-08
     mixing beta               =       0.0500
     number of iterations used =            8  plain     mixing
     Exchange-correlation= BEEF-VDW
                           (   1   4  43  14   2   0   0)

     celldm(1)=   1.889726  celldm(2)=   0.000000  celldm(3)=   0.000000
     celldm(4)=   0.000000  celldm(5)=   0.000000  celldm(6)=   0.000000

     crystal axes: (cart. coord. in units of alat)
               a(1) = (   6.579727   0.000000   0.000000 )
               a(2) = (  -0.000775   5.961596   0.000000 )
               a(3) = (   0.000000   0.000000  25.155947 )

     reciprocal axes: (cart. coord. in units 2 pi/alat)
               b(1) = (  0.151982  0.000020  0.000000 )
               b(2) = (  0.000000  0.167740  0.000000 )
               b(3) = (  0.000000  0.000000  0.039752 )

     PseudoPot. # 1 for Ti read from file:
     /storage/coda1/p-amedford6/0/shared/rich_project_chbe-medford/medford-share/data/pseudos_module/espresso/nninc/pbe/van/Ti.UPF
     MD5 check sum: 8e4df49b7f0d34bbd5052bf3f5ea0213
     Pseudo is Ultrasoft, Zval = 12.0
     Generated by new atomic code, or converted to UPF format
     Using radial grid of  851 points,  6 beta functions with:
                l(1) =   0
                l(2) =   0
                l(3) =   1
                l(4) =   1
                l(5) =   2
                l(6) =   2
     Q(r) pseudized with  8 coefficients,  rinner =    1.000   1.000   1.000
                                                       1.000   1.000

     PseudoPot. # 2 for O  read from file:
     /storage/coda1/p-amedford6/0/shared/rich_project_chbe-medford/medford-share/data/pseudos_module/espresso/nninc/pbe/van/O.UPF
     MD5 check sum: 78c19812648e8988a0fe644b0f25305e
     Pseudo is Ultrasoft, Zval =  6.0
     Generated by new atomic code, or converted to UPF format
     Using radial grid of  737 points,  4 beta functions with:
                l(1) =   0
                l(2) =   0
                l(3) =   1
                l(4) =   1
     Q(r) pseudized with  8 coefficients,  rinner =    0.800   0.800   0.800

     PseudoPot. # 3 for N  read from file:
     /storage/coda1/p-amedford6/0/shared/rich_project_chbe-medford/medford-share/data/pseudos_module/espresso/nninc/pbe/van/N.UPF
     MD5 check sum: 90d10febe142ad51ac9d5be1deb811c4
     Pseudo is Ultrasoft, Zval =  5.0
     Generated by new atomic code, or converted to UPF format
     Using radial grid of  729 points,  4 beta functions with:
                l(1) =   0
                l(2) =   0
                l(3) =   1
                l(4) =   1
     Q(r) pseudized with  8 coefficients,  rinner =    0.800   0.800   0.800

     PseudoPot. # 4 for C  read from file:
     /storage/coda1/p-amedford6/0/shared/rich_project_chbe-medford/medford-share/data/pseudos_module/espresso/nninc/pbe/van/C.UPF
     MD5 check sum: 1a69bf6b8db32088f5b2163dbdb77a27
     Pseudo is Ultrasoft, Zval =  4.0
     Generated by new atomic code, or converted to UPF format
     Using radial grid of  721 points,  4 beta functions with:
                l(1) =   0
                l(2) =   0
                l(3) =   1
                l(4) =   1
     Q(r) pseudized with  8 coefficients,  rinner =    0.800   0.800   0.800

     PseudoPot. # 5 for H  read from file:
     /storage/coda1/p-amedford6/0/shared/rich_project_chbe-medford/medford-share/data/pseudos_module/espresso/nninc/pbe/van/H.UPF
     MD5 check sum: b5ee9d7bfd3a09ee7748110bda690ff7
     Pseudo is Ultrasoft, Zval =  1.0
     Generated by new atomic code, or converted to UPF format
     Using radial grid of  615 points,  1 beta functions with:
                l(1) =   0
     Q(r) pseudized with  8 coefficients,  rinner =    0.800

     atomic species   valence    mass     pseudopotential
        Ti1           12.00    47.86700     Ti( 1.00)
        O1             6.00    15.99900     O ( 1.00)
        N1             5.00    14.00700     N ( 1.00)
        C1             4.00    12.01100     C ( 1.00)
        H1             1.00     1.00800     H ( 1.00)

     No symmetry found

   Cartesian axes

     site n.     atom                  positions (alat units)
         1           Ti1 tau(   1) = (   0.0004258   2.9801865   6.0000000  )
         2           Ti1 tau(   2) = (   3.2906075   1.4906267   6.0002472  )
         3           O1  tau(   3) = (   0.0006271   0.0005054   7.9858123  )
         4           O1  tau(   4) = (   3.2906025   0.0005020   7.3038282  )
         5           O1  tau(   5) = (   4.5942328   1.4918067   9.2879030  )
         6           O1  tau(   6) = (   1.9868534   1.4903216   9.2879459  )
         7           Ti1 tau(   7) = (   3.2907910   2.8959150   9.1758416  )
         8           Ti1 tau(   8) = (   0.0015273   1.4827037   9.2680791  )
         9           O1  tau(   9) = (   3.3006942   5.9534781  11.3553798  )
        10           O1  tau(  10) = (   0.0116148   5.9584955  10.6183126  )
        11           O1  tau(  11) = (   1.3049435   1.4862809  12.6371303  )
        12           O1  tau(  12) = (   5.2939446   1.4839232  12.6419886  )
        13           Ti1 tau(  13) = (   0.0297220   2.9630369  12.5573518  )
        14           Ti1 tau(  14) = (   3.3261824   1.4838644  12.4981318  )
        15           O1  tau(  15) = (   0.0289408   0.0313188  14.6920809  )
        16           O1  tau(  16) = (   3.2926898   0.0103323  13.9875539  )
        17           O1  tau(  17) = (   4.5688264   1.5151599  16.1499861  )
        18           O1  tau(  18) = (   2.0666082   1.5432664  16.2461230  )
        19           Ti1 tau(  19) = (   3.3290317   3.0025141  15.7092439  )
        20           Ti1 tau(  20) = (   6.5420716   1.4859973  15.9011789  )
        21           O1  tau(  21) = (   3.2904802   0.0005063   4.7018136  )
        22           O1  tau(  22) = (   0.0300787   5.9197746  17.2397460  )
        23           O1  tau(  23) = (   1.3043587   1.4918075   6.0039043  )
        24           O1  tau(  24) = (   5.2767064   1.4903225   6.0039473  )
        25           Ti1 tau(  25) = (   0.0000382   5.9609847   6.0000000  )
        26           Ti1 tau(  26) = (   3.2902200   4.4714249   6.0002472  )
        27           O1  tau(  27) = (   0.0002396   2.9813036   7.9858123  )
        28           O1  tau(  28) = (   3.2902150   2.9813002   7.3038282  )
        29           O1  tau(  29) = (   4.5938453   4.4726049   9.2879030  )
        30           O1  tau(  30) = (   1.9864658   4.4711199   9.2879459  )
        31           Ti1 tau(  31) = (   3.2891106   5.8743827   9.1763621  )
        32           Ti1 tau(  32) = (   0.0006254   4.4649316   9.2693709  )
        33           O1  tau(  33) = (   3.3021489   2.9801797  11.3479352  )
        34           O1  tau(  34) = (   0.0092240   2.9805883  10.6323155  )
        35           O1  tau(  35) = (   1.3026635   4.4666190  12.6547599  )
        36           O1  tau(  36) = (   5.2965037   4.4700493  12.6603964  )
        37           Ti1 tau(  37) = (   0.0280624   5.9437424  12.5124334  )
        38           Ti1 tau(  38) = (   3.3252324   4.4624078  12.5019987  )
        39           O1  tau(  39) = (   0.0181394   2.9416354  14.7876853  )
        40           O1  tau(  40) = (   3.2997337   2.9731399  13.9284607  )
        41           O1  tau(  41) = (   4.5639665   4.4616582  16.1522005  )
        42           O1  tau(  42) = (   2.0594857   4.4554260  16.1407723  )
        43           Ti1 tau(  43) = (   3.2991394   0.0041700  15.7772358  )
        44           Ti1 tau(  44) = (   0.0501841   4.6507117  16.0116611  )
        45           O1  tau(  45) = (   3.2900926   2.9813045   4.7018136  )
        46           O1  tau(  46) = (   1.3039711   4.4726057   6.0039043  )
        47           O1  tau(  47) = (   5.2763189   4.4711207   6.0039473  )
        48           N1  tau(  48) = (   1.0195810   2.7978639  18.4834737  )
        49           N1  tau(  49) = (   6.5530482   2.9215443  17.6565599  )
        50           C1  tau(  50) = (   1.1739936   3.1992704  19.7158448  )
        51           H1  tau(  51) = (   2.1028141   2.9667422  20.2081369  )
        52           H1  tau(  52) = (   0.3908697   3.7596525  20.2009034  )
        53           H1  tau(  53) = (   1.7673082   2.2798185  17.9998463  )
        54           H1  tau(  54) = (   5.7337981   3.2184162  18.1887256  )

     number of k points=    10  Fermi-Dirac smearing, width (Ry)=  0.0073
                       cart. coord. in units 2pi/alat
        k(    1) = (   0.0000000   0.0000000   0.0000000), wk =   0.1250000
        k(    2) = (   0.0000000   0.0419351   0.0000000), wk =   0.2500000
        k(    3) = (   0.0000000  -0.0838702   0.0000000), wk =   0.1250000
        k(    4) = (   0.0379955   0.0000049   0.0000000), wk =   0.2500000
        k(    5) = (   0.0379955   0.0419400   0.0000000), wk =   0.2500000
        k(    6) = (   0.0379955  -0.0838652   0.0000000), wk =   0.2500000
        k(    7) = (   0.0379955  -0.0419301   0.0000000), wk =   0.2500000
        k(    8) = (  -0.0759910  -0.0000099   0.0000000), wk =   0.1250000
        k(    9) = (  -0.0759910   0.0419252   0.0000000), wk =   0.2500000
        k(   10) = (  -0.0759910  -0.0838800   0.0000000), wk =   0.1250000

     Initial potential from superposition of free atoms

     starting charge  379.99915, renormalised to  396.00000

     negative rho (up, down):  1.484E-02 0.000E+00

     %%%%%%%%%%%%%%%%%%%%%%%%%%%%%%%%%%%%%%%%%%%%%%%%%%%%%%%%%%%%%%%%%%%%%%%%
     %                                                                      %
     % You are using vdW-DF, which was implemented by the Thonhauser group. %
     % Please cite the following two papers that made this development      %
     % possible and the two reviews that describe the various versions:     %
     %                                                                      %
     %   T. Thonhauser et al., PRL 115, 136402 (2015).                      %
     %   T. Thonhauser et al., PRB 76, 125112 (2007).                       %
     %   K. Berland et al., Rep. Prog. Phys. 78, 066501 (2015).             %
     %   D.C. Langreth et al., J. Phys.: Condens. Matter 21, 084203 (2009). %
     %                                                                      %
     %                                                                      %
     % If you are calculating the stress with vdW-DF, please also cite:     %
     %                                                                      %
     %   R. Sabatini et al., J. Phys.: Condens. Matter 24, 424209 (2012).   %
     %                                                                      %
     %%%%%%%%%%%%%%%%%%%%%%%%%%%%%%%%%%%%%%%%%%%%%%%%%%%%%%%%%%%%%%%%%%%%%%%%

     Adding external electric field

     Computed dipole along edir(3) :
        Dipole               -9.8032 Ry au,        -24.9172 Debye
        Dipole field         -0.0185 Ry au,

        Potential amp.        1.7149 Ry
        Total length         46.3494 bohr

     Starting wfcs are  300 atomic wfcs
  @ DRIVER MODE: Message from server: STATUS
  @ DRIVER MODE: Message from server: POSDATA
  @ DRIVER MODE: Reading and sharing cell
  @ DRIVER MODE: Reading and sharing positions
  @ DRIVER MODE: Received positions

     Self-consistent Calculation

     iteration #  1     ecut=    29.40 Ry     beta= 0.05
     Davidson diagonalization with overlap
     c_bands:  1 eigenvalues not converged
     c_bands:  2 eigenvalues not converged
     c_bands:  1 eigenvalues not converged
     c_bands:  1 eigenvalues not converged
     c_bands:  2 eigenvalues not converged
     c_bands:  1 eigenvalues not converged
     c_bands:  1 eigenvalues not converged
     c_bands:  1 eigenvalues not converged
     c_bands:  3 eigenvalues not converged
     ethr =  1.00E-05,  avg # of iterations = 19.6

[...]

     total energy              =   -2536.86941905 Ry
     estimated scf accuracy    <    4499.59709320 Ry

     iteration #  2     ecut=    29.40 Ry     beta= 0.05
     Davidson diagonalization with overlap
     ethr =  1.00E-02,  avg # of iterations = 25.1

[...]

     iteration # 53     ecut=    29.40 Ry     beta= 0.05
     Davidson diagonalization with overlap
     c_bands:  1 eigenvalues not converged
     c_bands:  1 eigenvalues not converged
     ethr =  6.67E-09,  avg # of iterations = 15.3

[...]

     total energy              =   -2940.35787789 Ry
     estimated scf accuracy    <       0.00000009 Ry

     iteration # 65     ecut=    29.40 Ry     beta= 0.05
     Davidson diagonalization with overlap
     ethr =  2.27E-11,  avg # of iterations =  6.8

     negative rho (up, down):  1.442E-02 0.000E+00

     Adding external electric field

     Computed dipole along edir(3) :
        Dipole                1.4636 Ry au,          3.7200 Debye
        Dipole field          0.0028 Ry au,

        Potential amp.       -0.2560 Ry
        Total length         46.3494 bohr

     End of self-consistent calculation

          k = 0.0000 0.0000 0.0000 ( 18029 PWs)   bands (ev):

   -55.2592 -55.2249 -55.2228 -55.1908 -55.1549 -55.1317 -55.0902 -55.0647
   -55.0630 -55.0522 -55.0502 -55.0279 -55.0173 -54.9136 -54.2368 -54.2027
   -31.8328 -31.7144 -31.6194 -31.5913 -31.5869 -31.5712 -31.5528 -31.5519
   -31.5176 -31.5149 -31.4711 -31.4695 -31.4676 -31.4356 -31.4156 -31.3958
   -31.3903 -31.3776 -31.3701 -31.3649 -31.3360 -31.3146 -31.3130 -31.3079
   -31.2936 -31.2845 -31.2818 -31.2654 -31.2613 -31.2577 -31.2463 -31.2362
   -31.2329 -31.2213 -31.2129 -31.1946 -31.1837 -31.1815 -31.1775 -31.1580
   -31.1377 -31.0957 -30.6453 -30.5533 -30.5311 -30.4618 -30.3751 -30.2641
   -19.5627 -16.0891 -15.8112 -15.6849 -15.5065 -15.4456 -15.3528 -15.2042
   -15.1537 -15.0384 -15.0043 -14.9976 -14.9697 -14.9303 -14.8597 -14.7879
   -14.7877 -14.7860 -14.7427 -14.7423 -14.6973 -14.6807 -14.6783 -14.6428
   -14.6286 -14.5827 -14.4723 -14.3995 -14.3430 -14.0281 -13.8887 -12.7392
   -12.6221 -10.2464  -7.0519  -6.6572  -4.2708  -4.0910  -3.4365  -3.2611
    -3.2441  -3.1735  -3.1538  -2.9819  -2.9059  -2.7455  -2.6090  -2.5215
    -2.4797  -2.4589  -2.4545  -2.2782  -2.2258  -2.1759  -2.1540  -2.1408
    -2.1090  -2.0718  -2.0561  -2.0217  -2.0135  -1.9991  -1.8238  -1.7444
    -1.7159  -1.6797  -1.6411  -1.5798  -1.5704  -1.5438  -1.5353  -1.5315
    -1.5065  -1.4771  -1.4598  -1.4192  -1.2857  -1.2408  -1.2071  -1.1193
    -1.0347  -0.8851  -0.8083  -0.8048  -0.7709  -0.7246  -0.6868  -0.6417
    -0.6348  -0.6000  -0.4572  -0.4132  -0.3482  -0.3219  -0.2821  -0.2344
    -0.2200  -0.0818  -0.0378  -0.0323  -0.0075   0.1163   0.1574   0.2137
     0.2426   0.3050   0.3514   0.4161   0.4291   0.4536   0.4993   0.5216
     0.6324   0.6837   0.6978   0.7069   0.7352   0.7985   0.8551   0.8775
     0.9004   0.9161   1.0851   1.1202   1.2023   1.3550   1.3687   1.6978
     1.7365   1.7859   1.9722   2.3601   2.4074   3.8454   3.9151   3.9749
     3.9935   3.9983   4.0800   4.1995   4.3183   4.3387   4.3440   4.3472

[...]

          k = 0.0380-0.0419 0.0000 ( 17876 PWs)   bands (ev):

[...]

          k =-0.0760-0.0000 0.0000 ( 17886 PWs)   bands (ev):

[...]

          k =-0.0760-0.0839 0.0000 ( 17948 PWs)   bands (ev):

   -55.2435 -55.2384 -55.2079 -55.2076 -55.1519 -55.1227 -55.0991 -55.0626
   -55.0552 -55.0466 -55.0432 -55.0350 -55.0334 -54.9155 -54.2197 -54.2196
   -31.6383 -31.6333 -31.5668 -31.5297 -31.5294 -31.5270 -31.5006 -31.5005
   -31.5001 -31.4671 -31.4651 -31.4572 -31.4544 -31.4134 -31.3852 -31.3813
   -31.3778 -31.3777 -31.3715 -31.3618 -31.3585 -31.3432 -31.3286 -31.3273
   -31.3269 -31.3243 -31.3230 -31.2948 -31.2926 -31.2806 -31.2791 -31.2766
   -31.2608 -31.2574 -31.2570 -31.2540 -31.2539 -31.2250 -31.2143 -31.2135
   -31.1725 -31.1425 -30.5438 -30.5437 -30.4579 -30.4578 -30.4185 -30.4185
   -19.5607 -15.5620 -15.4730 -15.4123 -15.2803 -15.2567 -15.2231 -15.2174
   -15.1494 -15.1160 -15.0555 -15.0220 -14.9829 -14.9623 -14.9599 -14.9390
   -14.8325 -14.8289 -14.8244 -14.8137 -14.7590 -14.7535 -14.7250 -14.7042
   -14.7008 -14.6470 -14.5985 -14.5961 -14.5103 -14.2676 -13.9005 -12.7238
   -12.7237 -10.2497  -7.0451  -6.6530  -4.2502  -4.0864  -2.8365  -2.7350
    -2.6566  -2.5760  -2.4893  -2.4461  -2.4241  -2.2916  -2.2485  -2.2380
    -2.2228  -2.2070  -2.1601  -2.1336  -2.1163  -2.1018  -2.0849  -2.0799
    -2.0625  -2.0423  -2.0292  -1.9683  -1.9583  -1.9420  -1.9158  -1.8953
    -1.8722  -1.8516  -1.8264  -1.8151  -1.7060  -1.6287  -1.5902  -1.5169
    -1.4633  -1.4417  -1.4343  -1.3439  -1.3089  -1.2995  -1.2840  -1.2141
    -1.0981  -1.0448  -0.9851  -0.9830  -0.9569  -0.8198  -0.8033  -0.7507
    -0.7305  -0.7137  -0.6723  -0.6346  -0.6024  -0.5210  -0.4728  -0.4431
    -0.4082  -0.2888  -0.2557  -0.2297  -0.2157  -0.2103  -0.0936  -0.0840
    -0.0577  -0.0288   0.0137   0.0362   0.0987   0.1068   0.2445   0.3180
     0.3945   0.4761   0.5744   0.6289   0.7055   0.7706   0.7759   0.8738
     0.9336   1.0080   1.0175   1.0546   1.0602   1.1791   1.2217   1.2270
     1.2645   2.1447   2.1457   2.2274   2.2275   4.0191   4.0308   4.1065
     4.1386   4.1698   4.2337   4.3592   4.3796   4.4201   4.4220   4.5065

     the Fermi energy is     3.8949 ev

!    total energy              =   -2940.35790721 Ry
     estimated scf accuracy    <       0.00000004 Ry
     smearing contrib. (-TS)   =      -0.03837901 Ry
     internal energy E=F+TS    =   -2940.31952821 Ry

     The total energy is F=E-TS. E is the sum of the following terms:
     one-electron contribution =  -23947.42107321 Ry
     hartree contribution      =   12066.32702084 Ry
     xc contribution           =    -486.10397112 Ry
     ewald contribution        =    9426.87445298 Ry
     electric field correction =       0.00404230 Ry

     convergence has been achieved in  65 iterations

     Forces acting on atoms (cartesian axes, Ry/au):

     atom    1 type  1   force =     0.00001508   -0.00024511    0.09433609
     atom    2 type  1   force =    -0.00015640   -0.00035067   -0.17722345
     atom    3 type  2   force =     0.00003974   -0.00013158   -0.02176973
     atom    4 type  2   force =    -0.00000458   -0.00173130    0.05672430
     atom    5 type  2   force =    -0.01090314   -0.00112400    0.00623330
     atom    6 type  2   force =     0.01266930   -0.00046154    0.00596913
     atom    7 type  1   force =    -0.00028502    0.00190519   -0.01476320
     atom    8 type  1   force =    -0.00007114    0.00583996    0.00725255
     atom    9 type  2   force =    -0.00014699   -0.00025636   -0.00001222
     atom   10 type  2   force =    -0.00135896    0.00013634   -0.00581422
     atom   11 type  2   force =    -0.00013684    0.00006025   -0.00005792
     atom   12 type  2   force =     0.00016684    0.00002922    0.00019427
     atom   13 type  1   force =     0.00010665    0.00011316    0.00020051
     atom   14 type  1   force =    -0.00004511    0.00002412    0.00021678
     atom   15 type  2   force =    -0.00023642   -0.00028940    0.00003976
     atom   16 type  2   force =     0.00001308    0.00022970   -0.00014511
     atom   17 type  2   force =     0.00021484    0.00020584    0.00000797
     atom   18 type  2   force =     0.00027509   -0.00025547    0.00020836
     atom   19 type  1   force =    -0.00044146   -0.00019658   -0.00014795
     atom   20 type  1   force =    -0.00042867   -0.00019477   -0.00010063
     atom   21 type  2   force =    -0.00000751   -0.00003581    0.10370873
     atom   22 type  2   force =     0.00025215   -0.00070019    0.00017432
     atom   23 type  2   force =    -0.07084154   -0.00012729   -0.02716504
     atom   24 type  2   force =     0.07068917    0.00030443   -0.02724436
     atom   25 type  1   force =     0.00002011   -0.00021742    0.09406107
     atom   26 type  1   force =    -0.00024136   -0.00045828   -0.17718686
     atom   27 type  2   force =     0.00009213   -0.00030192   -0.02082981
     atom   28 type  2   force =     0.00002842   -0.00141384    0.05609561
     atom   29 type  2   force =    -0.01102941   -0.00016974    0.00584528
     atom   30 type  2   force =     0.01268830    0.00014584    0.00560163
     atom   31 type  1   force =    -0.00017369    0.00464521   -0.01581999
     atom   32 type  1   force =    -0.00003235   -0.00691905    0.00712951
     atom   33 type  2   force =     0.00010629    0.00047574   -0.00009499
     atom   34 type  2   force =    -0.00097173    0.00063169   -0.00549806
     atom   35 type  2   force =     0.00057510    0.00025511   -0.00012085
     atom   36 type  2   force =    -0.00067605    0.00027179   -0.00020793
     atom   37 type  1   force =     0.00012367   -0.00022880    0.00003958
     atom   38 type  1   force =     0.00001761   -0.00019956   -0.00008756
     atom   39 type  2   force =     0.00075401   -0.00019141   -0.00008253
     atom   40 type  2   force =     0.00016849    0.00057303    0.00005262
     atom   41 type  2   force =    -0.00008789   -0.00048307    0.00042125
     atom   42 type  2   force =     0.00019218    0.00007673   -0.00004035
     atom   43 type  1   force =    -0.00001345    0.00019242   -0.00004319
     atom   44 type  1   force =    -0.00018454    0.00085124   -0.00035454
     atom   45 type  2   force =    -0.00000405   -0.00006039    0.10368982
     atom   46 type  2   force =    -0.07084402   -0.00008001   -0.02713851
     atom   47 type  2   force =     0.07067362    0.00035507   -0.02720040
     atom   48 type  3   force =     0.00203708   -0.00267346    0.00155290
     atom   49 type  3   force =    -0.00516442    0.00501361    0.00266626
     atom   50 type  4   force =    -0.00102389    0.00007311   -0.00014287
     atom   51 type  5   force =    -0.00038997    0.00021028   -0.00042034
     atom   52 type  5   force =     0.00006346   -0.00081104   -0.00036488
     atom   53 type  5   force =     0.00108130   -0.00064355    0.00102585
     atom   54 type  5   force =     0.00283690   -0.00166749   -0.00336998

     Total force =     0.365891     Total SCF correction =     0.000423
  @ DRIVER MODE: Message from server: STATUS
  @ DRIVER MODE: Message from server: GETFORCE
  @ DRIVER MODE: Returning v,forces,stress,ensemble

     Writing output data file ./calc.save/
  @ DRIVER MODE: Message from server: EXIT
  @ DRIVE MODE: Exiting

     General routines

     Parallel routines

   This run was terminated on:  21: 0:33  10Sep2021

   JOB DONE.