     Program PWSCF v.6.7GPU starts on 26Sep2021 at  4:32:15

     R & G space division:  proc/nbgrp/npool/nimage =       8
     Reading input from /storage/home/hcoda1/3/ntian30/research/carbon/CxH_vib/H2O_calc/ads_slab/CH3OH2O_a/out_0014/pw.inp
Warning: card &CELL ignored
Warning: card   CELL_DYNAMICS='IPI', ignored
Warning: card / ignored

     Current dimensions of program PWSCF are:
     Max number of different atomic species (ntypx) = 10
     Max number of k-points (npk) =  40000
     Max angular momentum in pseudopotentials (lmaxx) =  3
     Presently no symmetry can be used with electric field

     Message from routine cell_base_init:
     DEPRECATED: use true lattice parameter, not A to a.u. conversion factor

     IMPORTANT: XC functional enforced from input :
     Exchange-correlation= BEEF-VDW
                           (   1   4  43  14   2   0   0)
     Any further DFT definition will be discarded
     Please, verify this is what you really want

  @ DRIVER MODE: Connecting to
 qe_1139763_2971673.sched-torque.pace.gatech.edu5_0z56b__scratch
  using UNIX socket
  @ DRIVER MODE: Message from server: STATUS
  @ DRIVER MODE: Message from server: INIT
  @ DRIVER MODE: Receiving replica           0          -1
  @ DRIVER MODE: Receiving encoded integer          25
  @ DRIVER MODE:  SCF:  T  FORCE:  T  STRESS:  F  VC:  F  ENSEMBLE:  F
  @ DRIVER MODE:  SCF:  T  FORCE:  T  STRESS:  F  VC:  F  ENSEMBLE:  F

     Using Slab Decomposition

     bravais-lattice index     =            0
     lattice parameter (alat)  =       1.8897  a.u.
     unit-cell volume          =    6658.9804 (a.u.)^3
     number of atoms/cell      =           55
     number of atomic types    =            4
     number of electrons       =       399.00
     number of Kohn-Sham states=          209
     kinetic-energy cutoff     =      29.3995  Ry
     charge density cutoff     =     293.9946  Ry
     scf convergence threshold =      7.3E-08
     mixing beta               =       0.0500
     number of iterations used =            8  plain     mixing
     Exchange-correlation= BEEF-VDW
                           (   1   4  43  14   2   0   0)

     celldm(1)=   1.889726  celldm(2)=   0.000000  celldm(3)=   0.000000
     celldm(4)=   0.000000  celldm(5)=   0.000000  celldm(6)=   0.000000

     crystal axes: (cart. coord. in units of alat)
               a(1) = (   6.579727   0.000000   0.000000 )
               a(2) = (  -0.000775   5.961596   0.000000 )
               a(3) = (   0.000000   0.000000  25.155947 )

     reciprocal axes: (cart. coord. in units 2 pi/alat)
               b(1) = (  0.151982  0.000020  0.000000 )
               b(2) = (  0.000000  0.167740  0.000000 )
               b(3) = (  0.000000  0.000000  0.039752 )

     PseudoPot. # 1 for Ti read from file:
     /storage/coda1/p-amedford6/0/shared/rich_project_chbe-medford/medford-share/data/pseudos_module/espresso/nninc/pbe/van/Ti.UPF
     MD5 check sum: 8e4df49b7f0d34bbd5052bf3f5ea0213
     Pseudo is Ultrasoft, Zval = 12.0
     Generated by new atomic code, or converted to UPF format
     Using radial grid of  851 points,  6 beta functions with:
                l(1) =   0
                l(2) =   0
                l(3) =   1
                l(4) =   1
                l(5) =   2
                l(6) =   2
     Q(r) pseudized with  8 coefficients,  rinner =    1.000   1.000   1.000
                                                       1.000   1.000

     PseudoPot. # 2 for O  read from file:
     /storage/coda1/p-amedford6/0/shared/rich_project_chbe-medford/medford-share/data/pseudos_module/espresso/nninc/pbe/van/O.UPF
     MD5 check sum: 78c19812648e8988a0fe644b0f25305e
     Pseudo is Ultrasoft, Zval =  6.0
     Generated by new atomic code, or converted to UPF format
     Using radial grid of  737 points,  4 beta functions with:
                l(1) =   0
                l(2) =   0
                l(3) =   1
                l(4) =   1
     Q(r) pseudized with  8 coefficients,  rinner =    0.800   0.800   0.800

     PseudoPot. # 3 for C  read from file:
     /storage/coda1/p-amedford6/0/shared/rich_project_chbe-medford/medford-share/data/pseudos_module/espresso/nninc/pbe/van/C.UPF
     MD5 check sum: 1a69bf6b8db32088f5b2163dbdb77a27
     Pseudo is Ultrasoft, Zval =  4.0
     Generated by new atomic code, or converted to UPF format
     Using radial grid of  721 points,  4 beta functions with:
                l(1) =   0
                l(2) =   0
                l(3) =   1
                l(4) =   1
     Q(r) pseudized with  8 coefficients,  rinner =    0.800   0.800   0.800

     PseudoPot. # 4 for H  read from file:
     /storage/coda1/p-amedford6/0/shared/rich_project_chbe-medford/medford-share/data/pseudos_module/espresso/nninc/pbe/van/H.UPF
     MD5 check sum: b5ee9d7bfd3a09ee7748110bda690ff7
     Pseudo is Ultrasoft, Zval =  1.0
     Generated by new atomic code, or converted to UPF format
     Using radial grid of  615 points,  1 beta functions with:
                l(1) =   0
     Q(r) pseudized with  8 coefficients,  rinner =    0.800

     atomic species   valence    mass     pseudopotential
        Ti1           12.00    47.86700     Ti( 1.00)
        O1             6.00    15.99900     O ( 1.00)
        C1             4.00    12.01100     C ( 1.00)
        H1             1.00     1.00800     H ( 1.00)

     No symmetry found

   Cartesian axes

     site n.     atom                  positions (alat units)
         1           Ti1 tau(   1) = (   0.0004258   2.9801865   6.0000000  )
         2           Ti1 tau(   2) = (   3.2906075   1.4906267   6.0002472  )
         3           O1  tau(   3) = (   0.0006271   0.0005054   7.9858123  )
         4           O1  tau(   4) = (   3.2906025   0.0005020   7.3038282  )
         5           O1  tau(   5) = (   4.5942328   1.4918067   9.2879030  )
         6           O1  tau(   6) = (   1.9868534   1.4903216   9.2879459  )
         7           Ti1 tau(   7) = (   3.2820359   3.0439161   9.1623595  )
         8           Ti1 tau(   8) = (   6.5599266   1.6132547   9.3553476  )
         9           O1  tau(   9) = (   3.2945286   0.0238644  11.3456088  )
        10           O1  tau(  10) = (   0.0063054   0.0138127  10.6020390  )
        11           O1  tau(  11) = (   1.2951583   1.5100513  12.6443238  )
        12           O1  tau(  12) = (   5.2990995   1.5148170  12.6233090  )
        13           Ti1 tau(  13) = (   0.0263474   3.0106421  12.7494805  )
        14           Ti1 tau(  14) = (   3.3336015   1.5167552  12.4948480  )
        15           O1  tau(  15) = (   6.5448532   0.0190031  14.6983011  )
        16           O1  tau(  16) = (   3.3224233   0.0259125  13.9568087  )
        17           O1  tau(  17) = (   4.5367000   1.5168325  16.1249780  )
        18           O1  tau(  18) = (   2.0218268   1.5507800  16.0022153  )
        19           Ti1 tau(  19) = (   3.2743302   2.9980917  15.6870858  )
        20           Ti1 tau(  20) = (   0.0201860   1.3869735  16.0719154  )
        21           O1  tau(  21) = (   3.2904802   0.0005063   4.7018136  )
        22           O1  tau(  22) = (   0.0925506   0.0150102  17.2361640  )
        23           O1  tau(  23) = (   1.3043587   1.4918075   6.0039043  )
        24           O1  tau(  24) = (   5.2767064   1.4903225   6.0039473  )
        25           Ti1 tau(  25) = (   0.0000382   5.9609847   6.0000000  )
        26           Ti1 tau(  26) = (   3.2902200   4.4714249   6.0002472  )
        27           O1  tau(  27) = (   0.0002396   2.9813036   7.9858123  )
        28           O1  tau(  28) = (   3.2902150   2.9813002   7.3038282  )
        29           O1  tau(  29) = (   4.5938453   4.4726049   9.2879030  )
        30           O1  tau(  30) = (   1.9864658   4.4711199   9.2879459  )
        31           Ti1 tau(  31) = (   3.2669230   0.0652730   9.1555536  )
        32           Ti1 tau(  32) = (   6.5613759   4.5453191   9.2698998  )
        33           O1  tau(  33) = (   3.2918870   3.0052186  11.3478826  )
        34           O1  tau(  34) = (   0.0060846   2.9950393  10.5821163  )
        35           O1  tau(  35) = (   1.2959246   4.5006532  12.6413340  )
        36           O1  tau(  36) = (   5.2961686   4.4944485  12.6189864  )
        37           Ti1 tau(  37) = (   0.0327138   0.0295606  12.5236923  )
        38           Ti1 tau(  38) = (   3.3339673   4.5113903  12.4983483  )
        39           O1  tau(  39) = (   6.5730609   3.0277731  14.6772624  )
        40           O1  tau(  40) = (   3.3208155   3.0007925  13.9016932  )
        41           O1  tau(  41) = (   4.5507661   4.4739758  16.0704957  )
        42           O1  tau(  42) = (   2.0281244   4.4521521  15.9894756  )
        43           Ti1 tau(  43) = (   3.3328935   0.0118079  15.7915215  )
        44           Ti1 tau(  44) = (   0.0096178   4.5175135  15.9069376  )
        45           O1  tau(  45) = (   3.2900926   2.9813045   4.7018136  )
        46           O1  tau(  46) = (   1.3039711   4.4726057   6.0039043  )
        47           O1  tau(  47) = (   5.2763189   4.4711207   6.0039473  )
        48           C1  tau(  48) = (   6.0108469   3.0492512  18.6187439  )
        49           O1  tau(  49) = (   6.5747659   3.0013081  17.3187206  )
        50           H1  tau(  50) = (   4.9321177   3.1735116  18.5649479  )
        51           H1  tau(  51) = (   6.2378858   2.1236533  19.1567593  )
        52           H1  tau(  52) = (   6.4208835   3.9027719  19.1655001  )
        53           O1  tau(  53) = (   2.8960476   5.8777769  18.1661119  )
        54           H1  tau(  54) = (   3.1709146   0.7341104  18.6084320  )
        55           H1  tau(  55) = (   1.9162551   5.9097105  18.1191095  )

     number of k points=    10  Fermi-Dirac smearing, width (Ry)=  0.0073
                       cart. coord. in units 2pi/alat
        k(    1) = (   0.0000000   0.0000000   0.0000000), wk =   0.1250000
        k(    2) = (   0.0000000   0.0419351   0.0000000), wk =   0.2500000
        k(    3) = (   0.0000000  -0.0838702   0.0000000), wk =   0.1250000
        k(    4) = (   0.0379955   0.0000049   0.0000000), wk =   0.2500000
        k(    5) = (   0.0379955   0.0419400   0.0000000), wk =   0.2500000
        k(    6) = (   0.0379955  -0.0838652   0.0000000), wk =   0.2500000
        k(    7) = (   0.0379955  -0.0419301   0.0000000), wk =   0.2500000
        k(    8) = (  -0.0759910  -0.0000099   0.0000000), wk =   0.1250000
        k(    9) = (  -0.0759910   0.0419252   0.0000000), wk =   0.2500000
        k(   10) = (  -0.0759910  -0.0838800   0.0000000), wk =   0.1250000

     Initial potential from superposition of free atoms

     starting charge  382.99916, renormalised to  399.00000

     negative rho (up, down):  1.705E-02 0.000E+00

     %%%%%%%%%%%%%%%%%%%%%%%%%%%%%%%%%%%%%%%%%%%%%%%%%%%%%%%%%%%%%%%%%%%%%%%%
     %                                                                      %
     % You are using vdW-DF, which was implemented by the Thonhauser group. %
     % Please cite the following two papers that made this development      %
     % possible and the two reviews that describe the various versions:     %
     %                                                                      %
     %   T. Thonhauser et al., PRL 115, 136402 (2015).                      %
     %   T. Thonhauser et al., PRB 76, 125112 (2007).                       %
     %   K. Berland et al., Rep. Prog. Phys. 78, 066501 (2015).             %
     %   D.C. Langreth et al., J. Phys.: Condens. Matter 21, 084203 (2009). %
     %                                                                      %
     %                                                                      %
     % If you are calculating the stress with vdW-DF, please also cite:     %
     %                                                                      %
     %   R. Sabatini et al., J. Phys.: Condens. Matter 24, 424209 (2012).   %
     %                                                                      %
     %%%%%%%%%%%%%%%%%%%%%%%%%%%%%%%%%%%%%%%%%%%%%%%%%%%%%%%%%%%%%%%%%%%%%%%%

     Adding external electric field

     Computed dipole along edir(3) :
        Dipole               -9.9871 Ry au,        -25.3847 Debye
        Dipole field         -0.0188 Ry au,

        Potential amp.        1.7471 Ry
        Total length         46.3494 bohr

     Starting wfcs are  301 atomic wfcs
  @ DRIVER MODE: Message from server: STATUS
  @ DRIVER MODE: Message from server: POSDATA
  @ DRIVER MODE: Reading and sharing cell
  @ DRIVER MODE: Reading and sharing positions
  @ DRIVER MODE: Received positions

     Self-consistent Calculation

     iteration #  1     ecut=    29.40 Ry     beta= 0.05
     Davidson diagonalization with overlap
     c_bands:  2 eigenvalues not converged
     c_bands:  2 eigenvalues not converged
     c_bands:  2 eigenvalues not converged
     c_bands:  2 eigenvalues not converged
     c_bands:  2 eigenvalues not converged
     c_bands:  3 eigenvalues not converged
     c_bands:  3 eigenvalues not converged
     c_bands:  1 eigenvalues not converged
     ethr =  1.00E-05,  avg # of iterations = 19.6

[...]

     total energy              =   -2489.84998641 Ry
     estimated scf accuracy    <    5304.38362833 Ry

     iteration #  2     ecut=    29.40 Ry     beta= 0.05
     Davidson diagonalization with overlap
     ethr =  1.00E-02,  avg # of iterations = 24.2

[...]

     iteration # 85     ecut=    29.40 Ry     beta= 0.05
     Davidson diagonalization with overlap
     c_bands:  1 eigenvalues not converged
     c_bands:  1 eigenvalues not converged
     c_bands:  1 eigenvalues not converged
     ethr =  7.69E-10,  avg # of iterations = 17.0

[...]

     total energy              =   -2966.34215099 Ry
     estimated scf accuracy    <       0.00000011 Ry

     iteration # 93     ecut=    29.40 Ry     beta= 0.05
     Davidson diagonalization with overlap
     ethr =  1.96E-11,  avg # of iterations = 13.3

     negative rho (up, down):  1.686E-02 0.000E+00

     Adding external electric field

     Computed dipole along edir(3) :
        Dipole                0.9485 Ry au,          2.4108 Debye
        Dipole field          0.0018 Ry au,

        Potential amp.       -0.1659 Ry
        Total length         46.3494 bohr

     End of self-consistent calculation

          k = 0.0000 0.0000 0.0000 ( 18029 PWs)   bands (ev):

   -55.7042 -55.6684 -55.6654 -55.6291 -55.6174 -55.6038 -55.5830 -55.5488
   -55.4942 -55.4805 -55.4713 -55.4542 -55.4193 -55.3789 -54.7076 -54.6735
   -32.2230 -32.1738 -32.0948 -32.0625 -32.0463 -31.9966 -31.9803 -31.9698
   -31.9366 -31.9337 -31.8927 -31.8819 -31.8762 -31.8710 -31.8638 -31.8475
   -31.8468 -31.8036 -31.7989 -31.7960 -31.7876 -31.7830 -31.7687 -31.7549
   -31.7485 -31.7435 -31.7257 -31.7028 -31.6961 -31.6951 -31.6881 -31.6848
   -31.6721 -31.6648 -31.6517 -31.6440 -31.6365 -31.6004 -31.5947 -31.5699
   -31.5612 -31.5547 -31.1166 -31.0217 -30.9993 -30.9334 -30.8474 -30.7361
   -18.9061 -17.5497 -16.4187 -16.1494 -15.9882 -15.8605 -15.8221 -15.6264
   -15.5103 -15.3857 -15.3595 -15.3046 -15.2800 -15.2400 -15.2342 -15.2255
   -15.2147 -15.2062 -15.1523 -15.1180 -15.1056 -15.0959 -15.0840 -15.0327
   -14.9807 -14.9166 -14.8441 -14.8214 -14.7967 -14.7250 -14.7041 -13.2083
   -13.0905  -9.4475  -6.6749  -4.2766  -4.0855  -3.8163  -3.7708  -3.6421
    -3.6169  -3.5870  -3.5058  -3.3086  -3.2752  -3.1527  -2.9407  -2.8825
    -2.8267  -2.8031  -2.7607  -2.6095  -2.5909  -2.5201  -2.5093  -2.4907
    -2.4805  -2.4481  -2.4303  -2.3974  -2.3703  -2.3312  -2.2875  -2.2245
    -2.0857  -2.0715  -2.0340  -2.0168  -2.0051  -1.9907  -1.9536  -1.9322
    -1.8990  -1.8809  -1.8714  -1.7711  -1.6628  -1.5697  -1.5318  -1.4632
    -1.3823  -1.2382  -1.2173  -1.1461  -1.1210  -1.1052  -1.0544  -1.0024
    -0.9430  -0.9373  -0.8812  -0.7817  -0.7127  -0.6940  -0.6572  -0.6085
    -0.5493  -0.4733  -0.4442  -0.4265  -0.4035  -0.3912  -0.2037  -0.1785
    -0.1363  -0.1091  -0.0266   0.0320   0.0488   0.0671   0.0940   0.1208
     0.1939   0.2535   0.2627   0.2894   0.3333   0.3480   0.3817   0.4499
     0.4983   0.5167   0.5639   0.6133   0.6646   0.8051   0.9085   0.9511
     1.0630   1.2276   1.3166   1.3909   1.4917   1.9022   1.9582   3.4757
     3.5077   3.5358   3.5571   3.6340   3.7259   3.8358   3.9279   3.9430
     3.9722

[...]

          k = 0.0380-0.0419 0.0000 ( 17876 PWs)   bands (ev):

[...]

          k =-0.0760-0.0000 0.0000 ( 17886 PWs)   bands (ev):

[...]

          k =-0.0760-0.0839 0.0000 ( 17948 PWs)   bands (ev):

   -55.6920 -55.6805 -55.6491 -55.6452 -55.6145 -55.6018 -55.5702 -55.5617
   -55.4965 -55.4773 -55.4735 -55.4413 -55.4323 -55.3818 -54.6910 -54.6900
   -32.0362 -32.0172 -31.9965 -31.9896 -31.9846 -31.9832 -31.9660 -31.9293
   -31.9199 -31.9115 -31.9027 -31.8934 -31.8556 -31.8452 -31.8304 -31.8261
   -31.8256 -31.8191 -31.8177 -31.8100 -31.8025 -31.7997 -31.7926 -31.7835
   -31.7745 -31.7712 -31.7666 -31.7661 -31.7559 -31.7401 -31.7137 -31.6973
   -31.6921 -31.6855 -31.6847 -31.6813 -31.6756 -31.6581 -31.6477 -31.6365
   -31.6066 -31.5723 -31.0125 -31.0113 -30.9300 -30.9292 -30.8909 -30.8900
   -18.9048 -17.5172 -15.8874 -15.7736 -15.6552 -15.5813 -15.5694 -15.5234
   -15.4931 -15.4669 -15.4093 -15.4021 -15.3543 -15.3525 -15.3019 -15.2959
   -15.2449 -15.2128 -15.2087 -15.1674 -15.1444 -15.1361 -15.1260 -15.0894
   -15.0726 -15.0628 -15.0279 -15.0186 -14.9696 -14.9307 -14.9048 -13.1927
   -13.1910  -9.4499  -6.6693  -4.1768  -4.0490  -3.8194  -3.3076  -3.1737
    -2.9701  -2.9009  -2.8353  -2.7730  -2.7692  -2.6533  -2.6335  -2.5946
    -2.5640  -2.5313  -2.5235  -2.5132  -2.4968  -2.4940  -2.4769  -2.4377
    -2.4172  -2.3939  -2.3714  -2.3604  -2.3385  -2.3161  -2.3084  -2.2886
    -2.2557  -2.2491  -2.2414  -2.1785  -2.1166  -1.9827  -1.9394  -1.9259
    -1.8408  -1.8062  -1.7896  -1.7605  -1.7525  -1.7370  -1.6069  -1.5864
    -1.4917  -1.4262  -1.4068  -1.3789  -1.2708  -1.2116  -1.1814  -1.1579
    -1.1217  -1.0748  -1.0074  -0.9668  -0.9147  -0.8558  -0.8120  -0.7978
    -0.7649  -0.6608  -0.6566  -0.6487  -0.6074  -0.5674  -0.5155  -0.4665
    -0.4589  -0.4332  -0.4012  -0.3589  -0.3397  -0.2427  -0.2320  -0.1929
    -0.1463  -0.0537   0.1273   0.2101   0.3167   0.3513   0.3912   0.4527
     0.4975   0.5486   0.5957   0.6435   0.6695   0.7134   0.7471   0.8295
     0.8479   0.8532   0.9215   1.6783   1.6787   1.7649   1.7733   3.7196
     3.7347   3.7871   3.8058   3.9440   3.9498   3.9635   3.9730   4.0717
     4.1269

     the Fermi energy is     3.4468 ev

!    total energy              =   -2966.34215837 Ry
     estimated scf accuracy    <       0.00000005 Ry
     smearing contrib. (-TS)   =      -0.02283111 Ry
     internal energy E=F+TS    =   -2966.31932726 Ry

     The total energy is F=E-TS. E is the sum of the following terms:
     one-electron contribution =  -24405.24712352 Ry
     hartree contribution      =   12294.62282917 Ry
     xc contribution           =    -490.97037099 Ry
     ewald contribution        =    9635.27364045 Ry
     electric field correction =       0.00169764 Ry

     convergence has been achieved in  93 iterations

     Forces acting on atoms (cartesian axes, Ry/au):

     atom    1 type  1   force =     0.00018107   -0.00147019    0.10511695
     atom    2 type  1   force =     0.00007514    0.00124315   -0.17888696
     atom    3 type  2   force =    -0.00001284   -0.00501110   -0.03283976
     atom    4 type  2   force =    -0.00058267    0.00074084    0.04592850
     atom    5 type  2   force =    -0.01790917   -0.00053189    0.00428300
     atom    6 type  2   force =     0.01741209    0.00073959    0.00347618
     atom    7 type  1   force =    -0.00005548   -0.00057548   -0.00007644
     atom    8 type  1   force =    -0.00038610   -0.00057175    0.00045962
     atom    9 type  2   force =     0.00014655   -0.00028852   -0.00005277
     atom   10 type  2   force =     0.00022892   -0.00001953    0.00053517
     atom   11 type  2   force =     0.00000798   -0.00010448   -0.00006011
     atom   12 type  2   force =    -0.00014443   -0.00029044   -0.00026452
     atom   13 type  1   force =     0.00056114   -0.00057465   -0.00132595
     atom   14 type  1   force =     0.00001280   -0.00046374    0.00034637
     atom   15 type  2   force =    -0.00014357   -0.00036462    0.00001651
     atom   16 type  2   force =     0.00005324   -0.00064093   -0.00003873
     atom   17 type  2   force =    -0.00037844   -0.00011469   -0.00034702
     atom   18 type  2   force =     0.00052437   -0.00044986    0.00002848
     atom   19 type  1   force =    -0.00001818    0.00052266    0.00015232
     atom   20 type  1   force =     0.00010980   -0.00081600    0.00075875
     atom   21 type  2   force =     0.00007335    0.00010614    0.10390540
     atom   22 type  2   force =    -0.00032420   -0.00029556   -0.00025586
     atom   23 type  2   force =    -0.06945351    0.00050346   -0.02939227
     atom   24 type  2   force =     0.06948526    0.00086872   -0.02942434
     atom   25 type  1   force =     0.00026845    0.00145014    0.11393977
     atom   26 type  1   force =    -0.00006060   -0.00044131   -0.17905914
     atom   27 type  2   force =    -0.00013404    0.00370559   -0.02690368
     atom   28 type  2   force =    -0.00027092    0.00101571    0.04787390
     atom   29 type  2   force =    -0.01572148    0.00041972    0.00352038
     atom   30 type  2   force =     0.01709931    0.00264183    0.00289505
     atom   31 type  1   force =     0.00037068    0.00006639   -0.00019427
     atom   32 type  1   force =    -0.00066834    0.00011860    0.00028717
     atom   33 type  2   force =     0.00024865   -0.00040292    0.00015447
     atom   34 type  2   force =     0.00007104   -0.00005392   -0.00006931
     atom   35 type  2   force =     0.00013029   -0.00018202    0.00022230
     atom   36 type  2   force =     0.00017739    0.00017154    0.00015516
     atom   37 type  1   force =     0.00035012    0.00077437   -0.00023834
     atom   38 type  1   force =    -0.00008891   -0.00053773    0.00000856
     atom   39 type  2   force =    -0.00047416    0.00024362    0.00023745
     atom   40 type  2   force =     0.00026337   -0.00064217   -0.00011834
     atom   41 type  2   force =     0.00006848   -0.00004015   -0.00008823
     atom   42 type  2   force =    -0.00032657   -0.00035282   -0.00039604
     atom   43 type  1   force =    -0.00015212   -0.00024429   -0.00013560
     atom   44 type  1   force =     0.00035772    0.00023115    0.00039860
     atom   45 type  2   force =     0.00007878    0.00008265    0.10392669
     atom   46 type  2   force =    -0.06915183   -0.00106669   -0.02941137
     atom   47 type  2   force =     0.06912831   -0.00059860   -0.02948517
     atom   48 type  3   force =     0.01059524   -0.00058562    0.00173407
     atom   49 type  2   force =     0.00004657    0.00039167   -0.00051547
     atom   50 type  4   force =    -0.01123439    0.00137453   -0.00014884
     atom   51 type  4   force =     0.00000349    0.00071349   -0.00043251
     atom   52 type  4   force =     0.00019113   -0.00066732   -0.00004710
     atom   53 type  2   force =     0.00083220    0.00111735    0.00050906
     atom   54 type  4   force =    -0.00022411   -0.00090294   -0.00062671
     atom   55 type  4   force =    -0.00123684    0.00005901   -0.00003504

     Total force =     0.374307     Total SCF correction =     0.000880
  @ DRIVER MODE: Message from server: STATUS
  @ DRIVER MODE: Message from server: GETFORCE
  @ DRIVER MODE: Returning v,forces,stress,ensemble

     Writing output data file ./calc.save/
  @ DRIVER MODE: Message from server: EXIT
  @ DRIVE MODE: Exiting

     General routines

     Parallel routines

   This run was terminated on:   5:52:24  26Sep2021

   JOB DONE.