     Program PWSCF v.6.7GPU starts on 26Sep2021 at 12:20:37

     R & G space division:  proc/nbgrp/npool/nimage =       8
     Reading input from /storage/home/hcoda1/3/ntian30/research/carbon/CxH_vib/CH_calc/ads_slab/CHONHNH2_b/out_0002/pw.inp
Warning: card &CELL ignored
Warning: card   CELL_DYNAMICS='IPI', ignored
Warning: card / ignored

     Current dimensions of program PWSCF are:
     Max number of different atomic species (ntypx) = 10
     Max number of k-points (npk) =  40000
     Max angular momentum in pseudopotentials (lmaxx) =  3
     Presently no symmetry can be used with electric field

     Message from routine cell_base_init:
     DEPRECATED: use true lattice parameter, not A to a.u. conversion factor

     IMPORTANT: XC functional enforced from input :
     Exchange-correlation= BEEF-VDW
                           (   1   4  43  14   2   0   0)
     Any further DFT definition will be discarded
     Please, verify this is what you really want

  @ DRIVER MODE: Connecting to
 qe_1139763_2982672.sched-torque.pace.gatech.edu05tm3s5b_scratch
  using UNIX socket
  @ DRIVER MODE: Message from server: STATUS
  @ DRIVER MODE: Message from server: INIT
  @ DRIVER MODE: Receiving replica           0          -1
  @ DRIVER MODE: Receiving encoded integer          25
  @ DRIVER MODE:  SCF:  T  FORCE:  T  STRESS:  F  VC:  F  ENSEMBLE:  F
  @ DRIVER MODE:  SCF:  T  FORCE:  T  STRESS:  F  VC:  F  ENSEMBLE:  F

     Using Slab Decomposition

     bravais-lattice index     =            0
     lattice parameter (alat)  =       1.8897  a.u.
     unit-cell volume          =    6658.9804 (a.u.)^3
     number of atoms/cell      =           55
     number of atomic types    =            5
     number of electrons       =       402.00
     number of Kohn-Sham states=          211
     kinetic-energy cutoff     =      29.3995  Ry
     charge density cutoff     =     293.9946  Ry
     scf convergence threshold =      7.3E-08
     mixing beta               =       0.0500
     number of iterations used =            8  plain     mixing
     Exchange-correlation= BEEF-VDW
                           (   1   4  43  14   2   0   0)

     celldm(1)=   1.889726  celldm(2)=   0.000000  celldm(3)=   0.000000
     celldm(4)=   0.000000  celldm(5)=   0.000000  celldm(6)=   0.000000

     crystal axes: (cart. coord. in units of alat)
               a(1) = (   6.579727   0.000000   0.000000 )
               a(2) = (  -0.000775   5.961596   0.000000 )
               a(3) = (   0.000000   0.000000  25.155947 )

     reciprocal axes: (cart. coord. in units 2 pi/alat)
               b(1) = (  0.151982  0.000020  0.000000 )
               b(2) = (  0.000000  0.167740  0.000000 )
               b(3) = (  0.000000  0.000000  0.039752 )

     PseudoPot. # 1 for O  read from file:
     /storage/coda1/p-amedford6/0/shared/rich_project_chbe-medford/medford-share/data/pseudos_module/espresso/nninc/pbe/van/O.UPF
     MD5 check sum: 78c19812648e8988a0fe644b0f25305e
     Pseudo is Ultrasoft, Zval =  6.0
     Generated by new atomic code, or converted to UPF format
     Using radial grid of  737 points,  4 beta functions with:
                l(1) =   0
                l(2) =   0
                l(3) =   1
                l(4) =   1
     Q(r) pseudized with  8 coefficients,  rinner =    0.800   0.800   0.800

     PseudoPot. # 2 for Ti read from file:
     /storage/coda1/p-amedford6/0/shared/rich_project_chbe-medford/medford-share/data/pseudos_module/espresso/nninc/pbe/van/Ti.UPF
     MD5 check sum: 8e4df49b7f0d34bbd5052bf3f5ea0213
     Pseudo is Ultrasoft, Zval = 12.0
     Generated by new atomic code, or converted to UPF format
     Using radial grid of  851 points,  6 beta functions with:
                l(1) =   0
                l(2) =   0
                l(3) =   1
                l(4) =   1
                l(5) =   2
                l(6) =   2
     Q(r) pseudized with  8 coefficients,  rinner =    1.000   1.000   1.000
                                                       1.000   1.000

     PseudoPot. # 3 for N  read from file:
     /storage/coda1/p-amedford6/0/shared/rich_project_chbe-medford/medford-share/data/pseudos_module/espresso/nninc/pbe/van/N.UPF
     MD5 check sum: 90d10febe142ad51ac9d5be1deb811c4
     Pseudo is Ultrasoft, Zval =  5.0
     Generated by new atomic code, or converted to UPF format
     Using radial grid of  729 points,  4 beta functions with:
                l(1) =   0
                l(2) =   0
                l(3) =   1
                l(4) =   1
     Q(r) pseudized with  8 coefficients,  rinner =    0.800   0.800   0.800

     PseudoPot. # 4 for H  read from file:
     /storage/coda1/p-amedford6/0/shared/rich_project_chbe-medford/medford-share/data/pseudos_module/espresso/nninc/pbe/van/H.UPF
     MD5 check sum: b5ee9d7bfd3a09ee7748110bda690ff7
     Pseudo is Ultrasoft, Zval =  1.0
     Generated by new atomic code, or converted to UPF format
     Using radial grid of  615 points,  1 beta functions with:
                l(1) =   0
     Q(r) pseudized with  8 coefficients,  rinner =    0.800

     PseudoPot. # 5 for C  read from file:
     /storage/coda1/p-amedford6/0/shared/rich_project_chbe-medford/medford-share/data/pseudos_module/espresso/nninc/pbe/van/C.UPF
     MD5 check sum: 1a69bf6b8db32088f5b2163dbdb77a27
     Pseudo is Ultrasoft, Zval =  4.0
     Generated by new atomic code, or converted to UPF format
     Using radial grid of  721 points,  4 beta functions with:
                l(1) =   0
                l(2) =   0
                l(3) =   1
                l(4) =   1
     Q(r) pseudized with  8 coefficients,  rinner =    0.800   0.800   0.800

     atomic species   valence    mass     pseudopotential
        O1             6.00    15.99900     O ( 1.00)
        Ti1           12.00    47.86700     Ti( 1.00)
        N1             5.00    14.00700     N ( 1.00)
        H1             1.00     1.00800     H ( 1.00)
        C1             4.00    12.01100     C ( 1.00)

     No symmetry found

   Cartesian axes

     site n.     atom                  positions (alat units)
         1           O1  tau(   1) = (   3.2904802   0.0005063   4.7018136  )
         2           O1  tau(   2) = (   3.2900926   2.9813045   4.7018136  )
         3           Ti1 tau(   3) = (   0.0004258   2.9801865   6.0000000  )
         4           Ti1 tau(   4) = (   0.0000382   5.9609847   6.0000000  )
         5           Ti1 tau(   5) = (   3.2906075   1.4906267   6.0002472  )
         6           Ti1 tau(   6) = (   3.2902200   4.4714249   6.0002472  )
         7           O1  tau(   7) = (   1.3043587   1.4918075   6.0039043  )
         8           O1  tau(   8) = (   1.3039711   4.4726057   6.0039043  )
         9           O1  tau(   9) = (   5.2767064   1.4903225   6.0039473  )
        10           O1  tau(  10) = (   5.2763189   4.4711207   6.0039473  )
        11           O1  tau(  11) = (   3.2906025   0.0005020   7.3038282  )
        12           O1  tau(  12) = (   3.2902150   2.9813002   7.3038282  )
        13           O1  tau(  13) = (   0.0006271   0.0005054   7.9858123  )
        14           O1  tau(  14) = (   0.0002396   2.9813036   7.9858123  )
        15           Ti1 tau(  15) = (   3.2907910   2.8959150   9.1758416  )
        16           Ti1 tau(  16) = (   3.2891106   5.8743827   9.1763621  )
        17           Ti1 tau(  17) = (   0.0015273   1.4827037   9.2680791  )
        18           Ti1 tau(  18) = (   0.0006254   4.4649316   9.2693709  )
        19           O1  tau(  19) = (   4.5942328   1.4918067   9.2879030  )
        20           O1  tau(  20) = (   4.5938453   4.4726049   9.2879030  )
        21           O1  tau(  21) = (   1.9868534   1.4903216   9.2879459  )
        22           O1  tau(  22) = (   1.9864658   4.4711199   9.2879459  )
        23           O1  tau(  23) = (   0.0116148   5.9584955  10.6183126  )
        24           O1  tau(  24) = (   0.0092240   2.9805883  10.6323155  )
        25           O1  tau(  25) = (   3.2729272   2.9749101  11.3358637  )
        26           O1  tau(  26) = (   3.2774458   5.9577983  11.3358029  )
        27           Ti1 tau(  27) = (   6.5123228   0.0223980  12.5466522  )
        28           Ti1 tau(  28) = (   6.5139447   2.9993280  12.6164542  )
        29           Ti1 tau(  29) = (   3.1950650   4.4673527  12.4897579  )
        30           Ti1 tau(  30) = (   3.1950454   1.4921031  12.4944583  )
        31           O1  tau(  31) = (   5.2839716   4.4726476  12.6140382  )
        32           O1  tau(  32) = (   1.2968206   4.4781603  12.6268461  )
        33           O1  tau(  33) = (   5.2856119   1.4917077  12.6233973  )
        34           O1  tau(  34) = (   1.2888650   1.4770595  12.6372879  )
        35           O1  tau(  35) = (   3.2788258   2.9629383  13.9230881  )
        36           O1  tau(  36) = (   3.2980453   5.9500611  13.9147740  )
        37           O1  tau(  37) = (   6.5334376   5.9389224  14.6738689  )
        38           O1  tau(  38) = (   6.5776160   3.0156023  14.6540868  )
        39           Ti1 tau(  39) = (   3.2542760   2.9504115  15.7371360  )
        40           Ti1 tau(  40) = (   3.3062714   5.9309079  15.7116640  )
        41           Ti1 tau(  41) = (   6.5650095   1.2976281  16.1142359  )
        42           Ti1 tau(  42) = (   0.0079766   4.4268374  15.8391656  )
        43           O1  tau(  43) = (   2.0280489   1.4492115  16.0660627  )
        44           O1  tau(  44) = (   4.5116609   1.4624326  16.0993158  )
        45           O1  tau(  45) = (   2.0244938   4.4513709  16.0356871  )
        46           O1  tau(  46) = (   4.5113612   4.4342832  16.0730653  )
        47           O1  tau(  47) = (   6.5716746   5.9215154  17.2308814  )
        48           N1  tau(  48) = (   5.9900345   2.9984367  18.5879729  )
        49           H1  tau(  49) = (   4.9797160   2.8240766  18.4383897  )
        50           H1  tau(  50) = (   1.6245422   1.3425840  19.0439533  )
        51           H1  tau(  51) = (   6.0578502   3.9810051  18.8619266  )
        52           N1  tau(  52) = (   2.1403542   1.9713023  19.6616680  )
        53           C1  tau(  53) = (   2.8938676   2.8537551  19.2737185  )
        54           H1  tau(  54) = (   3.3792091   3.5764479  19.9483559  )
        55           O1  tau(  55) = (   6.5521836   2.9666373  17.2729174  )

     number of k points=    10  Fermi-Dirac smearing, width (Ry)=  0.0073
                       cart. coord. in units 2pi/alat
        k(    1) = (   0.0000000   0.0000000   0.0000000), wk =   0.1250000
        k(    2) = (   0.0000000   0.0419351   0.0000000), wk =   0.2500000
        k(    3) = (   0.0000000  -0.0838702   0.0000000), wk =   0.1250000
        k(    4) = (   0.0379955   0.0000049   0.0000000), wk =   0.2500000
        k(    5) = (   0.0379955   0.0419400   0.0000000), wk =   0.2500000
        k(    6) = (   0.0379955  -0.0838652   0.0000000), wk =   0.2500000
        k(    7) = (   0.0379955  -0.0419301   0.0000000), wk =   0.2500000
        k(    8) = (  -0.0759910  -0.0000099   0.0000000), wk =   0.1250000
        k(    9) = (  -0.0759910   0.0419252   0.0000000), wk =   0.2500000
        k(   10) = (  -0.0759910  -0.0838800   0.0000000), wk =   0.1250000

     Initial potential from superposition of free atoms

     starting charge  385.99915, renormalised to  402.00000

     negative rho (up, down):  1.542E-02 0.000E+00

     %%%%%%%%%%%%%%%%%%%%%%%%%%%%%%%%%%%%%%%%%%%%%%%%%%%%%%%%%%%%%%%%%%%%%%%%
     %                                                                      %
     % You are using vdW-DF, which was implemented by the Thonhauser group. %
     % Please cite the following two papers that made this development      %
     % possible and the two reviews that describe the various versions:     %
     %                                                                      %
     %   T. Thonhauser et al., PRL 115, 136402 (2015).                      %
     %   T. Thonhauser et al., PRB 76, 125112 (2007).                       %
     %   K. Berland et al., Rep. Prog. Phys. 78, 066501 (2015).             %
     %   D.C. Langreth et al., J. Phys.: Condens. Matter 21, 084203 (2009). %
     %                                                                      %
     %                                                                      %
     % If you are calculating the stress with vdW-DF, please also cite:     %
     %                                                                      %
     %   R. Sabatini et al., J. Phys.: Condens. Matter 24, 424209 (2012).   %
     %                                                                      %
     %%%%%%%%%%%%%%%%%%%%%%%%%%%%%%%%%%%%%%%%%%%%%%%%%%%%%%%%%%%%%%%%%%%%%%%%

     Adding external electric field

     Computed dipole along edir(3) :
        Dipole              -12.8629 Ry au,        -32.6941 Debye
        Dipole field         -0.0243 Ry au,

        Potential amp.        2.2502 Ry
        Total length         46.3494 bohr

     Starting wfcs are  304 atomic wfcs
  @ DRIVER MODE: Message from server: STATUS
  @ DRIVER MODE: Message from server: POSDATA
  @ DRIVER MODE: Reading and sharing cell
  @ DRIVER MODE: Reading and sharing positions
  @ DRIVER MODE: Received positions

     Self-consistent Calculation

     iteration #  1     ecut=    29.40 Ry     beta= 0.05
     Davidson diagonalization with overlap
     c_bands:  5 eigenvalues not converged
     c_bands:  2 eigenvalues not converged
     c_bands:  2 eigenvalues not converged
     c_bands:  5 eigenvalues not converged
     c_bands:  3 eigenvalues not converged
     c_bands:  3 eigenvalues not converged
     c_bands:  2 eigenvalues not converged
     c_bands:  3 eigenvalues not converged
     c_bands:  1 eigenvalues not converged
     ethr =  1.00E-05,  avg # of iterations = 21.5

[...]

     total energy              =   -2369.76203693 Ry
     estimated scf accuracy    <    6837.16968926 Ry

     iteration #  2     ecut=    29.40 Ry     beta= 0.05
     Davidson diagonalization with overlap
     ethr =  1.00E-02,  avg # of iterations = 23.2

[...]

     iteration # 48     ecut=    29.40 Ry     beta= 0.05
     Davidson diagonalization with overlap
     c_bands:  1 eigenvalues not converged
     ethr =  8.54E-08,  avg # of iterations =  8.4

[...]

     total energy              =   -2972.58405551 Ry
     estimated scf accuracy    <       0.00000009 Ry

     iteration # 68     ecut=    29.40 Ry     beta= 0.05
     Davidson diagonalization with overlap
     ethr =  2.26E-11,  avg # of iterations = 11.7

     negative rho (up, down):  1.520E-02 0.000E+00

     Adding external electric field

     Computed dipole along edir(3) :
        Dipole                0.4810 Ry au,          1.2225 Debye
        Dipole field          0.0009 Ry au,

        Potential amp.       -0.0841 Ry
        Total length         46.3494 bohr

     End of self-consistent calculation

          k = 0.0000 0.0000 0.0000 ( 18029 PWs)   bands (ev):

   -55.8910 -55.8712 -55.8570 -55.8332 -55.7519 -55.7319 -55.7168 -55.7025
   -55.6901 -55.6684 -55.6670 -55.6330 -55.5200 -55.3079 -54.8700 -54.8360
   -32.4165 -32.3737 -32.2503 -32.2014 -32.1918 -32.1838 -32.1677 -32.1572
   -32.1344 -32.1017 -32.0564 -32.0458 -32.0433 -32.0409 -32.0252 -32.0044
   -31.9966 -31.9956 -31.9844 -31.9719 -31.9611 -31.9498 -31.9482 -31.9061
   -31.8989 -31.8936 -31.8917 -31.8820 -31.8716 -31.8672 -31.8631 -31.8429
   -31.8334 -31.8201 -31.8092 -31.7994 -31.7791 -31.7574 -31.7255 -31.5779
   -31.5396 -31.5220 -31.2771 -31.1887 -31.1662 -31.0938 -31.0073 -30.8963
   -18.6957 -16.6123 -16.3617 -16.1197 -16.0386 -16.0038 -15.8832 -15.8519
   -15.7295 -15.6186 -15.5242 -15.4486 -15.4291 -15.4278 -15.3883 -15.3770
   -15.3508 -15.3357 -15.3266 -15.3096 -15.2853 -15.2490 -15.2338 -15.2268
   -15.1360 -15.0591 -15.0254 -14.9784 -14.9727 -14.9486 -14.5617 -13.3723
   -13.2559 -12.1951  -8.1476  -5.2693  -4.9844  -4.5140  -3.9864  -3.8476
    -3.7970  -3.7293  -3.6861  -3.5102  -3.4001  -3.1455  -3.0716  -3.0511
    -3.0284  -2.9812  -2.8831  -2.7997  -2.7028  -2.6975  -2.6947  -2.6613
    -2.6521  -2.6347  -2.5951  -2.5725  -2.5052  -2.4336  -2.3947  -2.2905
    -2.2820  -2.2488  -2.2037  -2.1945  -2.1507  -2.1292  -2.1147  -2.1088
    -2.0950  -2.0573  -2.0250  -1.9145  -1.8785  -1.7978  -1.6839  -1.6080
    -1.4999  -1.4848  -1.3652  -1.3570  -1.3321  -1.3179  -1.2836  -1.2352
    -1.1793  -1.0758  -1.0473  -1.0144  -1.0112  -0.9106  -0.8505  -0.8258
    -0.7624  -0.6896  -0.6633  -0.6504  -0.6401  -0.6079  -0.3916  -0.3493
    -0.3291  -0.2969  -0.2506  -0.1968  -0.1587  -0.1114  -0.0716  -0.0057
     0.0032   0.0548   0.0795   0.0923   0.1085   0.1194   0.1354   0.2355
     0.3232   0.3610   0.3830   0.4585   0.4634   0.6358   0.7017   0.7649
     0.8761   1.0784   1.1522   1.2369   1.3443   1.7234   1.7631   1.7692
     3.2377   3.2395   3.3307   3.3730   3.3816   3.4821   3.5341   3.6945
     3.7277   3.7601   3.7977

[...]

          k = 0.0380-0.0419 0.0000 ( 17876 PWs)   bands (ev):

[...]

          k =-0.0760-0.0000 0.0000 ( 17886 PWs)   bands (ev):

[...]

          k =-0.0760-0.0839 0.0000 ( 17948 PWs)   bands (ev):

   -55.8745 -55.8734 -55.8585 -55.8457 -55.7381 -55.7306 -55.7227 -55.6992
   -55.6864 -55.6840 -55.6526 -55.6476 -55.5187 -55.3091 -54.8530 -54.8529
   -32.2268 -32.2137 -32.1894 -32.1886 -32.1696 -32.1686 -32.1201 -32.1117
   -32.0943 -32.0851 -32.0469 -32.0380 -32.0179 -32.0101 -32.0065 -32.0051
   -31.9988 -31.9941 -31.9929 -31.9905 -31.9868 -31.9839 -31.9492 -31.9472
   -31.9411 -31.9247 -31.9178 -31.9086 -31.8866 -31.8855 -31.8831 -31.8826
   -31.8772 -31.8669 -31.8637 -31.8616 -31.8559 -31.7550 -31.7287 -31.6486
   -31.5693 -31.5291 -31.1790 -31.1789 -31.0899 -31.0898 -31.0507 -31.0506
   -18.6808 -16.0311 -16.0098 -15.8848 -15.8465 -15.8100 -15.7704 -15.7586
   -15.6826 -15.6021 -15.5814 -15.5767 -15.4949 -15.4766 -15.4633 -15.4279
   -15.4150 -15.4045 -15.3987 -15.3599 -15.3483 -15.3391 -15.3307 -15.3231
   -15.2462 -15.2102 -15.2054 -15.1906 -15.0802 -14.9547 -14.7382 -13.3578
   -13.3576 -12.2076  -8.1478  -5.2650  -4.9898  -4.4394  -3.3176  -3.2850
    -3.1044  -3.0206  -3.0051  -2.9873  -2.8813  -2.8016  -2.7947  -2.7597
    -2.7275  -2.7203  -2.7104  -2.7077  -2.6837  -2.6730  -2.6229  -2.6018
    -2.5877  -2.5626  -2.5505  -2.5477  -2.5169  -2.5036  -2.4657  -2.4449
    -2.4255  -2.4137  -2.3921  -2.3255  -2.2097  -2.1246  -2.0926  -2.0334
    -2.0229  -1.9922  -1.9584  -1.9444  -1.9211  -1.8882  -1.8600  -1.7453
    -1.6372  -1.5816  -1.5798  -1.5041  -1.4673  -1.4245  -1.3779  -1.3230
    -1.2903  -1.2790  -1.2302  -1.1659  -1.1498  -1.0756  -1.0321  -1.0022
    -0.9598  -0.9364  -0.8644  -0.8514  -0.8487  -0.8141  -0.7269  -0.7071
    -0.6532  -0.6465  -0.6196  -0.5637  -0.5451  -0.5141  -0.3905  -0.3674
    -0.2424  -0.1752  -0.0884   0.0633   0.0854   0.1791   0.2186   0.2459
     0.3030   0.4048   0.4228   0.4354   0.4539   0.4857   0.5149   0.6387
     0.6527   0.6873   0.8074   1.5160   1.5164   1.5885   1.5892   1.6076
     3.2245   3.5699   3.5766   3.5968   3.6242   3.7567   3.7586   3.7767
     3.7781   3.9123   3.9308

     the Fermi energy is     3.2413 ev

!    total energy              =   -2972.58408343 Ry
     estimated scf accuracy    <       0.00000004 Ry
     smearing contrib. (-TS)   =      -0.03080235 Ry
     internal energy E=F+TS    =   -2972.55328108 Ry

     The total energy is F=E-TS. E is the sum of the following terms:
     one-electron contribution =  -23745.05756951 Ry
     hartree contribution      =   11963.83865646 Ry
     xc contribution           =    -493.06821226 Ry
     ewald contribution        =    9301.73340771 Ry
     electric field correction =       0.00043653 Ry

     convergence has been achieved in  68 iterations

     Forces acting on atoms (cartesian axes, Ry/au):

     atom    1 type  1   force =     0.00004827   -0.00002737    0.10320189
     atom    2 type  1   force =     0.00005029   -0.00004580    0.10324602
     atom    3 type  2   force =     0.00008374   -0.00022930    0.09625296
     atom    4 type  2   force =    -0.00001242   -0.00030555    0.09606199
     atom    5 type  2   force =     0.00002736   -0.00063686   -0.17554127
     atom    6 type  2   force =    -0.00001707   -0.00024835   -0.17550166
     atom    7 type  1   force =    -0.07152173   -0.00014151   -0.02767688
     atom    8 type  1   force =    -0.07150462   -0.00013080   -0.02765049
     atom    9 type  1   force =     0.07137207    0.00028682   -0.02774738
     atom   10 type  1   force =     0.07135659    0.00031189   -0.02770843
     atom   11 type  1   force =    -0.00005644   -0.00144922    0.05286286
     atom   12 type  1   force =    -0.00002534   -0.00125940    0.05320712
     atom   13 type  1   force =     0.00000898   -0.00000761   -0.02440205
     atom   14 type  1   force =     0.00010151   -0.00022951   -0.02343514
     atom   15 type  2   force =     0.00002838    0.00048985   -0.01064029
     atom   16 type  2   force =     0.00014521    0.00350091   -0.00998082
     atom   17 type  2   force =     0.00069313    0.01062028    0.02594013
     atom   18 type  2   force =     0.00084097   -0.01140020    0.02625646
     atom   19 type  1   force =    -0.01195816   -0.00051954    0.00383042
     atom   20 type  1   force =    -0.01230247   -0.00009301    0.00374025
     atom   21 type  1   force =     0.01292580   -0.00009033    0.00217049
     atom   22 type  1   force =     0.01316860    0.00047546    0.00212469
     atom   23 type  1   force =    -0.00431524    0.00132993   -0.01320519
     atom   24 type  1   force =    -0.00236823    0.00054917   -0.02178375
     atom   25 type  1   force =     0.00024142   -0.00090500    0.00016670
     atom   26 type  1   force =     0.00001643    0.00043821    0.00081121
     atom   27 type  2   force =    -0.00042346    0.00040434   -0.00005091
     atom   28 type  2   force =    -0.00067497   -0.00052226   -0.00005498
     atom   29 type  2   force =     0.00098234    0.00002705   -0.00020378
     atom   30 type  2   force =     0.00036282   -0.00073440   -0.00020153
     atom   31 type  1   force =     0.00084713    0.00012375    0.00025184
     atom   32 type  1   force =    -0.00045063   -0.00001877    0.00013909
     atom   33 type  1   force =     0.00041415   -0.00036963   -0.00000631
     atom   34 type  1   force =     0.00126869   -0.00021687    0.00000551
     atom   35 type  1   force =     0.00030913   -0.00029539    0.00015002
     atom   36 type  1   force =     0.00027268    0.00025500   -0.00040784
     atom   37 type  1   force =     0.00022322   -0.00007633   -0.00057299
     atom   38 type  1   force =     0.00016346    0.00014669   -0.00002141
     atom   39 type  2   force =    -0.00080492    0.00021149   -0.00037853
     atom   40 type  2   force =    -0.00076245    0.00006095    0.00048462
     atom   41 type  2   force =     0.00024051   -0.00032769   -0.00058200
     atom   42 type  2   force =     0.00081388   -0.00010719    0.00012270
     atom   43 type  1   force =     0.00036865    0.00023517   -0.00033987
     atom   44 type  1   force =     0.00029796   -0.00000723   -0.00011177
     atom   45 type  1   force =     0.00043956    0.00024153    0.00002635
     atom   46 type  1   force =     0.00014022    0.00044380    0.00022509
     atom   47 type  1   force =     0.00008247   -0.00003549   -0.00015484
     atom   48 type  3   force =    -0.01818927   -0.00370894   -0.00078552
     atom   49 type  4   force =     0.01345180    0.00157978    0.00320121
     atom   50 type  4   force =     0.00010677   -0.00035338   -0.00047510
     atom   51 type  4   force =     0.00151626    0.00262419   -0.00032102
     atom   52 type  3   force =    -0.00086967   -0.00110480   -0.00022794
     atom   53 type  5   force =     0.00135144    0.00166117    0.00056728
     atom   54 type  4   force =    -0.00076816   -0.00102237   -0.00116924
     atom   55 type  1   force =     0.00226335    0.00060266   -0.00370799

     Total force =     0.368029     Total SCF correction =     0.000543
  @ DRIVER MODE: Message from server: STATUS
  @ DRIVER MODE: Message from server: GETFORCE
  @ DRIVER MODE: Returning v,forces,stress,ensemble

     Writing output data file ./calc.save/
  @ DRIVER MODE: Message from server: EXIT
  @ DRIVE MODE: Exiting

     General routines

     Parallel routines

   This run was terminated on:  12:43: 9  26Sep2021

   JOB DONE.