     Program PWSCF v.6.7GPU starts on 18Oct2021 at 16:32:51

     R & G space division:  proc/nbgrp/npool/nimage =       8
     Reading input from /storage/home/hcoda1/3/ntian30/research/carbon/CxH_vib/Thiel_calc/ads_slab/NH2NH3H_perslab/out_0011/pw.inp
Warning: card &CELL ignored
Warning: card   CELL_DYNAMICS='IPI', ignored
Warning: card / ignored

     Current dimensions of program PWSCF are:
     Max number of different atomic species (ntypx) = 10
     Max number of k-points (npk) =  40000
     Max angular momentum in pseudopotentials (lmaxx) =  3
     Presently no symmetry can be used with electric field

     Message from routine cell_base_init:
     DEPRECATED: use true lattice parameter, not A to a.u. conversion factor

     IMPORTANT: XC functional enforced from input :
     Exchange-correlation= BEEF-VDW
                           (   1   4  43  14   2   0   0)
     Any further DFT definition will be discarded
     Please, verify this is what you really want

  @ DRIVER MODE: Connecting to
 qe_1139763_3255138.sched-torque.pace.gatech.edux4ld41o0_scratch
  using UNIX socket
  @ DRIVER MODE: Message from server: STATUS
  @ DRIVER MODE: Message from server: INIT
  @ DRIVER MODE: Receiving replica           0          -1
  @ DRIVER MODE: Receiving encoded integer          25
  @ DRIVER MODE:  SCF:  T  FORCE:  T  STRESS:  F  VC:  F  ENSEMBLE:  F
  @ DRIVER MODE:  SCF:  T  FORCE:  T  STRESS:  F  VC:  F  ENSEMBLE:  F

     Using Slab Decomposition

     bravais-lattice index     =            0
     lattice parameter (alat)  =       1.8897  a.u.
     unit-cell volume          =    9988.4706 (a.u.)^3
     number of atoms/cell      =           61
     number of atomic types    =            4
     number of electrons       =       442.00
     number of Kohn-Sham states=          231
     kinetic-energy cutoff     =      29.3995  Ry
     charge density cutoff     =     293.9946  Ry
     scf convergence threshold =      7.3E-08
     mixing beta               =       0.0500
     number of iterations used =            8  plain     mixing
     Exchange-correlation= BEEF-VDW
                           (   1   4  43  14   2   0   0)

     celldm(1)=   1.889726  celldm(2)=   0.000000  celldm(3)=   0.000000
     celldm(4)=   0.000000  celldm(5)=   0.000000  celldm(6)=   0.000000

     crystal axes: (cart. coord. in units of alat)
               a(1) = (   6.579727   0.000000   0.000000 )
               a(2) = (  -0.001163   8.942395   0.000000 )
               a(3) = (   0.000000   0.000000  25.155947 )

     reciprocal axes: (cart. coord. in units 2 pi/alat)
               b(1) = (  0.151982  0.000020  0.000000 )
               b(2) = (  0.000000  0.111827  0.000000 )
               b(3) = (  0.000000  0.000000  0.039752 )

     PseudoPot. # 1 for O  read from file:
     /storage/coda1/p-amedford6/0/shared/rich_project_chbe-medford/medford-share/data/pseudos_module/espresso/nninc/pbe/van/O.UPF
     MD5 check sum: 78c19812648e8988a0fe644b0f25305e
     Pseudo is Ultrasoft, Zval =  6.0
     Generated by new atomic code, or converted to UPF format
     Using radial grid of  737 points,  4 beta functions with:
                l(1) =   0
                l(2) =   0
                l(3) =   1
                l(4) =   1
     Q(r) pseudized with  8 coefficients,  rinner =    0.800   0.800   0.800

     PseudoPot. # 2 for Ti read from file:
     /storage/coda1/p-amedford6/0/shared/rich_project_chbe-medford/medford-share/data/pseudos_module/espresso/nninc/pbe/van/Ti.UPF
     MD5 check sum: 8e4df49b7f0d34bbd5052bf3f5ea0213
     Pseudo is Ultrasoft, Zval = 12.0
     Generated by new atomic code, or converted to UPF format
     Using radial grid of  851 points,  6 beta functions with:
                l(1) =   0
                l(2) =   0
                l(3) =   1
                l(4) =   1
                l(5) =   2
                l(6) =   2
     Q(r) pseudized with  8 coefficients,  rinner =    1.000   1.000   1.000
                                                       1.000   1.000

     PseudoPot. # 3 for N  read from file:
     /storage/coda1/p-amedford6/0/shared/rich_project_chbe-medford/medford-share/data/pseudos_module/espresso/nninc/pbe/van/N.UPF
     MD5 check sum: 90d10febe142ad51ac9d5be1deb811c4
     Pseudo is Ultrasoft, Zval =  5.0
     Generated by new atomic code, or converted to UPF format
     Using radial grid of  729 points,  4 beta functions with:
                l(1) =   0
                l(2) =   0
                l(3) =   1
                l(4) =   1
     Q(r) pseudized with  8 coefficients,  rinner =    0.800   0.800   0.800

     PseudoPot. # 4 for H  read from file:
     /storage/coda1/p-amedford6/0/shared/rich_project_chbe-medford/medford-share/data/pseudos_module/espresso/nninc/pbe/van/H.UPF
     MD5 check sum: b5ee9d7bfd3a09ee7748110bda690ff7
     Pseudo is Ultrasoft, Zval =  1.0
     Generated by new atomic code, or converted to UPF format
     Using radial grid of  615 points,  1 beta functions with:
                l(1) =   0
     Q(r) pseudized with  8 coefficients,  rinner =    0.800

     atomic species   valence    mass     pseudopotential
        O1             6.00    15.99900     O ( 1.00)
        Ti1           12.00    47.86700     Ti( 1.00)
        N1             5.00    14.00700     N ( 1.00)
        H1             1.00     1.00800     H ( 1.00)

     No symmetry found

   Cartesian axes

     site n.     atom                  positions (alat units)
         1           O1  tau(   1) = (   0.0007354   0.0005023  10.5931620  )
         2           O1  tau(   2) = (   3.2893251   8.9324977  13.8850595  )
         3           O1  tau(   3) = (   0.0000810   0.0519898  17.3357851  )
         4           O1  tau(   4) = (   0.0006271   0.0005054   7.9858123  )
         5           O1  tau(   5) = (   3.2891750   8.9291278  11.1853435  )
         6           O1  tau(   6) = (   0.0004222   0.0485762  14.6167438  )
         7           O1  tau(   7) = (   1.9868534   1.4903216   9.2879459  )
         8           O1  tau(   8) = (   5.2393499   1.5905449  12.5682489  )
         9           O1  tau(   9) = (   1.9991366   1.5492019  16.1124644  )
        10           Ti1 tau(  10) = (   0.0007404   1.4906270   9.2895810  )
        11           Ti1 tau(  11) = (   3.2902999   1.3249318  12.4520864  )
        12           Ti1 tau(  12) = (   0.0005939   1.3452645  15.7597600  )
        13           O1  tau(  13) = (   4.5942328   1.4918067   9.2879030  )
        14           O1  tau(  14) = (   1.3411764   1.5910169  12.5684512  )
        15           O1  tau(  15) = (   4.5798538   1.5480364  16.1129854  )
        16           Ti1 tau(  16) = (   3.2902859   2.9801868   9.2893338  )
        17           Ti1 tau(  17) = (   0.0006295   2.8174385  12.4372122  )
        18           Ti1 tau(  18) = (   3.2897038   2.9127836  15.6935398  )
        19           O1  tau(  19) = (   0.0003479   2.9813005  10.5931620  )
        20           O1  tau(  20) = (   3.2904107   2.9319293  13.8952334  )
        21           O1  tau(  21) = (   0.0002396   2.9813036   7.9858123  )
        22           O1  tau(  22) = (   3.2903884   2.9732875  11.2024877  )
        23           O1  tau(  23) = (   6.5791771   2.9400465  14.7470945  )
        24           O1  tau(  24) = (   1.9864658   4.4711199   9.2879459  )
        25           O1  tau(  25) = (   5.2507180   4.5586503  12.6053682  )
        26           O1  tau(  26) = (   1.9989508   4.4013585  16.0758979  )
        27           Ti1 tau(  27) = (   0.0003529   4.4714252   9.2895810  )
        28           Ti1 tau(  28) = (   3.2908498   4.3294621  12.5515864  )
        29           Ti1 tau(  29) = (   0.0012874   4.5361023  15.7587160  )
        30           O1  tau(  30) = (   4.5938453   4.4726049   9.2879030  )
        31           O1  tau(  31) = (   1.3295807   4.5581274  12.6051842  )
        32           O1  tau(  32) = (   4.5807093   4.4011557  16.0767203  )
        33           Ti1 tau(  33) = (   3.2898983   5.9609850   9.2893338  )
        34           Ti1 tau(  34) = (   0.0011720   5.8030845  12.4395124  )
        35           Ti1 tau(  35) = (   3.2913837   5.8399099  16.1904745  )
        36           O1  tau(  36) = (  -0.0000397   5.9620987  10.5931620  )
        37           O1  tau(  37) = (   3.2897076   5.9457256  13.9643012  )
        38           O1  tau(  38) = (   0.0001823   5.8979554  17.1998916  )
        39           O1  tau(  39) = (  -0.0001480   5.9621018   7.9858123  )
        40           O1  tau(  40) = (   3.2897623   5.9362706  11.2341171  )
        41           O1  tau(  41) = (   0.0004469   5.9800359  14.6665197  )
        42           O1  tau(  42) = (   1.9860782   7.4519181   9.2879459  )
        43           O1  tau(  43) = (   5.2507221   7.5245448  12.5933772  )
        44           O1  tau(  44) = (   1.9799843   7.5745874  16.0532815  )
        45           Ti1 tau(  45) = (  -0.0000347   7.4522234   9.2895810  )
        46           Ti1 tau(  46) = (   3.2894177   7.1911746  12.6495270  )
        47           Ti1 tau(  47) = (   0.0007314   7.2822180  16.1322395  )
        48           O1  tau(  48) = (   4.5934577   7.4534031   9.2879030  )
        49           O1  tau(  49) = (   1.3275845   7.5244469  12.5935105  )
        50           O1  tau(  50) = (   4.5990354   7.5728923  16.0522427  )
        51           Ti1 tau(  51) = (   3.2895107   8.9417832   9.2893338  )
        52           Ti1 tau(  52) = (  -0.0007012   8.7603021  12.4499776  )
        53           Ti1 tau(  53) = (   3.2901857   8.8509785  15.6953962  )
        54           N1  tau(  54) = (   3.2899770   5.9827455  18.1265562  )
        55           H1  tau(  55) = (   3.2886311   5.2071789  18.7671882  )
        56           H1  tau(  56) = (   3.2869209   6.8541504  18.6418389  )
        57           H1  tau(  57) = (   6.5771076   8.8877891  18.2917622  )
        58           N1  tau(  58) = (   6.5788838   3.2021548  17.9140464  )
        59           H1  tau(  59) = (   6.5785461   2.2502248  18.2648563  )
        60           H1  tau(  60) = (   5.7591345   3.6762813  18.2792932  )
        61           H1  tau(  61) = (   0.8178175   3.6764091  18.2810048  )

     number of k points=    10  Fermi-Dirac smearing, width (Ry)=  0.0073
                       cart. coord. in units 2pi/alat
        k(    1) = (   0.0000000   0.0000000   0.0000000), wk =   0.1250000
        k(    2) = (   0.0000000   0.0279567   0.0000000), wk =   0.2500000
        k(    3) = (   0.0000000  -0.0559134   0.0000000), wk =   0.1250000
        k(    4) = (   0.0379955   0.0000049   0.0000000), wk =   0.2500000
        k(    5) = (   0.0379955   0.0279617   0.0000000), wk =   0.2500000
        k(    6) = (   0.0379955  -0.0559085   0.0000000), wk =   0.2500000
        k(    7) = (   0.0379955  -0.0279518   0.0000000), wk =   0.2500000
        k(    8) = (  -0.0759910  -0.0000099   0.0000000), wk =   0.1250000
        k(    9) = (  -0.0759910   0.0279468   0.0000000), wk =   0.2500000
        k(   10) = (  -0.0759910  -0.0559233   0.0000000), wk =   0.1250000

     Initial potential from superposition of free atoms

     starting charge  423.99908, renormalised to  442.00000

     negative rho (up, down):  3.662E-02 0.000E+00

     %%%%%%%%%%%%%%%%%%%%%%%%%%%%%%%%%%%%%%%%%%%%%%%%%%%%%%%%%%%%%%%%%%%%%%%%
     %                                                                      %
     % You are using vdW-DF, which was implemented by the Thonhauser group. %
     % Please cite the following two papers that made this development      %
     % possible and the two reviews that describe the various versions:     %
     %                                                                      %
     %   T. Thonhauser et al., PRL 115, 136402 (2015).                      %
     %   T. Thonhauser et al., PRB 76, 125112 (2007).                       %
     %   K. Berland et al., Rep. Prog. Phys. 78, 066501 (2015).             %
     %   D.C. Langreth et al., J. Phys.: Condens. Matter 21, 084203 (2009). %
     %                                                                      %
     %                                                                      %
     % If you are calculating the stress with vdW-DF, please also cite:     %
     %                                                                      %
     %   R. Sabatini et al., J. Phys.: Condens. Matter 24, 424209 (2012).   %
     %                                                                      %
     %%%%%%%%%%%%%%%%%%%%%%%%%%%%%%%%%%%%%%%%%%%%%%%%%%%%%%%%%%%%%%%%%%%%%%%%

     Adding external electric field

     Computed dipole along edir(3) :
        Dipole               -6.2835 Ry au,        -15.9712 Debye
        Dipole field         -0.0079 Ry au,

        Potential amp.        0.7328 Ry
        Total length         46.3494 bohr

     Starting wfcs are  334 atomic wfcs
  @ DRIVER MODE: Message from server: STATUS
  @ DRIVER MODE: Message from server: POSDATA
  @ DRIVER MODE: Reading and sharing cell
  @ DRIVER MODE: Reading and sharing positions
  @ DRIVER MODE: Received positions

     Self-consistent Calculation

     iteration #  1     ecut=    29.40 Ry     beta= 0.05
     Davidson diagonalization with overlap
     c_bands:  2 eigenvalues not converged
     c_bands:  3 eigenvalues not converged
     c_bands:  3 eigenvalues not converged
     c_bands:  4 eigenvalues not converged
     c_bands:  5 eigenvalues not converged
     c_bands:  4 eigenvalues not converged
     c_bands:  2 eigenvalues not converged
     c_bands:  2 eigenvalues not converged
     ethr =  1.00E-05,  avg # of iterations = 21.6

[...]

     total energy              =   -3276.16979941 Ry
     estimated scf accuracy    <     259.59387873 Ry

     iteration #  2     ecut=    29.40 Ry     beta= 0.05
     Davidson diagonalization with overlap
     ethr =  1.00E-02,  avg # of iterations = 15.6

[...]

     iteration # 73     ecut=    29.40 Ry     beta= 0.05
     Davidson diagonalization with overlap
     c_bands:  1 eigenvalues not converged
     ethr =  2.31E-11,  avg # of iterations = 17.2

[...]

     total energy              =   -3295.82444593 Ry
     estimated scf accuracy    <       0.00000018 Ry

     iteration # 75     ecut=    29.40 Ry     beta= 0.05
     Davidson diagonalization with overlap
     ethr =  2.31E-11,  avg # of iterations = 11.8

     negative rho (up, down):  3.546E-02 0.000E+00

     Adding external electric field

     Computed dipole along edir(3) :
        Dipole                1.9307 Ry au,          4.9074 Debye
        Dipole field          0.0024 Ry au,

        Potential amp.       -0.2252 Ry
        Total length         46.3494 bohr

     End of self-consistent calculation

          k = 0.0000 0.0000 0.0000 ( 26871 PWs)   bands (ev):

   -57.4693 -57.4341 -57.4214 -57.3822 -57.3728 -57.3652 -57.3539 -57.3429
   -57.3220 -57.2841 -57.2772 -57.2406 -57.2192 -57.2025 -57.1828 -56.5427
   -56.5184 -56.5124 -33.9404 -33.8533 -33.8532 -33.8304 -33.8104 -33.7929
   -33.7753 -33.7712 -33.7675 -33.7543 -33.7289 -33.7080 -33.7033 -33.6883
   -33.6865 -33.6821 -33.6610 -33.6524 -33.6308 -33.6253 -33.5940 -33.5791
   -33.5616 -33.5571 -33.5500 -33.5487 -33.5452 -33.5380 -33.5259 -33.5225
   -33.5158 -33.5017 -33.4933 -33.4919 -33.4851 -33.4838 -33.4752 -33.4728
   -33.4650 -33.4542 -33.4424 -33.4255 -33.4096 -33.4032 -33.3885 -32.8615
   -32.8533 -32.8522 -32.8355 -32.8301 -32.7707 -32.7095 -32.7022 -32.5706
   -19.3442 -18.2736 -17.9745 -17.7766 -17.7267 -17.6931 -17.5781 -17.5491
   -17.4964 -17.4430 -17.4065 -17.3632 -17.2886 -17.2482 -17.2472 -17.2224
   -17.1682 -17.1443 -17.1363 -17.1261 -17.1243 -17.0995 -17.0502 -17.0464
   -16.9897 -16.9483 -16.9166 -16.9063 -16.8978 -16.8655 -16.8577 -16.8045
   -16.6059 -15.0491 -15.0088 -14.9498 -14.9465  -7.8664  -7.6290  -7.3911
    -6.5024  -5.5821  -5.4308  -5.3991  -5.2354  -4.9643  -4.9122  -4.8691
    -4.8227  -4.7852  -4.7468  -4.7238  -4.6948  -4.6633  -4.6116  -4.5809
    -4.5643  -4.5309  -4.5111  -4.4800  -4.4498  -4.4449  -4.4151  -4.3264
    -4.3172  -4.2933  -4.2756  -4.2398  -4.2219  -4.2192  -4.1698  -4.1588
    -4.0700  -3.9804  -3.8973  -3.8449  -3.8180  -3.7950  -3.7478  -3.7103
    -3.6790  -3.6368  -3.6164  -3.5473  -3.5196  -3.5097  -3.4337  -3.3987
    -3.3033  -3.2649  -3.2537  -3.2329  -3.1905  -3.1787  -3.0951  -3.0837
    -2.9741  -2.9555  -2.8653  -2.7921  -2.7426  -2.7147  -2.6767  -2.6150
    -2.5955  -2.5498  -2.5220  -2.4617  -2.4471  -2.3216  -2.2538  -2.2502
    -2.2305  -2.1919  -2.1623  -2.1485  -2.1259  -2.1230  -2.0441  -2.0356
    -1.9859  -1.9107  -1.8850  -1.8483  -1.8355  -1.8002  -1.7580  -1.6932
    -1.6877  -1.6521  -1.5648  -1.5035  -1.5023  -1.3561  -1.3501  -1.3169
    -1.2684  -1.2146  -1.1841  -0.7818  -0.6058  -0.4384  -0.3102  -0.2495
    -0.2482   0.0267   0.0316   0.1641   1.6129   1.7640   1.8243   1.9584
     1.9767   2.0358   2.1174   2.1400   2.2068   2.2340   2.2437

[...]

          k = 0.0380-0.0280 0.0000 ( 26873 PWs)   bands (ev):

[...]

          k =-0.0760-0.0000 0.0000 ( 26902 PWs)   bands (ev):

[...]

          k =-0.0760-0.0559 0.0000 ( 26868 PWs)   bands (ev):

   -57.4676 -57.4388 -57.4184 -57.3797 -57.3686 -57.3671 -57.3623 -57.3395
   -57.3216 -57.2838 -57.2776 -57.2369 -57.2258 -57.1996 -57.1828 -56.5374
   -56.5294 -56.5067 -33.9852 -33.9360 -33.8642 -33.8198 -33.8043 -33.7917
   -33.7849 -33.7770 -33.7667 -33.7451 -33.7162 -33.6981 -33.6602 -33.6587
   -33.6385 -33.6252 -33.6104 -33.5968 -33.5958 -33.5912 -33.5868 -33.5772
   -33.5732 -33.5664 -33.5646 -33.5514 -33.5439 -33.5289 -33.5233 -33.5214
   -33.5167 -33.5161 -33.5123 -33.5093 -33.5072 -33.4953 -33.4894 -33.4856
   -33.4827 -33.4752 -33.4479 -33.4420 -33.4364 -33.4244 -33.4003 -32.9489
   -32.8540 -32.8459 -32.8242 -32.7535 -32.7449 -32.6844 -32.6714 -32.6637
   -19.3376 -17.9708 -17.8320 -17.8267 -17.6493 -17.6042 -17.6014 -17.5314
   -17.4856 -17.4403 -17.4355 -17.4043 -17.3555 -17.3313 -17.3019 -17.2759
   -17.2601 -17.2250 -17.1837 -17.1828 -17.1491 -17.1160 -17.0892 -17.0470
   -17.0406 -16.9863 -16.9225 -16.8847 -16.8602 -16.8580 -16.8216 -16.7960
   -16.6390 -15.0496 -15.0066 -15.0024 -14.8865  -7.8744  -7.6471  -7.3802
    -6.4937  -5.2165  -5.1789  -5.1335  -5.0403  -5.0028  -4.9708  -4.8350
    -4.7745  -4.7328  -4.6881  -4.6452  -4.6374  -4.6231  -4.5674  -4.5501
    -4.5346  -4.4882  -4.4476  -4.4274  -4.4045  -4.4031  -4.3995  -4.3963
    -4.2635  -4.2525  -4.2002  -4.1795  -4.1573  -4.1342  -4.1316  -4.0775
    -4.0356  -3.9919  -3.9822  -3.9570  -3.8916  -3.8375  -3.7571  -3.6586
    -3.6481  -3.5912  -3.5807  -3.4882  -3.4828  -3.3901  -3.3261  -3.2822
    -3.2514  -3.2283  -3.1519  -3.1467  -3.1377  -3.0874  -3.0536  -3.0252
    -2.9769  -2.9664  -2.9216  -2.8189  -2.7835  -2.7254  -2.6975  -2.6947
    -2.6375  -2.6337  -2.5962  -2.5945  -2.5879  -2.5431  -2.4883  -2.4544
    -2.4377  -2.4058  -2.3172  -2.2921  -2.2400  -2.2320  -2.1663  -2.1505
    -2.1378  -2.0741  -2.0225  -1.9913  -1.9829  -1.9094  -1.8058  -1.7474
    -1.7257  -1.7045  -1.5985  -1.5496  -1.4941  -1.4512  -1.2689  -1.2567
    -1.1843  -1.1446  -1.0917  -1.0430  -0.8560  -0.4574  -0.4078  -0.1879
    -0.1726  -0.1350   0.0313   0.0371   1.7057   1.7171   1.8147   1.8560
     1.9178   1.9286   1.9730   1.9901   1.9999   2.0459   2.0514

     the Fermi energy is     1.6444 ev

!    total energy              =   -3295.82445530 Ry
     estimated scf accuracy    <       0.00000006 Ry
     smearing contrib. (-TS)   =      -0.03670590 Ry
     internal energy E=F+TS    =   -3295.78774940 Ry

     The total energy is F=E-TS. E is the sum of the following terms:
     one-electron contribution =  -34290.44822744 Ry
     hartree contribution      =   17214.21295814 Ry
     xc contribution           =    -543.77910427 Ry
     ewald contribution        =   14324.22193449 Ry
     electric field correction =       0.00468968 Ry

     convergence has been achieved in  75 iterations

     Forces acting on atoms (cartesian axes, Ry/au):

     atom    1 type  1   force =     0.00001475    0.00239361    0.05210197
     atom    2 type  1   force =    -0.00004617   -0.00060941   -0.00559026
     atom    3 type  1   force =     0.00002989   -0.00286325   -0.00289030
     atom    4 type  1   force =     0.00005329   -0.00036889    0.10763800
     atom    5 type  1   force =    -0.00002196    0.00171020    0.00527585
     atom    6 type  1   force =     0.00000863   -0.00050501    0.00055803
     atom    7 type  1   force =     0.06436613    0.00075893   -0.03002438
     atom    8 type  1   force =     0.00530676   -0.02659081    0.00244865
     atom    9 type  1   force =     0.00842482   -0.01288360   -0.00074531
     atom   10 type  2   force =    -0.00006445   -0.00536591   -0.18730465
     atom   11 type  2   force =     0.00012859    0.02016718   -0.00481298
     atom   12 type  2   force =    -0.00010875    0.01847443   -0.00059046
     atom   13 type  1   force =    -0.06447195    0.00028290   -0.02998306
     atom   14 type  1   force =    -0.00512467   -0.02679857    0.00247857
     atom   15 type  1   force =    -0.00837076   -0.01278970   -0.00073023
     atom   16 type  2   force =     0.00010090   -0.00103963    0.07212192
     atom   17 type  2   force =    -0.00026866    0.03303365    0.00617615
     atom   18 type  2   force =     0.00002840    0.00452457   -0.00763716
     atom   19 type  1   force =     0.00001501    0.00395382    0.05307652
     atom   20 type  1   force =    -0.00003948   -0.00057125   -0.00168762
     atom   21 type  1   force =     0.00005346    0.00130127    0.10849123
     atom   22 type  1   force =    -0.00002567   -0.00120563    0.00627700
     atom   23 type  1   force =     0.00002993   -0.00517731    0.00191455
     atom   24 type  1   force =     0.06587412    0.00139942   -0.02848903
     atom   25 type  1   force =     0.00546891   -0.02924704    0.00263831
     atom   26 type  1   force =     0.00976668   -0.00194074   -0.00013612
     atom   27 type  2   force =    -0.00007300   -0.00074152   -0.19125861
     atom   28 type  2   force =     0.00014826    0.02481650   -0.00469443
     atom   29 type  2   force =    -0.00009728   -0.00421174    0.00931967
     atom   30 type  1   force =    -0.06598009    0.00096124   -0.02846321
     atom   31 type  1   force =    -0.00531920   -0.02936811    0.00267843
     atom   32 type  1   force =    -0.00968008   -0.00194362   -0.00013348
     atom   33 type  2   force =     0.00013464    0.00070287    0.08050655
     atom   34 type  2   force =    -0.00029330    0.03538820    0.00620614
     atom   35 type  2   force =     0.00005185    0.01575546    0.00187634
     atom   36 type  1   force =     0.00006648    0.00027829    0.05318961
     atom   37 type  1   force =    -0.00003381    0.00177888   -0.00894125
     atom   38 type  1   force =     0.00001045    0.00133545   -0.00010096
     atom   39 type  1   force =     0.00005642   -0.00116902    0.10823619
     atom   40 type  1   force =    -0.00003318   -0.00137910    0.00600344
     atom   41 type  1   force =     0.00001878    0.00391624    0.00141326
     atom   42 type  1   force =     0.06613837   -0.00348686   -0.02908240
     atom   43 type  1   force =     0.00366191   -0.02409801    0.00086057
     atom   44 type  1   force =     0.01421305   -0.01862045    0.00310656
     atom   45 type  2   force =    -0.00009179    0.00309482   -0.18718599
     atom   46 type  2   force =     0.00013680    0.01622690    0.00224586
     atom   47 type  2   force =    -0.00007760    0.01859231   -0.00294365
     atom   48 type  1   force =    -0.06623850   -0.00392404   -0.02903849
     atom   49 type  1   force =    -0.00341297   -0.02429146    0.00087634
     atom   50 type  1   force =    -0.01420529   -0.01856631    0.00311222
     atom   51 type  2   force =     0.00013036   -0.00294408    0.07343664
     atom   52 type  2   force =    -0.00027707    0.03103816    0.00786070
     atom   53 type  2   force =     0.00001045    0.02026489    0.00046582
     atom   54 type  3   force =     0.00002129    0.00726705   -0.01068783
     atom   55 type  4   force =    -0.00001446   -0.00791330    0.00828781
     atom   56 type  4   force =    -0.00003698   -0.00041248    0.00006749
     atom   57 type  4   force =    -0.00005639   -0.00019756   -0.00002182
     atom   58 type  3   force =    -0.00026481    0.00027697    0.00004419
     atom   59 type  4   force =     0.00000809    0.00024500    0.00048140
     atom   60 type  4   force =     0.00011968    0.00057719    0.00078264
     atom   61 type  4   force =     0.00013121    0.00070797    0.00091904

     Total force =     0.459741     Total SCF correction =     0.000729
  @ DRIVER MODE: Message from server: STATUS
  @ DRIVER MODE: Message from server: GETFORCE
  @ DRIVER MODE: Returning v,forces,stress,ensemble

     Writing output data file ./calc.save/
  @ DRIVER MODE: Message from server: EXIT
  @ DRIVE MODE: Exiting

     General routines

     Parallel routines

   This run was terminated on:  17: 9: 6  18Oct2021

   JOB DONE.