     Program PWSCF v.6.7GPU starts on 16Sep2021 at 13:15:24

     R & G space division:  proc/nbgrp/npool/nimage =      10
     Reading input from /storage/home/hcoda1/3/ntian30/research/carbon/CxH_vib/H2O_calc/ads_slab/CH2NNHHHH2O_a/out_0060/pw.inp
Warning: card &CELL ignored
Warning: card   CELL_DYNAMICS='IPI', ignored
Warning: card / ignored

     Current dimensions of program PWSCF are:
     Max number of different atomic species (ntypx) = 10
     Max number of k-points (npk) =  40000
     Max angular momentum in pseudopotentials (lmaxx) =  3
     Presently no symmetry can be used with electric field

     Message from routine cell_base_init:
     DEPRECATED: use true lattice parameter, not A to a.u. conversion factor

     IMPORTANT: XC functional enforced from input :
     Exchange-correlation= BEEF-VDW
                           (   1   4  43  14   2   0   0)
     Any further DFT definition will be discarded
     Please, verify this is what you really want

  @ DRIVER MODE: Connecting to
 qe_1139763_2852612.sched-torque.pace.gatech.edukoxzxi_9_scratch
  using UNIX socket
  @ DRIVER MODE: Message from server: STATUS
  @ DRIVER MODE: Message from server: INIT
  @ DRIVER MODE: Receiving replica           0          -1
  @ DRIVER MODE: Receiving encoded integer          25
  @ DRIVER MODE:  SCF:  T  FORCE:  T  STRESS:  F  VC:  F  ENSEMBLE:  F
  @ DRIVER MODE:  SCF:  T  FORCE:  T  STRESS:  F  VC:  F  ENSEMBLE:  F

     Using Slab Decomposition

     bravais-lattice index     =            0
     lattice parameter (alat)  =       1.8897  a.u.
     unit-cell volume          =    6658.9804 (a.u.)^3
     number of atoms/cell      =           58
     number of atomic types    =            5
     number of electrons       =       405.00
     number of Kohn-Sham states=          212
     kinetic-energy cutoff     =      29.3995  Ry
     charge density cutoff     =     293.9946  Ry
     scf convergence threshold =      7.3E-08
     mixing beta               =       0.0500
     number of iterations used =            8  plain     mixing
     Exchange-correlation= BEEF-VDW
                           (   1   4  43  14   2   0   0)

     celldm(1)=   1.889726  celldm(2)=   0.000000  celldm(3)=   0.000000
     celldm(4)=   0.000000  celldm(5)=   0.000000  celldm(6)=   0.000000

     crystal axes: (cart. coord. in units of alat)
               a(1) = (   6.579727   0.000000   0.000000 )
               a(2) = (  -0.000775   5.961596   0.000000 )
               a(3) = (   0.000000   0.000000  25.155947 )

     reciprocal axes: (cart. coord. in units 2 pi/alat)
               b(1) = (  0.151982  0.000020  0.000000 )
               b(2) = (  0.000000  0.167740  0.000000 )
               b(3) = (  0.000000  0.000000  0.039752 )

     PseudoPot. # 1 for Ti read from file:
     /storage/coda1/p-amedford6/0/shared/rich_project_chbe-medford/medford-share/data/pseudos_module/espresso/nninc/pbe/van/Ti.UPF
     MD5 check sum: 8e4df49b7f0d34bbd5052bf3f5ea0213
     Pseudo is Ultrasoft, Zval = 12.0
     Generated by new atomic code, or converted to UPF format
     Using radial grid of  851 points,  6 beta functions with:
                l(1) =   0
                l(2) =   0
                l(3) =   1
                l(4) =   1
                l(5) =   2
                l(6) =   2
     Q(r) pseudized with  8 coefficients,  rinner =    1.000   1.000   1.000
                                                       1.000   1.000

     PseudoPot. # 2 for O  read from file:
     /storage/coda1/p-amedford6/0/shared/rich_project_chbe-medford/medford-share/data/pseudos_module/espresso/nninc/pbe/van/O.UPF
     MD5 check sum: 78c19812648e8988a0fe644b0f25305e
     Pseudo is Ultrasoft, Zval =  6.0
     Generated by new atomic code, or converted to UPF format
     Using radial grid of  737 points,  4 beta functions with:
                l(1) =   0
                l(2) =   0
                l(3) =   1
                l(4) =   1
     Q(r) pseudized with  8 coefficients,  rinner =    0.800   0.800   0.800

     PseudoPot. # 3 for N  read from file:
     /storage/coda1/p-amedford6/0/shared/rich_project_chbe-medford/medford-share/data/pseudos_module/espresso/nninc/pbe/van/N.UPF
     MD5 check sum: 90d10febe142ad51ac9d5be1deb811c4
     Pseudo is Ultrasoft, Zval =  5.0
     Generated by new atomic code, or converted to UPF format
     Using radial grid of  729 points,  4 beta functions with:
                l(1) =   0
                l(2) =   0
                l(3) =   1
                l(4) =   1
     Q(r) pseudized with  8 coefficients,  rinner =    0.800   0.800   0.800

     PseudoPot. # 4 for C  read from file:
     /storage/coda1/p-amedford6/0/shared/rich_project_chbe-medford/medford-share/data/pseudos_module/espresso/nninc/pbe/van/C.UPF
     MD5 check sum: 1a69bf6b8db32088f5b2163dbdb77a27
     Pseudo is Ultrasoft, Zval =  4.0
     Generated by new atomic code, or converted to UPF format
     Using radial grid of  721 points,  4 beta functions with:
                l(1) =   0
                l(2) =   0
                l(3) =   1
                l(4) =   1
     Q(r) pseudized with  8 coefficients,  rinner =    0.800   0.800   0.800

     PseudoPot. # 5 for H  read from file:
     /storage/coda1/p-amedford6/0/shared/rich_project_chbe-medford/medford-share/data/pseudos_module/espresso/nninc/pbe/van/H.UPF
     MD5 check sum: b5ee9d7bfd3a09ee7748110bda690ff7
     Pseudo is Ultrasoft, Zval =  1.0
     Generated by new atomic code, or converted to UPF format
     Using radial grid of  615 points,  1 beta functions with:
                l(1) =   0
     Q(r) pseudized with  8 coefficients,  rinner =    0.800

     atomic species   valence    mass     pseudopotential
        Ti1           12.00    47.86700     Ti( 1.00)
        O1             6.00    15.99900     O ( 1.00)
        N1             5.00    14.00700     N ( 1.00)
        C1             4.00    12.01100     C ( 1.00)
        H1             1.00     1.00800     H ( 1.00)

     No symmetry found

   Cartesian axes

     site n.     atom                  positions (alat units)
         1           Ti1 tau(   1) = (   0.0004258   2.9801865   6.0000000  )
         2           Ti1 tau(   2) = (   3.2906075   1.4906267   6.0002472  )
         3           O1  tau(   3) = (   0.0006271   0.0005054   7.9858123  )
         4           O1  tau(   4) = (   3.2906025   0.0005020   7.3038282  )
         5           O1  tau(   5) = (   4.5942328   1.4918067   9.2879030  )
         6           O1  tau(   6) = (   1.9868534   1.4903216   9.2879459  )
         7           Ti1 tau(   7) = (   3.2907910   2.8959150   9.1758416  )
         8           Ti1 tau(   8) = (   0.0015273   1.4827037   9.2680791  )
         9           O1  tau(   9) = (   3.2987819   5.9401718  11.3551833  )
        10           O1  tau(  10) = (   0.0116148   5.9584955  10.6183126  )
        11           O1  tau(  11) = (   1.3094369   1.4889762  12.6418845  )
        12           O1  tau(  12) = (   5.3041503   1.4933078  12.6143371  )
        13           Ti1 tau(  13) = (   0.0302489   2.9730182  12.5448133  )
        14           Ti1 tau(  14) = (   3.3273137   1.4751619  12.4920661  )
        15           O1  tau(  15) = (   6.5331299   0.0759724  14.6728253  )
        16           O1  tau(  16) = (   3.3443954   0.0128112  13.9985917  )
        17           O1  tau(  17) = (   4.5384157   1.5150964  16.2525342  )
        18           O1  tau(  18) = (   2.0107438   1.5096167  16.1239609  )
        19           Ti1 tau(  19) = (   3.2468703   2.9375149  15.6823127  )
        20           Ti1 tau(  20) = (   6.5402329   1.3810098  16.1103674  )
        21           O1  tau(  21) = (   3.2904802   0.0005063   4.7018136  )
        22           O1  tau(  22) = (   0.0855018   5.8309792  17.2460454  )
        23           O1  tau(  23) = (   1.3043587   1.4918075   6.0039043  )
        24           O1  tau(  24) = (   5.2767064   1.4903225   6.0039473  )
        25           Ti1 tau(  25) = (   0.0000382   5.9609847   6.0000000  )
        26           Ti1 tau(  26) = (   3.2902200   4.4714249   6.0002472  )
        27           O1  tau(  27) = (   0.0002396   2.9813036   7.9858123  )
        28           O1  tau(  28) = (   3.2902150   2.9813002   7.3038282  )
        29           O1  tau(  29) = (   4.5938453   4.4726049   9.2879030  )
        30           O1  tau(  30) = (   1.9864658   4.4711199   9.2879459  )
        31           Ti1 tau(  31) = (   3.2891106   5.8743827   9.1763621  )
        32           Ti1 tau(  32) = (   0.0006254   4.4649316   9.2693709  )
        33           O1  tau(  33) = (   3.2978634   2.9839445  11.3486163  )
        34           O1  tau(  34) = (   0.0092240   2.9805883  10.6323155  )
        35           O1  tau(  35) = (   1.3057425   4.4725738  12.6940039  )
        36           O1  tau(  36) = (   5.3035974   4.4670288  12.6562451  )
        37           Ti1 tau(  37) = (   0.0240142   0.0094741  12.5095027  )
        38           Ti1 tau(  38) = (   3.3290383   4.4615466  12.5202027  )
        39           O1  tau(  39) = (   6.5484913   2.9337383  14.8377676  )
        40           O1  tau(  40) = (   3.3243726   2.9440003  13.9069550  )
        41           O1  tau(  41) = (   4.5478640   4.3999133  16.1372545  )
        42           O1  tau(  42) = (   2.0209518   4.4226222  15.9786897  )
        43           Ti1 tau(  43) = (   3.3220059   5.9437776  15.8132296  )
        44           Ti1 tau(  44) = (   0.0730556   4.5544523  15.7304118  )
        45           O1  tau(  45) = (   3.2900926   2.9813045   4.7018136  )
        46           O1  tau(  46) = (   1.3039711   4.4726057   6.0039043  )
        47           O1  tau(  47) = (   5.2763189   4.4711207   6.0039473  )
        48           N1  tau(  48) = (   0.0453545   2.8788619  17.9090770  )
        49           C1  tau(  49) = (   1.0089482   2.8008358  18.8431878  )
        50           H1  tau(  50) = (   1.0080222   3.4413729  19.7168629  )
        51           H1  tau(  51) = (   1.8954070   2.2543435  18.5800802  )
        52           N1  tau(  52) = (   5.5320326   3.6725468  18.4365114  )
        53           H1  tau(  53) = (   5.8975581   4.6271042  18.6377988  )
        54           H1  tau(  54) = (   4.8553295   3.8628436  17.6443034  )
        55           H1  tau(  55) = (   5.1025442   3.2364756  19.2632064  )
        56           O1  tau(  56) = (   2.8928424   5.6518753  18.2681889  )
        57           H1  tau(  57) = (   3.0708471   0.5134993  18.7560362  )
        58           H1  tau(  58) = (   1.9180978   5.6479514  18.1114729  )

     number of k points=    10  Fermi-Dirac smearing, width (Ry)=  0.0073
                       cart. coord. in units 2pi/alat
        k(    1) = (   0.0000000   0.0000000   0.0000000), wk =   0.1250000
        k(    2) = (   0.0000000   0.0419351   0.0000000), wk =   0.2500000
        k(    3) = (   0.0000000  -0.0838702   0.0000000), wk =   0.1250000
        k(    4) = (   0.0379955   0.0000049   0.0000000), wk =   0.2500000
        k(    5) = (   0.0379955   0.0419400   0.0000000), wk =   0.2500000
        k(    6) = (   0.0379955  -0.0838652   0.0000000), wk =   0.2500000
        k(    7) = (   0.0379955  -0.0419301   0.0000000), wk =   0.2500000
        k(    8) = (  -0.0759910  -0.0000099   0.0000000), wk =   0.1250000
        k(    9) = (  -0.0759910   0.0419252   0.0000000), wk =   0.2500000
        k(   10) = (  -0.0759910  -0.0838800   0.0000000), wk =   0.1250000

     Initial potential from superposition of free atoms

     starting charge  388.99913, renormalised to  405.00000

     negative rho (up, down):  1.579E-02 0.000E+00

     %%%%%%%%%%%%%%%%%%%%%%%%%%%%%%%%%%%%%%%%%%%%%%%%%%%%%%%%%%%%%%%%%%%%%%%%
     %                                                                      %
     % You are using vdW-DF, which was implemented by the Thonhauser group. %
     % Please cite the following two papers that made this development      %
     % possible and the two reviews that describe the various versions:     %
     %                                                                      %
     %   T. Thonhauser et al., PRL 115, 136402 (2015).                      %
     %   T. Thonhauser et al., PRB 76, 125112 (2007).                       %
     %   K. Berland et al., Rep. Prog. Phys. 78, 066501 (2015).             %
     %   D.C. Langreth et al., J. Phys.: Condens. Matter 21, 084203 (2009). %
     %                                                                      %
     %                                                                      %
     % If you are calculating the stress with vdW-DF, please also cite:     %
     %                                                                      %
     %   R. Sabatini et al., J. Phys.: Condens. Matter 24, 424209 (2012).   %
     %                                                                      %
     %%%%%%%%%%%%%%%%%%%%%%%%%%%%%%%%%%%%%%%%%%%%%%%%%%%%%%%%%%%%%%%%%%%%%%%%

     Adding external electric field

     Computed dipole along edir(3) :
        Dipole              -14.4824 Ry au,        -36.8105 Debye
        Dipole field         -0.0273 Ry au,

        Potential amp.        2.5335 Ry
        Total length         46.3494 bohr

     Starting wfcs are  307 atomic wfcs
  @ DRIVER MODE: Message from server: STATUS
  @ DRIVER MODE: Message from server: POSDATA
  @ DRIVER MODE: Reading and sharing cell
  @ DRIVER MODE: Reading and sharing positions
  @ DRIVER MODE: Received positions

     Self-consistent Calculation

     iteration #  1     ecut=    29.40 Ry     beta= 0.05
     Davidson diagonalization with overlap
     c_bands:  2 eigenvalues not converged
     c_bands:  5 eigenvalues not converged
     c_bands:  1 eigenvalues not converged
     c_bands:  3 eigenvalues not converged
     c_bands:  3 eigenvalues not converged
     c_bands:  4 eigenvalues not converged
     ethr =  1.00E-05,  avg # of iterations = 27.0

[...]

     total energy              =   -2173.26900267 Ry
     estimated scf accuracy    <    9121.52874838 Ry

     iteration #  2     ecut=    29.40 Ry     beta= 0.05
     Davidson diagonalization with overlap
     ethr =  1.00E-02,  avg # of iterations = 27.6

[...]

     iteration # 90     ecut=    29.40 Ry     beta= 0.05
     Davidson diagonalization with overlap
     c_bands:  2 eigenvalues not converged
     ethr =  6.42E-11,  avg # of iterations = 15.5

[...]

     total energy              =   -2976.32718640 Ry
     estimated scf accuracy    <       0.00000008 Ry

     iteration # 93     ecut=    29.40 Ry     beta= 0.05
     Davidson diagonalization with overlap
     ethr =  2.02E-11,  avg # of iterations = 10.0

     negative rho (up, down):  1.314E-02 0.000E+00

     Adding external electric field

     Computed dipole along edir(3) :
        Dipole                1.3392 Ry au,          3.4039 Debye
        Dipole field          0.0025 Ry au,

        Potential amp.       -0.2343 Ry
        Total length         46.3494 bohr

     End of self-consistent calculation

          k = 0.0000 0.0000 0.0000 ( 18029 PWs)   bands (ev):

   -55.1716 -55.1423 -55.1306 -55.1082 -55.0922 -55.0488 -55.0078 -54.9814
   -54.9705 -54.9551 -54.9459 -54.9377 -54.8720 -54.7248 -54.1542 -54.1201
   -31.7382 -31.6321 -31.5362 -31.5025 -31.4812 -31.4737 -31.4705 -31.4322
   -31.4091 -31.3874 -31.3814 -31.3790 -31.3671 -31.3459 -31.3195 -31.3165
   -31.3066 -31.2950 -31.2893 -31.2846 -31.2536 -31.2366 -31.2301 -31.2105
   -31.1992 -31.1815 -31.1797 -31.1790 -31.1698 -31.1673 -31.1507 -31.1416
   -31.1315 -31.1302 -31.1082 -31.1007 -31.0967 -31.0790 -31.0531 -31.0169
   -31.0016 -30.8706 -30.5626 -30.4706 -30.4484 -30.3792 -30.2925 -30.1814
   -19.0884 -18.7701 -16.0084 -15.7505 -15.6233 -15.4460 -15.3662 -15.2125
   -15.1425 -15.0599 -15.0322 -14.9683 -14.9292 -14.8991 -14.7864 -14.7790
   -14.7060 -14.7053 -14.6966 -14.6647 -14.6610 -14.6563 -14.6008 -14.5981
   -14.5586 -14.5475 -14.5352 -14.3933 -14.3182 -14.2612 -14.0897 -13.9748
   -12.6566 -12.5395  -9.0013  -7.6874  -6.9437  -6.5274  -5.7610  -3.8021
    -3.3463  -3.2123  -3.1753  -3.1150  -3.0717  -2.9844  -2.8943  -2.7726
    -2.5544  -2.4777  -2.4371  -2.3880  -2.3800  -2.3328  -2.2440  -2.1605
    -2.1276  -2.0922  -2.0427  -2.0275  -1.9865  -1.9602  -1.9407  -1.8996
    -1.8906  -1.7441  -1.6845  -1.6289  -1.5808  -1.5595  -1.5582  -1.5007
    -1.4867  -1.4659  -1.4630  -1.4523  -1.4213  -1.3853  -1.3786  -1.3254
    -1.2896  -1.1640  -1.0898  -0.9740  -0.9150  -0.8831  -0.8001  -0.7317
    -0.7154  -0.6432  -0.5787  -0.5594  -0.5021  -0.4641  -0.3739  -0.3397
    -0.2900  -0.2644  -0.1556  -0.1427  -0.1268  -0.0562   0.0328   0.0419
     0.0658   0.1117   0.1957   0.2309   0.2841   0.3107   0.4103   0.4415
     0.4836   0.5014   0.5271   0.6080   0.6794   0.7161   0.7769   0.7862
     0.8211   0.8260   0.8490   0.9435   0.9743   0.9788   1.0269   1.1939
     1.2515   1.4502   1.4524   1.7825   1.8182   1.8686   2.0549   2.4425
     2.4897   3.9275   3.9937   4.0426   4.0593   4.0776   4.1351   4.1702
     4.3980   4.4209   4.4351   4.4482

[...]

          k = 0.0380-0.0419 0.0000 ( 17876 PWs)   bands (ev):

[...]

          k =-0.0760-0.0000 0.0000 ( 17886 PWs)   bands (ev):

[...]

          k =-0.0760-0.0839 0.0000 ( 17948 PWs)   bands (ev):

   -55.1609 -55.1411 -55.1253 -55.1252 -55.0901 -55.0396 -55.0171 -54.9659
   -54.9601 -54.9571 -54.9555 -54.9538 -54.8702 -54.7265 -54.1371 -54.1370
   -31.5494 -31.5344 -31.4473 -31.4471 -31.4470 -31.4374 -31.4176 -31.4175
   -31.3831 -31.3777 -31.3681 -31.3663 -31.3362 -31.3080 -31.3006 -31.2984
   -31.2958 -31.2923 -31.2898 -31.2850 -31.2759 -31.2620 -31.2480 -31.2445
   -31.2444 -31.2425 -31.2399 -31.2139 -31.1991 -31.1910 -31.1801 -31.1756
   -31.1751 -31.1746 -31.1557 -31.1545 -31.1354 -31.1330 -31.0710 -31.0092
   -31.0055 -30.9446 -30.4611 -30.4611 -30.3752 -30.3751 -30.3359 -30.3359
   -19.0813 -18.7728 -15.5102 -15.3740 -15.3354 -15.2450 -15.1635 -15.1473
   -15.1393 -15.1052 -15.0527 -14.9927 -14.9483 -14.9131 -14.8729 -14.8714
   -14.8584 -14.7583 -14.7472 -14.7398 -14.7229 -14.6747 -14.6649 -14.6482
   -14.6229 -14.6212 -14.5961 -14.5154 -14.5144 -14.4159 -14.3097 -14.0359
   -12.6412 -12.6410  -8.9888  -7.7030  -6.9005  -6.5170  -5.7752  -3.8835
    -3.0033  -2.7681  -2.5735  -2.5447  -2.4264  -2.3745  -2.3287  -2.3075
    -2.2209  -2.1806  -2.1639  -2.1580  -2.1380  -2.0813  -2.0600  -2.0206
    -2.0009  -1.9868  -1.9780  -1.9538  -1.9492  -1.9170  -1.9009  -1.8826
    -1.8767  -1.8398  -1.8013  -1.7900  -1.7525  -1.7322  -1.7236  -1.6641
    -1.5663  -1.5337  -1.4900  -1.4244  -1.3612  -1.3575  -1.2855  -1.2674
    -1.2489  -1.2311  -1.1954  -1.1833  -1.0699  -1.0135  -0.9093  -0.8966
    -0.8907  -0.7857  -0.7514  -0.7102  -0.6796  -0.6426  -0.5868  -0.5082
    -0.5014  -0.4263  -0.3887  -0.3771  -0.3585  -0.2181  -0.1869  -0.1536
    -0.1297  -0.1250  -0.0707  -0.0281   0.0022   0.0396   0.0666   0.0994
     0.1155   0.1916   0.3287   0.3604   0.4026   0.5351   0.5626   0.6781
     0.7036   0.8236   0.8972   0.9419   0.9619   1.0398   1.1172   1.1386
     1.1442   1.2549   1.3057   1.3077   1.3251   2.2274   2.2289   2.3098
     2.3100   3.7814   4.0733   4.1985   4.2153   4.2559   4.3798   4.4450
     4.4804   4.5021   4.5049   4.5885

     the Fermi energy is     3.9764 ev

!    total energy              =   -2976.32719177 Ry
     estimated scf accuracy    <       0.00000004 Ry
     smearing contrib. (-TS)   =      -0.04069592 Ry
     internal energy E=F+TS    =   -2976.28649585 Ry

     The total energy is F=E-TS. E is the sum of the following terms:
     one-electron contribution =  -23820.15586339 Ry
     hartree contribution      =   12008.92835899 Ry
     xc contribution           =    -495.75356462 Ry
     ewald contribution        =    9330.69118861 Ry
     electric field correction =       0.00338456 Ry

     convergence has been achieved in  93 iterations

     Forces acting on atoms (cartesian axes, Ry/au):

     atom    1 type  1   force =     0.00015512   -0.00019862    0.09423283
     atom    2 type  1   force =    -0.00011889   -0.00035600   -0.17723089
     atom    3 type  2   force =     0.00008633    0.00003622   -0.02134885
     atom    4 type  2   force =     0.00001865   -0.00174372    0.05667500
     atom    5 type  2   force =    -0.01043887   -0.00127471    0.00673317
     atom    6 type  2   force =     0.01219655   -0.00071974    0.00624441
     atom    7 type  1   force =    -0.00028344    0.00287126   -0.01266612
     atom    8 type  1   force =    -0.00014878    0.00437707    0.00452311
     atom    9 type  2   force =    -0.00036331    0.00008753    0.00075960
     atom   10 type  2   force =    -0.00008252   -0.00089181   -0.00638839
     atom   11 type  2   force =    -0.00041769   -0.00032977    0.00005906
     atom   12 type  2   force =    -0.00032262   -0.00042418    0.00014660
     atom   13 type  1   force =    -0.00034158   -0.00017070   -0.00032663
     atom   14 type  1   force =     0.00003115   -0.00043168   -0.00034442
     atom   15 type  2   force =    -0.00019162   -0.00011770    0.00003297
     atom   16 type  2   force =    -0.00065706    0.00022833   -0.00033252
     atom   17 type  2   force =    -0.00007491    0.00008955    0.00009310
     atom   18 type  2   force =     0.00033473   -0.00004458    0.00021406
     atom   19 type  1   force =     0.00024527   -0.00109436    0.00008255
     atom   20 type  1   force =     0.00020618   -0.00024914    0.00070154
     atom   21 type  2   force =     0.00004681    0.00001786    0.10364143
     atom   22 type  2   force =    -0.00032422    0.00012516    0.00051714
     atom   23 type  2   force =    -0.07081886   -0.00010952   -0.02714503
     atom   24 type  2   force =     0.07071731    0.00032466   -0.02717741
     atom   25 type  1   force =    -0.00006269   -0.00022557    0.09365727
     atom   26 type  1   force =    -0.00013475   -0.00041987   -0.17736745
     atom   27 type  2   force =     0.00014995   -0.00039106   -0.02029996
     atom   28 type  2   force =     0.00005304   -0.00138096    0.05582730
     atom   29 type  2   force =    -0.01030310   -0.00029986    0.00538463
     atom   30 type  2   force =     0.01197564    0.00009842    0.00502284
     atom   31 type  1   force =    -0.00017312    0.00358644   -0.01531704
     atom   32 type  1   force =    -0.00019238   -0.00483670    0.00437784
     atom   33 type  2   force =    -0.00006816   -0.00016866    0.00031865
     atom   34 type  2   force =     0.00120616    0.00258830   -0.00429246
     atom   35 type  2   force =    -0.00070705   -0.00016320    0.00017881
     atom   36 type  2   force =    -0.00001444   -0.00002887    0.00045456
     atom   37 type  1   force =     0.00039137    0.00041593   -0.00031066
     atom   38 type  1   force =    -0.00000104    0.00052781   -0.00157757
     atom   39 type  2   force =     0.00027446   -0.00042482   -0.00021724
     atom   40 type  2   force =     0.00004767    0.00005019    0.00056938
     atom   41 type  2   force =    -0.00022293   -0.00026119   -0.00017633
     atom   42 type  2   force =     0.00049191   -0.00029176    0.00012807
     atom   43 type  1   force =    -0.00062909    0.00087912    0.00078026
     atom   44 type  1   force =    -0.00011572    0.00006392   -0.00005709
     atom   45 type  2   force =     0.00004035   -0.00002489    0.10364587
     atom   46 type  2   force =    -0.07085303   -0.00005951   -0.02714508
     atom   47 type  2   force =     0.07075165    0.00034200   -0.02717475
     atom   48 type  3   force =     0.00040689    0.00037133   -0.00017961
     atom   49 type  4   force =     0.00069692   -0.00055015    0.00048850
     atom   50 type  5   force =     0.00115876   -0.00012176   -0.00028483
     atom   51 type  5   force =    -0.00081073    0.00074649   -0.00049579
     atom   52 type  3   force =     0.00062926   -0.00011063    0.00012417
     atom   53 type  5   force =    -0.00134733   -0.00010907    0.00036938
     atom   54 type  5   force =     0.00025695   -0.00037850    0.00054886
     atom   55 type  5   force =    -0.00064249   -0.00005206    0.00025293
     atom   56 type  2   force =     0.00174436    0.00878501    0.00423391
     atom   57 type  5   force =    -0.00227735   -0.00878564   -0.00461769
     atom   58 type  5   force =    -0.00117366    0.00062839    0.00145400

     Total force =     0.365569     Total SCF correction =     0.000471
  @ DRIVER MODE: Message from server: STATUS
  @ DRIVER MODE: Message from server: GETFORCE
  @ DRIVER MODE: Returning v,forces,stress,ensemble

     Writing output data file ./calc.save/
  @ DRIVER MODE: Message from server: EXIT
  @ DRIVE MODE: Exiting

     General routines

     Parallel routines

   This run was terminated on:  13:41: 3  16Sep2021

   JOB DONE.