     Program PWSCF v.6.7GPU starts on 28Sep2021 at  0:12: 2

     R & G space division:  proc/nbgrp/npool/nimage =       8
     Reading input from /storage/home/hcoda1/3/ntian30/research/carbon/CxH_vib/H2O_calc/ads_slab/CHN2HO_c/out_0006/pw.inp
Warning: card &CELL ignored
Warning: card   CELL_DYNAMICS='IPI', ignored
Warning: card / ignored

     Current dimensions of program PWSCF are:
     Max number of different atomic species (ntypx) = 10
     Max number of k-points (npk) =  40000
     Max angular momentum in pseudopotentials (lmaxx) =  3
     Presently no symmetry can be used with electric field

     Message from routine cell_base_init:
     DEPRECATED: use true lattice parameter, not A to a.u. conversion factor

     IMPORTANT: XC functional enforced from input :
     Exchange-correlation= BEEF-VDW
                           (   1   4  43  14   2   0   0)
     Any further DFT definition will be discarded
     Please, verify this is what you really want

  @ DRIVER MODE: Connecting to
 qe_1139763_3003540.sched-torque.pace.gatech.edu6sw_7p86_scratch
  using UNIX socket
  @ DRIVER MODE: Message from server: STATUS
  @ DRIVER MODE: Message from server: INIT
  @ DRIVER MODE: Receiving replica           0          -1
  @ DRIVER MODE: Receiving encoded integer          25
  @ DRIVER MODE:  SCF:  T  FORCE:  T  STRESS:  F  VC:  F  ENSEMBLE:  F
  @ DRIVER MODE:  SCF:  T  FORCE:  T  STRESS:  F  VC:  F  ENSEMBLE:  F

     Using Slab Decomposition

     bravais-lattice index     =            0
     lattice parameter (alat)  =       1.8897  a.u.
     unit-cell volume          =    6658.9804 (a.u.)^3
     number of atoms/cell      =           53
     number of atomic types    =            5
     number of electrons       =       400.00
     number of Kohn-Sham states=          210
     kinetic-energy cutoff     =      29.3995  Ry
     charge density cutoff     =     293.9946  Ry
     scf convergence threshold =      7.3E-08
     mixing beta               =       0.0500
     number of iterations used =            8  plain     mixing
     Exchange-correlation= BEEF-VDW
                           (   1   4  43  14   2   0   0)

     celldm(1)=   1.889726  celldm(2)=   0.000000  celldm(3)=   0.000000
     celldm(4)=   0.000000  celldm(5)=   0.000000  celldm(6)=   0.000000

     crystal axes: (cart. coord. in units of alat)
               a(1) = (   6.579727   0.000000   0.000000 )
               a(2) = (  -0.000775   5.961596   0.000000 )
               a(3) = (   0.000000   0.000000  25.155947 )

     reciprocal axes: (cart. coord. in units 2 pi/alat)
               b(1) = (  0.151982  0.000020  0.000000 )
               b(2) = (  0.000000  0.167740  0.000000 )
               b(3) = (  0.000000  0.000000  0.039752 )

     PseudoPot. # 1 for Ti read from file:
     /storage/coda1/p-amedford6/0/shared/rich_project_chbe-medford/medford-share/data/pseudos_module/espresso/nninc/pbe/van/Ti.UPF
     MD5 check sum: 8e4df49b7f0d34bbd5052bf3f5ea0213
     Pseudo is Ultrasoft, Zval = 12.0
     Generated by new atomic code, or converted to UPF format
     Using radial grid of  851 points,  6 beta functions with:
                l(1) =   0
                l(2) =   0
                l(3) =   1
                l(4) =   1
                l(5) =   2
                l(6) =   2
     Q(r) pseudized with  8 coefficients,  rinner =    1.000   1.000   1.000
                                                       1.000   1.000

     PseudoPot. # 2 for O  read from file:
     /storage/coda1/p-amedford6/0/shared/rich_project_chbe-medford/medford-share/data/pseudos_module/espresso/nninc/pbe/van/O.UPF
     MD5 check sum: 78c19812648e8988a0fe644b0f25305e
     Pseudo is Ultrasoft, Zval =  6.0
     Generated by new atomic code, or converted to UPF format
     Using radial grid of  737 points,  4 beta functions with:
                l(1) =   0
                l(2) =   0
                l(3) =   1
                l(4) =   1
     Q(r) pseudized with  8 coefficients,  rinner =    0.800   0.800   0.800

     PseudoPot. # 3 for C  read from file:
     /storage/coda1/p-amedford6/0/shared/rich_project_chbe-medford/medford-share/data/pseudos_module/espresso/nninc/pbe/van/C.UPF
     MD5 check sum: 1a69bf6b8db32088f5b2163dbdb77a27
     Pseudo is Ultrasoft, Zval =  4.0
     Generated by new atomic code, or converted to UPF format
     Using radial grid of  721 points,  4 beta functions with:
                l(1) =   0
                l(2) =   0
                l(3) =   1
                l(4) =   1
     Q(r) pseudized with  8 coefficients,  rinner =    0.800   0.800   0.800

     PseudoPot. # 4 for H  read from file:
     /storage/coda1/p-amedford6/0/shared/rich_project_chbe-medford/medford-share/data/pseudos_module/espresso/nninc/pbe/van/H.UPF
     MD5 check sum: b5ee9d7bfd3a09ee7748110bda690ff7
     Pseudo is Ultrasoft, Zval =  1.0
     Generated by new atomic code, or converted to UPF format
     Using radial grid of  615 points,  1 beta functions with:
                l(1) =   0
     Q(r) pseudized with  8 coefficients,  rinner =    0.800

     PseudoPot. # 5 for N  read from file:
     /storage/coda1/p-amedford6/0/shared/rich_project_chbe-medford/medford-share/data/pseudos_module/espresso/nninc/pbe/van/N.UPF
     MD5 check sum: 90d10febe142ad51ac9d5be1deb811c4
     Pseudo is Ultrasoft, Zval =  5.0
     Generated by new atomic code, or converted to UPF format
     Using radial grid of  729 points,  4 beta functions with:
                l(1) =   0
                l(2) =   0
                l(3) =   1
                l(4) =   1
     Q(r) pseudized with  8 coefficients,  rinner =    0.800   0.800   0.800

     atomic species   valence    mass     pseudopotential
        Ti1           12.00    47.86700     Ti( 1.00)
        O1             6.00    15.99900     O ( 1.00)
        C1             4.00    12.01100     C ( 1.00)
        H1             1.00     1.00800     H ( 1.00)
        N1             5.00    14.00700     N ( 1.00)

     No symmetry found

   Cartesian axes

     site n.     atom                  positions (alat units)
         1           Ti1 tau(   1) = (   0.0004258   2.9801865   6.0000000  )
         2           Ti1 tau(   2) = (   3.2906075   1.4906267   6.0002472  )
         3           O1  tau(   3) = (   0.0006271   0.0005054   7.9858123  )
         4           O1  tau(   4) = (   3.2906025   0.0005020   7.3038282  )
         5           O1  tau(   5) = (   4.5942328   1.4918067   9.2879030  )
         6           O1  tau(   6) = (   1.9868534   1.4903216   9.2879459  )
         7           Ti1 tau(   7) = (   3.2907910   2.8959150   9.1758416  )
         8           Ti1 tau(   8) = (   0.0015273   1.4827037   9.2680791  )
         9           O1  tau(   9) = (   3.2766663   5.9464886  11.2681881  )
        10           O1  tau(  10) = (   0.0116148   5.9584955  10.6183126  )
        11           O1  tau(  11) = (   1.2752176   1.4923442  12.6271229  )
        12           O1  tau(  12) = (   5.2852060   1.4859299  12.6156521  )
        13           Ti1 tau(  13) = (   6.5717068   2.8472942  12.7124165  )
        14           Ti1 tau(  14) = (   3.2754330   1.3122793  12.6492615  )
        15           O1  tau(  15) = (   6.5604847   5.9612185  14.6398873  )
        16           O1  tau(  16) = (   3.2770837   0.0341078  13.8632434  )
        17           O1  tau(  17) = (   4.5026011   1.5263741  16.0779633  )
        18           O1  tau(  18) = (   1.9856211   1.5373541  16.0544900  )
        19           Ti1 tau(  19) = (   3.2645371   3.0024783  15.6402076  )
        20           Ti1 tau(  20) = (   0.0306923   1.4636683  15.8866077  )
        21           O1  tau(  21) = (   3.2904802   0.0005063   4.7018136  )
        22           O1  tau(  22) = (   6.5250562   0.0096470  17.1651689  )
        23           O1  tau(  23) = (   1.3043587   1.4918075   6.0039043  )
        24           O1  tau(  24) = (   5.2767064   1.4903225   6.0039473  )
        25           Ti1 tau(  25) = (   0.0000382   5.9609847   6.0000000  )
        26           Ti1 tau(  26) = (   3.2902200   4.4714249   6.0002472  )
        27           O1  tau(  27) = (   0.0002396   2.9813036   7.9858123  )
        28           O1  tau(  28) = (   3.2902150   2.9813002   7.3038282  )
        29           O1  tau(  29) = (   4.5938453   4.4726049   9.2879030  )
        30           O1  tau(  30) = (   1.9864658   4.4711199   9.2879459  )
        31           Ti1 tau(  31) = (   3.2891106   5.8743827   9.1763621  )
        32           Ti1 tau(  32) = (   0.0006254   4.4649316   9.2693709  )
        33           O1  tau(  33) = (   3.2790072   3.0290766  11.2406627  )
        34           O1  tau(  34) = (   0.0092240   2.9805883  10.6323155  )
        35           O1  tau(  35) = (   1.2722205   4.4691906  12.6310473  )
        36           O1  tau(  36) = (   5.2766839   4.4717175  12.6187613  )
        37           Ti1 tau(  37) = (   6.5522158   5.8291752  12.6058762  )
        38           Ti1 tau(  38) = (   3.2615408   4.4097241  12.4102932  )
        39           O1  tau(  39) = (   6.5509886   2.9451087  14.6802276  )
        40           O1  tau(  40) = (   3.2772003   2.9821494  13.8576607  )
        41           O1  tau(  41) = (   4.5331312   4.4179464  16.0511208  )
        42           O1  tau(  42) = (   2.0062445   4.4387243  16.0647957  )
        43           Ti1 tau(  43) = (   3.2965114   0.0079596  16.3395523  )
        44           Ti1 tau(  44) = (   6.5556523   4.6042306  16.0453395  )
        45           O1  tau(  45) = (   3.2900926   2.9813045   4.7018136  )
        46           O1  tau(  46) = (   1.3039711   4.4726057   6.0039043  )
        47           O1  tau(  47) = (   5.2763189   4.4711207   6.0039473  )
        48           C1  tau(  48) = (   0.0539703   2.9674629  17.6612085  )
        49           H1  tau(  49) = (   1.0088706   2.9548903  18.1741722  )
        50           N1  tau(  50) = (   5.6350074   2.8816608  18.4775489  )
        51           N1  tau(  51) = (   4.6939826   2.7887373  19.1166784  )
        52           O1  tau(  52) = (   3.2898008   5.9156070  18.1392511  )
        53           H1  tau(  53) = (   3.8410492   0.4763436  18.7420070  )

     number of k points=    10  Fermi-Dirac smearing, width (Ry)=  0.0073
                       cart. coord. in units 2pi/alat
        k(    1) = (   0.0000000   0.0000000   0.0000000), wk =   0.1250000
        k(    2) = (   0.0000000   0.0419351   0.0000000), wk =   0.2500000
        k(    3) = (   0.0000000  -0.0838702   0.0000000), wk =   0.1250000
        k(    4) = (   0.0379955   0.0000049   0.0000000), wk =   0.2500000
        k(    5) = (   0.0379955   0.0419400   0.0000000), wk =   0.2500000
        k(    6) = (   0.0379955  -0.0838652   0.0000000), wk =   0.2500000
        k(    7) = (   0.0379955  -0.0419301   0.0000000), wk =   0.2500000
        k(    8) = (  -0.0759910  -0.0000099   0.0000000), wk =   0.1250000
        k(    9) = (  -0.0759910   0.0419252   0.0000000), wk =   0.2500000
        k(   10) = (  -0.0759910  -0.0838800   0.0000000), wk =   0.1250000

     Initial potential from superposition of free atoms

     starting charge  383.99917, renormalised to  400.00000

     negative rho (up, down):  1.800E-02 0.000E+00

     %%%%%%%%%%%%%%%%%%%%%%%%%%%%%%%%%%%%%%%%%%%%%%%%%%%%%%%%%%%%%%%%%%%%%%%%
     %                                                                      %
     % You are using vdW-DF, which was implemented by the Thonhauser group. %
     % Please cite the following two papers that made this development      %
     % possible and the two reviews that describe the various versions:     %
     %                                                                      %
     %   T. Thonhauser et al., PRL 115, 136402 (2015).                      %
     %   T. Thonhauser et al., PRB 76, 125112 (2007).                       %
     %   K. Berland et al., Rep. Prog. Phys. 78, 066501 (2015).             %
     %   D.C. Langreth et al., J. Phys.: Condens. Matter 21, 084203 (2009). %
     %                                                                      %
     %                                                                      %
     % If you are calculating the stress with vdW-DF, please also cite:     %
     %                                                                      %
     %   R. Sabatini et al., J. Phys.: Condens. Matter 24, 424209 (2012).   %
     %                                                                      %
     %%%%%%%%%%%%%%%%%%%%%%%%%%%%%%%%%%%%%%%%%%%%%%%%%%%%%%%%%%%%%%%%%%%%%%%%

     Adding external electric field

     Computed dipole along edir(3) :
        Dipole              -10.2491 Ry au,        -26.0507 Debye
        Dipole field         -0.0193 Ry au,

        Potential amp.        1.7929 Ry
        Total length         46.3494 bohr

     Starting wfcs are  302 atomic wfcs
  @ DRIVER MODE: Message from server: STATUS
  @ DRIVER MODE: Message from server: POSDATA
  @ DRIVER MODE: Reading and sharing cell
  @ DRIVER MODE: Reading and sharing positions
  @ DRIVER MODE: Received positions

     Self-consistent Calculation

     iteration #  1     ecut=    29.40 Ry     beta= 0.05
     Davidson diagonalization with overlap
     c_bands:  2 eigenvalues not converged
     c_bands:  1 eigenvalues not converged
     c_bands:  2 eigenvalues not converged
     c_bands:  2 eigenvalues not converged
     c_bands:  3 eigenvalues not converged
     c_bands:  2 eigenvalues not converged
     c_bands:  1 eigenvalues not converged
     c_bands:  1 eigenvalues not converged
     ethr =  1.00E-05,  avg # of iterations = 19.5

[...]

     total energy              =   -2481.43037282 Ry
     estimated scf accuracy    <    5447.28290668 Ry

     iteration #  2     ecut=    29.40 Ry     beta= 0.05
     Davidson diagonalization with overlap
     ethr =  1.00E-02,  avg # of iterations = 24.5

[...]

     iteration # 48     ecut=    29.40 Ry     beta= 0.05
     Davidson diagonalization with overlap
     c_bands:  1 eigenvalues not converged
     ethr =  4.96E-07,  avg # of iterations =  8.7

[...]

     total energy              =   -2970.23695339 Ry
     estimated scf accuracy    <       0.00000012 Ry

     iteration # 78     ecut=    29.40 Ry     beta= 0.05
     Davidson diagonalization with overlap
     ethr =  2.44E-11,  avg # of iterations =  5.0

     negative rho (up, down):  1.779E-02 0.000E+00

     Adding external electric field

     Computed dipole along edir(3) :
        Dipole                0.0309 Ry au,          0.0786 Debye
        Dipole field          0.0001 Ry au,

        Potential amp.       -0.0054 Ry
        Total length         46.3494 bohr

     End of self-consistent calculation

          k = 0.0000 0.0000 0.0000 ( 18029 PWs)   bands (ev):

   -56.8984 -56.8648 -56.1356 -56.0998 -55.8777 -55.8163 -55.7119 -55.5655
   -55.5027 -55.5013 -55.4889 -55.4688 -55.4476 -55.4416 -55.2563 -55.2352
   -33.3241 -33.1779 -33.1498 -33.0707 -32.9799 -32.9504 -32.6186 -32.3569
   -32.3555 -32.3264 -32.2770 -32.2748 -32.2436 -32.1088 -32.0975 -32.0468
   -32.0444 -32.0443 -32.0203 -31.9793 -31.9754 -31.9345 -31.9334 -31.9122
   -31.8879 -31.8615 -31.8465 -31.8332 -31.8222 -31.7742 -31.7204 -31.7113
   -31.7050 -31.6985 -31.6892 -31.6844 -31.6606 -31.6581 -31.6394 -31.6318
   -31.6281 -31.5165 -31.5005 -31.4929 -31.4803 -31.4789 -31.4465 -31.4444
   -20.3827 -17.0454 -16.5598 -16.5169 -16.2436 -16.2209 -16.1432 -16.1314
   -16.1215 -15.8684 -15.8349 -15.8131 -15.7471 -15.6997 -15.5234 -15.4267
   -15.3677 -15.2732 -15.2056 -15.1847 -15.1824 -15.1486 -15.1324 -15.1280
   -15.0387 -15.0317 -14.9190 -14.8255 -14.7796 -14.5329 -14.4845 -14.0002
   -13.8918 -13.4711  -5.6182  -4.6079  -4.5495  -4.4037  -4.1845  -4.0461
    -3.8661  -3.6705  -3.6222  -3.4652  -3.4499  -3.3934  -3.3465  -3.3297
    -3.2371  -3.1339  -3.0616  -3.0591  -3.0367  -2.9700  -2.9442  -2.7897
    -2.7852  -2.7720  -2.6498  -2.5996  -2.5441  -2.4954  -2.4876  -2.4428
    -2.4162  -2.4065  -2.3588  -2.3074  -2.3009  -2.1712  -2.1223  -2.1045
    -2.0532  -1.9890  -1.9773  -1.9021  -1.8835  -1.8639  -1.6926  -1.6231
    -1.5823  -1.5290  -1.5005  -1.4783  -1.3357  -1.3040  -1.2092  -1.2050
    -1.1632  -1.1176  -1.0605  -1.0419  -0.9708  -0.8817  -0.8682  -0.8538
    -0.7771  -0.7013  -0.6258  -0.5784  -0.5130  -0.5032  -0.4869  -0.4527
    -0.4415  -0.3496  -0.3055  -0.2583  -0.1715  -0.1443  -0.0161   0.0011
     0.0586   0.1058   0.1288   0.1565   0.1708   0.1992   0.2710   0.3382
     0.3639   0.3901   0.5191   0.5249   0.5736   0.5940   0.7081   0.7265
     0.7364   0.7901   0.8514   0.9246   1.0551   1.0961   1.3576   1.9300
     2.3801   2.5394   2.8195   2.9035   3.2115   3.3617   3.3678   3.3771
     3.5497   3.6836

[...]

          k = 0.0380-0.0419 0.0000 ( 17876 PWs)   bands (ev):

[...]

          k =-0.0760-0.0000 0.0000 ( 17886 PWs)   bands (ev):

[...]

          k =-0.0760-0.0839 0.0000 ( 17948 PWs)   bands (ev):

   -56.8821 -56.8810 -56.1239 -56.1113 -55.8726 -55.8213 -55.7110 -55.5614
   -55.5019 -55.4928 -55.4863 -55.4851 -55.4463 -55.4401 -55.2577 -55.2364
   -33.1641 -33.1631 -33.1416 -33.1404 -33.0241 -33.0235 -32.4445 -32.4341
   -32.3180 -32.3051 -32.3044 -32.2963 -32.1797 -32.1392 -32.1025 -32.0932
   -32.0485 -32.0423 -32.0016 -31.9611 -31.9217 -31.8920 -31.8688 -31.8357
   -31.8348 -31.8329 -31.8272 -31.8190 -31.7876 -31.7814 -31.7655 -31.7280
   -31.7091 -31.7087 -31.7069 -31.6887 -31.6878 -31.6698 -31.6691 -31.6685
   -31.6471 -31.6298 -31.5867 -31.5450 -31.5006 -31.4950 -31.4754 -31.4482
   -20.3822 -16.5074 -16.4177 -16.4145 -16.3491 -16.3472 -16.1232 -16.1171
   -15.8993 -15.8669 -15.7629 -15.6707 -15.6007 -15.5480 -15.5462 -15.5015
   -15.4107 -15.3935 -15.3311 -15.2911 -15.2763 -15.2110 -15.1864 -15.1441
   -15.1370 -15.1034 -14.9623 -14.9040 -14.8771 -14.7405 -14.6252 -13.9962
   -13.9954 -13.4772  -5.6205  -4.5541  -4.3558  -4.1694  -3.5018  -3.4826
    -3.4702  -3.4637  -3.2365  -3.2209  -3.1962  -3.1098  -3.0870  -3.0558
    -2.9941  -2.9913  -2.8896  -2.8349  -2.8045  -2.7952  -2.7789  -2.7215
    -2.7192  -2.7017  -2.6594  -2.5643  -2.5550  -2.5237  -2.5027  -2.4498
    -2.3699  -2.3374  -2.3168  -2.2921  -2.2827  -2.2758  -2.2511  -2.2148
    -2.1521  -1.9663  -1.9312  -1.8893  -1.8480  -1.8042  -1.7941  -1.7272
    -1.7142  -1.6974  -1.6519  -1.5700  -1.5427  -1.5067  -1.5026  -1.4231
    -1.3719  -1.3509  -1.2934  -1.2358  -1.1240  -1.0628  -1.0275  -1.0194
    -1.0030  -0.9785  -0.9052  -0.8318  -0.7838  -0.7074  -0.6773  -0.6591
    -0.6248  -0.6000  -0.5369  -0.5236  -0.4320  -0.3744  -0.2756  -0.2090
    -0.1788  -0.1283  -0.0982  -0.0220   0.0478   0.1448   0.1648   0.2323
     0.2424   0.2937   0.3309   0.5125   0.6209   0.6449   0.6760   0.7984
     0.8144   0.8438   0.8976   0.9037   0.9044   0.9420   0.9840   1.8894
     2.9596   2.9623   3.0168   3.0235   3.3153   3.3235   3.4322   3.4364
     3.6512   3.6746

     the Fermi energy is     2.2127 ev

!    total energy              =   -2970.23696410 Ry
     estimated scf accuracy    <       0.00000005 Ry
     smearing contrib. (-TS)   =      -0.00504397 Ry
     internal energy E=F+TS    =   -2970.23192013 Ry

     The total energy is F=E-TS. E is the sum of the following terms:
     one-electron contribution =  -23888.89112612 Ry
     hartree contribution      =   12033.86118025 Ry
     xc contribution           =    -491.38345612 Ry
     ewald contribution        =    9376.18148005 Ry
     electric field correction =       0.00000180 Ry

     convergence has been achieved in  78 iterations

     Forces acting on atoms (cartesian axes, Ry/au):

     atom    1 type  1   force =     0.00016525   -0.00042098    0.12020763
     atom    2 type  1   force =    -0.00005595    0.00015868   -0.15707750
     atom    3 type  2   force =     0.00002019   -0.00007215   -0.05902513
     atom    4 type  2   force =     0.00000238    0.00007735    0.02069930
     atom    5 type  2   force =    -0.00370804   -0.00202180   -0.01098650
     atom    6 type  2   force =     0.00483359   -0.00123674   -0.01297845
     atom    7 type  1   force =    -0.00068614   -0.00618428    0.05318267
     atom    8 type  1   force =     0.00116029    0.01367942    0.08816214
     atom    9 type  2   force =    -0.00013156   -0.00125026    0.00091903
     atom   10 type  2   force =    -0.00301576    0.00051450   -0.05485572
     atom   11 type  2   force =    -0.00004524    0.00032521    0.00028964
     atom   12 type  2   force =    -0.00044401   -0.00022002   -0.00023358
     atom   13 type  1   force =    -0.00071140    0.00115934   -0.00127739
     atom   14 type  1   force =    -0.00005333   -0.00126507   -0.00023423
     atom   15 type  2   force =     0.00017898    0.00061695    0.00034036
     atom   16 type  2   force =     0.00059208   -0.00074511   -0.00059785
     atom   17 type  2   force =     0.00069413    0.00053684   -0.00031763
     atom   18 type  2   force =    -0.00020380    0.00053832   -0.00075729
     atom   19 type  1   force =     0.00026019    0.00003949    0.00066696
     atom   20 type  1   force =     0.00057503   -0.00056170    0.00073965
     atom   21 type  2   force =     0.00009847    0.00021422    0.09834428
     atom   22 type  2   force =     0.00025725    0.00002180    0.00061230
     atom   23 type  2   force =    -0.08112148    0.00005084   -0.03235188
     atom   24 type  2   force =     0.08110917    0.00049287   -0.03234689
     atom   25 type  1   force =     0.00015630   -0.00060073    0.12060213
     atom   26 type  1   force =     0.00006968   -0.00144130   -0.15754148
     atom   27 type  2   force =     0.00009870   -0.00078128   -0.05715927
     atom   28 type  2   force =     0.00003814    0.00182747    0.01638808
     atom   29 type  2   force =    -0.00204343    0.00508885   -0.01426307
     atom   30 type  2   force =     0.00292504    0.00551648   -0.01627675
     atom   31 type  1   force =    -0.00058904    0.00199444    0.03633540
     atom   32 type  1   force =     0.00117499   -0.01698660    0.08785698
     atom   33 type  2   force =    -0.00003449    0.00054793    0.00123642
     atom   34 type  2   force =    -0.00260500    0.00100250   -0.07041425
     atom   35 type  2   force =     0.00130348   -0.00050135    0.00046694
     atom   36 type  2   force =    -0.00019112   -0.00016655    0.00033075
     atom   37 type  1   force =    -0.00060952   -0.00042074   -0.00034703
     atom   38 type  1   force =     0.00106981   -0.00063215   -0.00035180
     atom   39 type  2   force =    -0.00064087   -0.00079311    0.00104229
     atom   40 type  2   force =    -0.00014698   -0.00007929   -0.00047653
     atom   41 type  2   force =     0.00113118    0.00022573   -0.00010247
     atom   42 type  2   force =    -0.00016453   -0.00008152   -0.00023556
     atom   43 type  1   force =     0.00004540    0.00053227    0.00084315
     atom   44 type  1   force =     0.00029420    0.00032802   -0.00005983
     atom   45 type  2   force =     0.00010170    0.00002464    0.09817726
     atom   46 type  2   force =    -0.08116184    0.00000619   -0.03233201
     atom   47 type  2   force =     0.08115364    0.00042348   -0.03234888
     atom   48 type  3   force =     0.00284078   -0.00035982   -0.01306897
     atom   49 type  4   force =     0.00386578    0.00009956    0.00432997
     atom   50 type  5   force =    -0.00365569   -0.00087692    0.00605765
     atom   51 type  5   force =    -0.00302147   -0.00084846    0.00055652
     atom   52 type  2   force =    -0.00094435    0.00075110   -0.00114688
     atom   53 type  4   force =    -0.00023077    0.00175343    0.00077733

     Total force =     0.406314     Total SCF correction =     0.000635
  @ DRIVER MODE: Message from server: STATUS
  @ DRIVER MODE: Message from server: GETFORCE
  @ DRIVER MODE: Returning v,forces,stress,ensemble

     Writing output data file ./calc.save/
  @ DRIVER MODE: Message from server: EXIT
  @ DRIVE MODE: Exiting

     General routines

     Parallel routines

   This run was terminated on:   0:36:50  28Sep2021

   JOB DONE.