     Program PWSCF v.6.7GPU starts on 23Sep2021 at 15:51:11

     R & G space division:  proc/nbgrp/npool/nimage =       8
     Reading input from /storage/home/hcoda1/3/ntian30/research/carbon/CxH_vib/H2O_calc/ads_slab/CH3OHHO_e/out_0045/pw.inp
Warning: card &CELL ignored
Warning: card   CELL_DYNAMICS='IPI', ignored
Warning: card / ignored

     Current dimensions of program PWSCF are:
     Max number of different atomic species (ntypx) = 10
     Max number of k-points (npk) =  40000
     Max angular momentum in pseudopotentials (lmaxx) =  3
     Presently no symmetry can be used with electric field

     Message from routine cell_base_init:
     DEPRECATED: use true lattice parameter, not A to a.u. conversion factor

     IMPORTANT: XC functional enforced from input :
     Exchange-correlation= BEEF-VDW
                           (   1   4  43  14   2   0   0)
     Any further DFT definition will be discarded
     Please, verify this is what you really want

  @ DRIVER MODE: Connecting to
 qe_1139763_2941008.sched-torque.pace.gatech.edu0n_gnhic_scratch
  using UNIX socket
  @ DRIVER MODE: Message from server: STATUS
  @ DRIVER MODE: Message from server: INIT
  @ DRIVER MODE: Receiving replica           0          -1
  @ DRIVER MODE: Receiving encoded integer          25
  @ DRIVER MODE:  SCF:  T  FORCE:  T  STRESS:  F  VC:  F  ENSEMBLE:  F
  @ DRIVER MODE:  SCF:  T  FORCE:  T  STRESS:  F  VC:  F  ENSEMBLE:  F

     Using Slab Decomposition

     bravais-lattice index     =            0
     lattice parameter (alat)  =       1.8897  a.u.
     unit-cell volume          =    6658.9804 (a.u.)^3
     number of atoms/cell      =           55
     number of atomic types    =            4
     number of electrons       =       399.00
     number of Kohn-Sham states=          209
     kinetic-energy cutoff     =      29.3995  Ry
     charge density cutoff     =     293.9946  Ry
     scf convergence threshold =      7.3E-08
     mixing beta               =       0.0500
     number of iterations used =            8  plain     mixing
     Exchange-correlation= BEEF-VDW
                           (   1   4  43  14   2   0   0)

     celldm(1)=   1.889726  celldm(2)=   0.000000  celldm(3)=   0.000000
     celldm(4)=   0.000000  celldm(5)=   0.000000  celldm(6)=   0.000000

     crystal axes: (cart. coord. in units of alat)
               a(1) = (   6.579727   0.000000   0.000000 )
               a(2) = (  -0.000775   5.961596   0.000000 )
               a(3) = (   0.000000   0.000000  25.155947 )

     reciprocal axes: (cart. coord. in units 2 pi/alat)
               b(1) = (  0.151982  0.000020  0.000000 )
               b(2) = (  0.000000  0.167740  0.000000 )
               b(3) = (  0.000000  0.000000  0.039752 )

     PseudoPot. # 1 for Ti read from file:
     /storage/coda1/p-amedford6/0/shared/rich_project_chbe-medford/medford-share/data/pseudos_module/espresso/nninc/pbe/van/Ti.UPF
     MD5 check sum: 8e4df49b7f0d34bbd5052bf3f5ea0213
     Pseudo is Ultrasoft, Zval = 12.0
     Generated by new atomic code, or converted to UPF format
     Using radial grid of  851 points,  6 beta functions with:
                l(1) =   0
                l(2) =   0
                l(3) =   1
                l(4) =   1
                l(5) =   2
                l(6) =   2
     Q(r) pseudized with  8 coefficients,  rinner =    1.000   1.000   1.000
                                                       1.000   1.000

     PseudoPot. # 2 for O  read from file:
     /storage/coda1/p-amedford6/0/shared/rich_project_chbe-medford/medford-share/data/pseudos_module/espresso/nninc/pbe/van/O.UPF
     MD5 check sum: 78c19812648e8988a0fe644b0f25305e
     Pseudo is Ultrasoft, Zval =  6.0
     Generated by new atomic code, or converted to UPF format
     Using radial grid of  737 points,  4 beta functions with:
                l(1) =   0
                l(2) =   0
                l(3) =   1
                l(4) =   1
     Q(r) pseudized with  8 coefficients,  rinner =    0.800   0.800   0.800

     PseudoPot. # 3 for C  read from file:
     /storage/coda1/p-amedford6/0/shared/rich_project_chbe-medford/medford-share/data/pseudos_module/espresso/nninc/pbe/van/C.UPF
     MD5 check sum: 1a69bf6b8db32088f5b2163dbdb77a27
     Pseudo is Ultrasoft, Zval =  4.0
     Generated by new atomic code, or converted to UPF format
     Using radial grid of  721 points,  4 beta functions with:
                l(1) =   0
                l(2) =   0
                l(3) =   1
                l(4) =   1
     Q(r) pseudized with  8 coefficients,  rinner =    0.800   0.800   0.800

     PseudoPot. # 4 for H  read from file:
     /storage/coda1/p-amedford6/0/shared/rich_project_chbe-medford/medford-share/data/pseudos_module/espresso/nninc/pbe/van/H.UPF
     MD5 check sum: b5ee9d7bfd3a09ee7748110bda690ff7
     Pseudo is Ultrasoft, Zval =  1.0
     Generated by new atomic code, or converted to UPF format
     Using radial grid of  615 points,  1 beta functions with:
                l(1) =   0
     Q(r) pseudized with  8 coefficients,  rinner =    0.800

     atomic species   valence    mass     pseudopotential
        Ti1           12.00    47.86700     Ti( 1.00)
        O1             6.00    15.99900     O ( 1.00)
        C1             4.00    12.01100     C ( 1.00)
        H1             1.00     1.00800     H ( 1.00)

     No symmetry found

   Cartesian axes

     site n.     atom                  positions (alat units)
         1           Ti1 tau(   1) = (   0.0004258   2.9801865   6.0000000  )
         2           Ti1 tau(   2) = (   3.2906075   1.4906267   6.0002472  )
         3           O1  tau(   3) = (   0.0006271   0.0005054   7.9858123  )
         4           O1  tau(   4) = (   3.2906025   0.0005020   7.3038282  )
         5           O1  tau(   5) = (   4.5942328   1.4918067   9.2879030  )
         6           O1  tau(   6) = (   1.9868534   1.4903216   9.2879459  )
         7           Ti1 tau(   7) = (   3.3364693   3.0244086   9.1899460  )
         8           Ti1 tau(   8) = (   0.0614121   1.5180315   9.2736979  )
         9           O1  tau(   9) = (   3.3192415   0.0109611  11.3574448  )
        10           O1  tau(  10) = (   0.0135824   0.0030625  10.5923660  )
        11           O1  tau(  11) = (   1.3113730   1.4888140  12.6397483  )
        12           O1  tau(  12) = (   5.3365169   1.4868518  12.6422516  )
        13           Ti1 tau(  13) = (   0.0249591   3.0356721  12.5595363  )
        14           Ti1 tau(  14) = (   3.3216347   1.5719315  12.4302660  )
        15           O1  tau(  15) = (   0.0475996   5.9320359  14.6592625  )
        16           O1  tau(  16) = (   3.3253441   5.8716044  14.0084122  )
        17           O1  tau(  17) = (   4.6294077   1.4993822  16.1384749  )
        18           O1  tau(  18) = (   2.0712093   1.5368213  16.0656395  )
        19           Ti1 tau(  19) = (   3.3420502   2.9337026  15.6791356  )
        20           Ti1 tau(  20) = (   0.0819182   1.3209985  15.9439250  )
        21           O1  tau(  21) = (   3.2904802   0.0005063   4.7018136  )
        22           O1  tau(  22) = (   0.1121901   0.0005398  17.1797988  )
        23           O1  tau(  23) = (   1.3043587   1.4918075   6.0039043  )
        24           O1  tau(  24) = (   5.2767064   1.4903225   6.0039473  )
        25           Ti1 tau(  25) = (   0.0000382   5.9609847   6.0000000  )
        26           Ti1 tau(  26) = (   3.2902200   4.4714249   6.0002472  )
        27           O1  tau(  27) = (   0.0002396   2.9813036   7.9858123  )
        28           O1  tau(  28) = (   3.2902150   2.9813002   7.3038282  )
        29           O1  tau(  29) = (   4.5938453   4.4726049   9.2879030  )
        30           O1  tau(  30) = (   1.9864658   4.4711199   9.2879459  )
        31           Ti1 tau(  31) = (   3.3365859   0.0383882   9.1683042  )
        32           Ti1 tau(  32) = (   0.0607984   4.4756772   9.2727477  )
        33           O1  tau(  33) = (   3.3154497   2.9528697  11.3100477  )
        34           O1  tau(  34) = (   0.0130381   2.9821538  10.6068333  )
        35           O1  tau(  35) = (   1.3079814   4.4632751  12.6339740  )
        36           O1  tau(  36) = (   5.3374838   4.4678533  12.6371107  )
        37           Ti1 tau(  37) = (   0.0367351   0.0553833  12.4739561  )
        38           Ti1 tau(  38) = (   3.3178111   4.6524667  12.7070490  )
        39           O1  tau(  39) = (   0.0226182   2.9861015  14.7894940  )
        40           O1  tau(  40) = (   3.3464301   2.9603322  13.9061577  )
        41           O1  tau(  41) = (   4.6320376   4.4053937  16.1659747  )
        42           O1  tau(  42) = (   2.0651706   4.3480327  16.1155179  )
        43           Ti1 tau(  43) = (   3.4032537   5.9185344  16.2710929  )
        44           Ti1 tau(  44) = (   0.0646745   4.5145260  15.8553686  )
        45           O1  tau(  45) = (   3.2900926   2.9813045   4.7018136  )
        46           O1  tau(  46) = (   1.3039711   4.4726057   6.0039043  )
        47           O1  tau(  47) = (   5.2763189   4.4711207   6.0039473  )
        48           C1  tau(  48) = (   5.9353497   3.0583042  18.8699169  )
        49           O1  tau(  49) = (   0.1856485   3.0014673  17.6677584  )
        50           H1  tau(  50) = (   4.9577780   2.6849493  18.5881267  )
        51           H1  tau(  51) = (   1.1185258   3.1466834  17.9024234  )
        52           H1  tau(  52) = (   6.3707541   2.4080388  19.6265123  )
        53           H1  tau(  53) = (   5.8722695   4.0904670  19.2075282  )
        54           O1  tau(  54) = (   3.1419305   5.9539177  18.1124628  )
        55           H1  tau(  55) = (   2.2021640   0.0420986  18.3490109  )

     number of k points=    10  Fermi-Dirac smearing, width (Ry)=  0.0073
                       cart. coord. in units 2pi/alat
        k(    1) = (   0.0000000   0.0000000   0.0000000), wk =   0.1250000
        k(    2) = (   0.0000000   0.0419351   0.0000000), wk =   0.2500000
        k(    3) = (   0.0000000  -0.0838702   0.0000000), wk =   0.1250000
        k(    4) = (   0.0379955   0.0000049   0.0000000), wk =   0.2500000
        k(    5) = (   0.0379955   0.0419400   0.0000000), wk =   0.2500000
        k(    6) = (   0.0379955  -0.0838652   0.0000000), wk =   0.2500000
        k(    7) = (   0.0379955  -0.0419301   0.0000000), wk =   0.2500000
        k(    8) = (  -0.0759910  -0.0000099   0.0000000), wk =   0.1250000
        k(    9) = (  -0.0759910   0.0419252   0.0000000), wk =   0.2500000
        k(   10) = (  -0.0759910  -0.0838800   0.0000000), wk =   0.1250000

     Initial potential from superposition of free atoms

     starting charge  382.99916, renormalised to  399.00000

     negative rho (up, down):  1.653E-02 0.000E+00

     %%%%%%%%%%%%%%%%%%%%%%%%%%%%%%%%%%%%%%%%%%%%%%%%%%%%%%%%%%%%%%%%%%%%%%%%
     %                                                                      %
     % You are using vdW-DF, which was implemented by the Thonhauser group. %
     % Please cite the following two papers that made this development      %
     % possible and the two reviews that describe the various versions:     %
     %                                                                      %
     %   T. Thonhauser et al., PRL 115, 136402 (2015).                      %
     %   T. Thonhauser et al., PRB 76, 125112 (2007).                       %
     %   K. Berland et al., Rep. Prog. Phys. 78, 066501 (2015).             %
     %   D.C. Langreth et al., J. Phys.: Condens. Matter 21, 084203 (2009). %
     %                                                                      %
     %                                                                      %
     % If you are calculating the stress with vdW-DF, please also cite:     %
     %                                                                      %
     %   R. Sabatini et al., J. Phys.: Condens. Matter 24, 424209 (2012).   %
     %                                                                      %
     %%%%%%%%%%%%%%%%%%%%%%%%%%%%%%%%%%%%%%%%%%%%%%%%%%%%%%%%%%%%%%%%%%%%%%%%

     Adding external electric field

     Computed dipole along edir(3) :
        Dipole              -10.2322 Ry au,        -26.0076 Debye
        Dipole field         -0.0193 Ry au,

        Potential amp.        1.7900 Ry
        Total length         46.3494 bohr

     Starting wfcs are  301 atomic wfcs
  @ DRIVER MODE: Message from server: STATUS
  @ DRIVER MODE: Message from server: POSDATA
  @ DRIVER MODE: Reading and sharing cell
  @ DRIVER MODE: Reading and sharing positions
  @ DRIVER MODE: Received positions

     Self-consistent Calculation

     iteration #  1     ecut=    29.40 Ry     beta= 0.05
     Davidson diagonalization with overlap
     c_bands:  3 eigenvalues not converged
     c_bands:  3 eigenvalues not converged
     c_bands:  4 eigenvalues not converged
     c_bands:  1 eigenvalues not converged
     c_bands:  5 eigenvalues not converged
     c_bands:  5 eigenvalues not converged
     c_bands:  4 eigenvalues not converged
     c_bands:  4 eigenvalues not converged
     c_bands:  4 eigenvalues not converged
     ethr =  1.00E-05,  avg # of iterations = 21.1

[...]

     total energy              =   -2463.85352806 Ry
     estimated scf accuracy    <    5598.08183012 Ry

     iteration #  2     ecut=    29.40 Ry     beta= 0.05
     Davidson diagonalization with overlap
     ethr =  1.00E-02,  avg # of iterations = 24.8

[...]

     iteration # 71     ecut=    29.40 Ry     beta= 0.05
     Davidson diagonalization with overlap
     ethr =  5.15E-11,  avg # of iterations =  4.1

[...]

     total energy              =   -2966.27816099 Ry
     estimated scf accuracy    <       0.00000020 Ry

     iteration # 72     ecut=    29.40 Ry     beta= 0.05
     Davidson diagonalization with overlap
     c_bands:  1 eigenvalues not converged
     ethr =  5.11E-11,  avg # of iterations =  8.0

     negative rho (up, down):  1.671E-02 0.000E+00

     Adding external electric field

     Computed dipole along edir(3) :
        Dipole                1.0454 Ry au,          2.6572 Debye
        Dipole field          0.0020 Ry au,

        Potential amp.       -0.1829 Ry
        Total length         46.3494 bohr

     End of self-consistent calculation

          k = 0.0000 0.0000 0.0000 ( 18029 PWs)   bands (ev):

   -55.7015 -55.6320 -55.5971 -55.5179 -55.4939 -55.4669 -55.4344 -55.4274
   -55.4230 -55.4102 -55.3980 -55.3707 -55.2850 -55.2126 -54.5901 -54.5561
   -32.1110 -32.0932 -32.0127 -32.0025 -31.9587 -31.9498 -31.9218 -31.9194
   -31.8922 -31.8756 -31.8666 -31.7940 -31.7913 -31.7855 -31.7584 -31.7404
   -31.7331 -31.7212 -31.7111 -31.6983 -31.6950 -31.6906 -31.6466 -31.6456
   -31.6440 -31.6365 -31.6318 -31.6246 -31.6129 -31.5967 -31.5916 -31.5816
   -31.5757 -31.5605 -31.5564 -31.5467 -31.5364 -31.5124 -31.4737 -31.4567
   -31.4245 -31.4171 -30.9963 -30.9104 -30.8878 -30.8133 -30.7269 -30.6153
   -20.0622 -16.5194 -16.2851 -16.1055 -15.9041 -15.8405 -15.7822 -15.5938
   -15.5185 -15.3777 -15.2326 -15.2204 -15.1660 -15.1657 -15.1568 -15.1338
   -15.1028 -15.0586 -15.0493 -15.0432 -15.0377 -14.9823 -14.9403 -14.9322
   -14.9255 -14.8846 -14.7564 -14.7161 -14.6599 -14.4890 -14.4459 -13.0900
   -12.9739 -10.9301  -6.7707  -4.9664  -4.7704  -4.0120  -3.6371  -3.5365
    -3.5186  -3.4560  -3.3999  -3.1875  -3.0676  -3.0157  -2.9032  -2.7766
    -2.7376  -2.6815  -2.6575  -2.5659  -2.5440  -2.5136  -2.4889  -2.4311
    -2.4018  -2.3935  -2.3812  -2.3093  -2.2998  -2.1694  -2.1655  -2.0924
    -2.0240  -2.0033  -1.9844  -1.9661  -1.9346  -1.9339  -1.8878  -1.8673
    -1.8457  -1.8131  -1.7421  -1.7211  -1.6607  -1.6205  -1.3861  -1.2254
    -1.2027  -1.1328  -1.1151  -1.0830  -1.0461  -1.0313  -1.0256  -0.9869
    -0.9706  -0.8621  -0.7661  -0.7531  -0.6937  -0.6541  -0.6528  -0.5190
    -0.4710  -0.3973  -0.3714  -0.3464  -0.3231  -0.2307  -0.1879  -0.1702
    -0.1072  -0.0770   0.0347   0.0745   0.0922   0.1308   0.1865   0.2545
     0.2849   0.3215   0.3293   0.3616   0.4107   0.4356   0.4682   0.4949
     0.5339   0.6387   0.6782   0.6935   0.8378   0.8392   0.9260   1.0537
     1.1017   1.3827   1.4348   1.4730   1.6278   2.0025   2.0486   3.4868
     3.6039   3.6145   3.6328   3.7032   3.7933   3.9490   3.9771   4.0484
     4.1432

[...]

          k = 0.0380-0.0419 0.0000 ( 17876 PWs)   bands (ev):

[...]

          k =-0.0760-0.0000 0.0000 ( 17886 PWs)   bands (ev):

[...]

          k =-0.0760-0.0839 0.0000 ( 17948 PWs)   bands (ev):

   -55.7007 -55.6186 -55.6104 -55.5110 -55.4891 -55.4736 -55.4280 -55.4276
   -55.4218 -55.4101 -55.4010 -55.3802 -55.2811 -55.2164 -54.5733 -54.5728
   -32.0126 -31.9531 -31.9451 -31.9304 -31.9224 -31.9186 -31.9146 -31.9005
   -31.8339 -31.8327 -31.7975 -31.7673 -31.7626 -31.7551 -31.7388 -31.7384
   -31.7332 -31.7302 -31.7276 -31.7176 -31.7152 -31.7127 -31.7007 -31.6989
   -31.6716 -31.6693 -31.6357 -31.6305 -31.6295 -31.6290 -31.6188 -31.6150
   -31.6084 -31.6064 -31.5995 -31.5985 -31.5965 -31.5600 -31.5403 -31.4780
   -31.4636 -31.4210 -30.9006 -30.9004 -30.8100 -30.8086 -30.7702 -30.7694
   -20.0585 -16.4949 -15.9005 -15.7566 -15.5941 -15.5758 -15.4981 -15.4025
   -15.3859 -15.3566 -15.3476 -15.3270 -15.3014 -15.2992 -15.2516 -15.1961
   -15.1544 -15.1314 -15.1271 -15.0810 -15.0716 -15.0680 -15.0123 -14.9996
   -14.9903 -14.9517 -14.8919 -14.8631 -14.7853 -14.7576 -14.6041 -13.0760
   -13.0756 -10.9322  -6.7718  -4.9476  -4.7631  -3.9748  -3.0504  -2.9773
    -2.9038  -2.8170  -2.7359  -2.6784  -2.6277  -2.6088  -2.5658  -2.5455
    -2.4751  -2.4412  -2.4338  -2.4122  -2.4099  -2.3833  -2.3677  -2.3551
    -2.3324  -2.3024  -2.2883  -2.2744  -2.2559  -2.2354  -2.2146  -2.1953
    -2.1823  -2.1718  -2.1519  -2.0448  -2.0206  -1.9842  -1.8307  -1.8190
    -1.7538  -1.7214  -1.6909  -1.6856  -1.6529  -1.6449  -1.6019  -1.4924
    -1.4641  -1.4174  -1.3603  -1.2690  -1.2640  -1.2170  -1.1644  -1.1251
    -1.0959  -1.0486  -1.0458  -1.0003  -0.8589  -0.8323  -0.7937  -0.6696
    -0.5974  -0.5821  -0.5681  -0.5511  -0.5249  -0.4777  -0.4724  -0.4160
    -0.3946  -0.3224  -0.3200  -0.2960  -0.2717  -0.1650  -0.0508   0.0415
     0.0756   0.1319   0.1715   0.2063   0.2872   0.3617   0.4451   0.5311
     0.5575   0.5682   0.6896   0.7167   0.7676   0.8208   0.8359   0.8962
     0.9290   0.9719   1.0002   1.7959   1.8092   1.8651   1.8699   3.6752
     3.9242   3.9760   3.9942   4.0069   4.0404   4.0604   4.1079   4.1249
     4.1515

     the Fermi energy is     3.5003 ev

!    total energy              =   -2966.27817923 Ry
     estimated scf accuracy    <       0.00000006 Ry
     smearing contrib. (-TS)   =      -0.02072892 Ry
     internal energy E=F+TS    =   -2966.25745031 Ry

     The total energy is F=E-TS. E is the sum of the following terms:
     one-electron contribution =  -24038.95108575 Ry
     hartree contribution      =   12111.98931321 Ry
     xc contribution           =    -490.94412084 Ry
     ewald contribution        =    9451.64638065 Ry
     electric field correction =       0.00206242 Ry

     convergence has been achieved in  72 iterations

     Forces acting on atoms (cartesian axes, Ry/au):

     atom    1 type  1   force =    -0.00039462    0.00005675    0.09454640
     atom    2 type  1   force =    -0.00032069    0.00498363   -0.17464547
     atom    3 type  2   force =     0.00082256   -0.00023610   -0.02593470
     atom    4 type  2   force =     0.00125442    0.00074894    0.05284486
     atom    5 type  2   force =    -0.01097093   -0.00285815    0.00049719
     atom    6 type  2   force =     0.01164012   -0.00410529    0.00187228
     atom    7 type  1   force =     0.00052503    0.00038904   -0.00014435
     atom    8 type  1   force =    -0.00045195    0.00020174    0.00078849
     atom    9 type  2   force =    -0.00044453    0.00028220   -0.00026407
     atom   10 type  2   force =     0.00031524   -0.00035389   -0.00045321
     atom   11 type  2   force =     0.00062531    0.00032082   -0.00022462
     atom   12 type  2   force =    -0.00039686   -0.00046121   -0.00037458
     atom   13 type  1   force =    -0.00129792   -0.00079622    0.00032028
     atom   14 type  1   force =     0.00028962    0.00009791    0.00055413
     atom   15 type  2   force =     0.00048702    0.00067854    0.00018307
     atom   16 type  2   force =    -0.00049227    0.00049263    0.00056410
     atom   17 type  2   force =    -0.00000296    0.00023068    0.00014021
     atom   18 type  2   force =    -0.00033337    0.00005978    0.00025609
     atom   19 type  1   force =    -0.00042426    0.00108356   -0.00022562
     atom   20 type  1   force =    -0.00004657   -0.00026228   -0.00068269
     atom   21 type  2   force =    -0.00001557    0.00005643    0.10309091
     atom   22 type  2   force =    -0.00036475   -0.00065080   -0.00047463
     atom   23 type  2   force =    -0.07205140    0.00004346   -0.02789067
     atom   24 type  2   force =     0.07190782    0.00053345   -0.02799794
     atom   25 type  1   force =    -0.00043849   -0.00000334    0.10113584
     atom   26 type  1   force =    -0.00006612   -0.00460357   -0.17490229
     atom   27 type  2   force =     0.00089688    0.00114535   -0.02442301
     atom   28 type  2   force =     0.00113644    0.00015021    0.05241604
     atom   29 type  2   force =    -0.01185722    0.00306615    0.00196618
     atom   30 type  2   force =     0.01326078    0.00116479    0.00309884
     atom   31 type  1   force =     0.00058882    0.00002809   -0.00053655
     atom   32 type  1   force =    -0.00036657    0.00070465    0.00048591
     atom   33 type  2   force =    -0.00020279    0.00093878    0.00016805
     atom   34 type  2   force =     0.00013785   -0.00012762   -0.00095582
     atom   35 type  2   force =     0.00035236    0.00007601    0.00054709
     atom   36 type  2   force =     0.00008239    0.00016576    0.00048153
     atom   37 type  1   force =    -0.00145442   -0.00060712    0.00029486
     atom   38 type  1   force =     0.00078291   -0.00026440   -0.00014309
     atom   39 type  2   force =     0.00045722   -0.00021572    0.00122855
     atom   40 type  2   force =    -0.00011098    0.00034683    0.00052269
     atom   41 type  2   force =    -0.00044613   -0.00007839   -0.00075431
     atom   42 type  2   force =     0.00000026   -0.00010398   -0.00044891
     atom   43 type  1   force =    -0.00002565   -0.00014175   -0.00060577
     atom   44 type  1   force =    -0.00035448   -0.00046463   -0.00120139
     atom   45 type  2   force =    -0.00001192    0.00012855    0.10265300
     atom   46 type  2   force =    -0.07201937   -0.00055991   -0.02787125
     atom   47 type  2   force =     0.07187278   -0.00006886   -0.02795595
     atom   48 type  3   force =     0.00009590   -0.00096012   -0.00127597
     atom   49 type  2   force =    -0.00075951   -0.00038982   -0.00088384
     atom   50 type  4   force =     0.00011719   -0.00011558   -0.00004333
     atom   51 type  4   force =    -0.00009282   -0.00019793   -0.00030525
     atom   52 type  4   force =    -0.00006179   -0.00000158   -0.00002184
     atom   53 type  4   force =    -0.00081705    0.00056040   -0.00005787
     atom   54 type  2   force =     0.00207595   -0.00012660    0.00041155
     atom   55 type  4   force =    -0.00263090    0.00001971    0.00063085

     Total force =     0.364400     Total SCF correction =     0.000535
  @ DRIVER MODE: Message from server: STATUS
  @ DRIVER MODE: Message from server: GETFORCE
  @ DRIVER MODE: Returning v,forces,stress,ensemble

     Writing output data file ./calc.save/
  @ DRIVER MODE: Message from server: EXIT
  @ DRIVE MODE: Exiting

     General routines

     Parallel routines

   This run was terminated on:  16:14:47  23Sep2021

   JOB DONE.