     Program PWSCF v.6.7GPU starts on 22Sep2021 at 11:45: 1

     R & G space division:  proc/nbgrp/npool/nimage =      10
     Reading input from /storage/home/hcoda1/3/ntian30/research/carbon/CxH_vib/CH_calc/ads_slab/CHNHNHH2O_b/out_0038/pw.inp
Warning: card &CELL ignored
Warning: card   CELL_DYNAMICS='IPI', ignored
Warning: card / ignored

     Current dimensions of program PWSCF are:
     Max number of different atomic species (ntypx) = 10
     Max number of k-points (npk) =  40000
     Max angular momentum in pseudopotentials (lmaxx) =  3
     Presently no symmetry can be used with electric field

     Message from routine cell_base_init:
     DEPRECATED: use true lattice parameter, not A to a.u. conversion factor

     IMPORTANT: XC functional enforced from input :
     Exchange-correlation= BEEF-VDW
                           (   1   4  43  14   2   0   0)
     Any further DFT definition will be discarded
     Please, verify this is what you really want

  @ DRIVER MODE: Connecting to
 qe_1139763_2927424.sched-torque.pace.gatech.edurq682y7z_scratch
  using UNIX socket
  @ DRIVER MODE: Message from server: STATUS
  @ DRIVER MODE: Message from server: INIT
  @ DRIVER MODE: Receiving replica           0          -1
  @ DRIVER MODE: Receiving encoded integer          25
  @ DRIVER MODE:  SCF:  T  FORCE:  T  STRESS:  F  VC:  F  ENSEMBLE:  F
  @ DRIVER MODE:  SCF:  T  FORCE:  T  STRESS:  F  VC:  F  ENSEMBLE:  F

     Using Slab Decomposition

     bravais-lattice index     =            0
     lattice parameter (alat)  =       1.8897  a.u.
     unit-cell volume          =    6658.9804 (a.u.)^3
     number of atoms/cell      =           56
     number of atomic types    =            5
     number of electrons       =       403.00
     number of Kohn-Sham states=          211
     kinetic-energy cutoff     =      29.3995  Ry
     charge density cutoff     =     293.9946  Ry
     scf convergence threshold =      7.3E-08
     mixing beta               =       0.0500
     number of iterations used =            8  plain     mixing
     Exchange-correlation= BEEF-VDW
                           (   1   4  43  14   2   0   0)

     celldm(1)=   1.889726  celldm(2)=   0.000000  celldm(3)=   0.000000
     celldm(4)=   0.000000  celldm(5)=   0.000000  celldm(6)=   0.000000

     crystal axes: (cart. coord. in units of alat)
               a(1) = (   6.579727   0.000000   0.000000 )
               a(2) = (  -0.000775   5.961596   0.000000 )
               a(3) = (   0.000000   0.000000  25.155947 )

     reciprocal axes: (cart. coord. in units 2 pi/alat)
               b(1) = (  0.151982  0.000020  0.000000 )
               b(2) = (  0.000000  0.167740  0.000000 )
               b(3) = (  0.000000  0.000000  0.039752 )

     PseudoPot. # 1 for Ti read from file:
     /storage/coda1/p-amedford6/0/shared/rich_project_chbe-medford/medford-share/data/pseudos_module/espresso/nninc/pbe/van/Ti.UPF
     MD5 check sum: 8e4df49b7f0d34bbd5052bf3f5ea0213
     Pseudo is Ultrasoft, Zval = 12.0
     Generated by new atomic code, or converted to UPF format
     Using radial grid of  851 points,  6 beta functions with:
                l(1) =   0
                l(2) =   0
                l(3) =   1
                l(4) =   1
                l(5) =   2
                l(6) =   2
     Q(r) pseudized with  8 coefficients,  rinner =    1.000   1.000   1.000
                                                       1.000   1.000

     PseudoPot. # 2 for O  read from file:
     /storage/coda1/p-amedford6/0/shared/rich_project_chbe-medford/medford-share/data/pseudos_module/espresso/nninc/pbe/van/O.UPF
     MD5 check sum: 78c19812648e8988a0fe644b0f25305e
     Pseudo is Ultrasoft, Zval =  6.0
     Generated by new atomic code, or converted to UPF format
     Using radial grid of  737 points,  4 beta functions with:
                l(1) =   0
                l(2) =   0
                l(3) =   1
                l(4) =   1
     Q(r) pseudized with  8 coefficients,  rinner =    0.800   0.800   0.800

     PseudoPot. # 3 for N  read from file:
     /storage/coda1/p-amedford6/0/shared/rich_project_chbe-medford/medford-share/data/pseudos_module/espresso/nninc/pbe/van/N.UPF
     MD5 check sum: 90d10febe142ad51ac9d5be1deb811c4
     Pseudo is Ultrasoft, Zval =  5.0
     Generated by new atomic code, or converted to UPF format
     Using radial grid of  729 points,  4 beta functions with:
                l(1) =   0
                l(2) =   0
                l(3) =   1
                l(4) =   1
     Q(r) pseudized with  8 coefficients,  rinner =    0.800   0.800   0.800

     PseudoPot. # 4 for C  read from file:
     /storage/coda1/p-amedford6/0/shared/rich_project_chbe-medford/medford-share/data/pseudos_module/espresso/nninc/pbe/van/C.UPF
     MD5 check sum: 1a69bf6b8db32088f5b2163dbdb77a27
     Pseudo is Ultrasoft, Zval =  4.0
     Generated by new atomic code, or converted to UPF format
     Using radial grid of  721 points,  4 beta functions with:
                l(1) =   0
                l(2) =   0
                l(3) =   1
                l(4) =   1
     Q(r) pseudized with  8 coefficients,  rinner =    0.800   0.800   0.800

     PseudoPot. # 5 for H  read from file:
     /storage/coda1/p-amedford6/0/shared/rich_project_chbe-medford/medford-share/data/pseudos_module/espresso/nninc/pbe/van/H.UPF
     MD5 check sum: b5ee9d7bfd3a09ee7748110bda690ff7
     Pseudo is Ultrasoft, Zval =  1.0
     Generated by new atomic code, or converted to UPF format
     Using radial grid of  615 points,  1 beta functions with:
                l(1) =   0
     Q(r) pseudized with  8 coefficients,  rinner =    0.800

     atomic species   valence    mass     pseudopotential
        Ti1           12.00    47.86700     Ti( 1.00)
        O1             6.00    15.99900     O ( 1.00)
        N1             5.00    14.00700     N ( 1.00)
        C1             4.00    12.01100     C ( 1.00)
        H1             1.00     1.00800     H ( 1.00)

     No symmetry found

   Cartesian axes

     site n.     atom                  positions (alat units)
         1           Ti1 tau(   1) = (   0.0004258   2.9801865   6.0000000  )
         2           Ti1 tau(   2) = (   3.2906075   1.4906267   6.0002472  )
         3           O1  tau(   3) = (   0.0006271   0.0005054   7.9858123  )
         4           O1  tau(   4) = (   3.2906025   0.0005020   7.3038282  )
         5           O1  tau(   5) = (   4.5942328   1.4918067   9.2879030  )
         6           O1  tau(   6) = (   1.9868534   1.4903216   9.2879459  )
         7           Ti1 tau(   7) = (   3.2907910   2.8959150   9.1758416  )
         8           Ti1 tau(   8) = (   0.0015273   1.4827037   9.2680791  )
         9           O1  tau(   9) = (   3.2780774   5.9605562  11.3537357  )
        10           O1  tau(  10) = (   0.0116148   5.9584955  10.6183126  )
        11           O1  tau(  11) = (   1.2922713   1.4781662  12.6511241  )
        12           O1  tau(  12) = (   5.2965393   1.5043564  12.6031353  )
        13           Ti1 tau(  13) = (   6.5273184   3.0207086  12.5807821  )
        14           Ti1 tau(  14) = (   3.2344070   1.4559942  12.5004267  )
        15           O1  tau(  15) = (   6.4759410   0.0295824  14.6525783  )
        16           O1  tau(  16) = (   3.3604338   0.0238249  13.9383540  )
        17           O1  tau(  17) = (   4.5324113   1.5808541  16.1066768  )
        18           O1  tau(  18) = (   1.9684897   1.4712893  15.8817925  )
        19           Ti1 tau(  19) = (   3.2566353   3.0739815  15.8599551  )
        20           Ti1 tau(  20) = (   6.5466614   1.5318677  15.7800735  )
        21           O1  tau(  21) = (   3.2904802   0.0005063   4.7018136  )
        22           O1  tau(  22) = (   6.5744325   0.0155309  17.2227980  )
        23           O1  tau(  23) = (   1.3043587   1.4918075   6.0039043  )
        24           O1  tau(  24) = (   5.2767064   1.4903225   6.0039473  )
        25           Ti1 tau(  25) = (   0.0000382   5.9609847   6.0000000  )
        26           Ti1 tau(  26) = (   3.2902200   4.4714249   6.0002472  )
        27           O1  tau(  27) = (   0.0002396   2.9813036   7.9858123  )
        28           O1  tau(  28) = (   3.2902150   2.9813002   7.3038282  )
        29           O1  tau(  29) = (   4.5938453   4.4726049   9.2879030  )
        30           O1  tau(  30) = (   1.9864658   4.4711199   9.2879459  )
        31           Ti1 tau(  31) = (   3.2891106   5.8743827   9.1763621  )
        32           Ti1 tau(  32) = (   0.0006254   4.4649316   9.2693709  )
        33           O1  tau(  33) = (   3.2727763   2.9788165  11.3438337  )
        34           O1  tau(  34) = (   0.0092240   2.9805883  10.6323155  )
        35           O1  tau(  35) = (   1.2865780   4.4896361  12.6556599  )
        36           O1  tau(  36) = (   5.2967437   4.4749066  12.6066920  )
        37           Ti1 tau(  37) = (   6.5467059   0.0356701  12.5108493  )
        38           Ti1 tau(  38) = (   3.2305653   4.4019604  12.5605372  )
        39           O1  tau(  39) = (   6.5199767   2.9846217  14.6905747  )
        40           O1  tau(  40) = (   3.2851694   3.0254550  13.9321539  )
        41           O1  tau(  41) = (   4.5310495   4.4602642  16.1636806  )
        42           O1  tau(  42) = (   1.9842988   4.5744318  15.9411167  )
        43           Ti1 tau(  43) = (   3.2691225   0.1036042  15.7405456  )
        44           Ti1 tau(  44) = (   6.5697781   4.6877429  16.0360384  )
        45           O1  tau(  45) = (   3.2900926   2.9813045   4.7018136  )
        46           O1  tau(  46) = (   1.3039711   4.4726057   6.0039043  )
        47           O1  tau(  47) = (   5.2763189   4.4711207   6.0039473  )
        48           N1  tau(  48) = (   1.2792381   2.8578196  18.3696018  )
        49           N1  tau(  49) = (   0.1888888   2.9646215  17.5057353  )
        50           C1  tau(  50) = (   2.5352320   2.9081513  18.0382144  )
        51           H1  tau(  51) = (   3.1442446   2.7411670  18.9317345  )
        52           H1  tau(  52) = (   1.0014291   2.6635404  19.3302151  )
        53           H1  tau(  53) = (   5.9397212   2.8571719  18.0851170  )
        54           O1  tau(  54) = (   3.2730597   0.0341043  18.2348460  )
        55           H1  tau(  55) = (   4.0455299   5.4198958  18.2485053  )
        56           H1  tau(  56) = (   2.4923979   5.4091459  18.3156537  )

     number of k points=    10  Fermi-Dirac smearing, width (Ry)=  0.0073
                       cart. coord. in units 2pi/alat
        k(    1) = (   0.0000000   0.0000000   0.0000000), wk =   0.1250000
        k(    2) = (   0.0000000   0.0419351   0.0000000), wk =   0.2500000
        k(    3) = (   0.0000000  -0.0838702   0.0000000), wk =   0.1250000
        k(    4) = (   0.0379955   0.0000049   0.0000000), wk =   0.2500000
        k(    5) = (   0.0379955   0.0419400   0.0000000), wk =   0.2500000
        k(    6) = (   0.0379955  -0.0838652   0.0000000), wk =   0.2500000
        k(    7) = (   0.0379955  -0.0419301   0.0000000), wk =   0.2500000
        k(    8) = (  -0.0759910  -0.0000099   0.0000000), wk =   0.1250000
        k(    9) = (  -0.0759910   0.0419252   0.0000000), wk =   0.2500000
        k(   10) = (  -0.0759910  -0.0838800   0.0000000), wk =   0.1250000

     Initial potential from superposition of free atoms

     starting charge  386.99914, renormalised to  403.00000

     negative rho (up, down):  1.738E-02 0.000E+00

     %%%%%%%%%%%%%%%%%%%%%%%%%%%%%%%%%%%%%%%%%%%%%%%%%%%%%%%%%%%%%%%%%%%%%%%%
     %                                                                      %
     % You are using vdW-DF, which was implemented by the Thonhauser group. %
     % Please cite the following two papers that made this development      %
     % possible and the two reviews that describe the various versions:     %
     %                                                                      %
     %   T. Thonhauser et al., PRL 115, 136402 (2015).                      %
     %   T. Thonhauser et al., PRB 76, 125112 (2007).                       %
     %   K. Berland et al., Rep. Prog. Phys. 78, 066501 (2015).             %
     %   D.C. Langreth et al., J. Phys.: Condens. Matter 21, 084203 (2009). %
     %                                                                      %
     %                                                                      %
     % If you are calculating the stress with vdW-DF, please also cite:     %
     %                                                                      %
     %   R. Sabatini et al., J. Phys.: Condens. Matter 24, 424209 (2012).   %
     %                                                                      %
     %%%%%%%%%%%%%%%%%%%%%%%%%%%%%%%%%%%%%%%%%%%%%%%%%%%%%%%%%%%%%%%%%%%%%%%%

     Adding external electric field

     Computed dipole along edir(3) :
        Dipole              -12.3463 Ry au,        -31.3811 Debye
        Dipole field         -0.0233 Ry au,

        Potential amp.        2.1598 Ry
        Total length         46.3494 bohr

     Starting wfcs are  305 atomic wfcs
  @ DRIVER MODE: Message from server: STATUS
  @ DRIVER MODE: Message from server: POSDATA
  @ DRIVER MODE: Reading and sharing cell
  @ DRIVER MODE: Reading and sharing positions
  @ DRIVER MODE: Received positions

     Self-consistent Calculation

     iteration #  1     ecut=    29.40 Ry     beta= 0.05
     Davidson diagonalization with overlap
     c_bands:  5 eigenvalues not converged
     c_bands:  3 eigenvalues not converged
     c_bands:  3 eigenvalues not converged
     c_bands:  1 eigenvalues not converged
     c_bands:  2 eigenvalues not converged
     c_bands:  2 eigenvalues not converged
     c_bands:  5 eigenvalues not converged
     c_bands:  2 eigenvalues not converged
     c_bands:  4 eigenvalues not converged
     ethr =  1.00E-05,  avg # of iterations = 29.3

[...]

     total energy              =   -2358.72732189 Ry
     estimated scf accuracy    <    6971.27615566 Ry

     iteration #  2     ecut=    29.40 Ry     beta= 0.05
     Davidson diagonalization with overlap
     ethr =  1.00E-02,  avg # of iterations = 27.4

[...]

     iteration # 75     ecut=    29.40 Ry     beta= 0.05
     Davidson diagonalization with overlap
     c_bands:  1 eigenvalues not converged
     ethr =  3.67E-11,  avg # of iterations = 16.0

[...]

     total energy              =   -2973.93988567 Ry
     estimated scf accuracy    <       0.00000008 Ry

     iteration # 78     ecut=    29.40 Ry     beta= 0.05
     Davidson diagonalization with overlap
     ethr =  2.04E-11,  avg # of iterations = 10.0

     negative rho (up, down):  1.725E-02 0.000E+00

     Adding external electric field

     Computed dipole along edir(3) :
        Dipole                1.3993 Ry au,          3.5567 Debye
        Dipole field          0.0026 Ry au,

        Potential amp.       -0.2448 Ry
        Total length         46.3494 bohr

     End of self-consistent calculation

          k = 0.0000 0.0000 0.0000 ( 18029 PWs)   bands (ev):

   -55.3198 -55.2857 -55.2104 -55.1861 -55.1674 -55.1558 -55.1406 -55.1186
   -55.1068 -55.1043 -55.0978 -55.0632 -54.9923 -54.8343 -54.3002 -54.2661
   -31.8040 -31.7314 -31.6570 -31.6503 -31.6404 -31.6116 -31.5874 -31.5649
   -31.5202 -31.5015 -31.4722 -31.4642 -31.4558 -31.4409 -31.4259 -31.4217
   -31.3984 -31.3804 -31.3771 -31.3651 -31.3353 -31.3333 -31.3291 -31.3260
   -31.3232 -31.3194 -31.3153 -31.2972 -31.2893 -31.2794 -31.2726 -31.2721
   -31.2620 -31.2606 -31.2522 -31.2485 -31.2404 -31.2149 -31.2103 -31.0906
   -31.0756 -31.0498 -30.7071 -30.6190 -30.5966 -30.5240 -30.4375 -30.3263
   -18.8795 -18.6543 -15.9781 -15.7943 -15.6132 -15.4742 -15.3922 -15.1606
   -15.1022 -15.0637 -14.9826 -14.9602 -14.8592 -14.8403 -14.8385 -14.8206
   -14.8177 -14.7626 -14.7475 -14.7430 -14.6945 -14.6877 -14.6624 -14.6469
   -14.5941 -14.5157 -14.5071 -14.4606 -14.4154 -14.3689 -14.0231 -13.4151
   -12.8009 -12.6844  -8.8052  -7.2721  -6.6179  -4.3229  -3.7906  -3.3612
    -3.2848  -3.2495  -3.2245  -3.0889  -2.9720  -2.8673  -2.7563  -2.6716
    -2.5850  -2.4805  -2.4240  -2.3786  -2.3177  -2.2579  -2.2316  -2.1461
    -2.1263  -2.1066  -2.0849  -2.0582  -2.0287  -1.9915  -1.8694  -1.8585
    -1.7765  -1.7203  -1.6812  -1.6636  -1.6398  -1.6340  -1.6015  -1.5812
    -1.5724  -1.5610  -1.5597  -1.5240  -1.3854  -1.3617  -1.3326  -1.3106
    -1.1638  -1.0262  -0.9370  -0.9347  -0.8254  -0.7606  -0.7574  -0.7190
    -0.7034  -0.6012  -0.5157  -0.4797  -0.4544  -0.3746  -0.3174  -0.2629
    -0.2112  -0.1758  -0.1092  -0.0855  -0.0687  -0.0518   0.0175   0.0797
     0.1408   0.2265   0.2700   0.2941   0.3849   0.3992   0.4221   0.4870
     0.5191   0.5640   0.5993   0.6285   0.6521   0.6825   0.7079   0.7509
     0.7889   0.9147   0.9328   0.9613   0.9826   1.1571   1.2065   1.3090
     1.3396   1.4402   1.4832   1.6626   1.7238   1.8031   1.9157   2.2939
     2.3397   3.7894   3.9007   3.9348   3.9599   3.9992   4.0504   4.2570
     4.3301   4.3713   4.4296

[...]

          k = 0.0380-0.0419 0.0000 ( 17876 PWs)   bands (ev):

[...]

          k =-0.0760-0.0000 0.0000 ( 17886 PWs)   bands (ev):

[...]

          k =-0.0760-0.0839 0.0000 ( 17948 PWs)   bands (ev):

   -55.3030 -55.3024 -55.2010 -55.1827 -55.1760 -55.1444 -55.1304 -55.1238
   -55.1230 -55.1079 -55.0845 -55.0766 -54.9906 -54.8359 -54.2831 -54.2831
   -31.6195 -31.6191 -31.5973 -31.5968 -31.5657 -31.5337 -31.5026 -31.4901
   -31.4831 -31.4677 -31.4492 -31.4439 -31.4400 -31.4306 -31.4256 -31.4239
   -31.4224 -31.4220 -31.4169 -31.4011 -31.3902 -31.3762 -31.3652 -31.3630
   -31.3581 -31.3536 -31.3445 -31.3318 -31.3261 -31.3246 -31.3094 -31.3002
   -31.2970 -31.2962 -31.2945 -31.2917 -31.2613 -31.2337 -31.2197 -31.1467
   -31.0929 -31.0785 -30.6093 -30.6093 -30.5199 -30.5198 -30.4808 -30.4807
   -18.8690 -18.6604 -15.3555 -15.3205 -15.2824 -15.2550 -15.2391 -15.1182
   -15.1045 -15.0688 -15.0276 -15.0139 -14.9834 -14.9550 -14.9064 -14.8973
   -14.8635 -14.8440 -14.8048 -14.7784 -14.7590 -14.7547 -14.7379 -14.7163
   -14.6728 -14.6510 -14.6384 -14.6341 -14.5823 -14.4880 -14.2084 -13.4377
   -12.7862 -12.7861  -8.8009  -7.1975  -6.6196  -4.5311  -3.5741  -2.8659
    -2.6702  -2.6311  -2.5788  -2.4885  -2.4413  -2.3193  -2.3131  -2.2902
    -2.2449  -2.2320  -2.1913  -2.1508  -2.1447  -2.1170  -2.1046  -2.0600
    -2.0488  -2.0452  -2.0313  -1.9975  -1.9922  -1.9716  -1.9476  -1.9443
    -1.9339  -1.9177  -1.8847  -1.8776  -1.8505  -1.8313  -1.6804  -1.6068
    -1.5633  -1.4858  -1.4627  -1.4459  -1.4269  -1.3921  -1.3719  -1.3461
    -1.3179  -1.1722  -1.0324  -0.9968  -0.9723  -0.8733  -0.8584  -0.8389
    -0.7919  -0.7504  -0.7149  -0.6572  -0.6476  -0.6013  -0.5803  -0.4605
    -0.4224  -0.3233  -0.2882  -0.2863  -0.2687  -0.2542  -0.2370  -0.2110
    -0.1618  -0.0902  -0.0748  -0.0262  -0.0024   0.0003   0.0133   0.1593
     0.2300   0.2502   0.3529   0.3830   0.5578   0.7218   0.7336   0.8016
     0.8644   0.9195   0.9534   0.9932   1.0034   1.0691   1.0939   1.1983
     1.2087   1.2576   1.2622   1.3411   1.3539   2.0875   2.0892   2.1597
     2.1598   4.1533   4.1688   4.1972   4.2603   4.3037   4.3153   4.3527
     4.3564   4.4594   4.4755

     the Fermi energy is     3.8075 ev

!    total energy              =   -2973.93989733 Ry
     estimated scf accuracy    <       0.00000003 Ry
     smearing contrib. (-TS)   =      -0.02072232 Ry
     internal energy E=F+TS    =   -2973.91917501 Ry

     The total energy is F=E-TS. E is the sum of the following terms:
     one-electron contribution =  -24338.94107654 Ry
     hartree contribution      =   12267.17895906 Ry
     xc contribution           =    -494.11786287 Ry
     ewald contribution        =    9591.95711014 Ry
     electric field correction =       0.00369519 Ry

     convergence has been achieved in  78 iterations

     Forces acting on atoms (cartesian axes, Ry/au):

     atom    1 type  1   force =     0.00002358   -0.00009776    0.09506673
     atom    2 type  1   force =     0.00018108   -0.00068295   -0.17564689
     atom    3 type  2   force =     0.00008916   -0.00004839   -0.02295074
     atom    4 type  2   force =     0.00002142   -0.00143330    0.05288461
     atom    5 type  2   force =    -0.01000088   -0.00031532    0.00380703
     atom    6 type  2   force =     0.01112358    0.00020133    0.00206190
     atom    7 type  1   force =    -0.00020869    0.00178175   -0.00589708
     atom    8 type  1   force =     0.00080771    0.01008648    0.01603937
     atom    9 type  2   force =    -0.00015842    0.00086594    0.00032750
     atom   10 type  2   force =    -0.00227161    0.00217638   -0.01800824
     atom   11 type  2   force =     0.00023506   -0.00003268    0.00008530
     atom   12 type  2   force =    -0.00034545   -0.00018305    0.00056658
     atom   13 type  1   force =    -0.00003026    0.00124998    0.00017727
     atom   14 type  1   force =    -0.00011537    0.00009262    0.00001083
     atom   15 type  2   force =     0.00012638    0.00022474    0.00000130
     atom   16 type  2   force =    -0.00037072    0.00044553   -0.00022713
     atom   17 type  2   force =    -0.00011589   -0.00010213   -0.00020206
     atom   18 type  2   force =    -0.00002682   -0.00006102    0.00055111
     atom   19 type  1   force =    -0.00032598    0.00032481   -0.00025587
     atom   20 type  1   force =    -0.00038455   -0.00012943    0.00013783
     atom   21 type  2   force =     0.00009227   -0.00008601    0.10318003
     atom   22 type  2   force =     0.00051591    0.00001946    0.00056398
     atom   23 type  2   force =    -0.07159732   -0.00016083   -0.02757651
     atom   24 type  2   force =     0.07155549    0.00025253   -0.02762442
     atom   25 type  1   force =     0.00023989   -0.00039035    0.09516704
     atom   26 type  1   force =    -0.00003917   -0.00020626   -0.17581115
     atom   27 type  2   force =     0.00012298   -0.00012368   -0.02198382
     atom   28 type  2   force =     0.00001459   -0.00139656    0.05321212
     atom   29 type  2   force =    -0.01034476   -0.00023101    0.00364920
     atom   30 type  2   force =     0.01138259    0.00042099    0.00191734
     atom   31 type  1   force =    -0.00030374    0.00266680   -0.00009553
     atom   32 type  1   force =     0.00067345   -0.01114760    0.01692057
     atom   33 type  2   force =     0.00037259   -0.00027461    0.00000459
     atom   34 type  2   force =    -0.00033642    0.00143908   -0.01893648
     atom   35 type  2   force =    -0.00001354   -0.00035283   -0.00015790
     atom   36 type  2   force =     0.00000659   -0.00024644    0.00044097
     atom   37 type  1   force =    -0.00005098   -0.00121913    0.00033564
     atom   38 type  1   force =    -0.00038861    0.00089406    0.00007972
     atom   39 type  2   force =     0.00012738    0.00006335    0.00009696
     atom   40 type  2   force =    -0.00050617   -0.00059821   -0.00001129
     atom   41 type  2   force =     0.00021955   -0.00031184    0.00009742
     atom   42 type  2   force =    -0.00018657   -0.00022702   -0.00006448
     atom   43 type  1   force =     0.00006375   -0.00019913    0.00041217
     atom   44 type  1   force =    -0.00009498   -0.00030575    0.00019980
     atom   45 type  2   force =     0.00010046   -0.00010213    0.10320316
     atom   46 type  2   force =    -0.07158392   -0.00017443   -0.02756960
     atom   47 type  2   force =     0.07158255    0.00023791   -0.02757994
     atom   48 type  3   force =     0.00002834   -0.00054778    0.00024247
     atom   49 type  3   force =     0.00013239    0.00009022   -0.00007122
     atom   50 type  4   force =     0.00041329   -0.00020355    0.00048845
     atom   51 type  5   force =    -0.00015486   -0.00051095   -0.00025111
     atom   52 type  5   force =    -0.00004310   -0.00102222   -0.00079971
     atom   53 type  5   force =     0.00016641   -0.00041556   -0.00060707
     atom   54 type  2   force =    -0.02520298    0.00168225    0.00097492
     atom   55 type  5   force =     0.01289968   -0.00972992    0.00020282
     atom   56 type  5   force =     0.01188364    0.00805364   -0.00077847

     Total force =     0.366691     Total SCF correction =     0.000332
  @ DRIVER MODE: Message from server: STATUS
  @ DRIVER MODE: Message from server: GETFORCE
  @ DRIVER MODE: Returning v,forces,stress,ensemble

     Writing output data file ./calc.save/
  @ DRIVER MODE: Message from server: EXIT
  @ DRIVE MODE: Exiting

     General routines

     Parallel routines

   This run was terminated on:  12: 7:23  22Sep2021

   JOB DONE.