     Program PWSCF v.6.7GPU starts on 23Aug2021 at 22:50:37

     R & G space division:  proc/nbgrp/npool/nimage =       6
     Reading input from /storage/home/hcoda1/3/ntian30/research/carbon/CH_vib/ads_slab/CHNNHH_a/out_0019/pw.inp
Warning: card &CELL ignored
Warning: card   CELL_DYNAMICS='IPI', ignored
Warning: card / ignored

     Current dimensions of program PWSCF are:
     Max number of different atomic species (ntypx) = 10
     Max number of k-points (npk) =  40000
     Max angular momentum in pseudopotentials (lmaxx) =  3
     Presently no symmetry can be used with electric field

     Message from routine cell_base_init:
     DEPRECATED: use true lattice parameter, not A to a.u. conversion factor

     IMPORTANT: XC functional enforced from input :
     Exchange-correlation= BEEF-VDW
                           (   1   4  43  14   2   0   0)
     Any further DFT definition will be discarded
     Please, verify this is what you really want

  @ DRIVER MODE: Connecting to
 qe_1139763_2632796.sched-torque.pace.gatech.edu2l4iqswk_scratch
  using UNIX socket
  @ DRIVER MODE: Message from server: STATUS
  @ DRIVER MODE: Message from server: INIT
  @ DRIVER MODE: Receiving replica           0          -1
  @ DRIVER MODE: Receiving encoded integer          25
  @ DRIVER MODE:  SCF:  T  FORCE:  T  STRESS:  F  VC:  F  ENSEMBLE:  F
  @ DRIVER MODE:  SCF:  T  FORCE:  T  STRESS:  F  VC:  F  ENSEMBLE:  F

     Using Slab Decomposition

     bravais-lattice index     =            0
     lattice parameter (alat)  =       1.8897  a.u.
     unit-cell volume          =    6658.9804 (a.u.)^3
     number of atoms/cell      =           53
     number of atomic types    =            5
     number of electrons       =       395.00
     number of Kohn-Sham states=          207
     kinetic-energy cutoff     =      29.3995  Ry
     charge density cutoff     =     293.9946  Ry
     scf convergence threshold =      7.3E-08
     mixing beta               =       0.0500
     number of iterations used =            8  plain     mixing
     Exchange-correlation= BEEF-VDW
                           (   1   4  43  14   2   0   0)

     celldm(1)=   1.889726  celldm(2)=   0.000000  celldm(3)=   0.000000
     celldm(4)=   0.000000  celldm(5)=   0.000000  celldm(6)=   0.000000

     crystal axes: (cart. coord. in units of alat)
               a(1) = (   6.579727   0.000000   0.000000 )
               a(2) = (  -0.000775   5.961596   0.000000 )
               a(3) = (   0.000000   0.000000  25.155947 )

     reciprocal axes: (cart. coord. in units 2 pi/alat)
               b(1) = (  0.151982  0.000020  0.000000 )
               b(2) = (  0.000000  0.167740  0.000000 )
               b(3) = (  0.000000  0.000000  0.039752 )

     PseudoPot. # 1 for Ti read from file:
     /storage/coda1/p-amedford6/0/shared/rich_project_chbe-medford/medford-share/data/pseudos_module/espresso/nninc/pbe/van/Ti.UPF
     MD5 check sum: 8e4df49b7f0d34bbd5052bf3f5ea0213
     Pseudo is Ultrasoft, Zval = 12.0
     Generated by new atomic code, or converted to UPF format
     Using radial grid of  851 points,  6 beta functions with:
                l(1) =   0
                l(2) =   0
                l(3) =   1
                l(4) =   1
                l(5) =   2
                l(6) =   2
     Q(r) pseudized with  8 coefficients,  rinner =    1.000   1.000   1.000
                                                       1.000   1.000

     PseudoPot. # 2 for O  read from file:
     /storage/coda1/p-amedford6/0/shared/rich_project_chbe-medford/medford-share/data/pseudos_module/espresso/nninc/pbe/van/O.UPF
     MD5 check sum: 78c19812648e8988a0fe644b0f25305e
     Pseudo is Ultrasoft, Zval =  6.0
     Generated by new atomic code, or converted to UPF format
     Using radial grid of  737 points,  4 beta functions with:
                l(1) =   0
                l(2) =   0
                l(3) =   1
                l(4) =   1
     Q(r) pseudized with  8 coefficients,  rinner =    0.800   0.800   0.800

     PseudoPot. # 3 for N  read from file:
     /storage/coda1/p-amedford6/0/shared/rich_project_chbe-medford/medford-share/data/pseudos_module/espresso/nninc/pbe/van/N.UPF
     MD5 check sum: 90d10febe142ad51ac9d5be1deb811c4
     Pseudo is Ultrasoft, Zval =  5.0
     Generated by new atomic code, or converted to UPF format
     Using radial grid of  729 points,  4 beta functions with:
                l(1) =   0
                l(2) =   0
                l(3) =   1
                l(4) =   1
     Q(r) pseudized with  8 coefficients,  rinner =    0.800   0.800   0.800

     PseudoPot. # 4 for C  read from file:
     /storage/coda1/p-amedford6/0/shared/rich_project_chbe-medford/medford-share/data/pseudos_module/espresso/nninc/pbe/van/C.UPF
     MD5 check sum: 1a69bf6b8db32088f5b2163dbdb77a27
     Pseudo is Ultrasoft, Zval =  4.0
     Generated by new atomic code, or converted to UPF format
     Using radial grid of  721 points,  4 beta functions with:
                l(1) =   0
                l(2) =   0
                l(3) =   1
                l(4) =   1
     Q(r) pseudized with  8 coefficients,  rinner =    0.800   0.800   0.800

     PseudoPot. # 5 for H  read from file:
     /storage/coda1/p-amedford6/0/shared/rich_project_chbe-medford/medford-share/data/pseudos_module/espresso/nninc/pbe/van/H.UPF
     MD5 check sum: b5ee9d7bfd3a09ee7748110bda690ff7
     Pseudo is Ultrasoft, Zval =  1.0
     Generated by new atomic code, or converted to UPF format
     Using radial grid of  615 points,  1 beta functions with:
                l(1) =   0
     Q(r) pseudized with  8 coefficients,  rinner =    0.800

     atomic species   valence    mass     pseudopotential
        Ti1           12.00    47.86700     Ti( 1.00)
        O1             6.00    15.99900     O ( 1.00)
        N1             5.00    14.00700     N ( 1.00)
        C1             4.00    12.01100     C ( 1.00)
        H1             1.00     1.00800     H ( 1.00)

     No symmetry found

   Cartesian axes

     site n.     atom                  positions (alat units)
         1           Ti1 tau(   1) = (   0.0004258   2.9801865   6.0000000  )
         2           Ti1 tau(   2) = (   3.2906075   1.4906267   6.0002472  )
         3           O1  tau(   3) = (   0.0006271   0.0005054   7.9858123  )
         4           O1  tau(   4) = (   3.2906025   0.0005020   7.3038282  )
         5           O1  tau(   5) = (   4.5942328   1.4918067   9.2879030  )
         6           O1  tau(   6) = (   1.9868534   1.4903216   9.2879459  )
         7           Ti1 tau(   7) = (   3.2907910   2.8959150   9.1758416  )
         8           Ti1 tau(   8) = (   0.0015273   1.4827037   9.2680791  )
         9           O1  tau(   9) = (   3.2912281   5.9459940  11.3193265  )
        10           O1  tau(  10) = (   0.0116148   5.9584955  10.6183126  )
        11           O1  tau(  11) = (   1.3103257   1.4650607  12.6442557  )
        12           O1  tau(  12) = (   5.3047449   1.4806448  12.6312737  )
        13           Ti1 tau(  13) = (   6.5337005   3.0128982  12.6900614  )
        14           Ti1 tau(  14) = (   3.2207025   1.4698770  12.4715817  )
        15           O1  tau(  15) = (   6.5518216   5.9146589  14.6704082  )
        16           O1  tau(  16) = (   3.3240203   5.9583723  13.8895330  )
        17           O1  tau(  17) = (   4.5456974   1.5225049  16.1264218  )
        18           O1  tau(  18) = (   2.0489736   1.4727210  15.9535721  )
        19           Ti1 tau(  19) = (   3.2591190   2.9927146  15.6788090  )
        20           Ti1 tau(  20) = (   0.0289511   1.3544711  15.7732889  )
        21           O1  tau(  21) = (   3.2904802   0.0005063   4.7018136  )
        22           O1  tau(  22) = (   0.0559926   0.0451390  17.2112278  )
        23           O1  tau(  23) = (   1.3043587   1.4918075   6.0039043  )
        24           O1  tau(  24) = (   5.2767064   1.4903225   6.0039473  )
        25           Ti1 tau(  25) = (   0.0000382   5.9609847   6.0000000  )
        26           Ti1 tau(  26) = (   3.2902200   4.4714249   6.0002472  )
        27           O1  tau(  27) = (   0.0002396   2.9813036   7.9858123  )
        28           O1  tau(  28) = (   3.2902150   2.9813002   7.3038282  )
        29           O1  tau(  29) = (   4.5938453   4.4726049   9.2879030  )
        30           O1  tau(  30) = (   1.9864658   4.4711199   9.2879459  )
        31           Ti1 tau(  31) = (   3.2891106   5.8743827   9.1763621  )
        32           Ti1 tau(  32) = (   0.0006254   4.4649316   9.2693709  )
        33           O1  tau(  33) = (   3.2889932   2.9698301  11.3211337  )
        34           O1  tau(  34) = (   0.0092240   2.9805883  10.6323155  )
        35           O1  tau(  35) = (   1.3069247   4.4567274  12.6410950  )
        36           O1  tau(  36) = (   5.3013738   4.4587240  12.6283471  )
        37           Ti1 tau(  37) = (   6.5339814   0.0202798  12.5235249  )
        38           Ti1 tau(  38) = (   3.2191325   4.4512509  12.4750946  )
        39           O1  tau(  39) = (   6.5688456   2.9522374  14.7547250  )
        40           O1  tau(  40) = (   3.3031296   2.9710333  13.8824388  )
        41           O1  tau(  41) = (   4.5425837   4.4734130  15.9989242  )
        42           O1  tau(  42) = (   2.0771424   4.4889556  16.0364895  )
        43           Ti1 tau(  43) = (   3.3121389   0.0026565  15.6888161  )
        44           Ti1 tau(  44) = (   6.5128106   4.4989306  16.3061806  )
        45           O1  tau(  45) = (   3.2900926   2.9813045   4.7018136  )
        46           O1  tau(  46) = (   1.3039711   4.4726057   6.0039043  )
        47           O1  tau(  47) = (   5.2763189   4.4711207   6.0039473  )
        48           N1  tau(  48) = (   0.4628824   2.9849886  17.7976856  )
        49           C1  tau(  49) = (   1.4182946   2.9518240  18.6700831  )
        50           H1  tau(  50) = (   2.3503500   2.6458988  18.1556329  )
        51           N1  tau(  51) = (   5.7793717   3.5482605  18.2279111  )
        52           H1  tau(  52) = (   5.8942619   4.0012392  19.1365464  )
        53           H1  tau(  53) = (   5.0734348   2.8266848  18.2415795  )

     number of k points=    10  Fermi-Dirac smearing, width (Ry)=  0.0073
                       cart. coord. in units 2pi/alat
        k(    1) = (   0.0000000   0.0000000   0.0000000), wk =   0.1250000
        k(    2) = (   0.0000000   0.0419351   0.0000000), wk =   0.2500000
        k(    3) = (   0.0000000  -0.0838702   0.0000000), wk =   0.1250000
        k(    4) = (   0.0379955   0.0000049   0.0000000), wk =   0.2500000
        k(    5) = (   0.0379955   0.0419400   0.0000000), wk =   0.2500000
        k(    6) = (   0.0379955  -0.0838652   0.0000000), wk =   0.2500000
        k(    7) = (   0.0379955  -0.0419301   0.0000000), wk =   0.2500000
        k(    8) = (  -0.0759910  -0.0000099   0.0000000), wk =   0.1250000
        k(    9) = (  -0.0759910   0.0419252   0.0000000), wk =   0.2500000
        k(   10) = (  -0.0759910  -0.0838800   0.0000000), wk =   0.1250000

     Initial potential from superposition of free atoms

     starting charge  378.99916, renormalised to  395.00000

     negative rho (up, down):  1.775E-02 0.000E+00

     %%%%%%%%%%%%%%%%%%%%%%%%%%%%%%%%%%%%%%%%%%%%%%%%%%%%%%%%%%%%%%%%%%%%%%%%
     %                                                                      %
     % You are using vdW-DF, which was implemented by the Thonhauser group. %
     % Please cite the following two papers that made this development      %
     % possible and the two reviews that describe the various versions:     %
     %                                                                      %
     %   T. Thonhauser et al., PRL 115, 136402 (2015).                      %
     %   T. Thonhauser et al., PRB 76, 125112 (2007).                       %
     %   K. Berland et al., Rep. Prog. Phys. 78, 066501 (2015).             %
     %   D.C. Langreth et al., J. Phys.: Condens. Matter 21, 084203 (2009). %
     %                                                                      %
     %                                                                      %
     % If you are calculating the stress with vdW-DF, please also cite:     %
     %                                                                      %
     %   R. Sabatini et al., J. Phys.: Condens. Matter 24, 424209 (2012).   %
     %                                                                      %
     %%%%%%%%%%%%%%%%%%%%%%%%%%%%%%%%%%%%%%%%%%%%%%%%%%%%%%%%%%%%%%%%%%%%%%%%

     Adding external electric field

     Computed dipole along edir(3) :
        Dipole               -8.0620 Ry au,        -20.4914 Debye
        Dipole field         -0.0152 Ry au,

        Potential amp.        1.4103 Ry
        Total length         46.3494 bohr

     Starting wfcs are  299 atomic wfcs
  @ DRIVER MODE: Message from server: STATUS
  @ DRIVER MODE: Message from server: POSDATA
  @ DRIVER MODE: Reading and sharing cell
  @ DRIVER MODE: Reading and sharing positions
  @ DRIVER MODE: Received positions

     Self-consistent Calculation

     iteration #  1     ecut=    29.40 Ry     beta= 0.05
     Davidson diagonalization with overlap
     c_bands:  1 eigenvalues not converged
     c_bands:  1 eigenvalues not converged
     c_bands:  2 eigenvalues not converged
     c_bands:  3 eigenvalues not converged
     c_bands:  3 eigenvalues not converged
     c_bands:  2 eigenvalues not converged
     c_bands:  1 eigenvalues not converged
     ethr =  1.00E-05,  avg # of iterations = 19.3

[...]

     total energy              =   -2614.88172950 Ry
     estimated scf accuracy    <    3583.77213481 Ry

[...]

     iteration #  3     ecut=    29.40 Ry     beta= 0.05
     Davidson diagonalization with overlap
     ethr =  1.00E-02,  avg # of iterations = 14.6

[...]

     iteration # 59     ecut=    29.40 Ry     beta= 0.05
     Davidson diagonalization with overlap
     c_bands:  1 eigenvalues not converged
     ethr =  4.31E-10,  avg # of iterations =  7.9

[...]

     total energy              =   -2939.00590872 Ry
     estimated scf accuracy    <       0.00000008 Ry

     iteration # 66     ecut=    29.40 Ry     beta= 0.05
     Davidson diagonalization with overlap
     ethr =  2.05E-11,  avg # of iterations =  8.3

     negative rho (up, down):  1.647E-02 0.000E+00

     Adding external electric field

     Computed dipole along edir(3) :
        Dipole                0.3044 Ry au,          0.7736 Debye
        Dipole field          0.0006 Ry au,

        Potential amp.       -0.0532 Ry
        Total length         46.3494 bohr

     End of self-consistent calculation

          k = 0.0000 0.0000 0.0000 ( 18029 PWs)   bands (ev):

   -56.1077 -56.1051 -56.0736 -56.0688 -55.9954 -55.9610 -55.9552 -55.9199
   -55.9047 -55.8705 -55.8689 -55.8346 -55.6503 -55.5867 -55.0771 -55.0431
   -32.6642 -32.5889 -32.4871 -32.4266 -32.4125 -32.4086 -32.4001 -32.3600
   -32.3476 -32.3328 -32.3070 -32.2855 -32.2791 -32.2600 -32.2527 -32.2460
   -32.2109 -32.1972 -32.1947 -32.1901 -32.1859 -32.1651 -32.1594 -32.1425
   -32.1177 -32.1032 -32.1021 -32.1010 -32.0961 -32.0926 -32.0711 -32.0444
   -32.0442 -32.0294 -32.0220 -32.0027 -31.9809 -31.9542 -31.8768 -31.8493
   -31.8022 -31.7391 -31.4837 -31.3966 -31.3741 -31.3007 -31.2142 -31.1030
   -17.9052 -16.8731 -16.5835 -16.3674 -16.2626 -16.2472 -16.1407 -15.9555
   -15.8223 -15.7940 -15.6873 -15.6807 -15.6399 -15.6273 -15.5982 -15.5745
   -15.5662 -15.5398 -15.5371 -15.5212 -15.4766 -15.4533 -15.4340 -15.3382
   -15.2982 -15.2378 -15.2156 -15.1543 -15.0322 -14.7975 -13.5795 -13.4632
   -13.3350  -8.0015  -6.3739  -4.3498  -4.2472  -4.0708  -4.0102  -3.9673
    -3.9598  -3.7198  -3.6869  -3.3282  -3.2956  -3.2749  -3.2650  -3.2540
    -3.1273  -3.0192  -2.9641  -2.9215  -2.9114  -2.9006  -2.8934  -2.8807
    -2.8546  -2.8324  -2.7283  -2.6833  -2.6535  -2.5425  -2.5253  -2.4294
    -2.4173  -2.4051  -2.3708  -2.3505  -2.3423  -2.3165  -2.3053  -2.2752
    -2.1940  -2.1454  -2.0296  -1.9656  -1.8863  -1.8515  -1.7037  -1.6600
    -1.5728  -1.5667  -1.5472  -1.5251  -1.4920  -1.4059  -1.3347  -1.2425
    -1.1991  -1.1625  -1.1268  -1.0835  -1.0019  -0.9830  -0.9655  -0.8692
    -0.8654  -0.8562  -0.8133  -0.6119  -0.5862  -0.5528  -0.5402  -0.4629
    -0.4044  -0.3887  -0.3670  -0.3193  -0.2588  -0.1958  -0.1496  -0.1350
    -0.1233  -0.1201  -0.0852  -0.0595   0.0832   0.0937   0.1880   0.1999
     0.2231   0.3484   0.5234   0.5619   0.5797   0.7020   0.8759   0.9451
     1.0472   1.1381   1.5154   1.5606   2.4072   3.0302   3.1166   3.1504
     3.1698   3.2753   3.3082   3.4777   3.4933   3.5284   3.5477

[...]

          k = 0.0380-0.0419 0.0000 ( 17876 PWs)   bands (ev):

[...]

          k =-0.0760-0.0000 0.0000 ( 17886 PWs)   bands (ev):

[...]

          k =-0.0760-0.0839 0.0000 ( 17948 PWs)   bands (ev):

   -56.0917 -56.0896 -56.0888 -56.0848 -55.9863 -55.9644 -55.9514 -55.9293
   -55.8896 -55.8852 -55.8552 -55.8485 -55.6471 -55.5898 -55.0601 -55.0599
   -32.4677 -32.4632 -32.4049 -32.4037 -32.3865 -32.3849 -32.3663 -32.3539
   -32.3350 -32.3157 -32.2922 -32.2756 -32.2499 -32.2402 -32.2393 -32.2209
   -32.2205 -32.2114 -32.2091 -32.2031 -32.2019 -32.1938 -32.1880 -32.1740
   -32.1692 -32.1509 -32.1346 -32.1319 -32.0890 -32.0870 -32.0853 -32.0812
   -32.0733 -32.0701 -32.0669 -32.0649 -32.0612 -31.9723 -31.8885 -31.8426
   -31.8055 -31.7952 -31.3869 -31.3867 -31.2966 -31.2964 -31.2575 -31.2575
   -17.8946 -16.3090 -16.2931 -16.0767 -16.0320 -16.0278 -16.0072 -15.9188
   -15.8281 -15.8092 -15.7953 -15.7773 -15.7626 -15.6826 -15.6569 -15.6346
   -15.6308 -15.6181 -15.5631 -15.5574 -15.5541 -15.5493 -15.5292 -15.4960
   -15.4135 -15.4086 -15.3979 -15.1597 -15.0942 -15.0224 -13.5653 -13.5648
   -13.3481  -7.9573  -6.3146  -4.3670  -3.6017  -3.5831  -3.3548  -3.3004
    -3.2823  -3.2734  -3.1595  -3.0573  -3.0274  -3.0150  -2.9762  -2.9582
    -2.9454  -2.9332  -2.9204  -2.9012  -2.8756  -2.8418  -2.8364  -2.7904
    -2.7737  -2.7527  -2.7354  -2.7136  -2.7128  -2.6720  -2.6656  -2.6275
    -2.5894  -2.5424  -2.4295  -2.3807  -2.3409  -2.2909  -2.2361  -2.2247
    -2.2160  -2.1626  -2.1574  -2.1210  -2.0376  -1.9629  -1.8272  -1.8055
    -1.7724  -1.7313  -1.6986  -1.6020  -1.5584  -1.5079  -1.4563  -1.4001
    -1.3882  -1.3459  -1.3091  -1.2428  -1.2256  -1.1860  -1.1651  -1.1022
    -1.0609  -1.0568  -0.9927  -0.9253  -0.8682  -0.8660  -0.8454  -0.8288
    -0.7718  -0.7236  -0.6569  -0.6079  -0.5661  -0.4686  -0.4121  -0.2953
    -0.1877  -0.0681   0.0024   0.0066   0.0620   0.1398   0.1843   0.2195
     0.2290   0.2467   0.3399   0.4110   0.4307   0.4436   0.5064   0.6974
     1.3099   1.3111   1.3798   1.3808   2.4037   3.3187   3.3569   3.3711
     3.4024   3.5473   3.5499   3.5619   3.5656   3.6844   3.7327

     the Fermi energy is     3.0275 ev

!    total energy              =   -2939.00593348 Ry
     estimated scf accuracy    <       0.00000004 Ry
     smearing contrib. (-TS)   =      -0.02200872 Ry
     internal energy E=F+TS    =   -2938.98392476 Ry

     The total energy is F=E-TS. E is the sum of the following terms:
     one-electron contribution =  -24452.47881223 Ry
     hartree contribution      =   12311.30433794 Ry
     xc contribution           =    -485.12646502 Ry
     ewald contribution        =    9687.31683973 Ry
     electric field correction =       0.00017482 Ry

     convergence has been achieved in  66 iterations

     Forces acting on atoms (cartesian axes, Ry/au):

     atom    1 type  1   force =     0.00018217   -0.00028817    0.09690596
     atom    2 type  1   force =     0.00006794   -0.00077422   -0.17496817
     atom    3 type  2   force =     0.00014790   -0.00008409   -0.02554001
     atom    4 type  2   force =    -0.00003094   -0.00142489    0.05152248
     atom    5 type  2   force =    -0.01203374   -0.00173030    0.00279433
     atom    6 type  2   force =     0.01345972   -0.00133634    0.00223307
     atom    7 type  1   force =     0.00040856    0.00016170   -0.01209298
     atom    8 type  1   force =     0.00018369    0.02418519    0.02898980
     atom    9 type  2   force =    -0.00003869    0.00051908   -0.00005492
     atom   10 type  2   force =    -0.00266338    0.00014663   -0.01163743
     atom   11 type  2   force =    -0.00003294    0.00027119    0.00004023
     atom   12 type  2   force =    -0.00023783   -0.00001628    0.00014093
     atom   13 type  1   force =    -0.00013112    0.00114866   -0.00015160
     atom   14 type  1   force =     0.00000147    0.00049137    0.00006423
     atom   15 type  2   force =     0.00014330   -0.00020375   -0.00003929
     atom   16 type  2   force =    -0.00022261    0.00023881   -0.00034589
     atom   17 type  2   force =     0.00031612    0.00016633   -0.00039302
     atom   18 type  2   force =    -0.00024920    0.00013131   -0.00009853
     atom   19 type  1   force =    -0.00005171   -0.00012999   -0.00062587
     atom   20 type  1   force =     0.00016358    0.00012277   -0.00004415
     atom   21 type  2   force =     0.00006673   -0.00007255    0.10295779
     atom   22 type  2   force =    -0.00003696   -0.00043125   -0.00046181
     atom   23 type  2   force =    -0.07170834   -0.00017123   -0.02790469
     atom   24 type  2   force =     0.07161195    0.00028528   -0.02794358
     atom   25 type  1   force =     0.00004310   -0.00026218    0.09679597
     atom   26 type  1   force =    -0.00001013   -0.00018897   -0.17514425
     atom   27 type  2   force =     0.00015974   -0.00026773   -0.02420498
     atom   28 type  2   force =     0.00001503   -0.00117940    0.05207050
     atom   29 type  2   force =    -0.01219006    0.00078305    0.00247316
     atom   30 type  2   force =     0.01349988    0.00126806    0.00188379
     atom   31 type  1   force =     0.00044912    0.00286896   -0.01397568
     atom   32 type  1   force =     0.00037872   -0.02519172    0.03047667
     atom   33 type  2   force =     0.00004468   -0.00008031   -0.00015826
     atom   34 type  2   force =    -0.00184114   -0.00050160   -0.02071544
     atom   35 type  2   force =    -0.00000683    0.00021845   -0.00005760
     atom   36 type  2   force =     0.00018130    0.00032938    0.00015777
     atom   37 type  1   force =    -0.00021500   -0.00085853   -0.00006133
     atom   38 type  1   force =     0.00008752    0.00014050   -0.00020073
     atom   39 type  2   force =     0.00008328    0.00034889   -0.00021743
     atom   40 type  2   force =    -0.00007398    0.00008092    0.00041791
     atom   41 type  2   force =     0.00027356    0.00023073   -0.00065030
     atom   42 type  2   force =    -0.00040375   -0.00010647   -0.00017642
     atom   43 type  1   force =    -0.00023970    0.00024578    0.00014141
     atom   44 type  1   force =    -0.00024301   -0.00016670    0.00061333
     atom   45 type  2   force =     0.00005543   -0.00006626    0.10298937
     atom   46 type  2   force =    -0.07173727   -0.00011600   -0.02790225
     atom   47 type  2   force =     0.07162730    0.00025743   -0.02792685
     atom   48 type  3   force =    -0.00351862    0.00161269   -0.00016264
     atom   49 type  4   force =    -0.00316535    0.00055582   -0.00050933
     atom   50 type  5   force =     0.00008487    0.00066552   -0.00021776
     atom   51 type  3   force =     0.01761059    0.00744899    0.00103513
     atom   52 type  5   force =    -0.00237526   -0.00130497   -0.00147230
     atom   53 type  5   force =    -0.00788965   -0.00796962    0.00135163

     Total force =     0.369686     Total SCF correction =     0.000466
  @ DRIVER MODE: Message from server: STATUS
  @ DRIVER MODE: Message from server: GETFORCE
  @ DRIVER MODE: Returning v,forces,stress,ensemble

     Writing output data file ./calc.save/
  @ DRIVER MODE: Message from server: EXIT
  @ DRIVE MODE: Exiting

     General routines

     Parallel routines

   This run was terminated on:  23:20:41  23Aug2021

   JOB DONE.