     Program PWSCF v.6.7GPU starts on 15Sep2021 at 22:23:48

     R & G space division:  proc/nbgrp/npool/nimage =      10
     Reading input from /storage/home/hcoda1/3/ntian30/research/carbon/CxH_vib/H2O_calc/ads_slab/CHNNHHH2O_a/out_0021/pw.inp
Warning: card &CELL ignored
Warning: card   CELL_DYNAMICS='IPI', ignored
Warning: card / ignored

     Current dimensions of program PWSCF are:
     Max number of different atomic species (ntypx) = 10
     Max number of k-points (npk) =  40000
     Max angular momentum in pseudopotentials (lmaxx) =  3
     Presently no symmetry can be used with electric field

     Message from routine cell_base_init:
     DEPRECATED: use true lattice parameter, not A to a.u. conversion factor

     IMPORTANT: XC functional enforced from input :
     Exchange-correlation= BEEF-VDW
                           (   1   4  43  14   2   0   0)
     Any further DFT definition will be discarded
     Please, verify this is what you really want

  @ DRIVER MODE: Connecting to
 qe_1139763_2852630.sched-torque.pace.gatech.edux_dli6i6_scratch
  using UNIX socket
  @ DRIVER MODE: Message from server: STATUS
  @ DRIVER MODE: Message from server: INIT
  @ DRIVER MODE: Receiving replica           0          -1
  @ DRIVER MODE: Receiving encoded integer          25
  @ DRIVER MODE:  SCF:  T  FORCE:  T  STRESS:  F  VC:  F  ENSEMBLE:  F
  @ DRIVER MODE:  SCF:  T  FORCE:  T  STRESS:  F  VC:  F  ENSEMBLE:  F

     Using Slab Decomposition

     bravais-lattice index     =            0
     lattice parameter (alat)  =       1.8897  a.u.
     unit-cell volume          =    6658.9804 (a.u.)^3
     number of atoms/cell      =           56
     number of atomic types    =            5
     number of electrons       =       403.00
     number of Kohn-Sham states=          211
     kinetic-energy cutoff     =      29.3995  Ry
     charge density cutoff     =     293.9946  Ry
     scf convergence threshold =      7.3E-08
     mixing beta               =       0.0500
     number of iterations used =            8  plain     mixing
     Exchange-correlation= BEEF-VDW
                           (   1   4  43  14   2   0   0)

     celldm(1)=   1.889726  celldm(2)=   0.000000  celldm(3)=   0.000000
     celldm(4)=   0.000000  celldm(5)=   0.000000  celldm(6)=   0.000000

     crystal axes: (cart. coord. in units of alat)
               a(1) = (   6.579727   0.000000   0.000000 )
               a(2) = (  -0.000775   5.961596   0.000000 )
               a(3) = (   0.000000   0.000000  25.155947 )

     reciprocal axes: (cart. coord. in units 2 pi/alat)
               b(1) = (  0.151982  0.000020  0.000000 )
               b(2) = (  0.000000  0.167740  0.000000 )
               b(3) = (  0.000000  0.000000  0.039752 )

     PseudoPot. # 1 for Ti read from file:
     /storage/coda1/p-amedford6/0/shared/rich_project_chbe-medford/medford-share/data/pseudos_module/espresso/nninc/pbe/van/Ti.UPF
     MD5 check sum: 8e4df49b7f0d34bbd5052bf3f5ea0213
     Pseudo is Ultrasoft, Zval = 12.0
     Generated by new atomic code, or converted to UPF format
     Using radial grid of  851 points,  6 beta functions with:
                l(1) =   0
                l(2) =   0
                l(3) =   1
                l(4) =   1
                l(5) =   2
                l(6) =   2
     Q(r) pseudized with  8 coefficients,  rinner =    1.000   1.000   1.000
                                                       1.000   1.000

     PseudoPot. # 2 for O  read from file:
     /storage/coda1/p-amedford6/0/shared/rich_project_chbe-medford/medford-share/data/pseudos_module/espresso/nninc/pbe/van/O.UPF
     MD5 check sum: 78c19812648e8988a0fe644b0f25305e
     Pseudo is Ultrasoft, Zval =  6.0
     Generated by new atomic code, or converted to UPF format
     Using radial grid of  737 points,  4 beta functions with:
                l(1) =   0
                l(2) =   0
                l(3) =   1
                l(4) =   1
     Q(r) pseudized with  8 coefficients,  rinner =    0.800   0.800   0.800

     PseudoPot. # 3 for N  read from file:
     /storage/coda1/p-amedford6/0/shared/rich_project_chbe-medford/medford-share/data/pseudos_module/espresso/nninc/pbe/van/N.UPF
     MD5 check sum: 90d10febe142ad51ac9d5be1deb811c4
     Pseudo is Ultrasoft, Zval =  5.0
     Generated by new atomic code, or converted to UPF format
     Using radial grid of  729 points,  4 beta functions with:
                l(1) =   0
                l(2) =   0
                l(3) =   1
                l(4) =   1
     Q(r) pseudized with  8 coefficients,  rinner =    0.800   0.800   0.800

     PseudoPot. # 4 for C  read from file:
     /storage/coda1/p-amedford6/0/shared/rich_project_chbe-medford/medford-share/data/pseudos_module/espresso/nninc/pbe/van/C.UPF
     MD5 check sum: 1a69bf6b8db32088f5b2163dbdb77a27
     Pseudo is Ultrasoft, Zval =  4.0
     Generated by new atomic code, or converted to UPF format
     Using radial grid of  721 points,  4 beta functions with:
                l(1) =   0
                l(2) =   0
                l(3) =   1
                l(4) =   1
     Q(r) pseudized with  8 coefficients,  rinner =    0.800   0.800   0.800

     PseudoPot. # 5 for H  read from file:
     /storage/coda1/p-amedford6/0/shared/rich_project_chbe-medford/medford-share/data/pseudos_module/espresso/nninc/pbe/van/H.UPF
     MD5 check sum: b5ee9d7bfd3a09ee7748110bda690ff7
     Pseudo is Ultrasoft, Zval =  1.0
     Generated by new atomic code, or converted to UPF format
     Using radial grid of  615 points,  1 beta functions with:
                l(1) =   0
     Q(r) pseudized with  8 coefficients,  rinner =    0.800

     atomic species   valence    mass     pseudopotential
        Ti1           12.00    47.86700     Ti( 1.00)
        O1             6.00    15.99900     O ( 1.00)
        N1             5.00    14.00700     N ( 1.00)
        C1             4.00    12.01100     C ( 1.00)
        H1             1.00     1.00800     H ( 1.00)

     No symmetry found

   Cartesian axes

     site n.     atom                  positions (alat units)
         1           Ti1 tau(   1) = (   0.0004258   2.9801865   6.0000000  )
         2           Ti1 tau(   2) = (   3.2906075   1.4906267   6.0002472  )
         3           O1  tau(   3) = (   0.0006271   0.0005054   7.9858123  )
         4           O1  tau(   4) = (   3.2906025   0.0005020   7.3038282  )
         5           O1  tau(   5) = (   4.5942328   1.4918067   9.2879030  )
         6           O1  tau(   6) = (   1.9868534   1.4903216   9.2879459  )
         7           Ti1 tau(   7) = (   3.2907910   2.8959150   9.1758416  )
         8           Ti1 tau(   8) = (   0.0015273   1.4827037   9.2680791  )
         9           O1  tau(   9) = (   3.3295752   5.9394884  11.3365386  )
        10           O1  tau(  10) = (   0.0116148   5.9584955  10.6183126  )
        11           O1  tau(  11) = (   1.3416459   1.4853116  12.6004455  )
        12           O1  tau(  12) = (   5.3426426   1.4786053  12.6369034  )
        13           Ti1 tau(  13) = (   0.0116414   2.9353973  12.6160321  )
        14           Ti1 tau(  14) = (   3.2634613   1.4579052  12.5012998  )
        15           O1  tau(  15) = (   0.1064876   0.0498873  14.6156690  )
        16           O1  tau(  16) = (   3.3207907   0.0021492  13.9347054  )
        17           O1  tau(  17) = (   4.6463059   1.4619937  15.9920056  )
        18           O1  tau(  18) = (   2.1466462   1.4989335  16.1123926  )
        19           Ti1 tau(  19) = (   3.4306617   2.9592634  15.6863987  )
        20           Ti1 tau(  20) = (   0.1411245   1.4409179  16.1562347  )
        21           O1  tau(  21) = (   3.2904802   0.0005063   4.7018136  )
        22           O1  tau(  22) = (   0.1093408   5.8617090  17.1288626  )
        23           O1  tau(  23) = (   1.3043587   1.4918075   6.0039043  )
        24           O1  tau(  24) = (   5.2767064   1.4903225   6.0039473  )
        25           Ti1 tau(  25) = (   0.0000382   5.9609847   6.0000000  )
        26           Ti1 tau(  26) = (   3.2902200   4.4714249   6.0002472  )
        27           O1  tau(  27) = (   0.0002396   2.9813036   7.9858123  )
        28           O1  tau(  28) = (   3.2902150   2.9813002   7.3038282  )
        29           O1  tau(  29) = (   4.5938453   4.4726049   9.2879030  )
        30           O1  tau(  30) = (   1.9864658   4.4711199   9.2879459  )
        31           Ti1 tau(  31) = (   3.2891106   5.8743827   9.1763621  )
        32           Ti1 tau(  32) = (   0.0006254   4.4649316   9.2693709  )
        33           O1  tau(  33) = (   3.3252478   2.9725824  11.3426849  )
        34           O1  tau(  34) = (   0.0092240   2.9805883  10.6323155  )
        35           O1  tau(  35) = (   1.3395427   4.4601989  12.6346899  )
        36           O1  tau(  36) = (   5.3460148   4.4586474  12.6692756  )
        37           Ti1 tau(  37) = (   6.5637397   5.9322234  12.5160321  )
        38           Ti1 tau(  38) = (   3.2635149   4.4558096  12.5102435  )
        39           O1  tau(  39) = (   0.1109093   2.9345503  14.7784033  )
        40           O1  tau(  40) = (   3.3425673   2.9461413  13.8942005  )
        41           O1  tau(  41) = (   4.6672108   4.4449251  15.9191901  )
        42           O1  tau(  42) = (   2.1284166   4.4082335  15.9970045  )
        43           Ti1 tau(  43) = (   3.3925976   5.9399099  15.7906296  )
        44           Ti1 tau(  44) = (   0.1175887   4.6074924  15.7225956  )
        45           O1  tau(  45) = (   3.2900926   2.9813045   4.7018136  )
        46           O1  tau(  46) = (   1.3039711   4.4726057   6.0039043  )
        47           O1  tau(  47) = (   5.2763189   4.4711207   6.0039473  )
        48           N1  tau(  48) = (   6.3322197   2.6896666  17.8857888  )
        49           C1  tau(  49) = (   0.7408832   3.1023054  18.6049742  )
        50           H1  tau(  50) = (   1.6825283   2.9574642  18.0630083  )
        51           N1  tau(  51) = (   5.0062801   2.8167163  18.4728511  )
        52           H1  tau(  52) = (   5.1803530   3.0494745  19.4549233  )
        53           H1  tau(  53) = (   4.5789568   1.9025856  18.4370215  )
        54           O1  tau(  54) = (   3.4803961   5.7297960  18.1507158  )
        55           H1  tau(  55) = (   4.0125945   4.9267423  18.3304466  )
        56           H1  tau(  56) = (   2.5980622   5.5532332  18.5227279  )

     number of k points=    10  Fermi-Dirac smearing, width (Ry)=  0.0073
                       cart. coord. in units 2pi/alat
        k(    1) = (   0.0000000   0.0000000   0.0000000), wk =   0.1250000
        k(    2) = (   0.0000000   0.0419351   0.0000000), wk =   0.2500000
        k(    3) = (   0.0000000  -0.0838702   0.0000000), wk =   0.1250000
        k(    4) = (   0.0379955   0.0000049   0.0000000), wk =   0.2500000
        k(    5) = (   0.0379955   0.0419400   0.0000000), wk =   0.2500000
        k(    6) = (   0.0379955  -0.0838652   0.0000000), wk =   0.2500000
        k(    7) = (   0.0379955  -0.0419301   0.0000000), wk =   0.2500000
        k(    8) = (  -0.0759910  -0.0000099   0.0000000), wk =   0.1250000
        k(    9) = (  -0.0759910   0.0419252   0.0000000), wk =   0.2500000
        k(   10) = (  -0.0759910  -0.0838800   0.0000000), wk =   0.1250000

     Initial potential from superposition of free atoms

     starting charge  386.99914, renormalised to  403.00000

     negative rho (up, down):  1.683E-02 0.000E+00

     %%%%%%%%%%%%%%%%%%%%%%%%%%%%%%%%%%%%%%%%%%%%%%%%%%%%%%%%%%%%%%%%%%%%%%%%
     %                                                                      %
     % You are using vdW-DF, which was implemented by the Thonhauser group. %
     % Please cite the following two papers that made this development      %
     % possible and the two reviews that describe the various versions:     %
     %                                                                      %
     %   T. Thonhauser et al., PRL 115, 136402 (2015).                      %
     %   T. Thonhauser et al., PRB 76, 125112 (2007).                       %
     %   K. Berland et al., Rep. Prog. Phys. 78, 066501 (2015).             %
     %   D.C. Langreth et al., J. Phys.: Condens. Matter 21, 084203 (2009). %
     %                                                                      %
     %                                                                      %
     % If you are calculating the stress with vdW-DF, please also cite:     %
     %                                                                      %
     %   R. Sabatini et al., J. Phys.: Condens. Matter 24, 424209 (2012).   %
     %                                                                      %
     %%%%%%%%%%%%%%%%%%%%%%%%%%%%%%%%%%%%%%%%%%%%%%%%%%%%%%%%%%%%%%%%%%%%%%%%

     Adding external electric field

     Computed dipole along edir(3) :
        Dipole              -12.6658 Ry au,        -32.1932 Debye
        Dipole field         -0.0239 Ry au,

        Potential amp.        2.2157 Ry
        Total length         46.3494 bohr

     Starting wfcs are  305 atomic wfcs
  @ DRIVER MODE: Message from server: STATUS
  @ DRIVER MODE: Message from server: POSDATA
  @ DRIVER MODE: Reading and sharing cell
  @ DRIVER MODE: Reading and sharing positions
  @ DRIVER MODE: Received positions

     Self-consistent Calculation

     iteration #  1     ecut=    29.40 Ry     beta= 0.05
     Davidson diagonalization with overlap
     c_bands:  3 eigenvalues not converged
     c_bands:  2 eigenvalues not converged
     c_bands:  5 eigenvalues not converged
     c_bands:  1 eigenvalues not converged
     c_bands:  4 eigenvalues not converged
     c_bands:  1 eigenvalues not converged
     c_bands:  2 eigenvalues not converged
     ethr =  1.00E-05,  avg # of iterations = 26.8

[...]

     total energy              =   -2339.64882112 Ry
     estimated scf accuracy    <    7189.03687928 Ry

     iteration #  2     ecut=    29.40 Ry     beta= 0.05
     Davidson diagonalization with overlap
     ethr =  1.00E-02,  avg # of iterations = 22.6

[...]

     iteration # 71     ecut=    29.40 Ry     beta= 0.05
     Davidson diagonalization with overlap
     c_bands:  1 eigenvalues not converged
     ethr =  1.97E-10,  avg # of iterations = 15.8

[...]

     total energy              =   -2973.87552580 Ry
     estimated scf accuracy    <       0.00000009 Ry

     iteration # 76     ecut=    29.40 Ry     beta= 0.05
     Davidson diagonalization with overlap
     ethr =  2.12E-11,  avg # of iterations =  7.2

     negative rho (up, down):  1.573E-02 0.000E+00

     Adding external electric field

     Computed dipole along edir(3) :
        Dipole                0.4418 Ry au,          1.1230 Debye
        Dipole field          0.0008 Ry au,

        Potential amp.       -0.0773 Ry
        Total length         46.3494 bohr

     End of self-consistent calculation

          k = 0.0000 0.0000 0.0000 ( 18029 PWs)   bands (ev):

   -55.9066 -55.8725 -55.8706 -55.8331 -55.7918 -55.7902 -55.7345 -55.7236
   -55.6969 -55.6896 -55.6892 -55.6558 -55.4657 -55.3783 -54.8892 -54.8551
   -32.4116 -32.3907 -32.2779 -32.2337 -32.2236 -32.1986 -32.1800 -32.1608
   -32.1511 -32.1088 -32.0605 -32.0589 -32.0449 -32.0350 -32.0248 -32.0235
   -32.0126 -32.0083 -32.0044 -31.9938 -31.9865 -31.9724 -31.9638 -31.9303
   -31.9212 -31.9179 -31.9159 -31.9107 -31.8875 -31.8869 -31.8793 -31.8665
   -31.8566 -31.8435 -31.8361 -31.8293 -31.8020 -31.7582 -31.6957 -31.6337
   -31.5923 -31.5201 -31.2963 -31.2078 -31.1854 -31.1132 -31.0267 -30.9154
   -18.8529 -17.1887 -16.6210 -16.3845 -16.1481 -16.0688 -16.0436 -15.8142
   -15.7190 -15.6633 -15.5667 -15.5050 -15.4763 -15.4463 -15.4232 -15.4024
   -15.3611 -15.3491 -15.3293 -15.3284 -15.3017 -15.2928 -15.2552 -15.2495
   -15.2021 -15.0790 -15.0452 -15.0396 -15.0102 -14.9719 -14.5297 -13.3908
   -13.2742 -12.8463  -7.1303  -6.5699  -5.5364  -4.0014  -3.8672  -3.8625
    -3.8153  -3.7503  -3.6039  -3.5729  -3.3748  -3.2465  -3.1764  -3.0942
    -3.0777  -3.0394  -3.0137  -2.9100  -2.8238  -2.7906  -2.7204  -2.7050
    -2.6800  -2.6719  -2.6426  -2.6192  -2.5336  -2.5154  -2.4761  -2.4414
    -2.3265  -2.3075  -2.2505  -2.2219  -2.2149  -2.1963  -2.1721  -2.1624
    -2.1479  -2.1361  -2.0779  -2.0511  -1.9666  -1.9032  -1.8389  -1.7019
    -1.5624  -1.5204  -1.5088  -1.4084  -1.3819  -1.3469  -1.3282  -1.3036
    -1.2900  -1.1649  -1.0863  -1.0228  -1.0160  -0.9453  -0.8525  -0.7927
    -0.7356  -0.6776  -0.6716  -0.6511  -0.6461  -0.6114  -0.5388  -0.4022
    -0.3639  -0.3241  -0.2909  -0.2030  -0.1945  -0.1488  -0.1172  -0.0968
    -0.0636   0.0150   0.0267   0.0576   0.0788   0.1002   0.1230   0.1812
     0.3098   0.3316   0.3503   0.4075   0.4441   0.6033   0.7440   0.7870
     0.8893   1.0627   1.1339   1.1700   1.2262   1.3254   1.7049   1.7507
     2.7639   3.2094   3.3131   3.3470   3.3543   3.4553   3.4802   3.6709
     3.7153   3.7519   3.7865

[...]

          k = 0.0380-0.0419 0.0000 ( 17876 PWs)   bands (ev):

[...]

          k =-0.0760-0.0000 0.0000 ( 17886 PWs)   bands (ev):

[...]

          k =-0.0760-0.0839 0.0000 ( 17948 PWs)   bands (ev):

   -55.8899 -55.8891 -55.8575 -55.8460 -55.7885 -55.7843 -55.7403 -55.7083
   -55.7043 -55.7000 -55.6730 -55.6724 -55.4630 -55.3810 -54.8722 -54.8720
   -32.2281 -32.2062 -32.2060 -32.2057 -32.1843 -32.1838 -32.1264 -32.1186
   -32.0982 -32.0911 -32.0883 -32.0360 -32.0350 -32.0273 -32.0231 -32.0223
   -32.0168 -32.0130 -32.0108 -32.0093 -32.0082 -32.0060 -31.9938 -31.9905
   -31.9736 -31.9519 -31.9507 -31.9109 -31.9089 -31.9018 -31.9009 -31.8986
   -31.8923 -31.8888 -31.8882 -31.8824 -31.8795 -31.7744 -31.6938 -31.6402
   -31.5960 -31.5867 -31.1981 -31.1980 -31.1091 -31.1089 -31.0700 -31.0699
   -18.8506 -17.1802 -16.0478 -15.9626 -15.9243 -15.8351 -15.7893 -15.7557
   -15.6962 -15.6232 -15.5848 -15.5797 -15.5539 -15.4958 -15.4813 -15.4527
   -15.4351 -15.4235 -15.4192 -15.3667 -15.3606 -15.3515 -15.3470 -15.3337
   -15.3312 -15.3057 -15.2307 -15.2278 -15.1054 -14.8952 -14.8706 -13.3761
   -13.3759 -12.8622  -7.0886  -6.5610  -5.4777  -3.6814  -3.3957  -3.3278
    -3.2244  -3.1150  -3.0133  -3.0058  -2.9695  -2.9253  -2.8550  -2.8298
    -2.7746  -2.7553  -2.7398  -2.7231  -2.7188  -2.7081  -2.6749  -2.6518
    -2.5957  -2.5908  -2.5836  -2.5753  -2.5632  -2.5556  -2.5339  -2.5273
    -2.5012  -2.4747  -2.4363  -2.4038  -2.3226  -2.2467  -2.1692  -2.1236
    -2.0913  -2.0574  -2.0509  -2.0077  -1.9877  -1.9757  -1.9587  -1.8942
    -1.7946  -1.6755  -1.6191  -1.5948  -1.5470  -1.5105  -1.4869  -1.3812
    -1.3301  -1.3156  -1.2147  -1.1926  -1.1683  -1.1145  -1.0492  -1.0346
    -0.9918  -0.9482  -0.9055  -0.8653  -0.8600  -0.8098  -0.7649  -0.7384
    -0.6559  -0.6462  -0.6022  -0.5917  -0.5796  -0.5413  -0.4951  -0.4139
    -0.3176  -0.2725  -0.2210  -0.0671   0.0057   0.1414   0.1941   0.2593
     0.2759   0.3751   0.4038   0.4060   0.4871   0.5312   0.5878   0.6197
     0.6247   0.6372   0.8021   1.1197   1.4974   1.4984   1.5704   1.5709
     2.7210   3.5424   3.5999   3.6134   3.6395   3.7257   3.7493   3.7595
     3.7613   3.8804   3.8962

     the Fermi energy is     3.2221 ev

!    total energy              =   -2973.87553824 Ry
     estimated scf accuracy    <       0.00000005 Ry
     smearing contrib. (-TS)   =      -0.02179294 Ry
     internal energy E=F+TS    =   -2973.85374530 Ry

     The total energy is F=E-TS. E is the sum of the following terms:
     one-electron contribution =  -24185.20955983 Ry
     hartree contribution      =   12184.14912175 Ry
     xc contribution           =    -494.00530632 Ry
     ewald contribution        =    9521.21163075 Ry
     electric field correction =       0.00036835 Ry

     convergence has been achieved in  76 iterations

     Forces acting on atoms (cartesian axes, Ry/au):

     atom    1 type  1   force =     0.00016555   -0.00030682    0.09557432
     atom    2 type  1   force =     0.00004695   -0.00044762   -0.17580799
     atom    3 type  2   force =     0.00023247    0.00002150   -0.02350720
     atom    4 type  2   force =     0.00008431   -0.00152727    0.05313782
     atom    5 type  2   force =    -0.01025209   -0.00136904    0.00262267
     atom    6 type  2   force =     0.01292144   -0.00101771    0.00440511
     atom    7 type  1   force =     0.00139754    0.00128084   -0.00565926
     atom    8 type  1   force =    -0.00059713    0.01374539    0.01967132
     atom    9 type  2   force =     0.00024208   -0.00056689    0.00102739
     atom   10 type  2   force =    -0.00153597   -0.00072192   -0.01580320
     atom   11 type  2   force =    -0.00105026    0.00026065   -0.00021744
     atom   12 type  2   force =     0.00040177    0.00000409    0.00013698
     atom   13 type  1   force =     0.00055210    0.00083860    0.00028455
     atom   14 type  1   force =    -0.00021861   -0.00006069    0.00043393
     atom   15 type  2   force =    -0.00037203   -0.00007971   -0.00041985
     atom   16 type  2   force =     0.00000818   -0.00086292   -0.00037973
     atom   17 type  2   force =    -0.00059590   -0.00028003   -0.00030559
     atom   18 type  2   force =     0.00018649   -0.00029505   -0.00040333
     atom   19 type  1   force =     0.00073756   -0.00062810   -0.00091915
     atom   20 type  1   force =    -0.00059019   -0.00070766   -0.00055034
     atom   21 type  2   force =     0.00007136    0.00001586    0.10322751
     atom   22 type  2   force =    -0.00008114    0.00119259    0.00049122
     atom   23 type  2   force =    -0.07148787   -0.00007540   -0.02757423
     atom   24 type  2   force =     0.07145390    0.00038173   -0.02762506
     atom   25 type  1   force =     0.00009370   -0.00025619    0.09540703
     atom   26 type  1   force =     0.00004141   -0.00022427   -0.17588515
     atom   27 type  2   force =     0.00024753   -0.00036657   -0.02226766
     atom   28 type  2   force =     0.00008205   -0.00122027    0.05319159
     atom   29 type  2   force =    -0.01029492    0.00029848    0.00173324
     atom   30 type  2   force =     0.01288433    0.00085962    0.00359358
     atom   31 type  1   force =     0.00161889    0.00305635   -0.01050973
     atom   32 type  1   force =    -0.00067328   -0.01565901    0.01964782
     atom   33 type  2   force =     0.00053662    0.00065199    0.00017778
     atom   34 type  2   force =    -0.00085195    0.00099497   -0.01348343
     atom   35 type  2   force =     0.00111069    0.00005109   -0.00044772
     atom   36 type  2   force =    -0.00120902    0.00013006   -0.00020983
     atom   37 type  1   force =    -0.00031285   -0.00044780    0.00007488
     atom   38 type  1   force =    -0.00091561    0.00036280   -0.00041010
     atom   39 type  2   force =    -0.00046431   -0.00050908    0.00016544
     atom   40 type  2   force =     0.00010068    0.00096640    0.00012177
     atom   41 type  2   force =    -0.00115731    0.00042369    0.00071577
     atom   42 type  2   force =     0.00108959   -0.00023469    0.00049794
     atom   43 type  1   force =    -0.00021577    0.00096493   -0.00053642
     atom   44 type  1   force =    -0.00045612    0.00054402   -0.00163749
     atom   45 type  2   force =     0.00007254    0.00001086    0.10321569
     atom   46 type  2   force =    -0.07148447   -0.00004219   -0.02757049
     atom   47 type  2   force =     0.07145097    0.00038249   -0.02760640
     atom   48 type  3   force =    -0.00061656   -0.00235186   -0.00050095
     atom   49 type  4   force =    -0.00054503   -0.00026006    0.00000468
     atom   50 type  5   force =    -0.00128908    0.00009354    0.00017155
     atom   51 type  3   force =     0.00765544    0.01790722    0.00272107
     atom   52 type  5   force =    -0.00162776   -0.00196832   -0.00242463
     atom   53 type  5   force =    -0.00514971   -0.01452504    0.00094619
     atom   54 type  2   force =    -0.00084260   -0.00053773    0.00117332
     atom   55 type  5   force =    -0.00097274    0.00172719   -0.00076942
     atom   56 type  5   force =     0.00037418    0.00038296   -0.00114035

     Total force =     0.366941     Total SCF correction =     0.000365
  @ DRIVER MODE: Message from server: STATUS
  @ DRIVER MODE: Message from server: GETFORCE
  @ DRIVER MODE: Returning v,forces,stress,ensemble

     Writing output data file ./calc.save/
  @ DRIVER MODE: Message from server: EXIT
  @ DRIVE MODE: Exiting

     General routines

     Parallel routines

   This run was terminated on:  22:44: 9  15Sep2021

   JOB DONE.