     Program PWSCF v.6.7GPU starts on 16Sep2021 at  2:53:11

     R & G space division:  proc/nbgrp/npool/nimage =      10
     Reading input from /storage/home/hcoda1/3/ntian30/research/carbon/CxH_vib/H2O_calc/ads_slab/CHN2H2O_c/out_0036/pw.inp
Warning: card &CELL ignored
Warning: card   CELL_DYNAMICS='IPI', ignored
Warning: card / ignored

     Current dimensions of program PWSCF are:
     Max number of different atomic species (ntypx) = 10
     Max number of k-points (npk) =  40000
     Max angular momentum in pseudopotentials (lmaxx) =  3
     Presently no symmetry can be used with electric field

     Message from routine cell_base_init:
     DEPRECATED: use true lattice parameter, not A to a.u. conversion factor

     IMPORTANT: XC functional enforced from input :
     Exchange-correlation= BEEF-VDW
                           (   1   4  43  14   2   0   0)
     Any further DFT definition will be discarded
     Please, verify this is what you really want

  @ DRIVER MODE: Connecting to
 qe_1139763_2852625.sched-torque.pace.gatech.edunidmndkc_scratch
  using UNIX socket
  @ DRIVER MODE: Message from server: STATUS
  @ DRIVER MODE: Message from server: INIT
  @ DRIVER MODE: Receiving replica           0          -1
  @ DRIVER MODE: Receiving encoded integer          25
  @ DRIVER MODE:  SCF:  T  FORCE:  T  STRESS:  F  VC:  F  ENSEMBLE:  F
  @ DRIVER MODE:  SCF:  T  FORCE:  T  STRESS:  F  VC:  F  ENSEMBLE:  F

     Using Slab Decomposition

     bravais-lattice index     =            0
     lattice parameter (alat)  =       1.8897  a.u.
     unit-cell volume          =    6658.9804 (a.u.)^3
     number of atoms/cell      =           54
     number of atomic types    =            5
     number of electrons       =       401.00
     number of Kohn-Sham states=          210
     kinetic-energy cutoff     =      29.3995  Ry
     charge density cutoff     =     293.9946  Ry
     scf convergence threshold =      7.3E-08
     mixing beta               =       0.0500
     number of iterations used =            8  plain     mixing
     Exchange-correlation= BEEF-VDW
                           (   1   4  43  14   2   0   0)

     celldm(1)=   1.889726  celldm(2)=   0.000000  celldm(3)=   0.000000
     celldm(4)=   0.000000  celldm(5)=   0.000000  celldm(6)=   0.000000

     crystal axes: (cart. coord. in units of alat)
               a(1) = (   6.579727   0.000000   0.000000 )
               a(2) = (  -0.000775   5.961596   0.000000 )
               a(3) = (   0.000000   0.000000  25.155947 )

     reciprocal axes: (cart. coord. in units 2 pi/alat)
               b(1) = (  0.151982  0.000020  0.000000 )
               b(2) = (  0.000000  0.167740  0.000000 )
               b(3) = (  0.000000  0.000000  0.039752 )

     PseudoPot. # 1 for Ti read from file:
     /storage/coda1/p-amedford6/0/shared/rich_project_chbe-medford/medford-share/data/pseudos_module/espresso/nninc/pbe/van/Ti.UPF
     MD5 check sum: 8e4df49b7f0d34bbd5052bf3f5ea0213
     Pseudo is Ultrasoft, Zval = 12.0
     Generated by new atomic code, or converted to UPF format
     Using radial grid of  851 points,  6 beta functions with:
                l(1) =   0
                l(2) =   0
                l(3) =   1
                l(4) =   1
                l(5) =   2
                l(6) =   2
     Q(r) pseudized with  8 coefficients,  rinner =    1.000   1.000   1.000
                                                       1.000   1.000

     PseudoPot. # 2 for O  read from file:
     /storage/coda1/p-amedford6/0/shared/rich_project_chbe-medford/medford-share/data/pseudos_module/espresso/nninc/pbe/van/O.UPF
     MD5 check sum: 78c19812648e8988a0fe644b0f25305e
     Pseudo is Ultrasoft, Zval =  6.0
     Generated by new atomic code, or converted to UPF format
     Using radial grid of  737 points,  4 beta functions with:
                l(1) =   0
                l(2) =   0
                l(3) =   1
                l(4) =   1
     Q(r) pseudized with  8 coefficients,  rinner =    0.800   0.800   0.800

     PseudoPot. # 3 for C  read from file:
     /storage/coda1/p-amedford6/0/shared/rich_project_chbe-medford/medford-share/data/pseudos_module/espresso/nninc/pbe/van/C.UPF
     MD5 check sum: 1a69bf6b8db32088f5b2163dbdb77a27
     Pseudo is Ultrasoft, Zval =  4.0
     Generated by new atomic code, or converted to UPF format
     Using radial grid of  721 points,  4 beta functions with:
                l(1) =   0
                l(2) =   0
                l(3) =   1
                l(4) =   1
     Q(r) pseudized with  8 coefficients,  rinner =    0.800   0.800   0.800

     PseudoPot. # 4 for H  read from file:
     /storage/coda1/p-amedford6/0/shared/rich_project_chbe-medford/medford-share/data/pseudos_module/espresso/nninc/pbe/van/H.UPF
     MD5 check sum: b5ee9d7bfd3a09ee7748110bda690ff7
     Pseudo is Ultrasoft, Zval =  1.0
     Generated by new atomic code, or converted to UPF format
     Using radial grid of  615 points,  1 beta functions with:
                l(1) =   0
     Q(r) pseudized with  8 coefficients,  rinner =    0.800

     PseudoPot. # 5 for N  read from file:
     /storage/coda1/p-amedford6/0/shared/rich_project_chbe-medford/medford-share/data/pseudos_module/espresso/nninc/pbe/van/N.UPF
     MD5 check sum: 90d10febe142ad51ac9d5be1deb811c4
     Pseudo is Ultrasoft, Zval =  5.0
     Generated by new atomic code, or converted to UPF format
     Using radial grid of  729 points,  4 beta functions with:
                l(1) =   0
                l(2) =   0
                l(3) =   1
                l(4) =   1
     Q(r) pseudized with  8 coefficients,  rinner =    0.800   0.800   0.800

     atomic species   valence    mass     pseudopotential
        Ti1           12.00    47.86700     Ti( 1.00)
        O1             6.00    15.99900     O ( 1.00)
        C1             4.00    12.01100     C ( 1.00)
        H1             1.00     1.00800     H ( 1.00)
        N1             5.00    14.00700     N ( 1.00)

     No symmetry found

   Cartesian axes

     site n.     atom                  positions (alat units)
         1           Ti1 tau(   1) = (   0.0004258   2.9801865   6.0000000  )
         2           Ti1 tau(   2) = (   3.2906075   1.4906267   6.0002472  )
         3           O1  tau(   3) = (   0.0006271   0.0005054   7.9858123  )
         4           O1  tau(   4) = (   3.2906025   0.0005020   7.3038282  )
         5           O1  tau(   5) = (   4.5942328   1.4918067   9.2879030  )
         6           O1  tau(   6) = (   1.9868534   1.4903216   9.2879459  )
         7           Ti1 tau(   7) = (   3.2907910   2.8959150   9.1758416  )
         8           Ti1 tau(   8) = (   0.0015273   1.4827037   9.2680791  )
         9           O1  tau(   9) = (   3.2982821   5.9591942  11.3418950  )
        10           O1  tau(  10) = (   0.0116148   5.9584955  10.6183126  )
        11           O1  tau(  11) = (   1.2990089   1.4837789  12.6285733  )
        12           O1  tau(  12) = (   5.2904647   1.4888503  12.6163117  )
        13           Ti1 tau(  13) = (   0.0603338   2.9457994  12.6026339  )
        14           Ti1 tau(  14) = (   3.3706290   1.4705258  12.5092779  )
        15           O1  tau(  15) = (   6.5788109   0.0160518  14.6499261  )
        16           O1  tau(  16) = (   3.3158691   0.0087694  13.9605792  )
        17           O1  tau(  17) = (   4.5613999   1.5213109  16.0555727  )
        18           O1  tau(  18) = (   2.0390476   1.5587733  16.0026688  )
        19           Ti1 tau(  19) = (   3.2958454   3.0042652  15.6812246  )
        20           Ti1 tau(  20) = (   0.0477533   1.5223793  15.8108347  )
        21           O1  tau(  21) = (   3.2904802   0.0005063   4.7018136  )
        22           O1  tau(  22) = (   0.0778492   0.0082781  17.2116806  )
        23           O1  tau(  23) = (   1.3043587   1.4918075   6.0039043  )
        24           O1  tau(  24) = (   5.2767064   1.4903225   6.0039473  )
        25           Ti1 tau(  25) = (   0.0000382   5.9609847   6.0000000  )
        26           Ti1 tau(  26) = (   3.2902200   4.4714249   6.0002472  )
        27           O1  tau(  27) = (   0.0002396   2.9813036   7.9858123  )
        28           O1  tau(  28) = (   3.2902150   2.9813002   7.3038282  )
        29           O1  tau(  29) = (   4.5938453   4.4726049   9.2879030  )
        30           O1  tau(  30) = (   1.9864658   4.4711199   9.2879459  )
        31           Ti1 tau(  31) = (   3.2891106   5.8743827   9.1763621  )
        32           Ti1 tau(  32) = (   0.0006254   4.4649316   9.2693709  )
        33           O1  tau(  33) = (   3.3003553   2.9806904  11.3444413  )
        34           O1  tau(  34) = (   0.0092240   2.9805883  10.6323155  )
        35           O1  tau(  35) = (   1.2971990   4.4717445  12.6361083  )
        36           O1  tau(  36) = (   5.2938362   4.4783115  12.6231241  )
        37           Ti1 tau(  37) = (   0.0537182   5.9220384  12.5388396  )
        38           Ti1 tau(  38) = (   3.3696634   4.4695314  12.5002334  )
        39           O1  tau(  39) = (   0.0023790   2.9538485  14.6690360  )
        40           O1  tau(  40) = (   3.3142834   2.9899978  13.8932647  )
        41           O1  tau(  41) = (   4.5682027   4.4688565  16.0600133  )
        42           O1  tau(  42) = (   2.0418658   4.4415600  16.0251682  )
        43           Ti1 tau(  43) = (   3.3511655   0.0130708  15.8150828  )
        44           Ti1 tau(  44) = (   0.0311020   4.6533438  16.0685068  )
        45           O1  tau(  45) = (   3.2900926   2.9813045   4.7018136  )
        46           O1  tau(  46) = (   1.3039711   4.4726057   6.0039043  )
        47           O1  tau(  47) = (   5.2763189   4.4711207   6.0039473  )
        48           C1  tau(  48) = (   0.0453995   2.9433715  17.6444507  )
        49           H1  tau(  49) = (   0.9770157   2.9292850  18.2072415  )
        50           N1  tau(  50) = (   5.5932985   2.7872967  18.4085793  )
        51           N1  tau(  51) = (   4.6087457   2.6299947  18.9712495  )
        52           O1  tau(  52) = (   3.0556172   5.9408547  18.1262901  )
        53           H1  tau(  53) = (   3.4776725   0.7204629  18.6058315  )
        54           H1  tau(  54) = (   2.0935776   0.0631959  18.2589326  )

     number of k points=    10  Fermi-Dirac smearing, width (Ry)=  0.0073
                       cart. coord. in units 2pi/alat
        k(    1) = (   0.0000000   0.0000000   0.0000000), wk =   0.1250000
        k(    2) = (   0.0000000   0.0419351   0.0000000), wk =   0.2500000
        k(    3) = (   0.0000000  -0.0838702   0.0000000), wk =   0.1250000
        k(    4) = (   0.0379955   0.0000049   0.0000000), wk =   0.2500000
        k(    5) = (   0.0379955   0.0419400   0.0000000), wk =   0.2500000
        k(    6) = (   0.0379955  -0.0838652   0.0000000), wk =   0.2500000
        k(    7) = (   0.0379955  -0.0419301   0.0000000), wk =   0.2500000
        k(    8) = (  -0.0759910  -0.0000099   0.0000000), wk =   0.1250000
        k(    9) = (  -0.0759910   0.0419252   0.0000000), wk =   0.2500000
        k(   10) = (  -0.0759910  -0.0838800   0.0000000), wk =   0.1250000

     Initial potential from superposition of free atoms

     starting charge  384.99916, renormalised to  401.00000

     negative rho (up, down):  1.775E-02 0.000E+00

     %%%%%%%%%%%%%%%%%%%%%%%%%%%%%%%%%%%%%%%%%%%%%%%%%%%%%%%%%%%%%%%%%%%%%%%%
     %                                                                      %
     % You are using vdW-DF, which was implemented by the Thonhauser group. %
     % Please cite the following two papers that made this development      %
     % possible and the two reviews that describe the various versions:     %
     %                                                                      %
     %   T. Thonhauser et al., PRL 115, 136402 (2015).                      %
     %   T. Thonhauser et al., PRB 76, 125112 (2007).                       %
     %   K. Berland et al., Rep. Prog. Phys. 78, 066501 (2015).             %
     %   D.C. Langreth et al., J. Phys.: Condens. Matter 21, 084203 (2009). %
     %                                                                      %
     %                                                                      %
     % If you are calculating the stress with vdW-DF, please also cite:     %
     %                                                                      %
     %   R. Sabatini et al., J. Phys.: Condens. Matter 24, 424209 (2012).   %
     %                                                                      %
     %%%%%%%%%%%%%%%%%%%%%%%%%%%%%%%%%%%%%%%%%%%%%%%%%%%%%%%%%%%%%%%%%%%%%%%%

     Adding external electric field

     Computed dipole along edir(3) :
        Dipole              -11.5992 Ry au,        -29.4821 Debye
        Dipole field         -0.0219 Ry au,

        Potential amp.        2.0291 Ry
        Total length         46.3494 bohr

     Starting wfcs are  303 atomic wfcs
  @ DRIVER MODE: Message from server: STATUS
  @ DRIVER MODE: Message from server: POSDATA
  @ DRIVER MODE: Reading and sharing cell
  @ DRIVER MODE: Reading and sharing positions
  @ DRIVER MODE: Received positions

     Self-consistent Calculation

     iteration #  1     ecut=    29.40 Ry     beta= 0.05
     Davidson diagonalization with overlap
     c_bands:  3 eigenvalues not converged
     c_bands:  1 eigenvalues not converged
     c_bands:  3 eigenvalues not converged
     c_bands:  3 eigenvalues not converged
     c_bands:  5 eigenvalues not converged
     c_bands:  2 eigenvalues not converged
     c_bands:  3 eigenvalues not converged
     c_bands:  1 eigenvalues not converged
     c_bands:  5 eigenvalues not converged
     ethr =  1.00E-05,  avg # of iterations = 23.5

[...]

     total energy              =   -2415.43195773 Ry
     estimated scf accuracy    <    6267.20170899 Ry

     iteration #  2     ecut=    29.40 Ry     beta= 0.05
     Davidson diagonalization with overlap
     ethr =  1.00E-02,  avg # of iterations = 31.4

[...]

     iteration # 48     ecut=    29.40 Ry     beta= 0.05
     Davidson diagonalization with overlap
     c_bands:  1 eigenvalues not converged
     ethr =  1.19E-07,  avg # of iterations =  5.3

[...]

     total energy              =   -2971.50208956 Ry
     estimated scf accuracy    <       0.00000009 Ry

     iteration # 64     ecut=    29.40 Ry     beta= 0.05
     Davidson diagonalization with overlap
     ethr =  2.16E-11,  avg # of iterations =  6.7

     negative rho (up, down):  1.755E-02 0.000E+00

     Adding external electric field

     Computed dipole along edir(3) :
        Dipole                0.5811 Ry au,          1.4771 Debye
        Dipole field          0.0011 Ry au,

        Potential amp.       -0.1017 Ry
        Total length         46.3494 bohr

     End of self-consistent calculation

          k = 0.0000 0.0000 0.0000 ( 18029 PWs)   bands (ev):

   -55.8792 -55.8452 -55.8448 -55.8394 -55.8082 -55.7225 -55.6935 -55.6851
   -55.6600 -55.6594 -55.6493 -55.6261 -55.4110 -55.2201 -54.8611 -54.8270
   -32.3873 -32.3627 -32.2449 -32.2176 -32.1922 -32.1716 -32.1498 -32.1427
   -32.1230 -32.0705 -32.0655 -32.0631 -32.0316 -32.0249 -32.0199 -31.9941
   -31.9846 -31.9772 -31.9697 -31.9422 -31.9365 -31.9189 -31.8976 -31.8872
   -31.8842 -31.8723 -31.8717 -31.8582 -31.8511 -31.8461 -31.8356 -31.8323
   -31.8274 -31.8234 -31.8131 -31.8010 -31.7719 -31.6594 -31.6259 -31.4801
   -31.4646 -31.4329 -31.2683 -31.1796 -31.1572 -31.0850 -30.9985 -30.8875
   -20.5017 -18.7562 -16.5819 -16.3517 -16.1273 -16.0368 -15.9917 -15.7817
   -15.6726 -15.6171 -15.4931 -15.4300 -15.4212 -15.4136 -15.3930 -15.3822
   -15.3263 -15.3157 -15.3034 -15.2978 -15.2698 -15.2333 -15.2175 -15.2160
   -15.1444 -15.0409 -15.0202 -14.9973 -14.9948 -14.9371 -14.4964 -13.6095
   -13.3631 -13.2466  -6.5899  -5.8286  -4.7075  -4.4888  -3.9557  -3.8218
    -3.7864  -3.7502  -3.7145  -3.5193  -3.4873  -3.3751  -3.2301  -3.1289
    -3.0596  -3.0253  -2.9705  -2.8939  -2.8252  -2.7630  -2.7273  -2.6850
    -2.6756  -2.6399  -2.6335  -2.6156  -2.5948  -2.4953  -2.4600  -2.4117
    -2.3461  -2.2448  -2.2246  -2.1932  -2.1876  -2.1521  -2.1447  -2.1234
    -2.1062  -2.0967  -2.0212  -1.9249  -1.8758  -1.7832  -1.6708  -1.5337
    -1.5286  -1.4859  -1.3580  -1.3450  -1.3150  -1.2880  -1.2730  -1.2249
    -1.1413  -1.0851  -1.0389  -0.9755  -0.9024  -0.8132  -0.7713  -0.7197
    -0.6552  -0.6385  -0.6306  -0.6117  -0.5737  -0.4663  -0.4441  -0.3682
    -0.3643  -0.2783  -0.2474  -0.1865  -0.1561  -0.1182  -0.0793  -0.0059
     0.0145   0.0388   0.0572   0.0846   0.0931   0.1351   0.1678   0.1722
     0.3679   0.3934   0.4526   0.4623   0.5220   0.6433   0.6617   0.7758
     0.8930   1.0884   1.1616   1.2548   1.3532   1.7329   1.7787   1.7840
     3.2440   3.3417   3.3802   3.3893   3.4768   3.4882   3.7053   3.7511
     3.7587   3.8133

[...]

          k = 0.0380-0.0419 0.0000 ( 17876 PWs)   bands (ev):

[...]

          k =-0.0760-0.0000 0.0000 ( 17886 PWs)   bands (ev):

[...]

          k =-0.0760-0.0839 0.0000 ( 17948 PWs)   bands (ev):

   -55.8626 -55.8616 -55.8383 -55.8293 -55.8229 -55.7112 -55.6964 -55.6768
   -55.6755 -55.6507 -55.6450 -55.6413 -55.4097 -55.2214 -54.8441 -54.8439
   -32.2043 -32.1820 -32.1783 -32.1776 -32.1575 -32.1566 -32.1289 -32.1020
   -32.0893 -32.0620 -32.0540 -32.0493 -32.0358 -32.0052 -31.9977 -31.9910
   -31.9833 -31.9832 -31.9823 -31.9810 -31.9795 -31.9768 -31.9575 -31.9248
   -31.9125 -31.9076 -31.8999 -31.8788 -31.8782 -31.8748 -31.8676 -31.8602
   -31.8563 -31.8518 -31.8495 -31.8470 -31.7835 -31.6628 -31.6191 -31.5369
   -31.4824 -31.4560 -31.1700 -31.1698 -31.0812 -31.0809 -31.0418 -31.0418
   -20.5010 -18.7553 -16.0423 -15.9262 -15.8449 -15.8041 -15.7360 -15.7000
   -15.6528 -15.5883 -15.5582 -15.5551 -15.5000 -15.4840 -15.4436 -15.4294
   -15.4050 -15.3986 -15.3828 -15.3347 -15.3227 -15.3143 -15.3053 -15.3017
   -15.2611 -15.2267 -15.2018 -15.1974 -15.0912 -14.9604 -14.6711 -13.6183
   -13.3485 -13.3482  -6.5878  -5.8236  -4.6662  -4.4626  -3.6283  -3.3285
    -3.3190  -3.1027  -3.0463  -2.9903  -2.9825  -2.9391  -2.8166  -2.7888
    -2.7403  -2.7320  -2.6933  -2.6879  -2.6829  -2.6632  -2.6297  -2.6102
    -2.6051  -2.5542  -2.5486  -2.5416  -2.5236  -2.5131  -2.5058  -2.4813
    -2.4545  -2.4389  -2.4219  -2.3921  -2.3092  -2.2791  -2.1114  -2.0700
    -2.0225  -2.0141  -1.9829  -1.9617  -1.9504  -1.9290  -1.8854  -1.7276
    -1.6501  -1.5833  -1.5723  -1.5624  -1.4867  -1.4704  -1.3590  -1.3220
    -1.2897  -1.2551  -1.1803  -1.1028  -1.0947  -1.0721  -0.9686  -0.9612
    -0.9269  -0.8835  -0.8454  -0.8344  -0.8257  -0.7479  -0.6922  -0.6203
    -0.6142  -0.5901  -0.5771  -0.5505  -0.5255  -0.4300  -0.3642  -0.3073
    -0.2746  -0.1870  -0.1577   0.0648   0.0864   0.1971   0.2102   0.2784
     0.3194   0.4280   0.4361   0.4839   0.5073   0.5322   0.5943   0.6601
     0.6698   0.6971   0.8151   1.5246   1.5260   1.5983   1.5987   1.6981
     3.5632   3.5948   3.6275   3.6373   3.7469   3.7675   3.7880   3.7904
     3.9054   3.9262

     the Fermi energy is     3.2518 ev

!    total energy              =   -2971.50214006 Ry
     estimated scf accuracy    <       0.00000004 Ry
     smearing contrib. (-TS)   =      -0.02121277 Ry
     internal energy E=F+TS    =   -2971.48092728 Ry

     The total energy is F=E-TS. E is the sum of the following terms:
     one-electron contribution =  -24213.40429778 Ry
     hartree contribution      =   12197.39549257 Ry
     xc contribution           =    -492.39084094 Ry
     ewald contribution        =    9536.91808154 Ry
     electric field correction =       0.00063733 Ry

     convergence has been achieved in  64 iterations

     Forces acting on atoms (cartesian axes, Ry/au):

     atom    1 type  1   force =     0.00018960   -0.00029753    0.09587988
     atom    2 type  1   force =    -0.00003830   -0.00048405   -0.17572182
     atom    3 type  2   force =     0.00006999   -0.00014346   -0.02406015
     atom    4 type  2   force =     0.00005945   -0.00155505    0.05355997
     atom    5 type  2   force =    -0.01130344   -0.00084718    0.00337445
     atom    6 type  2   force =     0.01317504   -0.00018550    0.00286468
     atom    7 type  1   force =    -0.00059468    0.00053257   -0.00601208
     atom    8 type  1   force =     0.00021955    0.00883244    0.02326531
     atom    9 type  2   force =    -0.00020718    0.00013598   -0.00008834
     atom   10 type  2   force =    -0.00059822    0.00120227   -0.01588707
     atom   11 type  2   force =    -0.00018624    0.00013882   -0.00003423
     atom   12 type  2   force =    -0.00018794   -0.00007907   -0.00016406
     atom   13 type  1   force =     0.00000795    0.00057939    0.00020525
     atom   14 type  1   force =    -0.00005723    0.00005544   -0.00000494
     atom   15 type  2   force =    -0.00024889   -0.00013370   -0.00006139
     atom   16 type  2   force =    -0.00021836    0.00023575   -0.00010345
     atom   17 type  2   force =    -0.00025182    0.00002689    0.00001844
     atom   18 type  2   force =    -0.00050778    0.00022507   -0.00012975
     atom   19 type  1   force =    -0.00008583   -0.00047409   -0.00006852
     atom   20 type  1   force =    -0.00026098   -0.00045150    0.00006368
     atom   21 type  2   force =     0.00006031   -0.00004507    0.10324912
     atom   22 type  2   force =     0.00019773    0.00015588   -0.00020321
     atom   23 type  2   force =    -0.07144136   -0.00012375   -0.02768905
     atom   24 type  2   force =     0.07142445    0.00030291   -0.02772309
     atom   25 type  1   force =     0.00002532   -0.00024210    0.09565695
     atom   26 type  1   force =    -0.00015712   -0.00037364   -0.17586890
     atom   27 type  2   force =     0.00010261   -0.00020286   -0.02306293
     atom   28 type  2   force =     0.00012423   -0.00121737    0.05307059
     atom   29 type  2   force =    -0.01155296    0.00062311    0.00328714
     atom   30 type  2   force =     0.01329261    0.00092725    0.00279313
     atom   31 type  1   force =    -0.00047260    0.00378228   -0.01061496
     atom   32 type  1   force =     0.00008747   -0.01101813    0.02366843
     atom   33 type  2   force =     0.00011639   -0.00003703    0.00003343
     atom   34 type  2   force =     0.00007948    0.00062268   -0.02081970
     atom   35 type  2   force =    -0.00019383   -0.00022794    0.00001076
     atom   36 type  2   force =    -0.00037878    0.00001520   -0.00008713
     atom   37 type  1   force =     0.00033201   -0.00052307   -0.00005229
     atom   38 type  1   force =     0.00000905   -0.00000470   -0.00017387
     atom   39 type  2   force =    -0.00034150    0.00001810    0.00003908
     atom   40 type  2   force =     0.00003062   -0.00015399   -0.00032952
     atom   41 type  2   force =    -0.00031669   -0.00021203   -0.00003398
     atom   42 type  2   force =     0.00005997    0.00000222   -0.00001998
     atom   43 type  1   force =     0.00037991   -0.00019734    0.00006392
     atom   44 type  1   force =    -0.00023767   -0.00022964    0.00020562
     atom   45 type  2   force =     0.00006214   -0.00008421    0.10322874
     atom   46 type  2   force =    -0.07144846   -0.00010228   -0.02771780
     atom   47 type  2   force =     0.07145083    0.00033162   -0.02774363
     atom   48 type  3   force =    -0.00015837    0.00005808    0.00051628
     atom   49 type  4   force =     0.00026592    0.00021481    0.00018842
     atom   50 type  5   force =     0.00118686    0.00051957   -0.00042102
     atom   51 type  5   force =    -0.00126970    0.00011548    0.00013367
     atom   52 type  2   force =     0.00296871    0.00662810    0.00469770
     atom   53 type  4   force =    -0.00322908   -0.00655024   -0.00446233
     atom   54 type  4   force =    -0.00003319   -0.00008539   -0.00071546

     Total force =     0.367039     Total SCF correction =     0.000603
  @ DRIVER MODE: Message from server: STATUS
  @ DRIVER MODE: Message from server: GETFORCE
  @ DRIVER MODE: Returning v,forces,stress,ensemble

     Writing output data file ./calc.save/
  @ DRIVER MODE: Message from server: EXIT
  @ DRIVE MODE: Exiting

     General routines

     Parallel routines

   This run was terminated on:   3:10:59  16Sep2021

   JOB DONE.