     Program PWSCF v.6.7GPU starts on 15Sep2021 at 22:13:50

     R & G space division:  proc/nbgrp/npool/nimage =      10
     Reading input from /storage/home/hcoda1/3/ntian30/research/carbon/CxH_vib/H2O_calc/ads_slab/CH2H2O_a/out_0022/pw.inp
Warning: card &CELL ignored
Warning: card   CELL_DYNAMICS='IPI', ignored
Warning: card / ignored

     Current dimensions of program PWSCF are:
     Max number of different atomic species (ntypx) = 10
     Max number of k-points (npk) =  40000
     Max angular momentum in pseudopotentials (lmaxx) =  3
     Presently no symmetry can be used with electric field

     Message from routine cell_base_init:
     DEPRECATED: use true lattice parameter, not A to a.u. conversion factor

     IMPORTANT: XC functional enforced from input :
     Exchange-correlation= BEEF-VDW
                           (   1   4  43  14   2   0   0)
     Any further DFT definition will be discarded
     Please, verify this is what you really want

  @ DRIVER MODE: Connecting to
 qe_1139763_2852604.sched-torque.pace.gatech.edu71c13d9r_scratch
  using UNIX socket
  @ DRIVER MODE: Message from server: STATUS
  @ DRIVER MODE: Message from server: INIT
  @ DRIVER MODE: Receiving replica           0          -1
  @ DRIVER MODE: Receiving encoded integer          25
  @ DRIVER MODE:  SCF:  T  FORCE:  T  STRESS:  F  VC:  F  ENSEMBLE:  F
  @ DRIVER MODE:  SCF:  T  FORCE:  T  STRESS:  F  VC:  F  ENSEMBLE:  F

     Using Slab Decomposition

     bravais-lattice index     =            0
     lattice parameter (alat)  =       1.8897  a.u.
     unit-cell volume          =    6658.9804 (a.u.)^3
     number of atoms/cell      =           53
     number of atomic types    =            4
     number of electrons       =       392.00
     number of Kohn-Sham states=          206
     kinetic-energy cutoff     =      29.3995  Ry
     charge density cutoff     =     293.9946  Ry
     scf convergence threshold =      7.3E-08
     mixing beta               =       0.0500
     number of iterations used =            8  plain     mixing
     Exchange-correlation= BEEF-VDW
                           (   1   4  43  14   2   0   0)

     celldm(1)=   1.889726  celldm(2)=   0.000000  celldm(3)=   0.000000
     celldm(4)=   0.000000  celldm(5)=   0.000000  celldm(6)=   0.000000

     crystal axes: (cart. coord. in units of alat)
               a(1) = (   6.579727   0.000000   0.000000 )
               a(2) = (  -0.000775   5.961596   0.000000 )
               a(3) = (   0.000000   0.000000  25.155947 )

     reciprocal axes: (cart. coord. in units 2 pi/alat)
               b(1) = (  0.151982  0.000020  0.000000 )
               b(2) = (  0.000000  0.167740  0.000000 )
               b(3) = (  0.000000  0.000000  0.039752 )

     PseudoPot. # 1 for Ti read from file:
     /storage/coda1/p-amedford6/0/shared/rich_project_chbe-medford/medford-share/data/pseudos_module/espresso/nninc/pbe/van/Ti.UPF
     MD5 check sum: 8e4df49b7f0d34bbd5052bf3f5ea0213
     Pseudo is Ultrasoft, Zval = 12.0
     Generated by new atomic code, or converted to UPF format
     Using radial grid of  851 points,  6 beta functions with:
                l(1) =   0
                l(2) =   0
                l(3) =   1
                l(4) =   1
                l(5) =   2
                l(6) =   2
     Q(r) pseudized with  8 coefficients,  rinner =    1.000   1.000   1.000
                                                       1.000   1.000

     PseudoPot. # 2 for O  read from file:
     /storage/coda1/p-amedford6/0/shared/rich_project_chbe-medford/medford-share/data/pseudos_module/espresso/nninc/pbe/van/O.UPF
     MD5 check sum: 78c19812648e8988a0fe644b0f25305e
     Pseudo is Ultrasoft, Zval =  6.0
     Generated by new atomic code, or converted to UPF format
     Using radial grid of  737 points,  4 beta functions with:
                l(1) =   0
                l(2) =   0
                l(3) =   1
                l(4) =   1
     Q(r) pseudized with  8 coefficients,  rinner =    0.800   0.800   0.800

     PseudoPot. # 3 for C  read from file:
     /storage/coda1/p-amedford6/0/shared/rich_project_chbe-medford/medford-share/data/pseudos_module/espresso/nninc/pbe/van/C.UPF
     MD5 check sum: 1a69bf6b8db32088f5b2163dbdb77a27
     Pseudo is Ultrasoft, Zval =  4.0
     Generated by new atomic code, or converted to UPF format
     Using radial grid of  721 points,  4 beta functions with:
                l(1) =   0
                l(2) =   0
                l(3) =   1
                l(4) =   1
     Q(r) pseudized with  8 coefficients,  rinner =    0.800   0.800   0.800

     PseudoPot. # 4 for H  read from file:
     /storage/coda1/p-amedford6/0/shared/rich_project_chbe-medford/medford-share/data/pseudos_module/espresso/nninc/pbe/van/H.UPF
     MD5 check sum: b5ee9d7bfd3a09ee7748110bda690ff7
     Pseudo is Ultrasoft, Zval =  1.0
     Generated by new atomic code, or converted to UPF format
     Using radial grid of  615 points,  1 beta functions with:
                l(1) =   0
     Q(r) pseudized with  8 coefficients,  rinner =    0.800

     atomic species   valence    mass     pseudopotential
        Ti1           12.00    47.86700     Ti( 1.00)
        O1             6.00    15.99900     O ( 1.00)
        C1             4.00    12.01100     C ( 1.00)
        H1             1.00     1.00800     H ( 1.00)

     No symmetry found

   Cartesian axes

     site n.     atom                  positions (alat units)
         1           Ti1 tau(   1) = (   0.0004258   2.9801865   6.0000000  )
         2           Ti1 tau(   2) = (   3.2906075   1.4906267   6.0002472  )
         3           O1  tau(   3) = (   0.0006271   0.0005054   7.9858123  )
         4           O1  tau(   4) = (   3.2906025   0.0005020   7.3038282  )
         5           O1  tau(   5) = (   4.5942328   1.4918067   9.2879030  )
         6           O1  tau(   6) = (   1.9868534   1.4903216   9.2879459  )
         7           Ti1 tau(   7) = (   3.2791254   2.8632543   9.1696858  )
         8           Ti1 tau(   8) = (   6.5716288   1.4291880   9.3745659  )
         9           O1  tau(   9) = (   3.2719631   5.9564768  11.3413791  )
        10           O1  tau(  10) = (   6.5766582   5.9454684  10.5603319  )
        11           O1  tau(  11) = (   1.2606928   1.4857163  12.6338655  )
        12           O1  tau(  12) = (   5.2561023   1.4877827  12.6114660  )
        13           Ti1 tau(  13) = (   0.0646731   2.9540699  12.8218634  )
        14           Ti1 tau(  14) = (   3.3836270   1.4660460  12.4955168  )
        15           O1  tau(  15) = (   6.5457659   5.9184216  14.5915085  )
        16           O1  tau(  16) = (   3.2744135   0.0171945  13.9516778  )
        17           O1  tau(  17) = (   4.5159629   1.5536209  16.0418326  )
        18           O1  tau(  18) = (   1.9981799   1.5541948  16.0447984  )
        19           Ti1 tau(  19) = (   3.2528476   3.0136947  15.6822407  )
        20           Ti1 tau(  20) = (   6.5571992   1.6159626  16.1493948  )
        21           O1  tau(  21) = (   3.2904802   0.0005063   4.7018136  )
        22           O1  tau(  22) = (   6.5499432   0.0285508  17.2403840  )
        23           O1  tau(  23) = (   1.3043587   1.4918075   6.0039043  )
        24           O1  tau(  24) = (   5.2767064   1.4903225   6.0039473  )
        25           Ti1 tau(  25) = (   0.0000382   5.9609847   6.0000000  )
        26           Ti1 tau(  26) = (   3.2902200   4.4714249   6.0002472  )
        27           O1  tau(  27) = (   0.0002396   2.9813036   7.9858123  )
        28           O1  tau(  28) = (   3.2902150   2.9813002   7.3038282  )
        29           O1  tau(  29) = (   4.5938453   4.4726049   9.2879030  )
        30           O1  tau(  30) = (   1.9864658   4.4711199   9.2879459  )
        31           Ti1 tau(  31) = (   3.2865685   5.8444178   9.1628351  )
        32           Ti1 tau(  32) = (   6.5743218   4.4049426   9.3738558  )
        33           O1  tau(  33) = (   3.2769956   2.9705820  11.3381082  )
        34           O1  tau(  34) = (   6.5775985   2.9640992  10.5572898  )
        35           O1  tau(  35) = (   1.2629977   4.4457513  12.6272354  )
        36           O1  tau(  36) = (   5.2537740   4.4534837  12.6036699  )
        37           Ti1 tau(  37) = (   0.0534783   5.9329931  12.7718795  )
        38           Ti1 tau(  38) = (   3.3808541   4.4548706  12.4760825  )
        39           O1  tau(  39) = (   6.5578179   2.9671967  14.6759119  )
        40           O1  tau(  40) = (   3.2646438   2.9894133  13.8927730  )
        41           O1  tau(  41) = (   4.5094683   4.4833613  16.0328582  )
        42           O1  tau(  42) = (   2.0033084   4.4836886  16.0339364  )
        43           Ti1 tau(  43) = (   3.2772676   0.0291193  15.7865657  )
        44           Ti1 tau(  44) = (   6.5620481   4.6241259  16.1080240  )
        45           O1  tau(  45) = (   3.2900926   2.9813045   4.7018136  )
        46           O1  tau(  46) = (   1.3039711   4.4726057   6.0039043  )
        47           O1  tau(  47) = (   5.2763189   4.4711207   6.0039473  )
        48           C1  tau(  48) = (   6.5362552   2.9989010  17.5868729  )
        49           H1  tau(  49) = (   0.8535040   3.1223538  18.1993289  )
        50           H1  tau(  50) = (   5.6240823   3.1149880  18.1772116  )
        51           O1  tau(  51) = (   3.2614802   0.0324742  18.1496266  )
        52           H1  tau(  52) = (   4.0528939   5.9570843  18.7024920  )
        53           H1  tau(  53) = (   2.4635753   0.0005096  18.6943540  )

     number of k points=    10  Fermi-Dirac smearing, width (Ry)=  0.0073
                       cart. coord. in units 2pi/alat
        k(    1) = (   0.0000000   0.0000000   0.0000000), wk =   0.1250000
        k(    2) = (   0.0000000   0.0419351   0.0000000), wk =   0.2500000
        k(    3) = (   0.0000000  -0.0838702   0.0000000), wk =   0.1250000
        k(    4) = (   0.0379955   0.0000049   0.0000000), wk =   0.2500000
        k(    5) = (   0.0379955   0.0419400   0.0000000), wk =   0.2500000
        k(    6) = (   0.0379955  -0.0838652   0.0000000), wk =   0.2500000
        k(    7) = (   0.0379955  -0.0419301   0.0000000), wk =   0.2500000
        k(    8) = (  -0.0759910  -0.0000099   0.0000000), wk =   0.1250000
        k(    9) = (  -0.0759910   0.0419252   0.0000000), wk =   0.2500000
        k(   10) = (  -0.0759910  -0.0838800   0.0000000), wk =   0.1250000

     Initial potential from superposition of free atoms

     starting charge  375.99917, renormalised to  392.00000

     negative rho (up, down):  1.851E-02 0.000E+00

     %%%%%%%%%%%%%%%%%%%%%%%%%%%%%%%%%%%%%%%%%%%%%%%%%%%%%%%%%%%%%%%%%%%%%%%%
     %                                                                      %
     % You are using vdW-DF, which was implemented by the Thonhauser group. %
     % Please cite the following two papers that made this development      %
     % possible and the two reviews that describe the various versions:     %
     %                                                                      %
     %   T. Thonhauser et al., PRL 115, 136402 (2015).                      %
     %   T. Thonhauser et al., PRB 76, 125112 (2007).                       %
     %   K. Berland et al., Rep. Prog. Phys. 78, 066501 (2015).             %
     %   D.C. Langreth et al., J. Phys.: Condens. Matter 21, 084203 (2009). %
     %                                                                      %
     %                                                                      %
     % If you are calculating the stress with vdW-DF, please also cite:     %
     %                                                                      %
     %   R. Sabatini et al., J. Phys.: Condens. Matter 24, 424209 (2012).   %
     %                                                                      %
     %%%%%%%%%%%%%%%%%%%%%%%%%%%%%%%%%%%%%%%%%%%%%%%%%%%%%%%%%%%%%%%%%%%%%%%%

     Adding external electric field

     Computed dipole along edir(3) :
        Dipole               -5.1805 Ry au,        -13.1674 Debye
        Dipole field         -0.0098 Ry au,

        Potential amp.        0.9062 Ry
        Total length         46.3494 bohr

     Starting wfcs are  296 atomic wfcs
  @ DRIVER MODE: Message from server: STATUS
  @ DRIVER MODE: Message from server: POSDATA
  @ DRIVER MODE: Reading and sharing cell
  @ DRIVER MODE: Reading and sharing positions
  @ DRIVER MODE: Received positions

     Self-consistent Calculation

     iteration #  1     ecut=    29.40 Ry     beta= 0.05
     Davidson diagonalization with overlap
     c_bands:  5 eigenvalues not converged
     c_bands:  3 eigenvalues not converged
     c_bands:  4 eigenvalues not converged
     c_bands:  1 eigenvalues not converged
     c_bands:  2 eigenvalues not converged
     c_bands:  1 eigenvalues not converged
     c_bands:  3 eigenvalues not converged
     c_bands:  1 eigenvalues not converged
     ethr =  1.00E-05,  avg # of iterations = 19.5

[...]

     total energy              =   -2834.18268158 Ry
     estimated scf accuracy    <    1088.46003897 Ry

     iteration #  2     ecut=    29.40 Ry     beta= 0.05
     Davidson diagonalization with overlap
     ethr =  1.00E-02,  avg # of iterations = 16.0

[...]

     iteration # 54     ecut=    29.40 Ry     beta= 0.05
     Davidson diagonalization with overlap
     c_bands:  2 eigenvalues not converged
     c_bands:  2 eigenvalues not converged
     ethr =  3.60E-07,  avg # of iterations =  9.9

[...]

     total energy              =   -2932.56459175 Ry
     estimated scf accuracy    <       0.00000011 Ry

     iteration # 76     ecut=    29.40 Ry     beta= 0.05
     Davidson diagonalization with overlap
     ethr =  2.79E-11,  avg # of iterations =  5.0

     negative rho (up, down):  1.823E-02 0.000E+00

     Adding external electric field

     Computed dipole along edir(3) :
        Dipole                0.8995 Ry au,          2.2863 Debye
        Dipole field          0.0017 Ry au,

        Potential amp.       -0.1574 Ry
        Total length         46.3494 bohr

     End of self-consistent calculation

          k = 0.0000 0.0000 0.0000 ( 18029 PWs)   bands (ev):

   -56.1847 -56.1505 -55.8906 -55.8414 -55.8034 -55.6988 -55.5899 -55.5621
   -55.5281 -55.5087 -55.4916 -55.4558 -55.1250 -54.9927 -54.9694 -54.9354
   -32.6125 -32.4358 -32.4069 -32.3818 -32.3739 -32.2904 -32.2825 -32.2391
   -32.1769 -32.1101 -32.1037 -32.0685 -32.0574 -32.0543 -32.0479 -32.0228
   -31.9983 -31.9964 -31.9661 -31.8947 -31.8709 -31.8391 -31.8220 -31.8093
   -31.8072 -31.7784 -31.7486 -31.7320 -31.7244 -31.7210 -31.6790 -31.6716
   -31.6705 -31.6640 -31.6495 -31.5953 -31.5734 -31.4212 -31.3722 -31.3691
   -31.3230 -31.2958 -31.2720 -31.1875 -31.1680 -31.1026 -31.0374 -30.9906
   -19.2266 -16.5190 -16.3493 -16.1133 -15.9787 -15.8972 -15.7370 -15.5561
   -15.5474 -15.4587 -15.4354 -15.3593 -15.3504 -15.3161 -15.3039 -15.2960
   -15.2808 -15.2572 -15.2115 -15.2000 -15.1995 -15.1508 -15.0960 -15.0030
   -14.9910 -14.9433 -14.8251 -14.8179 -14.7834 -14.6380 -13.4631 -13.3494
    -8.0683  -7.2655  -3.9971  -3.9291  -3.8116  -3.7194  -3.6945  -3.5794
    -3.3399  -3.2698  -3.0125  -2.9810  -2.9382  -2.8923  -2.8780  -2.7976
    -2.7051  -2.6899  -2.6621  -2.6367  -2.6017  -2.5941  -2.5301  -2.5216
    -2.4988  -2.4932  -2.4296  -2.4145  -2.3722  -2.2360  -2.1858  -2.1611
    -2.1487  -2.1093  -2.0744  -2.0120  -1.9888  -1.9613  -1.9034  -1.7537
    -1.7299  -1.6494  -1.6213  -1.5496  -1.4605  -1.4463  -1.2992  -1.2819
    -1.2458  -1.2346  -1.2070  -1.1547  -1.1349  -1.0280  -0.8975  -0.8182
    -0.7857  -0.7640  -0.7507  -0.7040  -0.6673  -0.6141  -0.6062  -0.5627
    -0.4873  -0.4787  -0.4029  -0.2177  -0.2040  -0.1929  -0.1761  -0.1338
    -0.1045  -0.0824  -0.0386   0.0063   0.0307   0.0892   0.0994   0.1309
     0.1483   0.2257   0.2743   0.3302   0.3363   0.4492   0.5602   0.6224
     0.6401   0.6708   0.7718   0.7833   0.9895   1.0080   1.0584   1.2701
     1.3155   1.6440   1.7156   2.1719   3.0842   3.2595   3.4625   3.5609
     3.5810   3.6762   3.6888   3.8206   3.8779   3.9258

[...]

          k = 0.0380-0.0419 0.0000 ( 17876 PWs)   bands (ev):

[...]

          k =-0.0760-0.0000 0.0000 ( 17886 PWs)   bands (ev):

[...]

          k =-0.0760-0.0839 0.0000 ( 17948 PWs)   bands (ev):

   -56.1706 -56.1645 -55.8890 -55.8288 -55.8159 -55.7002 -55.5860 -55.5460
   -55.5439 -55.5125 -55.4775 -55.4700 -55.1228 -54.9948 -54.9523 -54.9523
   -32.4325 -32.4274 -32.4245 -32.4171 -32.3290 -32.3239 -32.1961 -32.1836
   -32.1692 -32.1581 -32.1062 -32.0915 -32.0524 -32.0324 -32.0285 -32.0167
   -31.9986 -31.9024 -31.9022 -31.8762 -31.8756 -31.8397 -31.8170 -31.8071
   -31.8045 -31.7972 -31.7904 -31.7874 -31.7585 -31.7566 -31.7548 -31.7392
   -31.6929 -31.6858 -31.6826 -31.6758 -31.4833 -31.4199 -31.3760 -31.2954
   -31.2849 -31.2849 -31.2789 -31.1835 -31.1832 -31.1453 -31.1451 -31.0504
   -19.2259 -16.0085 -15.8984 -15.7455 -15.7055 -15.6620 -15.6615 -15.6313
   -15.5978 -15.5624 -15.5559 -15.4662 -15.4349 -15.4204 -15.4085 -15.3437
   -15.3379 -15.3332 -15.3295 -15.2687 -15.2621 -15.1478 -15.1400 -15.0602
   -15.0498 -15.0201 -14.9979 -14.9547 -14.9482 -14.7888 -13.4518 -13.4517
    -8.0729  -7.2586  -3.9179  -3.3090  -3.0908  -2.9694  -2.9306  -2.8048
    -2.7935  -2.7876  -2.7799  -2.7676  -2.7282  -2.6732  -2.6529  -2.6415
    -2.6158  -2.6028  -2.5751  -2.5670  -2.5399  -2.5380  -2.5324  -2.5283
    -2.5104  -2.4919  -2.4358  -2.4274  -2.4113  -2.3818  -2.3026  -2.2875
    -2.1969  -2.1106  -2.0779  -2.0766  -2.0161  -1.9812  -1.8990  -1.8905
    -1.8740  -1.8688  -1.8050  -1.6115  -1.5564  -1.5513  -1.5141  -1.4794
    -1.3193  -1.2797  -1.2191  -1.1774  -1.1476  -1.1316  -1.0582  -1.0472
    -1.0215  -0.9678  -0.9630  -0.9560  -0.9401  -0.8592  -0.8424  -0.8159
    -0.7415  -0.7004  -0.6842  -0.6581  -0.6278  -0.5748  -0.4903  -0.4672
    -0.4549  -0.4403  -0.3115  -0.2738  -0.2447  -0.2063  -0.1577   0.1073
     0.1171   0.1989   0.2995   0.3930   0.4338   0.5357   0.5537   0.5603
     0.6866   0.6998   0.7053   0.7141   0.8148   0.8215   0.8581   1.4435
     1.4459   1.4984   1.4997   2.4415   3.6074   3.6144   3.6260   3.6313
     3.6540   3.6841   3.7036   3.7349   4.0258   4.0531

     the Fermi energy is     2.7916 ev

!    total energy              =   -2932.56460868 Ry
     estimated scf accuracy    <       0.00000005 Ry
     smearing contrib. (-TS)   =      -0.00167300 Ry
     internal energy E=F+TS    =   -2932.56293568 Ry

     The total energy is F=E-TS. E is the sum of the following terms:
     one-electron contribution =  -24523.10492766 Ry
     hartree contribution      =   12349.15138574 Ry
     xc contribution           =    -482.74398682 Ry
     ewald contribution        =    9724.13306611 Ry
     electric field correction =       0.00152694 Ry

     convergence has been achieved in  76 iterations

     Forces acting on atoms (cartesian axes, Ry/au):

     atom    1 type  1   force =     0.00029937   -0.00016062    0.14552571
     atom    2 type  1   force =     0.00005189    0.00070960   -0.16923720
     atom    3 type  2   force =     0.00003622    0.00235169   -0.06022372
     atom    4 type  2   force =    -0.00017147   -0.00141835    0.03906908
     atom    5 type  2   force =    -0.02194748   -0.00032286    0.00359601
     atom    6 type  2   force =     0.01963716   -0.00081304    0.00220602
     atom    7 type  1   force =     0.00012486   -0.00000713    0.00039564
     atom    8 type  1   force =     0.00006964    0.00009025    0.00105953
     atom    9 type  2   force =    -0.00007831   -0.00028658    0.00030900
     atom   10 type  2   force =     0.00010550    0.00014697   -0.00060119
     atom   11 type  2   force =     0.00009433    0.00001950    0.00100186
     atom   12 type  2   force =     0.00071022    0.00009958    0.00105498
     atom   13 type  1   force =    -0.00071966   -0.00015926   -0.00047009
     atom   14 type  1   force =     0.00037481   -0.00104568   -0.00000744
     atom   15 type  2   force =     0.00019187   -0.00016979    0.00097062
     atom   16 type  2   force =    -0.00005553   -0.00028659    0.00144077
     atom   17 type  2   force =     0.00019879   -0.00049501    0.00005182
     atom   18 type  2   force =    -0.00017788   -0.00063382    0.00007591
     atom   19 type  1   force =     0.00079418   -0.00089472   -0.00027094
     atom   20 type  1   force =    -0.00029464    0.00044062   -0.00025096
     atom   21 type  2   force =     0.00012887   -0.00007855    0.10218096
     atom   22 type  2   force =     0.00015320   -0.00003299   -0.00001518
     atom   23 type  2   force =    -0.07476369    0.00032056   -0.03449072
     atom   24 type  2   force =     0.07483777    0.00076729   -0.03455886
     atom   25 type  1   force =     0.00009400   -0.00007066    0.14712390
     atom   26 type  1   force =     0.00001510   -0.00208439   -0.16942477
     atom   27 type  2   force =     0.00001466    0.00193228   -0.05938111
     atom   28 type  2   force =    -0.00028773   -0.00139810    0.03995222
     atom   29 type  2   force =    -0.02159199    0.00107694    0.00381788
     atom   30 type  2   force =     0.02034013   -0.00010766    0.00242987
     atom   31 type  1   force =     0.00013354    0.00016932    0.00128996
     atom   32 type  1   force =     0.00006145   -0.00023440    0.00115769
     atom   33 type  2   force =    -0.00010525   -0.00006494   -0.00058562
     atom   34 type  2   force =     0.00010771    0.00010049   -0.00066005
     atom   35 type  2   force =     0.00029078   -0.00038072    0.00076740
     atom   36 type  2   force =     0.00034087   -0.00045571    0.00083643
     atom   37 type  1   force =    -0.00059034   -0.00015035   -0.00057850
     atom   38 type  1   force =     0.00048561    0.00061398   -0.00035275
     atom   39 type  2   force =     0.00028820   -0.00000093   -0.00020790
     atom   40 type  2   force =    -0.00009812   -0.00012808    0.00177586
     atom   41 type  2   force =     0.00002863    0.00055457    0.00051543
     atom   42 type  2   force =    -0.00006218    0.00060462    0.00056784
     atom   43 type  1   force =     0.00041363    0.00077286   -0.00021574
     atom   44 type  1   force =    -0.00036612    0.00020608   -0.00015849
     atom   45 type  2   force =     0.00011931   -0.00010386    0.10210932
     atom   46 type  2   force =    -0.07475265   -0.00002051   -0.03445914
     atom   47 type  2   force =     0.07484130    0.00043739   -0.03455884
     atom   48 type  3   force =    -0.00002124   -0.00023581    0.00031438
     atom   49 type  4   force =     0.00009005   -0.00022182   -0.00040914
     atom   50 type  4   force =     0.00039672   -0.00009209   -0.00033384
     atom   51 type  2   force =     0.00031697    0.00118759   -0.00014699
     atom   52 type  4   force =     0.00013944   -0.00002833   -0.00005614
     atom   53 type  4   force =    -0.00024248   -0.00001882    0.00005920

     Total force =     0.400364     Total SCF correction =     0.000809
  @ DRIVER MODE: Message from server: STATUS
  @ DRIVER MODE: Message from server: GETFORCE
  @ DRIVER MODE: Returning v,forces,stress,ensemble

     Writing output data file ./calc.save/
  @ DRIVER MODE: Message from server: EXIT
  @ DRIVE MODE: Exiting

     General routines

     Parallel routines

   This run was terminated on:  22:32:26  15Sep2021

   JOB DONE.