     Program PWSCF v.6.7GPU starts on 14Sep2021 at 23:48:55

     R & G space division:  proc/nbgrp/npool/nimage =      10
     Reading input from /storage/home/hcoda1/3/ntian30/research/carbon/CxH_vib/CH2_calc/ads_slab/CH2ON2_b/out_0030/pw.inp
Warning: card &CELL ignored
Warning: card   CELL_DYNAMICS='IPI', ignored
Warning: card / ignored

     Current dimensions of program PWSCF are:
     Max number of different atomic species (ntypx) = 10
     Max number of k-points (npk) =  40000
     Max angular momentum in pseudopotentials (lmaxx) =  3
     Presently no symmetry can be used with electric field

     Message from routine cell_base_init:
     DEPRECATED: use true lattice parameter, not A to a.u. conversion factor

     IMPORTANT: XC functional enforced from input :
     Exchange-correlation= BEEF-VDW
                           (   1   4  43  14   2   0   0)
     Any further DFT definition will be discarded
     Please, verify this is what you really want

  @ DRIVER MODE: Connecting to
 qe_1139763_2840441.sched-torque.pace.gatech.edunx9hxlov_scratch
  using UNIX socket
  @ DRIVER MODE: Message from server: STATUS
  @ DRIVER MODE: Message from server: INIT
  @ DRIVER MODE: Receiving replica           0          -1
  @ DRIVER MODE: Receiving encoded integer          25
  @ DRIVER MODE:  SCF:  T  FORCE:  T  STRESS:  F  VC:  F  ENSEMBLE:  F
  @ DRIVER MODE:  SCF:  T  FORCE:  T  STRESS:  F  VC:  F  ENSEMBLE:  F

     Using Slab Decomposition

     bravais-lattice index     =            0
     lattice parameter (alat)  =       1.8897  a.u.
     unit-cell volume          =    6658.9804 (a.u.)^3
     number of atoms/cell      =           53
     number of atomic types    =            5
     number of electrons       =       400.00
     number of Kohn-Sham states=          210
     kinetic-energy cutoff     =      29.3995  Ry
     charge density cutoff     =     293.9946  Ry
     scf convergence threshold =      7.3E-08
     mixing beta               =       0.0500
     number of iterations used =            8  plain     mixing
     Exchange-correlation= BEEF-VDW
                           (   1   4  43  14   2   0   0)

     celldm(1)=   1.889726  celldm(2)=   0.000000  celldm(3)=   0.000000
     celldm(4)=   0.000000  celldm(5)=   0.000000  celldm(6)=   0.000000

     crystal axes: (cart. coord. in units of alat)
               a(1) = (   6.579727   0.000000   0.000000 )
               a(2) = (  -0.000775   5.961596   0.000000 )
               a(3) = (   0.000000   0.000000  25.155947 )

     reciprocal axes: (cart. coord. in units 2 pi/alat)
               b(1) = (  0.151982  0.000020  0.000000 )
               b(2) = (  0.000000  0.167740  0.000000 )
               b(3) = (  0.000000  0.000000  0.039752 )

     PseudoPot. # 1 for C  read from file:
     /storage/coda1/p-amedford6/0/shared/rich_project_chbe-medford/medford-share/data/pseudos_module/espresso/nninc/pbe/van/C.UPF
     MD5 check sum: 1a69bf6b8db32088f5b2163dbdb77a27
     Pseudo is Ultrasoft, Zval =  4.0
     Generated by new atomic code, or converted to UPF format
     Using radial grid of  721 points,  4 beta functions with:
                l(1) =   0
                l(2) =   0
                l(3) =   1
                l(4) =   1
     Q(r) pseudized with  8 coefficients,  rinner =    0.800   0.800   0.800

     PseudoPot. # 2 for H  read from file:
     /storage/coda1/p-amedford6/0/shared/rich_project_chbe-medford/medford-share/data/pseudos_module/espresso/nninc/pbe/van/H.UPF
     MD5 check sum: b5ee9d7bfd3a09ee7748110bda690ff7
     Pseudo is Ultrasoft, Zval =  1.0
     Generated by new atomic code, or converted to UPF format
     Using radial grid of  615 points,  1 beta functions with:
                l(1) =   0
     Q(r) pseudized with  8 coefficients,  rinner =    0.800

     PseudoPot. # 3 for O  read from file:
     /storage/coda1/p-amedford6/0/shared/rich_project_chbe-medford/medford-share/data/pseudos_module/espresso/nninc/pbe/van/O.UPF
     MD5 check sum: 78c19812648e8988a0fe644b0f25305e
     Pseudo is Ultrasoft, Zval =  6.0
     Generated by new atomic code, or converted to UPF format
     Using radial grid of  737 points,  4 beta functions with:
                l(1) =   0
                l(2) =   0
                l(3) =   1
                l(4) =   1
     Q(r) pseudized with  8 coefficients,  rinner =    0.800   0.800   0.800

     PseudoPot. # 4 for Ti read from file:
     /storage/coda1/p-amedford6/0/shared/rich_project_chbe-medford/medford-share/data/pseudos_module/espresso/nninc/pbe/van/Ti.UPF
     MD5 check sum: 8e4df49b7f0d34bbd5052bf3f5ea0213
     Pseudo is Ultrasoft, Zval = 12.0
     Generated by new atomic code, or converted to UPF format
     Using radial grid of  851 points,  6 beta functions with:
                l(1) =   0
                l(2) =   0
                l(3) =   1
                l(4) =   1
                l(5) =   2
                l(6) =   2
     Q(r) pseudized with  8 coefficients,  rinner =    1.000   1.000   1.000
                                                       1.000   1.000

     PseudoPot. # 5 for N  read from file:
     /storage/coda1/p-amedford6/0/shared/rich_project_chbe-medford/medford-share/data/pseudos_module/espresso/nninc/pbe/van/N.UPF
     MD5 check sum: 90d10febe142ad51ac9d5be1deb811c4
     Pseudo is Ultrasoft, Zval =  5.0
     Generated by new atomic code, or converted to UPF format
     Using radial grid of  729 points,  4 beta functions with:
                l(1) =   0
                l(2) =   0
                l(3) =   1
                l(4) =   1
     Q(r) pseudized with  8 coefficients,  rinner =    0.800   0.800   0.800

     atomic species   valence    mass     pseudopotential
        C1             4.00    12.01100     C ( 1.00)
        H1             1.00     1.00800     H ( 1.00)
        O1             6.00    15.99900     O ( 1.00)
        Ti1           12.00    47.86700     Ti( 1.00)
        N1             5.00    14.00700     N ( 1.00)

     No symmetry found

   Cartesian axes

     site n.     atom                  positions (alat units)
         1           C1  tau(   1) = (   6.4247902   2.9910588  18.6917704  )
         2           H1  tau(   2) = (   6.3980358   3.9338040  19.2291268  )
         3           H1  tau(   3) = (   6.3671137   2.0386567  19.2103458  )
         4           O1  tau(   4) = (   3.2904802   0.0005063   4.7018136  )
         5           O1  tau(   5) = (   3.2900926   2.9813045   4.7018136  )
         6           O1  tau(   6) = (   1.3043587   1.4918075   6.0039043  )
         7           O1  tau(   7) = (   1.3039711   4.4726057   6.0039043  )
         8           O1  tau(   8) = (   5.2767064   1.4903225   6.0039473  )
         9           O1  tau(   9) = (   5.2763189   4.4711207   6.0039473  )
        10           O1  tau(  10) = (   3.2906025   0.0005020   7.3038282  )
        11           O1  tau(  11) = (   3.2902150   2.9813002   7.3038282  )
        12           O1  tau(  12) = (   0.0006271   0.0005054   7.9858123  )
        13           O1  tau(  13) = (   0.0002396   2.9813036   7.9858123  )
        14           O1  tau(  14) = (   4.5942328   1.4918067   9.2879030  )
        15           O1  tau(  15) = (   4.5938453   4.4726049   9.2879030  )
        16           O1  tau(  16) = (   1.9868534   1.4903216   9.2879459  )
        17           O1  tau(  17) = (   1.9864658   4.4711199   9.2879459  )
        18           O1  tau(  18) = (   0.0058113   2.9878523  10.5832334  )
        19           O1  tau(  19) = (   0.0062988   0.0093020  10.6005518  )
        20           O1  tau(  20) = (   3.2955317   2.9954032  11.3404818  )
        21           O1  tau(  21) = (   3.2944299   0.0136787  11.3445968  )
        22           O1  tau(  22) = (   5.2904553   1.5027675  12.6317203  )
        23           O1  tau(  23) = (   5.2914467   4.4836083  12.6349631  )
        24           O1  tau(  24) = (   1.2933861   1.5040032  12.6362007  )
        25           O1  tau(  25) = (   1.2922507   4.4849626  12.6395598  )
        26           O1  tau(  26) = (   3.2955364   2.9961609  13.9180299  )
        27           O1  tau(  27) = (   3.2969677   0.0155663  13.9438287  )
        28           O1  tau(  28) = (   0.0016464   0.0229801  14.6780835  )
        29           O1  tau(  29) = (   0.0078505   2.9966620  14.7218711  )
        30           O1  tau(  30) = (   4.5417949   4.4807699  16.1031406  )
        31           O1  tau(  31) = (   4.5422182   1.5234006  16.1020929  )
        32           O1  tau(  32) = (   2.0382733   4.4802786  16.1011463  )
        33           O1  tau(  33) = (   2.0385641   1.5240134  16.0993588  )
        34           O1  tau(  34) = (   6.5794991   0.0244991  17.1995468  )
        35           O1  tau(  35) = (   6.5588415   3.0026814  17.4289308  )
        36           Ti1 tau(  36) = (   0.0004258   2.9801865   6.0000000  )
        37           Ti1 tau(  37) = (   0.0000382   5.9609847   6.0000000  )
        38           Ti1 tau(  38) = (   3.2906075   1.4906267   6.0002472  )
        39           Ti1 tau(  39) = (   3.2902200   4.4714249   6.0002472  )
        40           Ti1 tau(  40) = (   3.2947477   0.0499856   9.1537742  )
        41           Ti1 tau(  41) = (   3.3215383   3.0289251   9.1580241  )
        42           Ti1 tau(  42) = (   0.0276872   4.5181110   9.2597866  )
        43           Ti1 tau(  43) = (   0.0223396   1.5961087   9.3523429  )
        44           Ti1 tau(  44) = (   3.3278215   4.4891914  12.4850086  )
        45           Ti1 tau(  45) = (   3.3277968   1.5111787  12.4828596  )
        46           Ti1 tau(  46) = (   0.0250534   0.0277200  12.4935153  )
        47           Ti1 tau(  47) = (   0.0290128   3.0118426  12.7617797  )
        48           Ti1 tau(  48) = (   3.2948489   3.0033751  15.7103116  )
        49           Ti1 tau(  49) = (   3.2995243   0.0226186  15.7353524  )
        50           Ti1 tau(  50) = (   0.0095488   1.4190105  15.9501391  )
        51           Ti1 tau(  51) = (   0.0117608   4.6113996  15.9785021  )
        52           N1  tau(  52) = (   3.7826193   3.0501191  20.3190129  )
        53           N1  tau(  53) = (   2.7364546   2.9530354  19.9655958  )

     number of k points=    10  Fermi-Dirac smearing, width (Ry)=  0.0073
                       cart. coord. in units 2pi/alat
        k(    1) = (   0.0000000   0.0000000   0.0000000), wk =   0.1250000
        k(    2) = (   0.0000000   0.0419351   0.0000000), wk =   0.2500000
        k(    3) = (   0.0000000  -0.0838702   0.0000000), wk =   0.1250000
        k(    4) = (   0.0379955   0.0000049   0.0000000), wk =   0.2500000
        k(    5) = (   0.0379955   0.0419400   0.0000000), wk =   0.2500000
        k(    6) = (   0.0379955  -0.0838652   0.0000000), wk =   0.2500000
        k(    7) = (   0.0379955  -0.0419301   0.0000000), wk =   0.2500000
        k(    8) = (  -0.0759910  -0.0000099   0.0000000), wk =   0.1250000
        k(    9) = (  -0.0759910   0.0419252   0.0000000), wk =   0.2500000
        k(   10) = (  -0.0759910  -0.0838800   0.0000000), wk =   0.1250000

     Initial potential from superposition of free atoms

     starting charge  383.99917, renormalised to  400.00000

     negative rho (up, down):  1.497E-02 0.000E+00

     %%%%%%%%%%%%%%%%%%%%%%%%%%%%%%%%%%%%%%%%%%%%%%%%%%%%%%%%%%%%%%%%%%%%%%%%
     %                                                                      %
     % You are using vdW-DF, which was implemented by the Thonhauser group. %
     % Please cite the following two papers that made this development      %
     % possible and the two reviews that describe the various versions:     %
     %                                                                      %
     %   T. Thonhauser et al., PRL 115, 136402 (2015).                      %
     %   T. Thonhauser et al., PRB 76, 125112 (2007).                       %
     %   K. Berland et al., Rep. Prog. Phys. 78, 066501 (2015).             %
     %   D.C. Langreth et al., J. Phys.: Condens. Matter 21, 084203 (2009). %
     %                                                                      %
     %                                                                      %
     % If you are calculating the stress with vdW-DF, please also cite:     %
     %                                                                      %
     %   R. Sabatini et al., J. Phys.: Condens. Matter 24, 424209 (2012).   %
     %                                                                      %
     %%%%%%%%%%%%%%%%%%%%%%%%%%%%%%%%%%%%%%%%%%%%%%%%%%%%%%%%%%%%%%%%%%%%%%%%

     Adding external electric field

     Computed dipole along edir(3) :
        Dipole              -12.3607 Ry au,        -31.4177 Debye
        Dipole field         -0.0233 Ry au,

        Potential amp.        2.1623 Ry
        Total length         46.3494 bohr

     Starting wfcs are  302 atomic wfcs
  @ DRIVER MODE: Message from server: STATUS
  @ DRIVER MODE: Message from server: POSDATA
  @ DRIVER MODE: Reading and sharing cell
  @ DRIVER MODE: Reading and sharing positions
  @ DRIVER MODE: Received positions

     Self-consistent Calculation

     iteration #  1     ecut=    29.40 Ry     beta= 0.05
     Davidson diagonalization with overlap
     c_bands:  2 eigenvalues not converged
     c_bands:  2 eigenvalues not converged
     c_bands:  2 eigenvalues not converged
     c_bands:  2 eigenvalues not converged
     c_bands:  4 eigenvalues not converged
     c_bands:  2 eigenvalues not converged
     c_bands:  5 eigenvalues not converged
     c_bands:  1 eigenvalues not converged
     c_bands:  3 eigenvalues not converged
     c_bands:  5 eigenvalues not converged
     ethr =  1.00E-05,  avg # of iterations = 22.0

[...]

     total energy              =   -2430.23173057 Ry
     estimated scf accuracy    <    6093.21747306 Ry

     iteration #  2     ecut=    29.40 Ry     beta= 0.05
     Davidson diagonalization with overlap
     ethr =  1.00E-02,  avg # of iterations = 22.0

[...]

     iteration # 79     ecut=    29.40 Ry     beta= 0.05
     Davidson diagonalization with overlap
     c_bands:  1 eigenvalues not converged
     ethr =  9.21E-11,  avg # of iterations = 11.7

[...]

     total energy              =   -2970.35124135 Ry
     estimated scf accuracy    <       0.00000011 Ry

     iteration # 82     ecut=    29.40 Ry     beta= 0.05
     Davidson diagonalization with overlap
     ethr =  2.80E-11,  avg # of iterations =  4.8

     negative rho (up, down):  1.506E-02 0.000E+00

     Adding external electric field

     Computed dipole along edir(3) :
        Dipole                0.9926 Ry au,          2.5228 Debye
        Dipole field          0.0019 Ry au,

        Potential amp.       -0.1736 Ry
        Total length         46.3494 bohr

     End of self-consistent calculation

          k = 0.0000 0.0000 0.0000 ( 18029 PWs)   bands (ev):

   -55.5235 -55.5141 -55.4864 -55.4778 -55.4193 -55.4020 -55.3770 -55.3133
   -55.3073 -55.2977 -55.2945 -55.2612 -55.2426 -55.2180 -54.5485 -54.5144
   -32.0851 -31.9965 -31.8971 -31.8872 -31.8329 -31.8288 -31.8217 -31.8019
   -31.7738 -31.7579 -31.7555 -31.7305 -31.7066 -31.6961 -31.6815 -31.6632
   -31.6482 -31.6477 -31.6383 -31.6183 -31.5984 -31.5943 -31.5859 -31.5803
   -31.5759 -31.5490 -31.5482 -31.5268 -31.5211 -31.5199 -31.4986 -31.4764
   -31.4710 -31.4483 -31.4393 -31.4389 -31.4314 -31.4267 -31.4050 -31.4006
   -31.3951 -31.3876 -30.9585 -30.8609 -30.8386 -30.7752 -30.6891 -30.5778
   -21.3484 -19.7414 -16.3070 -16.0065 -15.8646 -15.7344 -15.6779 -15.5664
   -15.4096 -15.3499 -15.2528 -15.2036 -15.1531 -15.1186 -15.1120 -15.0896
   -15.0813 -15.0566 -15.0535 -14.9858 -14.9749 -14.9387 -14.9255 -14.9250
   -14.8277 -14.7786 -14.7127 -14.6537 -14.5997 -14.5464 -14.5213 -13.0490
   -12.9306  -9.1232  -6.6820  -5.3888  -5.3864  -4.5266  -4.5161  -3.6560
    -3.4776  -3.4340  -3.4285  -3.3718  -3.3631  -3.2564  -3.1464  -3.1102
    -2.8253  -2.7362  -2.7030  -2.6895  -2.6810  -2.5517  -2.4911  -2.3737
    -2.3675  -2.3537  -2.3522  -2.3432  -2.2997  -2.2960  -2.2527  -2.2204
    -2.1350  -2.0749  -1.9654  -1.9542  -1.9289  -1.8663  -1.8336  -1.8107
    -1.8083  -1.7627  -1.7604  -1.7571  -1.7128  -1.6250  -1.5208  -1.4795
    -1.3839  -1.3501  -1.2384  -1.1060  -1.0286  -0.9884  -0.9360  -0.8856
    -0.8801  -0.8588  -0.8391  -0.8224  -0.8078  -0.6917  -0.5771  -0.5748
    -0.4739  -0.4211  -0.3951  -0.3824  -0.2841  -0.2656  -0.2582  -0.1798
    -0.0237  -0.0199  -0.0076   0.1116   0.1400   0.1569   0.2069   0.2285
     0.2695   0.2935   0.3474   0.4034   0.4128   0.4620   0.4707   0.4921
     0.5978   0.6564   0.6622   0.7206   0.7646   0.9503   0.9647   1.1050
     1.1636   1.3796   1.4763   1.5269   1.6454   2.0633   2.1225   3.6368
     3.6723   3.6927   3.7412   3.7738   3.8083   3.8722   4.0792   4.0967
     4.0986   4.1260

[...]

          k = 0.0380-0.0419 0.0000 ( 17876 PWs)   bands (ev):

[...]

          k =-0.0760-0.0000 0.0000 ( 17886 PWs)   bands (ev):

[...]

          k =-0.0760-0.0839 0.0000 ( 17948 PWs)   bands (ev):

   -55.5123 -55.4975 -55.4971 -55.4945 -55.4116 -55.3985 -55.3847 -55.3165
   -55.3033 -55.2916 -55.2784 -55.2779 -55.2488 -55.2213 -54.5318 -54.5309
   -31.8877 -31.8849 -31.8204 -31.8067 -31.8045 -31.8020 -31.7924 -31.7819
   -31.7700 -31.7450 -31.7286 -31.7159 -31.7033 -31.6640 -31.6523 -31.6460
   -31.6408 -31.6360 -31.6303 -31.6265 -31.6148 -31.6084 -31.6059 -31.6025
   -31.5991 -31.5969 -31.5791 -31.5729 -31.5449 -31.5353 -31.5309 -31.5173
   -31.5055 -31.4963 -31.4912 -31.4839 -31.4817 -31.4771 -31.4602 -31.4396
   -31.4289 -31.4154 -30.8519 -30.8507 -30.7718 -30.7710 -30.7326 -30.7317
   -21.3482 -19.7341 -15.7380 -15.7078 -15.6085 -15.4746 -15.4639 -15.4232
   -15.3820 -15.3232 -15.2650 -15.2623 -15.2201 -15.2042 -15.1914 -15.1546
   -15.1222 -15.0763 -15.0633 -15.0585 -15.0467 -14.9918 -14.9852 -14.9454
   -14.9272 -14.9201 -14.8759 -14.8684 -14.7937 -14.7532 -14.7311 -13.0332
   -13.0306  -9.1358  -6.6657  -5.3650  -5.3196  -4.5312  -4.5257  -3.5655
    -3.1660  -3.0275  -2.9915  -2.8325  -2.6967  -2.6860  -2.6314  -2.5412
    -2.5076  -2.4639  -2.4115  -2.3979  -2.3749  -2.3703  -2.3606  -2.3568
    -2.3487  -2.2975  -2.2791  -2.2424  -2.1877  -2.1805  -2.1674  -2.1610
    -2.1179  -2.1022  -2.0942  -2.0885  -2.0821  -2.0154  -1.9451  -1.8732
    -1.7830  -1.7424  -1.7208  -1.6846  -1.6490  -1.6138  -1.5923  -1.5745
    -1.4628  -1.4349  -1.2918  -1.2676  -1.2507  -1.2402  -1.1992  -1.1950
    -1.0621  -0.9853  -0.9750  -0.9507  -0.8966  -0.8628  -0.8181  -0.7926
    -0.7047  -0.6696  -0.6283  -0.5776  -0.4983  -0.4883  -0.4366  -0.4209
    -0.3391  -0.3252  -0.2941  -0.2911  -0.2250  -0.1795  -0.1053  -0.0988
    -0.0730   0.0341   0.0897   0.1035   0.2860   0.4601   0.4728   0.4839
     0.5956   0.6063   0.6515   0.7266   0.7367   0.8209   0.8767   0.9738
     0.9931   1.0027   1.0818   1.8354   1.8364   1.9259   1.9374   3.6331
     3.8530   3.8850   3.9048   3.9575   4.1139   4.1186   4.1318   4.1444
     4.2570   4.2750

     the Fermi energy is     3.6255 ev

!    total energy              =   -2970.35124792 Ry
     estimated scf accuracy    <       0.00000006 Ry
     smearing contrib. (-TS)   =      -0.03416610 Ry
     internal energy E=F+TS    =   -2970.31708182 Ry

     The total energy is F=E-TS. E is the sum of the following terms:
     one-electron contribution =  -23483.69874721 Ry
     hartree contribution      =   11834.46759628 Ry
     xc contribution           =    -491.50039647 Ry
     ewald contribution        =    9170.41260643 Ry
     electric field correction =       0.00185915 Ry

     convergence has been achieved in  82 iterations

     Forces acting on atoms (cartesian axes, Ry/au):

     atom    1 type  1   force =    -0.00037380    0.00009057   -0.00004522
     atom    2 type  2   force =    -0.00045983    0.00080775    0.00027897
     atom    3 type  2   force =     0.00016449   -0.00059294   -0.00028661
     atom    4 type  3   force =    -0.00007091    0.00001951    0.10421013
     atom    5 type  3   force =    -0.00005982   -0.00001587    0.10427098
     atom    6 type  3   force =    -0.06901852    0.00075712   -0.02905747
     atom    7 type  3   force =    -0.06857178   -0.00135815   -0.02906246
     atom    8 type  3   force =     0.06868577    0.00128243   -0.02912990
     atom    9 type  3   force =     0.06834098   -0.00098275   -0.02913746
     atom   10 type  3   force =     0.00016764    0.00038791    0.04597349
     atom   11 type  3   force =     0.00058530    0.00071891    0.04715086
     atom   12 type  3   force =     0.00031298   -0.00528674   -0.03192829
     atom   13 type  3   force =     0.00036182    0.00311478   -0.02591050
     atom   14 type  3   force =    -0.01815029   -0.00007458    0.00387884
     atom   15 type  3   force =    -0.01656420    0.00120317    0.00341578
     atom   16 type  3   force =     0.01841618   -0.00125813    0.00385045
     atom   17 type  3   force =     0.01757236    0.00141727    0.00328333
     atom   18 type  3   force =     0.00002567    0.00031108    0.00042157
     atom   19 type  3   force =     0.00003785   -0.00012271    0.00013694
     atom   20 type  3   force =    -0.00005644    0.00028092    0.00033690
     atom   21 type  3   force =    -0.00008115   -0.00029831   -0.00038911
     atom   22 type  3   force =     0.00036750    0.00029626    0.00029109
     atom   23 type  3   force =     0.00030277   -0.00026400    0.00027707
     atom   24 type  3   force =    -0.00035754    0.00037275    0.00015440
     atom   25 type  3   force =    -0.00026187   -0.00030847    0.00013435
     atom   26 type  3   force =    -0.00017893    0.00013200    0.00030579
     atom   27 type  3   force =    -0.00013504   -0.00008380    0.00017288
     atom   28 type  3   force =     0.00007820   -0.00002258   -0.00019828
     atom   29 type  3   force =     0.00001622    0.00020291   -0.00054133
     atom   30 type  3   force =    -0.00024662   -0.00042471   -0.00000916
     atom   31 type  3   force =    -0.00047878    0.00049702    0.00003485
     atom   32 type  3   force =     0.00045958   -0.00053823    0.00026910
     atom   33 type  3   force =     0.00067387    0.00059709    0.00027876
     atom   34 type  3   force =    -0.00014903    0.00001008    0.00078966
     atom   35 type  3   force =    -0.00037891   -0.00056972   -0.00020115
     atom   36 type  4   force =    -0.00025650   -0.00176967    0.10175770
     atom   37 type  4   force =    -0.00008590    0.00135136    0.11449746
     atom   38 type  4   force =    -0.00031950    0.00053833   -0.18031220
     atom   39 type  4   force =    -0.00020628   -0.00040238   -0.18063316
     atom   40 type  4   force =     0.00026129    0.00082580   -0.00111122
     atom   41 type  4   force =     0.00020694   -0.00077875   -0.00088785
     atom   42 type  4   force =    -0.00021908    0.00087431   -0.00019338
     atom   43 type  4   force =    -0.00018164   -0.00020088    0.00002103
     atom   44 type  4   force =     0.00000957   -0.00009178    0.00029978
     atom   45 type  4   force =     0.00005622    0.00009705    0.00039511
     atom   46 type  4   force =    -0.00018347    0.00049365   -0.00010161
     atom   47 type  4   force =    -0.00029840   -0.00044208    0.00042487
     atom   48 type  4   force =    -0.00059131   -0.00005031    0.00092564
     atom   49 type  4   force =    -0.00050634    0.00007793    0.00028217
     atom   50 type  4   force =     0.00022602    0.00027164   -0.00019384
     atom   51 type  4   force =     0.00019510   -0.00052490   -0.00038978
     atom   52 type  5   force =    -0.01560014   -0.00112696   -0.00435972
     atom   53 type  5   force =     0.01651771    0.00055980    0.00555971

     Total force =     0.374895     Total SCF correction =     0.000484
  @ DRIVER MODE: Message from server: STATUS
  @ DRIVER MODE: Message from server: GETFORCE
  @ DRIVER MODE: Returning v,forces,stress,ensemble

     Writing output data file ./calc.save/
  @ DRIVER MODE: Message from server: EXIT
  @ DRIVE MODE: Exiting

     General routines

     Parallel routines

   This run was terminated on:   0:10: 4  15Sep2021

   JOB DONE.