     Program PWSCF v.6.7GPU starts on 16Sep2021 at  5:45:48

     R & G space division:  proc/nbgrp/npool/nimage =      10
     Reading input from /storage/home/hcoda1/3/ntian30/research/carbon/CxH_vib/H2O_calc/ads_slab/CHOHH2O_a/out_0042/pw.inp
Warning: card &CELL ignored
Warning: card   CELL_DYNAMICS='IPI', ignored
Warning: card / ignored

     Current dimensions of program PWSCF are:
     Max number of different atomic species (ntypx) = 10
     Max number of k-points (npk) =  40000
     Max angular momentum in pseudopotentials (lmaxx) =  3
     Presently no symmetry can be used with electric field

     Message from routine cell_base_init:
     DEPRECATED: use true lattice parameter, not A to a.u. conversion factor

     IMPORTANT: XC functional enforced from input :
     Exchange-correlation= BEEF-VDW
                           (   1   4  43  14   2   0   0)
     Any further DFT definition will be discarded
     Please, verify this is what you really want

  @ DRIVER MODE: Connecting to
 qe_1139763_2852632.sched-torque.pace.gatech.edu_k3efj_s_scratch
  using UNIX socket
  @ DRIVER MODE: Message from server: STATUS
  @ DRIVER MODE: Message from server: INIT
  @ DRIVER MODE: Receiving replica           0          -1
  @ DRIVER MODE: Receiving encoded integer          25
  @ DRIVER MODE:  SCF:  T  FORCE:  T  STRESS:  F  VC:  F  ENSEMBLE:  F
  @ DRIVER MODE:  SCF:  T  FORCE:  T  STRESS:  F  VC:  F  ENSEMBLE:  F

     Using Slab Decomposition

     bravais-lattice index     =            0
     lattice parameter (alat)  =       1.8897  a.u.
     unit-cell volume          =    6658.9804 (a.u.)^3
     number of atoms/cell      =           54
     number of atomic types    =            4
     number of electrons       =       398.00
     number of Kohn-Sham states=          209
     kinetic-energy cutoff     =      29.3995  Ry
     charge density cutoff     =     293.9946  Ry
     scf convergence threshold =      7.3E-08
     mixing beta               =       0.0500
     number of iterations used =            8  plain     mixing
     Exchange-correlation= BEEF-VDW
                           (   1   4  43  14   2   0   0)

     celldm(1)=   1.889726  celldm(2)=   0.000000  celldm(3)=   0.000000
     celldm(4)=   0.000000  celldm(5)=   0.000000  celldm(6)=   0.000000

     crystal axes: (cart. coord. in units of alat)
               a(1) = (   6.579727   0.000000   0.000000 )
               a(2) = (  -0.000775   5.961596   0.000000 )
               a(3) = (   0.000000   0.000000  25.155947 )

     reciprocal axes: (cart. coord. in units 2 pi/alat)
               b(1) = (  0.151982  0.000020  0.000000 )
               b(2) = (  0.000000  0.167740  0.000000 )
               b(3) = (  0.000000  0.000000  0.039752 )

     PseudoPot. # 1 for Ti read from file:
     /storage/coda1/p-amedford6/0/shared/rich_project_chbe-medford/medford-share/data/pseudos_module/espresso/nninc/pbe/van/Ti.UPF
     MD5 check sum: 8e4df49b7f0d34bbd5052bf3f5ea0213
     Pseudo is Ultrasoft, Zval = 12.0
     Generated by new atomic code, or converted to UPF format
     Using radial grid of  851 points,  6 beta functions with:
                l(1) =   0
                l(2) =   0
                l(3) =   1
                l(4) =   1
                l(5) =   2
                l(6) =   2
     Q(r) pseudized with  8 coefficients,  rinner =    1.000   1.000   1.000
                                                       1.000   1.000

     PseudoPot. # 2 for O  read from file:
     /storage/coda1/p-amedford6/0/shared/rich_project_chbe-medford/medford-share/data/pseudos_module/espresso/nninc/pbe/van/O.UPF
     MD5 check sum: 78c19812648e8988a0fe644b0f25305e
     Pseudo is Ultrasoft, Zval =  6.0
     Generated by new atomic code, or converted to UPF format
     Using radial grid of  737 points,  4 beta functions with:
                l(1) =   0
                l(2) =   0
                l(3) =   1
                l(4) =   1
     Q(r) pseudized with  8 coefficients,  rinner =    0.800   0.800   0.800

     PseudoPot. # 3 for C  read from file:
     /storage/coda1/p-amedford6/0/shared/rich_project_chbe-medford/medford-share/data/pseudos_module/espresso/nninc/pbe/van/C.UPF
     MD5 check sum: 1a69bf6b8db32088f5b2163dbdb77a27
     Pseudo is Ultrasoft, Zval =  4.0
     Generated by new atomic code, or converted to UPF format
     Using radial grid of  721 points,  4 beta functions with:
                l(1) =   0
                l(2) =   0
                l(3) =   1
                l(4) =   1
     Q(r) pseudized with  8 coefficients,  rinner =    0.800   0.800   0.800

     PseudoPot. # 4 for H  read from file:
     /storage/coda1/p-amedford6/0/shared/rich_project_chbe-medford/medford-share/data/pseudos_module/espresso/nninc/pbe/van/H.UPF
     MD5 check sum: b5ee9d7bfd3a09ee7748110bda690ff7
     Pseudo is Ultrasoft, Zval =  1.0
     Generated by new atomic code, or converted to UPF format
     Using radial grid of  615 points,  1 beta functions with:
                l(1) =   0
     Q(r) pseudized with  8 coefficients,  rinner =    0.800

     atomic species   valence    mass     pseudopotential
        Ti1           12.00    47.86700     Ti( 1.00)
        O1             6.00    15.99900     O ( 1.00)
        C1             4.00    12.01100     C ( 1.00)
        H1             1.00     1.00800     H ( 1.00)

     No symmetry found

   Cartesian axes

     site n.     atom                  positions (alat units)
         1           Ti1 tau(   1) = (   0.0004258   2.9801865   6.0000000  )
         2           Ti1 tau(   2) = (   3.2906075   1.4906267   6.0002472  )
         3           O1  tau(   3) = (   0.0006271   0.0005054   7.9858123  )
         4           O1  tau(   4) = (   3.2906025   0.0005020   7.3038282  )
         5           O1  tau(   5) = (   4.5942328   1.4918067   9.2879030  )
         6           O1  tau(   6) = (   1.9868534   1.4903216   9.2879459  )
         7           Ti1 tau(   7) = (   3.3203992   3.0065636   9.1614972  )
         8           Ti1 tau(   8) = (   0.0364112   1.5055733   9.2692997  )
         9           O1  tau(   9) = (   3.3037507   0.0048223  11.3846665  )
        10           O1  tau(  10) = (   0.0023770   0.0017864  10.5989407  )
        11           O1  tau(  11) = (   1.2986710   1.4943985  12.6419360  )
        12           O1  tau(  12) = (   5.3019195   1.4930987  12.6558330  )
        13           Ti1 tau(  13) = (   0.0201679   2.9954199  12.5459836  )
        14           Ti1 tau(  14) = (   3.3085843   1.4996073  12.5278567  )
        15           O1  tau(  15) = (   0.0306707   0.0063333  14.6434371  )
        16           O1  tau(  16) = (   3.2901280   5.9588824  14.0411263  )
        17           O1  tau(  17) = (   4.5937705   1.5245028  16.1210063  )
        18           O1  tau(  18) = (   2.0412355   1.5396885  16.1535958  )
        19           Ti1 tau(  19) = (   3.3250740   2.9785215  15.7238461  )
        20           Ti1 tau(  20) = (   0.0142243   1.3716099  15.9029131  )
        21           O1  tau(  21) = (   3.2904802   0.0005063   4.7018136  )
        22           O1  tau(  22) = (   0.0234726   5.9563001  17.1693433  )
        23           O1  tau(  23) = (   1.3043587   1.4918075   6.0039043  )
        24           O1  tau(  24) = (   5.2767064   1.4903225   6.0039473  )
        25           Ti1 tau(  25) = (   0.0000382   5.9609847   6.0000000  )
        26           Ti1 tau(  26) = (   3.2902200   4.4714249   6.0002472  )
        27           O1  tau(  27) = (   0.0002396   2.9813036   7.9858123  )
        28           O1  tau(  28) = (   3.2902150   2.9813002   7.3038282  )
        29           O1  tau(  29) = (   4.5938453   4.4726049   9.2879030  )
        30           O1  tau(  30) = (   1.9864658   4.4711199   9.2879459  )
        31           Ti1 tau(  31) = (   3.3166040   0.0254347   9.1556988  )
        32           Ti1 tau(  32) = (   0.0362352   4.4699824   9.2670842  )
        33           O1  tau(  33) = (   3.3035804   2.9865095  11.3763011  )
        34           O1  tau(  34) = (   0.0042610   2.9829788  10.6236548  )
        35           O1  tau(  35) = (   1.2977823   4.4749822  12.6434080  )
        36           O1  tau(  36) = (   5.3021498   4.4756442  12.6578133  )
        37           Ti1 tau(  37) = (   0.0128731   0.0155586  12.4748574  )
        38           Ti1 tau(  38) = (   3.3087006   4.4877506  12.5360639  )
        39           O1  tau(  39) = (   0.0289868   2.9802581  14.8446641  )
        40           O1  tau(  40) = (   3.2975897   2.9808645  13.9396156  )
        41           O1  tau(  41) = (   4.5936103   4.4348319  16.1149158  )
        42           O1  tau(  42) = (   2.0365336   4.4144103  16.1518429  )
        43           Ti1 tau(  43) = (   3.2980932   5.9591119  15.8729608  )
        44           Ti1 tau(  44) = (   0.0070259   4.5936845  15.8821292  )
        45           O1  tau(  45) = (   3.2900926   2.9813045   4.7018136  )
        46           O1  tau(  46) = (   1.3039711   4.4726057   6.0039043  )
        47           O1  tau(  47) = (   5.2763189   4.4711207   6.0039473  )
        48           C1  tau(  48) = (   6.0563806   2.9601134  19.0478501  )
        49           O1  tau(  49) = (   0.1703025   2.9720528  17.8813388  )
        50           H1  tau(  50) = (   5.0099104   2.8626262  18.6876999  )
        51           H1  tau(  51) = (   1.1251272   3.0566160  18.0647747  )
        52           O1  tau(  52) = (   3.2803433   5.9178330  18.2983259  )
        53           H1  tau(  53) = (   4.0549949   5.9397654  18.8787675  )
        54           H1  tau(  54) = (   2.4787048   0.0262026  18.8457284  )

     number of k points=    10  Fermi-Dirac smearing, width (Ry)=  0.0073
                       cart. coord. in units 2pi/alat
        k(    1) = (   0.0000000   0.0000000   0.0000000), wk =   0.1250000
        k(    2) = (   0.0000000   0.0419351   0.0000000), wk =   0.2500000
        k(    3) = (   0.0000000  -0.0838702   0.0000000), wk =   0.1250000
        k(    4) = (   0.0379955   0.0000049   0.0000000), wk =   0.2500000
        k(    5) = (   0.0379955   0.0419400   0.0000000), wk =   0.2500000
        k(    6) = (   0.0379955  -0.0838652   0.0000000), wk =   0.2500000
        k(    7) = (   0.0379955  -0.0419301   0.0000000), wk =   0.2500000
        k(    8) = (  -0.0759910  -0.0000099   0.0000000), wk =   0.1250000
        k(    9) = (  -0.0759910   0.0419252   0.0000000), wk =   0.2500000
        k(   10) = (  -0.0759910  -0.0838800   0.0000000), wk =   0.1250000

     Initial potential from superposition of free atoms

     starting charge  381.99917, renormalised to  398.00000

     negative rho (up, down):  1.669E-02 0.000E+00

     %%%%%%%%%%%%%%%%%%%%%%%%%%%%%%%%%%%%%%%%%%%%%%%%%%%%%%%%%%%%%%%%%%%%%%%%
     %                                                                      %
     % You are using vdW-DF, which was implemented by the Thonhauser group. %
     % Please cite the following two papers that made this development      %
     % possible and the two reviews that describe the various versions:     %
     %                                                                      %
     %   T. Thonhauser et al., PRL 115, 136402 (2015).                      %
     %   T. Thonhauser et al., PRB 76, 125112 (2007).                       %
     %   K. Berland et al., Rep. Prog. Phys. 78, 066501 (2015).             %
     %   D.C. Langreth et al., J. Phys.: Condens. Matter 21, 084203 (2009). %
     %                                                                      %
     %                                                                      %
     % If you are calculating the stress with vdW-DF, please also cite:     %
     %                                                                      %
     %   R. Sabatini et al., J. Phys.: Condens. Matter 24, 424209 (2012).   %
     %                                                                      %
     %%%%%%%%%%%%%%%%%%%%%%%%%%%%%%%%%%%%%%%%%%%%%%%%%%%%%%%%%%%%%%%%%%%%%%%%

     Adding external electric field

     Computed dipole along edir(3) :
        Dipole              -10.5139 Ry au,        -26.7236 Debye
        Dipole field         -0.0198 Ry au,

        Potential amp.        1.8392 Ry
        Total length         46.3494 bohr

     Starting wfcs are  300 atomic wfcs
  @ DRIVER MODE: Message from server: STATUS
  @ DRIVER MODE: Message from server: POSDATA
  @ DRIVER MODE: Reading and sharing cell
  @ DRIVER MODE: Reading and sharing positions
  @ DRIVER MODE: Received positions

     Self-consistent Calculation

     iteration #  1     ecut=    29.40 Ry     beta= 0.05
     Davidson diagonalization with overlap
     c_bands:  2 eigenvalues not converged
     c_bands:  3 eigenvalues not converged
     c_bands:  1 eigenvalues not converged
     c_bands:  4 eigenvalues not converged
     c_bands:  4 eigenvalues not converged
     c_bands:  4 eigenvalues not converged
     c_bands:  1 eigenvalues not converged
     c_bands:  3 eigenvalues not converged
     c_bands:  4 eigenvalues not converged
     ethr =  1.00E-05,  avg # of iterations = 19.9

[...]

     total energy              =   -2479.44375699 Ry
     estimated scf accuracy    <    5441.09570002 Ry

     iteration #  2     ecut=    29.40 Ry     beta= 0.05
     Davidson diagonalization with overlap
     ethr =  1.00E-02,  avg # of iterations = 24.2

[...]

     iteration # 63     ecut=    29.40 Ry     beta= 0.05
     Davidson diagonalization with overlap
     c_bands:  1 eigenvalues not converged
     ethr =  3.72E-11,  avg # of iterations = 14.5

[...]

     total energy              =   -2964.77940976 Ry
     estimated scf accuracy    <       0.00000007 Ry

     iteration # 65     ecut=    29.40 Ry     beta= 0.05
     Davidson diagonalization with overlap
     ethr =  1.87E-11,  avg # of iterations = 10.7

     negative rho (up, down):  1.518E-02 0.000E+00

     Adding external electric field

     Computed dipole along edir(3) :
        Dipole                0.7141 Ry au,          1.8151 Debye
        Dipole field          0.0013 Ry au,

        Potential amp.       -0.1249 Ry
        Total length         46.3494 bohr

     End of self-consistent calculation

          k = 0.0000 0.0000 0.0000 ( 18029 PWs)   bands (ev):

   -55.7037 -55.6906 -55.6674 -55.6654 -55.6562 -55.6053 -55.5537 -55.5522
   -55.5396 -55.5193 -55.5065 -55.4853 -55.4841 -55.4727 -54.7713 -54.7372
   -32.2642 -32.1846 -32.1811 -32.0864 -32.0493 -32.0294 -32.0182 -32.0083
   -31.9796 -31.9445 -31.9343 -31.9194 -31.8950 -31.8878 -31.8808 -31.8615
   -31.8443 -31.8437 -31.8405 -31.8329 -31.8168 -31.8057 -31.8056 -31.7961
   -31.7940 -31.7789 -31.7757 -31.7477 -31.7355 -31.7219 -31.7105 -31.7096
   -31.7045 -31.7005 -31.6941 -31.6862 -31.6539 -31.6526 -31.6476 -31.6437
   -31.6174 -31.5608 -31.1830 -31.0815 -31.0599 -30.9992 -30.9129 -30.8019
   -21.1357 -19.2352 -16.5222 -16.2801 -16.1374 -16.0341 -15.9294 -15.7969
   -15.7102 -15.5867 -15.5234 -15.3965 -15.3570 -15.3515 -15.3449 -15.3167
   -15.2948 -15.2725 -15.2486 -15.2078 -15.2033 -15.1997 -15.1708 -15.1585
   -15.1010 -15.0882 -15.0438 -14.9263 -14.8748 -14.8137 -14.4948 -13.2722
   -13.1531 -10.3399  -7.1690  -5.7001  -4.7254  -4.0144  -3.9511  -3.8160
    -3.7161  -3.6475  -3.6102  -3.5433  -3.4629  -3.2596  -3.1291  -3.1212
    -2.9885  -2.9517  -2.9072  -2.8061  -2.7401  -2.6779  -2.6676  -2.5918
    -2.5877  -2.5797  -2.5665  -2.4739  -2.4678  -2.4187  -2.3779  -2.2986
    -2.2629  -2.1458  -2.1153  -2.1063  -2.0625  -2.0468  -2.0401  -2.0275
    -1.9779  -1.9522  -1.9339  -1.9327  -1.7910  -1.7491  -1.6030  -1.4782
    -1.4451  -1.4315  -1.2988  -1.2652  -1.2488  -1.1910  -1.1703  -1.1608
    -1.1218  -1.0409  -0.9577  -0.9338  -0.8612  -0.8184  -0.7143  -0.6201
    -0.5753  -0.5264  -0.5043  -0.4950  -0.4757  -0.4105  -0.3631  -0.2765
    -0.2224  -0.1592  -0.1324  -0.1257  -0.0709  -0.0409   0.0392   0.0858
     0.1201   0.1344   0.2201   0.2345   0.2473   0.2785   0.2808   0.3939
     0.4477   0.5051   0.5113   0.6598   0.8273   0.8519   0.9316   1.1458
     1.2542   1.2567   1.4175   1.4736   1.8393   1.8935   3.3840   3.4540
     3.4886   3.5027   3.5121   3.5898   3.8197   3.8718   3.9033   3.9222
     3.9318

[...]

          k = 0.0380-0.0419 0.0000 ( 17876 PWs)   bands (ev):

[...]

          k =-0.0760-0.0000 0.0000 ( 17886 PWs)   bands (ev):

[...]

          k =-0.0760-0.0839 0.0000 ( 17948 PWs)   bands (ev):

   -55.6882 -55.6827 -55.6754 -55.6713 -55.6637 -55.5990 -55.5584 -55.5383
   -55.5344 -55.5328 -55.4909 -55.4907 -55.4886 -55.4868 -54.7542 -54.7542
   -32.1061 -32.0745 -32.0634 -32.0015 -31.9976 -31.9788 -31.9694 -31.9607
   -31.9585 -31.9340 -31.9328 -31.9080 -31.8988 -31.8704 -31.8567 -31.8549
   -31.8535 -31.8451 -31.8402 -31.8364 -31.8285 -31.8208 -31.8037 -31.8009
   -31.7981 -31.7958 -31.7956 -31.7946 -31.7914 -31.7833 -31.7808 -31.7516
   -31.7368 -31.7365 -31.7210 -31.7121 -31.7102 -31.7046 -31.6795 -31.6747
   -31.6735 -31.6502 -31.0724 -31.0724 -30.9958 -30.9955 -30.9561 -30.9560
   -21.1344 -19.2347 -16.1530 -15.9581 -15.8077 -15.7232 -15.7165 -15.6576
   -15.5774 -15.5361 -15.4901 -15.4784 -15.4682 -15.4336 -15.4242 -15.4127
   -15.3505 -15.3005 -15.2971 -15.2816 -15.2324 -15.2249 -15.2144 -15.2088
   -15.2000 -15.1570 -15.1528 -15.1381 -15.1273 -14.9835 -14.8264 -13.2545
   -13.2537 -10.3432  -7.1666  -5.7032  -4.7042  -3.9438  -3.8838  -3.2332
    -3.2307  -2.9697  -2.9468  -2.8884  -2.8767  -2.8127  -2.7814  -2.7056
    -2.6992  -2.6539  -2.6136  -2.6053  -2.5923  -2.5682  -2.5349  -2.5213
    -2.4795  -2.4697  -2.4438  -2.4389  -2.4203  -2.4043  -2.3794  -2.3735
    -2.3412  -2.3210  -2.3131  -2.3092  -2.2323  -2.1702  -2.0474  -2.0258
    -1.9846  -1.9356  -1.9200  -1.8494  -1.8137  -1.7989  -1.7412  -1.7067
    -1.6799  -1.5071  -1.4953  -1.4749  -1.3836  -1.3511  -1.3367  -1.3094
    -1.2526  -1.2251  -1.2209  -1.1433  -1.0320  -1.0088  -0.9111  -0.8651
    -0.8639  -0.7756  -0.7419  -0.7035  -0.7015  -0.6642  -0.6078  -0.5861
    -0.5291  -0.5230  -0.4756  -0.4551  -0.4317  -0.4007  -0.2279  -0.1729
    -0.1172  -0.0200   0.0091   0.2365   0.2676   0.2743   0.3400   0.3704
     0.4767   0.4981   0.5610   0.5760   0.6772   0.7093   0.7255   0.7304
     0.7767   1.4804   1.6060   1.6086   1.7076   1.7112   3.5335   3.5476
     3.6491   3.7010   3.7384   3.8420   3.8908   3.9230   3.9308   3.9457
     4.0196

     the Fermi energy is     3.4320 ev

!    total energy              =   -2964.77943632 Ry
     estimated scf accuracy    <       0.00000001 Ry
     smearing contrib. (-TS)   =      -0.03745641 Ry
     internal energy E=F+TS    =   -2964.74197990 Ry

     The total energy is F=E-TS. E is the sum of the following terms:
     one-electron contribution =  -24111.89895267 Ry
     hartree contribution      =   12146.18497830 Ry
     xc contribution           =    -490.01567181 Ry
     ewald contribution        =    9490.98670390 Ry
     electric field correction =       0.00096238 Ry

     convergence has been achieved in  65 iterations

     Forces acting on atoms (cartesian axes, Ry/au):

     atom    1 type  1   force =    -0.00035660   -0.00002435    0.09252825
     atom    2 type  1   force =    -0.00033349    0.00121305   -0.18262316
     atom    3 type  2   force =     0.00043645    0.00023032   -0.02456802
     atom    4 type  2   force =     0.00073378    0.00044923    0.05162794
     atom    5 type  2   force =    -0.01466560   -0.00006928    0.00466647
     atom    6 type  2   force =     0.01553835   -0.00056616    0.00541888
     atom    7 type  1   force =    -0.00050578   -0.00017463    0.00010037
     atom    8 type  1   force =     0.00022120    0.00003944    0.00019794
     atom    9 type  2   force =    -0.00016811   -0.00017902   -0.00028948
     atom   10 type  2   force =     0.00006288   -0.00004813    0.00032037
     atom   11 type  2   force =    -0.00031239    0.00020672    0.00003163
     atom   12 type  2   force =     0.00038027    0.00007460   -0.00021438
     atom   13 type  1   force =    -0.00020777   -0.00025835    0.00023070
     atom   14 type  1   force =     0.00013392   -0.00020830   -0.00049090
     atom   15 type  2   force =    -0.00032611    0.00033147   -0.00012841
     atom   16 type  2   force =     0.00008765    0.00001654   -0.00024367
     atom   17 type  2   force =    -0.00012572   -0.00016250    0.00020667
     atom   18 type  2   force =     0.00016472   -0.00005811   -0.00032149
     atom   19 type  1   force =    -0.00102391    0.00005732   -0.00029779
     atom   20 type  1   force =     0.00042237    0.00003001    0.00006749
     atom   21 type  2   force =    -0.00009776    0.00006089    0.10488095
     atom   22 type  2   force =    -0.00038798   -0.00001421    0.00033961
     atom   23 type  2   force =    -0.06834684    0.00001968   -0.02693922
     atom   24 type  2   force =     0.06803907    0.00045401   -0.02701597
     atom   25 type  1   force =    -0.00030583   -0.00002231    0.09721661
     atom   26 type  1   force =    -0.00030514   -0.00119849   -0.18266805
     atom   27 type  2   force =     0.00034976    0.00024277   -0.02297530
     atom   28 type  2   force =     0.00081293    0.00042662    0.05201656
     atom   29 type  2   force =    -0.01464592    0.00064603    0.00459221
     atom   30 type  2   force =     0.01566066    0.00039977    0.00532245
     atom   31 type  1   force =    -0.00046684    0.00000266    0.00012367
     atom   32 type  1   force =     0.00022115    0.00007390    0.00017751
     atom   33 type  2   force =    -0.00008920    0.00013041    0.00018653
     atom   34 type  2   force =     0.00001127    0.00002317    0.00015840
     atom   35 type  2   force =    -0.00014957   -0.00030037    0.00012051
     atom   36 type  2   force =     0.00021595   -0.00019295   -0.00011053
     atom   37 type  1   force =    -0.00029682    0.00016624   -0.00046594
     atom   38 type  1   force =     0.00012632    0.00036696   -0.00038706
     atom   39 type  2   force =    -0.00037117   -0.00027786   -0.00020080
     atom   40 type  2   force =     0.00018566   -0.00008318   -0.00005093
     atom   41 type  2   force =    -0.00036936   -0.00008139   -0.00015199
     atom   42 type  2   force =     0.00038993   -0.00017952   -0.00065736
     atom   43 type  1   force =    -0.00105355   -0.00024728   -0.00002808
     atom   44 type  1   force =     0.00040865   -0.00060012    0.00012380
     atom   45 type  2   force =    -0.00007220    0.00005282    0.10478070
     atom   46 type  2   force =    -0.06833000   -0.00059434   -0.02692732
     atom   47 type  2   force =     0.06802788   -0.00012943   -0.02700247
     atom   48 type  3   force =    -0.00006756   -0.00009797   -0.00026951
     atom   49 type  2   force =    -0.00009096    0.00000045   -0.00003487
     atom   50 type  4   force =     0.00017851    0.00019013   -0.00015689
     atom   51 type  4   force =     0.00017810   -0.00008366   -0.00016662
     atom   52 type  2   force =    -0.00883788   -0.00027438    0.00835937
     atom   53 type  4   force =     0.00079190    0.00051107   -0.00088426
     atom   54 type  4   force =     0.00853070   -0.00029001   -0.00752510

     Total force =     0.368824     Total SCF correction =     0.000509
  @ DRIVER MODE: Message from server: STATUS
  @ DRIVER MODE: Message from server: GETFORCE
  @ DRIVER MODE: Returning v,forces,stress,ensemble

     Writing output data file ./calc.save/
  @ DRIVER MODE: Message from server: EXIT
  @ DRIVE MODE: Exiting

     General routines

     Parallel routines

   This run was terminated on:   6: 3:18  16Sep2021

   JOB DONE.