     Program PWSCF v.6.7GPU starts on 15Sep2021 at 16:14: 8

     R & G space division:  proc/nbgrp/npool/nimage =      10
     Reading input from /storage/home/hcoda1/3/ntian30/research/carbon/CxH_vib/H2O_calc/ads_slab/CH3NH2NHH2O_c/out_0002/pw.inp
Warning: card &CELL ignored
Warning: card   CELL_DYNAMICS='IPI', ignored
Warning: card / ignored

     Current dimensions of program PWSCF are:
     Max number of different atomic species (ntypx) = 10
     Max number of k-points (npk) =  40000
     Max angular momentum in pseudopotentials (lmaxx) =  3
     Presently no symmetry can be used with electric field

     Message from routine cell_base_init:
     DEPRECATED: use true lattice parameter, not A to a.u. conversion factor

     IMPORTANT: XC functional enforced from input :
     Exchange-correlation= BEEF-VDW
                           (   1   4  43  14   2   0   0)
     Any further DFT definition will be discarded
     Please, verify this is what you really want

  @ DRIVER MODE: Connecting to
 qe_1139763_2852614.sched-torque.pace.gatech.edupkbiae91_scratch
  using UNIX socket
  @ DRIVER MODE: Message from server: STATUS
  @ DRIVER MODE: Message from server: INIT
  @ DRIVER MODE: Receiving replica           0          -1
  @ DRIVER MODE: Receiving encoded integer          25
  @ DRIVER MODE:  SCF:  T  FORCE:  T  STRESS:  F  VC:  F  ENSEMBLE:  F
  @ DRIVER MODE:  SCF:  T  FORCE:  T  STRESS:  F  VC:  F  ENSEMBLE:  F

     Using Slab Decomposition

     bravais-lattice index     =            0
     lattice parameter (alat)  =       1.8897  a.u.
     unit-cell volume          =    6658.9804 (a.u.)^3
     number of atoms/cell      =           59
     number of atomic types    =            5
     number of electrons       =       406.00
     number of Kohn-Sham states=          213
     kinetic-energy cutoff     =      29.3995  Ry
     charge density cutoff     =     293.9946  Ry
     scf convergence threshold =      7.3E-08
     mixing beta               =       0.0500
     number of iterations used =            8  plain     mixing
     Exchange-correlation= BEEF-VDW
                           (   1   4  43  14   2   0   0)

     celldm(1)=   1.889726  celldm(2)=   0.000000  celldm(3)=   0.000000
     celldm(4)=   0.000000  celldm(5)=   0.000000  celldm(6)=   0.000000

     crystal axes: (cart. coord. in units of alat)
               a(1) = (   6.579727   0.000000   0.000000 )
               a(2) = (  -0.000775   5.961596   0.000000 )
               a(3) = (   0.000000   0.000000  25.155947 )

     reciprocal axes: (cart. coord. in units 2 pi/alat)
               b(1) = (  0.151982  0.000020  0.000000 )
               b(2) = (  0.000000  0.167740  0.000000 )
               b(3) = (  0.000000  0.000000  0.039752 )

     PseudoPot. # 1 for Ti read from file:
     /storage/coda1/p-amedford6/0/shared/rich_project_chbe-medford/medford-share/data/pseudos_module/espresso/nninc/pbe/van/Ti.UPF
     MD5 check sum: 8e4df49b7f0d34bbd5052bf3f5ea0213
     Pseudo is Ultrasoft, Zval = 12.0
     Generated by new atomic code, or converted to UPF format
     Using radial grid of  851 points,  6 beta functions with:
                l(1) =   0
                l(2) =   0
                l(3) =   1
                l(4) =   1
                l(5) =   2
                l(6) =   2
     Q(r) pseudized with  8 coefficients,  rinner =    1.000   1.000   1.000
                                                       1.000   1.000

     PseudoPot. # 2 for O  read from file:
     /storage/coda1/p-amedford6/0/shared/rich_project_chbe-medford/medford-share/data/pseudos_module/espresso/nninc/pbe/van/O.UPF
     MD5 check sum: 78c19812648e8988a0fe644b0f25305e
     Pseudo is Ultrasoft, Zval =  6.0
     Generated by new atomic code, or converted to UPF format
     Using radial grid of  737 points,  4 beta functions with:
                l(1) =   0
                l(2) =   0
                l(3) =   1
                l(4) =   1
     Q(r) pseudized with  8 coefficients,  rinner =    0.800   0.800   0.800

     PseudoPot. # 3 for N  read from file:
     /storage/coda1/p-amedford6/0/shared/rich_project_chbe-medford/medford-share/data/pseudos_module/espresso/nninc/pbe/van/N.UPF
     MD5 check sum: 90d10febe142ad51ac9d5be1deb811c4
     Pseudo is Ultrasoft, Zval =  5.0
     Generated by new atomic code, or converted to UPF format
     Using radial grid of  729 points,  4 beta functions with:
                l(1) =   0
                l(2) =   0
                l(3) =   1
                l(4) =   1
     Q(r) pseudized with  8 coefficients,  rinner =    0.800   0.800   0.800

     PseudoPot. # 4 for C  read from file:
     /storage/coda1/p-amedford6/0/shared/rich_project_chbe-medford/medford-share/data/pseudos_module/espresso/nninc/pbe/van/C.UPF
     MD5 check sum: 1a69bf6b8db32088f5b2163dbdb77a27
     Pseudo is Ultrasoft, Zval =  4.0
     Generated by new atomic code, or converted to UPF format
     Using radial grid of  721 points,  4 beta functions with:
                l(1) =   0
                l(2) =   0
                l(3) =   1
                l(4) =   1
     Q(r) pseudized with  8 coefficients,  rinner =    0.800   0.800   0.800

     PseudoPot. # 5 for H  read from file:
     /storage/coda1/p-amedford6/0/shared/rich_project_chbe-medford/medford-share/data/pseudos_module/espresso/nninc/pbe/van/H.UPF
     MD5 check sum: b5ee9d7bfd3a09ee7748110bda690ff7
     Pseudo is Ultrasoft, Zval =  1.0
     Generated by new atomic code, or converted to UPF format
     Using radial grid of  615 points,  1 beta functions with:
                l(1) =   0
     Q(r) pseudized with  8 coefficients,  rinner =    0.800

     atomic species   valence    mass     pseudopotential
        Ti1           12.00    47.86700     Ti( 1.00)
        O1             6.00    15.99900     O ( 1.00)
        N1             5.00    14.00700     N ( 1.00)
        C1             4.00    12.01100     C ( 1.00)
        H1             1.00     1.00800     H ( 1.00)

     No symmetry found

   Cartesian axes

     site n.     atom                  positions (alat units)
         1           Ti1 tau(   1) = (   0.0004258   2.9801865   6.0000000  )
         2           Ti1 tau(   2) = (   3.2906075   1.4906267   6.0002472  )
         3           O1  tau(   3) = (   0.0006271   0.0005054   7.9858123  )
         4           O1  tau(   4) = (   3.2906025   0.0005020   7.3038282  )
         5           O1  tau(   5) = (   4.5942328   1.4918067   9.2879030  )
         6           O1  tau(   6) = (   1.9868534   1.4903216   9.2879459  )
         7           Ti1 tau(   7) = (   3.2907910   2.8959150   9.1758416  )
         8           Ti1 tau(   8) = (   0.0015273   1.4827037   9.2680791  )
         9           O1  tau(   9) = (   3.2795193   0.0050042  11.3600746  )
        10           O1  tau(  10) = (   0.0116148   5.9584955  10.6183126  )
        11           O1  tau(  11) = (   1.2764768   1.4833402  12.6625751  )
        12           O1  tau(  12) = (   5.2691860   1.4824858  12.6730715  )
        13           Ti1 tau(  13) = (   6.5785005   2.9712200  12.5432933  )
        14           Ti1 tau(  14) = (   3.2815129   1.4861921  12.5133659  )
        15           O1  tau(  15) = (   0.0084525   5.9333602  14.7514412  )
        16           O1  tau(  16) = (   3.2474592   5.9449689  14.0025778  )
        17           O1  tau(  17) = (   4.5272503   1.5270814  16.0535473  )
        18           O1  tau(  18) = (   2.0088677   1.5398698  16.1918835  )
        19           Ti1 tau(  19) = (   3.2695027   3.0127370  15.7044713  )
        20           Ti1 tau(  20) = (   6.4897317   1.5391078  15.7731133  )
        21           O1  tau(  21) = (   3.2904802   0.0005063   4.7018136  )
        22           O1  tau(  22) = (   6.4943121   0.0104379  17.3746616  )
        23           O1  tau(  23) = (   1.3043587   1.4918075   6.0039043  )
        24           O1  tau(  24) = (   5.2767064   1.4903225   6.0039473  )
        25           Ti1 tau(  25) = (   0.0000382   5.9609847   6.0000000  )
        26           Ti1 tau(  26) = (   3.2902200   4.4714249   6.0002472  )
        27           O1  tau(  27) = (   0.0002396   2.9813036   7.9858123  )
        28           O1  tau(  28) = (   3.2902150   2.9813002   7.3038282  )
        29           O1  tau(  29) = (   4.5938453   4.4726049   9.2879030  )
        30           O1  tau(  30) = (   1.9864658   4.4711199   9.2879459  )
        31           Ti1 tau(  31) = (   3.2891106   5.8743827   9.1763621  )
        32           Ti1 tau(  32) = (   0.0006254   4.4649316   9.2693709  )
        33           O1  tau(  33) = (   3.2806081   2.9711243  11.3509633  )
        34           O1  tau(  34) = (   0.0092240   2.9805883  10.6323155  )
        35           O1  tau(  35) = (   1.2760424   4.4718827  12.6381679  )
        36           O1  tau(  36) = (   5.2690016   4.4731519  12.6446470  )
        37           Ti1 tau(  37) = (   6.5708669   5.9382087  12.5160675  )
        38           Ti1 tau(  38) = (   3.2845625   4.4656782  12.4980923  )
        39           O1  tau(  39) = (   6.5779858   3.0049062  14.7590937  )
        40           O1  tau(  40) = (   3.2501146   3.0001303  13.9242794  )
        41           O1  tau(  41) = (   4.5300198   4.4412671  16.1793791  )
        42           O1  tau(  42) = (   2.0030354   4.4482434  16.2507355  )
        43           Ti1 tau(  43) = (   3.2558399   0.0045369  15.7947069  )
        44           Ti1 tau(  44) = (   0.0024851   4.6597080  16.1671864  )
        45           O1  tau(  45) = (   3.2900926   2.9813045   4.7018136  )
        46           O1  tau(  46) = (   1.3039711   4.4726057   6.0039043  )
        47           O1  tau(  47) = (   5.2763189   4.4711207   6.0039473  )
        48           N1  tau(  48) = (   0.8710865   2.3037131  18.4629187  )
        49           N1  tau(  49) = (   6.4642385   2.8627238  17.5618644  )
        50           C1  tau(  50) = (   1.1134797   3.0572184  19.7121060  )
        51           H1  tau(  51) = (   0.2160447   3.0254214  20.3281890  )
        52           H1  tau(  52) = (   1.9467850   2.5864873  20.2353232  )
        53           H1  tau(  53) = (   1.3463996   4.0866186  19.4485780  )
        54           H1  tau(  54) = (   0.5832711   1.3114681  18.6183785  )
        55           H1  tau(  55) = (   5.5643591   2.7461405  18.0238738  )
        56           H1  tau(  56) = (   1.7079168   2.1891883  17.8702682  )
        57           O1  tau(  57) = (   4.0734316   0.3075885  18.7765601  )
        58           H1  tau(  58) = (   4.9241673   0.1787741  18.2816895  )
        59           H1  tau(  59) = (   3.8734322   5.3936830  19.1372508  )

     number of k points=    10  Fermi-Dirac smearing, width (Ry)=  0.0073
                       cart. coord. in units 2pi/alat
        k(    1) = (   0.0000000   0.0000000   0.0000000), wk =   0.1250000
        k(    2) = (   0.0000000   0.0419351   0.0000000), wk =   0.2500000
        k(    3) = (   0.0000000  -0.0838702   0.0000000), wk =   0.1250000
        k(    4) = (   0.0379955   0.0000049   0.0000000), wk =   0.2500000
        k(    5) = (   0.0379955   0.0419400   0.0000000), wk =   0.2500000
        k(    6) = (   0.0379955  -0.0838652   0.0000000), wk =   0.2500000
        k(    7) = (   0.0379955  -0.0419301   0.0000000), wk =   0.2500000
        k(    8) = (  -0.0759910  -0.0000099   0.0000000), wk =   0.1250000
        k(    9) = (  -0.0759910   0.0419252   0.0000000), wk =   0.2500000
        k(   10) = (  -0.0759910  -0.0838800   0.0000000), wk =   0.1250000

     Initial potential from superposition of free atoms

     starting charge  389.99912, renormalised to  406.00000

     negative rho (up, down):  1.392E-02 0.000E+00

     %%%%%%%%%%%%%%%%%%%%%%%%%%%%%%%%%%%%%%%%%%%%%%%%%%%%%%%%%%%%%%%%%%%%%%%%
     %                                                                      %
     % You are using vdW-DF, which was implemented by the Thonhauser group. %
     % Please cite the following two papers that made this development      %
     % possible and the two reviews that describe the various versions:     %
     %                                                                      %
     %   T. Thonhauser et al., PRL 115, 136402 (2015).                      %
     %   T. Thonhauser et al., PRB 76, 125112 (2007).                       %
     %   K. Berland et al., Rep. Prog. Phys. 78, 066501 (2015).             %
     %   D.C. Langreth et al., J. Phys.: Condens. Matter 21, 084203 (2009). %
     %                                                                      %
     %                                                                      %
     % If you are calculating the stress with vdW-DF, please also cite:     %
     %                                                                      %
     %   R. Sabatini et al., J. Phys.: Condens. Matter 24, 424209 (2012).   %
     %                                                                      %
     %%%%%%%%%%%%%%%%%%%%%%%%%%%%%%%%%%%%%%%%%%%%%%%%%%%%%%%%%%%%%%%%%%%%%%%%

     Adding external electric field

     Computed dipole along edir(3) :
        Dipole              -15.6809 Ry au,        -39.8568 Debye
        Dipole field         -0.0296 Ry au,

        Potential amp.        2.7431 Ry
        Total length         46.3494 bohr

     Starting wfcs are  308 atomic wfcs
  @ DRIVER MODE: Message from server: STATUS
  @ DRIVER MODE: Message from server: POSDATA
  @ DRIVER MODE: Reading and sharing cell
  @ DRIVER MODE: Reading and sharing positions
  @ DRIVER MODE: Received positions

     Self-consistent Calculation

     iteration #  1     ecut=    29.40 Ry     beta= 0.05
     Davidson diagonalization with overlap
     c_bands:  2 eigenvalues not converged
     c_bands:  5 eigenvalues not converged
     c_bands:  2 eigenvalues not converged
     c_bands:  4 eigenvalues not converged
     c_bands:  4 eigenvalues not converged
     c_bands:  5 eigenvalues not converged
     c_bands:  5 eigenvalues not converged
     c_bands:  1 eigenvalues not converged
     ethr =  1.00E-05,  avg # of iterations = 22.5

[...]

     total energy              =   -2140.13569287 Ry
     estimated scf accuracy    <    9575.44195576 Ry

     iteration #  2     ecut=    29.40 Ry     beta= 0.05
     Davidson diagonalization with overlap
     ethr =  1.00E-02,  avg # of iterations = 31.9

[...]

     iteration # 73     ecut=    29.40 Ry     beta= 0.05
     Davidson diagonalization with overlap
     c_bands:  2 eigenvalues not converged
     ethr =  2.03E-11,  avg # of iterations = 12.1

[...]

     total energy              =   -2977.68474293 Ry
     estimated scf accuracy    <       0.00000008 Ry

     iteration # 74     ecut=    29.40 Ry     beta= 0.05
     Davidson diagonalization with overlap
     ethr =  2.03E-11,  avg # of iterations =  9.5

     negative rho (up, down):  1.238E-02 0.000E+00

     Adding external electric field

     Computed dipole along edir(3) :
        Dipole                1.6058 Ry au,          4.0814 Debye
        Dipole field          0.0030 Ry au,

        Potential amp.       -0.2809 Ry
        Total length         46.3494 bohr

     End of self-consistent calculation

          k = 0.0000 0.0000 0.0000 ( 18029 PWs)   bands (ev):

   -54.9543 -54.9176 -54.9149 -54.8835 -54.8441 -54.8339 -54.7938 -54.7622
   -54.7571 -54.7469 -54.7270 -54.7218 -54.7137 -54.6590 -53.9329 -53.8989
   -31.5263 -31.4077 -31.3205 -31.2820 -31.2643 -31.2516 -31.2492 -31.2439
   -31.2096 -31.2075 -31.1631 -31.1626 -31.1571 -31.1270 -31.1083 -31.0884
   -31.0777 -31.0720 -31.0707 -31.0634 -31.0292 -31.0246 -31.0179 -31.0125
   -30.9926 -30.9746 -30.9640 -30.9631 -30.9556 -30.9553 -30.9451 -30.9366
   -30.9202 -30.9201 -30.9115 -30.9090 -30.8839 -30.8777 -30.8758 -30.8745
   -30.8562 -30.8558 -30.3417 -30.2491 -30.2270 -30.1581 -30.0714 -29.9605
   -18.9395 -18.2089 -15.7892 -15.5214 -15.3961 -15.1961 -15.1429 -15.0382
   -14.8781 -14.8172 -14.7526 -14.7278 -14.7204 -14.6950 -14.6224 -14.5669
   -14.5375 -14.4855 -14.4849 -14.4488 -14.4417 -14.4365 -14.3822 -14.3783
   -14.3418 -14.3280 -14.3204 -14.1774 -14.0988 -14.0508 -14.0400 -13.1874
   -12.4356 -12.3184 -11.0058  -7.5930  -6.4016  -5.9740  -5.7679  -4.0059
    -3.8533  -3.1333  -2.9651  -2.9519  -2.8728  -2.8491  -2.6784  -2.6180
    -2.5107  -2.3946  -2.3182  -2.2206  -2.1767  -2.1589  -2.1448  -2.0322
    -1.9457  -1.9082  -1.8695  -1.8301  -1.8134  -1.7681  -1.7469  -1.7367
    -1.7042  -1.6784  -1.5254  -1.4505  -1.4136  -1.3778  -1.3403  -1.2830
    -1.2619  -1.2453  -1.2398  -1.2318  -1.2155  -1.1906  -1.1548  -1.1234
    -1.0558  -0.9720  -0.9620  -0.8506  -0.7671  -0.6345  -0.5807  -0.5229
    -0.4925  -0.4261  -0.3836  -0.3364  -0.3004  -0.2939  -0.2477  -0.1607
    -0.1476  -0.0897  -0.0712   0.0135   0.0586   0.0653   0.0763   0.2526
     0.2631   0.2810   0.3841   0.4653   0.5035   0.5203   0.5778   0.6402
     0.6430   0.6811   0.7028   0.7334   0.8164   0.9201   0.9451   0.9836
     0.9977   1.0233   1.0402   1.0676   1.1063   1.1877   1.1937   1.2711
     1.3655   1.3755   1.6375   1.6695   2.0003   2.0272   2.0896   2.2754
     2.6641   2.7116   4.1478   4.2098   4.2549   4.2806   4.2988   4.3793
     4.3981   4.6157   4.6420   4.6430   4.6522

[...]

          k = 0.0380-0.0419 0.0000 ( 17876 PWs)   bands (ev):

[...]

          k =-0.0760-0.0000 0.0000 ( 17886 PWs)   bands (ev):

[...]

          k =-0.0760-0.0839 0.0000 ( 17948 PWs)   bands (ev):

   -54.9424 -54.9266 -54.9005 -54.9005 -54.8416 -54.8244 -54.8033 -54.7547
   -54.7469 -54.7414 -54.7321 -54.7292 -54.7241 -54.6614 -53.9159 -53.9157
   -31.3350 -31.3236 -31.2577 -31.2228 -31.2228 -31.2165 -31.1929 -31.1929
   -31.1671 -31.1654 -31.1564 -31.1526 -31.1447 -31.0947 -31.0810 -31.0804
   -31.0760 -31.0748 -31.0716 -31.0688 -31.0414 -31.0316 -31.0294 -31.0228
   -31.0219 -31.0199 -31.0199 -31.0186 -30.9979 -30.9804 -30.9743 -30.9669
   -30.9611 -30.9555 -30.9540 -30.9498 -30.9490 -30.9217 -30.9152 -30.9125
   -30.9077 -30.8970 -30.2397 -30.2395 -30.1544 -30.1542 -30.1148 -30.1147
   -18.9345 -18.2095 -15.2800 -15.1531 -15.0540 -14.9983 -14.9519 -14.9361
   -14.9185 -14.8650 -14.8347 -14.7748 -14.7515 -14.7033 -14.6592 -14.6552
   -14.6273 -14.5480 -14.5328 -14.5203 -14.5129 -14.4620 -14.4480 -14.4252
   -14.4025 -14.3985 -14.3800 -14.3071 -14.2978 -14.2936 -14.2543 -13.1969
   -12.4201 -12.4199 -11.0066  -7.6038  -6.3921  -5.9735  -5.7531  -3.9835
    -3.8486  -2.5622  -2.5402  -2.4053  -2.3950  -2.2794  -2.1876  -2.1371
    -2.1316  -1.9925  -1.9599  -1.9435  -1.9286  -1.9159  -1.8674  -1.8438
    -1.8080  -1.7907  -1.7811  -1.7713  -1.7557  -1.7352  -1.6830  -1.6795
    -1.6686  -1.6541  -1.6101  -1.5944  -1.5634  -1.5527  -1.5243  -1.5017
    -1.4339  -1.3403  -1.2927  -1.2486  -1.1949  -1.1425  -1.1365  -1.0576
    -1.0399  -1.0083  -0.9773  -0.9525  -0.8566  -0.7834  -0.6889  -0.6862
    -0.6828  -0.5631  -0.5226  -0.5056  -0.4929  -0.4617  -0.3778  -0.3677
    -0.3084  -0.2338  -0.2073  -0.2028  -0.1770  -0.0577  -0.0316   0.0275
     0.0583   0.0906   0.0928   0.1721   0.1851   0.2443   0.2588   0.2722
     0.3171   0.3347   0.4332   0.5231   0.5581   0.6620   0.7554   0.7840
     0.8793   0.9369   1.0422   1.0618   1.0858   1.1826   1.1914   1.2255
     1.3543   1.3612   1.4771   1.5168   1.5268   1.5294   2.4477   2.4491
     2.5316   2.5317   4.2742   4.3972   4.4127   4.4588   4.5136   4.6545
     4.6780   4.7254   4.7269   4.8011   4.8093

     the Fermi energy is     4.2000 ev

!    total energy              =   -2977.68475841 Ry
     estimated scf accuracy    <       0.00000005 Ry
     smearing contrib. (-TS)   =      -0.03700802 Ry
     internal energy E=F+TS    =   -2977.64775039 Ry

     The total energy is F=E-TS. E is the sum of the following terms:
     one-electron contribution =  -23305.63672511 Ry
     hartree contribution      =   11753.81511110 Ry
     xc contribution           =    -496.60738781 Ry
     ewald contribution        =    9070.77638553 Ry
     electric field correction =       0.00486590 Ry

     convergence has been achieved in  74 iterations

     Forces acting on atoms (cartesian axes, Ry/au):

     atom    1 type  1   force =     0.00008516   -0.00024940    0.09411070
     atom    2 type  1   force =    -0.00008239   -0.00046023   -0.17746978
     atom    3 type  2   force =     0.00006190   -0.00033119   -0.02122648
     atom    4 type  2   force =     0.00003536   -0.00179268    0.05730211
     atom    5 type  2   force =    -0.01080077   -0.00101999    0.00667582
     atom    6 type  2   force =     0.01199746   -0.00033452    0.00502958
     atom    7 type  1   force =    -0.00060211    0.00106006   -0.01460438
     atom    8 type  1   force =     0.00086048    0.00331238    0.00460600
     atom    9 type  2   force =     0.00000850   -0.00005310    0.00012466
     atom   10 type  2   force =    -0.00368598    0.00211135   -0.00166249
     atom   11 type  2   force =    -0.00017575    0.00062173   -0.00011440
     atom   12 type  2   force =     0.00018915    0.00028730   -0.00022937
     atom   13 type  1   force =    -0.00020052   -0.00026674    0.00012010
     atom   14 type  1   force =     0.00024158   -0.00021393   -0.00036425
     atom   15 type  2   force =     0.00017961    0.00032087   -0.00018758
     atom   16 type  2   force =    -0.00010983    0.00023942   -0.00022914
     atom   17 type  2   force =    -0.00007549   -0.00024514    0.00038322
     atom   18 type  2   force =     0.00035754   -0.00015509   -0.00046233
     atom   19 type  1   force =    -0.00008784    0.00009282   -0.00048497
     atom   20 type  1   force =     0.00055485    0.00015104    0.00020332
     atom   21 type  2   force =     0.00011768   -0.00008057    0.10379358
     atom   22 type  2   force =     0.00059015   -0.00010769   -0.00037105
     atom   23 type  2   force =    -0.07069984   -0.00015046   -0.02715377
     atom   24 type  2   force =     0.07066307    0.00031824   -0.02715928
     atom   25 type  1   force =     0.00011327   -0.00017010    0.09371973
     atom   26 type  1   force =    -0.00006724   -0.00053346   -0.17771202
     atom   27 type  2   force =     0.00006527   -0.00004999   -0.02032465
     atom   28 type  2   force =     0.00006473   -0.00146165    0.05630387
     atom   29 type  2   force =    -0.01130945   -0.00039640    0.00735945
     atom   30 type  2   force =     0.01242073    0.00000177    0.00574800
     atom   31 type  1   force =    -0.00074621    0.00574452   -0.01563845
     atom   32 type  1   force =     0.00081679   -0.00459482    0.00436271
     atom   33 type  2   force =     0.00002002    0.00015195    0.00027194
     atom   34 type  2   force =    -0.00321283   -0.00103148   -0.00520965
     atom   35 type  2   force =    -0.00012050   -0.00039784    0.00006708
     atom   36 type  2   force =     0.00021657   -0.00006833   -0.00011086
     atom   37 type  1   force =    -0.00012917    0.00042944   -0.00009765
     atom   38 type  1   force =     0.00009290    0.00014444   -0.00013003
     atom   39 type  2   force =    -0.00045855   -0.00028765   -0.00021417
     atom   40 type  2   force =     0.00013064   -0.00007474    0.00024470
     atom   41 type  2   force =     0.00001001    0.00016255   -0.00008821
     atom   42 type  2   force =     0.00050568    0.00008258   -0.00026464
     atom   43 type  1   force =    -0.00029690    0.00010789   -0.00008954
     atom   44 type  1   force =     0.00037310    0.00021320    0.00039273
     atom   45 type  2   force =     0.00010385   -0.00006393    0.10377468
     atom   46 type  2   force =    -0.07069138   -0.00007247   -0.02712290
     atom   47 type  2   force =     0.07066876    0.00033766   -0.02714616
     atom   48 type  3   force =    -0.02099631   -0.00199417    0.00521824
     atom   49 type  3   force =     0.00470270   -0.00097320    0.00043327
     atom   50 type  4   force =     0.00374865    0.00061256   -0.00025996
     atom   51 type  5   force =     0.00037320    0.00009147   -0.00130362
     atom   52 type  5   force =     0.00005867    0.00096853    0.00113200
     atom   53 type  5   force =     0.00020131   -0.00035922   -0.00011878
     atom   54 type  5   force =     0.00326210    0.00264291   -0.00065417
     atom   55 type  5   force =     0.00143268   -0.00142430    0.00136601
     atom   56 type  5   force =     0.00936783   -0.00063891   -0.00462864
     atom   57 type  2   force =    -0.00086745    0.00084589    0.00147422
     atom   58 type  5   force =     0.00034289   -0.00061954   -0.00104426
     atom   59 type  5   force =     0.00038171   -0.00037962   -0.00034008

     Total force =     0.366741     Total SCF correction =     0.000923
  @ DRIVER MODE: Message from server: STATUS
  @ DRIVER MODE: Message from server: GETFORCE
  @ DRIVER MODE: Returning v,forces,stress,ensemble

     Writing output data file ./calc.save/
  @ DRIVER MODE: Message from server: EXIT
  @ DRIVE MODE: Exiting

     General routines

     Parallel routines

   This run was terminated on:  16:35:33  15Sep2021

   JOB DONE.