     Program PWSCF v.6.7GPU starts on 15Jul2021 at 17:37:25

     R & G space division:  proc/nbgrp/npool/nimage =      16
     Reading input from /storage/home/hcoda1/3/ntian30/research/carbon/15Jul_vib/ads_slab/CH3N_a/out_0003/pw.inp
Warning: card &CELL ignored
Warning: card   CELL_DYNAMICS='IPI', ignored
Warning: card / ignored

     Current dimensions of program PWSCF are:
     Max number of different atomic species (ntypx) = 10
     Max number of k-points (npk) =  40000
     Max angular momentum in pseudopotentials (lmaxx) =  3
     Presently no symmetry can be used with electric field

     Message from routine cell_base_init:
     DEPRECATED: use true lattice parameter, not A to a.u. conversion factor

     IMPORTANT: XC functional enforced from input :
     Exchange-correlation= BEEF-VDW
                           (   1   4  43  14   2   0   0)
     Any further DFT definition will be discarded
     Please, verify this is what you really want

  @ DRIVER MODE: Connecting to
 qe_1139763_2351643.sched-torque.pace.gatech.edu8tufxqm2_scratch
  using UNIX socket
  @ DRIVER MODE: Message from server: STATUS
  @ DRIVER MODE: Message from server: INIT
  @ DRIVER MODE: Receiving replica           0          -1
  @ DRIVER MODE: Receiving encoded integer          25
  @ DRIVER MODE:  SCF:  T  FORCE:  T  STRESS:  F  VC:  F  ENSEMBLE:  F
  @ DRIVER MODE:  SCF:  T  FORCE:  T  STRESS:  F  VC:  F  ENSEMBLE:  F

     Using Slab Decomposition

     bravais-lattice index     =            0
     lattice parameter (alat)  =       1.8897  a.u.
     unit-cell volume          =    6658.9804 (a.u.)^3
     number of atoms/cell      =           52
     number of atomic types    =            5
     number of electrons       =       390.00
     number of Kohn-Sham states=          205
     kinetic-energy cutoff     =      29.3995  Ry
     charge density cutoff     =     293.9946  Ry
     scf convergence threshold =      7.3E-08
     mixing beta               =       0.0500
     number of iterations used =            8  plain     mixing
     Exchange-correlation= BEEF-VDW
                           (   1   4  43  14   2   0   0)

     celldm(1)=   1.889726  celldm(2)=   0.000000  celldm(3)=   0.000000
     celldm(4)=   0.000000  celldm(5)=   0.000000  celldm(6)=   0.000000

     crystal axes: (cart. coord. in units of alat)
               a(1) = (   6.579727   0.000000   0.000000 )
               a(2) = (  -0.000775   5.961596   0.000000 )
               a(3) = (   0.000000   0.000000  25.155947 )

     reciprocal axes: (cart. coord. in units 2 pi/alat)
               b(1) = (  0.151982  0.000020  0.000000 )
               b(2) = (  0.000000  0.167740  0.000000 )
               b(3) = (  0.000000  0.000000  0.039752 )

     PseudoPot. # 1 for Ti read from file:
     /storage/coda1/p-amedford6/0/shared/rich_project_chbe-medford/medford-share/data/pseudos_module/espresso/nninc/pbe/van/Ti.UPF
     MD5 check sum: 8e4df49b7f0d34bbd5052bf3f5ea0213
     Pseudo is Ultrasoft, Zval = 12.0
     Generated by new atomic code, or converted to UPF format
     Using radial grid of  851 points,  6 beta functions with:
                l(1) =   0
                l(2) =   0
                l(3) =   1
                l(4) =   1
                l(5) =   2
                l(6) =   2
     Q(r) pseudized with  8 coefficients,  rinner =    1.000   1.000   1.000
                                                       1.000   1.000

     PseudoPot. # 2 for O  read from file:
     /storage/coda1/p-amedford6/0/shared/rich_project_chbe-medford/medford-share/data/pseudos_module/espresso/nninc/pbe/van/O.UPF
     MD5 check sum: 78c19812648e8988a0fe644b0f25305e
     Pseudo is Ultrasoft, Zval =  6.0
     Generated by new atomic code, or converted to UPF format
     Using radial grid of  737 points,  4 beta functions with:
                l(1) =   0
                l(2) =   0
                l(3) =   1
                l(4) =   1
     Q(r) pseudized with  8 coefficients,  rinner =    0.800   0.800   0.800

     PseudoPot. # 3 for N  read from file:
     /storage/coda1/p-amedford6/0/shared/rich_project_chbe-medford/medford-share/data/pseudos_module/espresso/nninc/pbe/van/N.UPF
     MD5 check sum: 90d10febe142ad51ac9d5be1deb811c4
     Pseudo is Ultrasoft, Zval =  5.0
     Generated by new atomic code, or converted to UPF format
     Using radial grid of  729 points,  4 beta functions with:
                l(1) =   0
                l(2) =   0
                l(3) =   1
                l(4) =   1
     Q(r) pseudized with  8 coefficients,  rinner =    0.800   0.800   0.800

     PseudoPot. # 4 for C  read from file:
     /storage/coda1/p-amedford6/0/shared/rich_project_chbe-medford/medford-share/data/pseudos_module/espresso/nninc/pbe/van/C.UPF
     MD5 check sum: 1a69bf6b8db32088f5b2163dbdb77a27
     Pseudo is Ultrasoft, Zval =  4.0
     Generated by new atomic code, or converted to UPF format
     Using radial grid of  721 points,  4 beta functions with:
                l(1) =   0
                l(2) =   0
                l(3) =   1
                l(4) =   1
     Q(r) pseudized with  8 coefficients,  rinner =    0.800   0.800   0.800

     PseudoPot. # 5 for H  read from file:
     /storage/coda1/p-amedford6/0/shared/rich_project_chbe-medford/medford-share/data/pseudos_module/espresso/nninc/pbe/van/H.UPF
     MD5 check sum: b5ee9d7bfd3a09ee7748110bda690ff7
     Pseudo is Ultrasoft, Zval =  1.0
     Generated by new atomic code, or converted to UPF format
     Using radial grid of  615 points,  1 beta functions with:
                l(1) =   0
     Q(r) pseudized with  8 coefficients,  rinner =    0.800

     atomic species   valence    mass     pseudopotential
        Ti1           12.00    47.86700     Ti( 1.00)
        O1             6.00    15.99900     O ( 1.00)
        N1             5.00    14.00700     N ( 1.00)
        C1             4.00    12.01100     C ( 1.00)
        H1             1.00     1.00800     H ( 1.00)

     Starting magnetic structure
     atomic species   magnetization
        Ti1          0.000
        O1           0.000
        N1           0.000
        C1           0.025
        H1           0.000

     No symmetry found

   Cartesian axes

     site n.     atom                  positions (alat units)
         1           Ti1 tau(   1) = (   0.0004258   2.9801865   6.0000000  )
         2           Ti1 tau(   2) = (   3.2906075   1.4906267   6.0002472  )
         3           O1  tau(   3) = (   0.0006271   0.0005054   7.9858123  )
         4           O1  tau(   4) = (   3.2906025   0.0005020   7.3038282  )
         5           O1  tau(   5) = (   4.5942328   1.4918067   9.2879030  )
         6           O1  tau(   6) = (   1.9868534   1.4903216   9.2879459  )
         7           Ti1 tau(   7) = (   3.2907910   2.8959150   9.1758416  )
         8           Ti1 tau(   8) = (   0.0015273   1.4827037   9.2680791  )
         9           O1  tau(   9) = (   3.2848820   0.0184509  11.2968037  )
        10           O1  tau(  10) = (   0.0116148   5.9584955  10.6183126  )
        11           O1  tau(  11) = (   1.3164307   1.5202202  12.6152053  )
        12           O1  tau(  12) = (   5.2938533   1.5248534  12.6363518  )
        13           Ti1 tau(  13) = (   6.4693392   3.0155455  12.7604093  )
        14           Ti1 tau(  14) = (   3.1621140   1.5165027  12.4659144  )
        15           O1  tau(  15) = (   0.0250032   0.0426882  14.5925537  )
        16           O1  tau(  16) = (   3.2896737   0.0171256  13.8799622  )
        17           O1  tau(  17) = (   4.5365032   1.4993634  16.0438468  )
        18           O1  tau(  18) = (   2.0814567   1.5015292  16.0591106  )
        19           Ti1 tau(  19) = (   3.3082904   2.9956922  15.6854367  )
        20           Ti1 tau(  20) = (   0.0032501   1.4479889  16.1249605  )
        21           O1  tau(  21) = (   3.2904802   0.0005063   4.7018136  )
        22           O1  tau(  22) = (   0.0161699   0.0004382  17.1970091  )
        23           O1  tau(  23) = (   1.3043587   1.4918075   6.0039043  )
        24           O1  tau(  24) = (   5.2767064   1.4903225   6.0039473  )
        25           Ti1 tau(  25) = (   0.0000382   5.9609847   6.0000000  )
        26           Ti1 tau(  26) = (   3.2902200   4.4714249   6.0002472  )
        27           O1  tau(  27) = (   0.0002396   2.9813036   7.9858123  )
        28           O1  tau(  28) = (   3.2902150   2.9813002   7.3038282  )
        29           O1  tau(  29) = (   4.5938453   4.4726049   9.2879030  )
        30           O1  tau(  30) = (   1.9864658   4.4711199   9.2879459  )
        31           Ti1 tau(  31) = (   3.2891106   5.8743827   9.1763621  )
        32           Ti1 tau(  32) = (   0.0006254   4.4649316   9.2693709  )
        33           O1  tau(  33) = (   3.2855107   2.9994495  11.2959752  )
        34           O1  tau(  34) = (   0.0092240   2.9805883  10.6323155  )
        35           O1  tau(  35) = (   1.3179678   4.4860142  12.6155112  )
        36           O1  tau(  36) = (   5.2920789   4.4901865  12.6316709  )
        37           Ti1 tau(  37) = (   6.5050993   0.0355131  12.7707974  )
        38           Ti1 tau(  38) = (   3.1594757   4.4963870  12.4672366  )
        39           O1  tau(  39) = (   6.5726527   3.0227966  14.6583025  )
        40           O1  tau(  40) = (   3.2932321   2.9979836  13.8792693  )
        41           O1  tau(  41) = (   4.5322310   4.4839795  16.0418810  )
        42           O1  tau(  42) = (   2.0800586   4.4799519  16.0553745  )
        43           Ti1 tau(  43) = (   3.2910362   0.0127607  15.6894215  )
        44           Ti1 tau(  44) = (   0.0049462   4.4269923  16.0943486  )
        45           O1  tau(  45) = (   3.2900926   2.9813045   4.7018136  )
        46           O1  tau(  46) = (   1.3039711   4.4726057   6.0039043  )
        47           O1  tau(  47) = (   5.2763189   4.4711207   6.0039473  )
        48           N1  tau(  48) = (   0.0596666   2.9842962  17.3216073  )
        49           C1  tau(  49) = (   0.3918855   2.9774893  18.7266025  )
        50           H1  tau(  50) = (   0.0017595   3.8652167  19.2343835  )
        51           H1  tau(  51) = (   0.0043965   2.0815098  19.2200810  )
        52           H1  tau(  52) = (   1.4843755   2.9788857  18.8581259  )

     number of k points=    10  Fermi-Dirac smearing, width (Ry)=  0.0073
                       cart. coord. in units 2pi/alat
        k(    1) = (   0.0000000   0.0000000   0.0000000), wk =   0.0625000
        k(    2) = (   0.0000000   0.0419351   0.0000000), wk =   0.1250000
        k(    3) = (   0.0000000  -0.0838702   0.0000000), wk =   0.0625000
        k(    4) = (   0.0379955   0.0000049   0.0000000), wk =   0.1250000
        k(    5) = (   0.0379955   0.0419400   0.0000000), wk =   0.1250000
        k(    6) = (   0.0379955  -0.0838652   0.0000000), wk =   0.1250000
        k(    7) = (   0.0379955  -0.0419301   0.0000000), wk =   0.1250000
        k(    8) = (  -0.0759910  -0.0000099   0.0000000), wk =   0.0625000
        k(    9) = (  -0.0759910   0.0419252   0.0000000), wk =   0.1250000
        k(   10) = (  -0.0759910  -0.0838800   0.0000000), wk =   0.0625000

     Initial potential from superposition of free atoms

     starting charge  373.99917, renormalised to  390.00000

     negative rho (up, down):  8.650E-03 8.656E-03

     %%%%%%%%%%%%%%%%%%%%%%%%%%%%%%%%%%%%%%%%%%%%%%%%%%%%%%%%%%%%%%%%%%%%%%%%
     %                                                                      %
     % You are using vdW-DF, which was implemented by the Thonhauser group. %
     % Please cite the following two papers that made this development      %
     % possible and the two reviews that describe the various versions:     %
     %                                                                      %
     %   T. Thonhauser et al., PRL 115, 136402 (2015).                      %
     %   T. Thonhauser et al., PRB 76, 125112 (2007).                       %
     %   K. Berland et al., Rep. Prog. Phys. 78, 066501 (2015).             %
     %   D.C. Langreth et al., J. Phys.: Condens. Matter 21, 084203 (2009). %
     %                                                                      %
     %                                                                      %
     % If you are calculating the stress with vdW-DF, please also cite:     %
     %                                                                      %
     %   R. Sabatini et al., J. Phys.: Condens. Matter 24, 424209 (2012).   %
     %                                                                      %
     %%%%%%%%%%%%%%%%%%%%%%%%%%%%%%%%%%%%%%%%%%%%%%%%%%%%%%%%%%%%%%%%%%%%%%%%

     Adding external electric field

     Computed dipole along edir(3) :
        Dipole               -4.6263 Ry au,        -11.7589 Debye
        Dipole field         -0.0087 Ry au,

        Potential amp.        0.8093 Ry
        Total length         46.3494 bohr

[...]

     Starting wfcs are  295 atomic wfcs
  @ DRIVER MODE: Message from server: STATUS
  @ DRIVER MODE: Message from server: POSDATA
  @ DRIVER MODE: Reading and sharing cell
  @ DRIVER MODE: Reading and sharing positions
  @ DRIVER MODE: Received positions

     Self-consistent Calculation

     iteration #  1     ecut=    29.40 Ry     beta= 0.05
     Davidson diagonalization with overlap
     c_bands:  3 eigenvalues not converged
     c_bands:  3 eigenvalues not converged
     c_bands:  2 eigenvalues not converged
     c_bands:  4 eigenvalues not converged
     c_bands:  4 eigenvalues not converged
     c_bands:  2 eigenvalues not converged
     c_bands:  2 eigenvalues not converged
     c_bands:  2 eigenvalues not converged
     c_bands:  4 eigenvalues not converged
     c_bands:  2 eigenvalues not converged
     c_bands:  2 eigenvalues not converged
     c_bands:  4 eigenvalues not converged
     c_bands:  4 eigenvalues not converged
     c_bands:  2 eigenvalues not converged
     c_bands:  3 eigenvalues not converged
     c_bands:  2 eigenvalues not converged
     ethr =  1.00E-05,  avg # of iterations = 19.8

[...]

     total energy              =   -2877.20523024 Ry
     estimated scf accuracy    <     483.43029351 Ry

     total magnetization       =     0.13 Bohr mag/cell
     absolute magnetization    =     0.16 Bohr mag/cell

     iteration #  2     ecut=    29.40 Ry     beta= 0.05
     Davidson diagonalization with overlap
     ethr =  1.00E-02,  avg # of iterations = 13.6

[...]

     iteration # 32     ecut=    29.40 Ry     beta= 0.05
     Davidson diagonalization with overlap
     c_bands:  1 eigenvalues not converged
     c_bands:  2 eigenvalues not converged
     c_bands:  1 eigenvalues not converged
     c_bands:  2 eigenvalues not converged
     c_bands:  1 eigenvalues not converged
     c_bands:  1 eigenvalues not converged
     c_bands:  2 eigenvalues not converged
     ethr =  2.28E-06,  avg # of iterations = 16.4

[...]

     total energy              =   -2919.13331412 Ry
     estimated scf accuracy    <       0.00000009 Ry

[...]

     iteration # 58     ecut=    29.40 Ry     beta= 0.05
     Davidson diagonalization with overlap
     ethr =  2.31E-11,  avg # of iterations =  4.4

     negative rho (up, down):  8.885E-03 8.885E-03

[...]

     Adding external electric field

     Computed dipole along edir(3) :
        Dipole                0.2518 Ry au,          0.6401 Debye
        Dipole field          0.0005 Ry au,

        Potential amp.       -0.0441 Ry
        Total length         46.3494 bohr

     Magnetic moment per site  (integrated on atomic sphere of radius R)
     atom   1 (R=0.743)  charge=  8.0712  magn= -0.0001
     atom   2 (R=0.743)  charge=  8.0673  magn= -0.0001
     atom   3 (R=0.743)  charge=  5.0508  magn=  0.0000
     atom   4 (R=0.743)  charge=  5.0897  magn=  0.0000
     atom   5 (R=0.743)  charge=  5.0526  magn=  0.0000
     atom   6 (R=0.743)  charge=  5.0540  magn=  0.0000
     atom   7 (R=0.743)  charge=  8.0607  magn= -0.0000
     atom   8 (R=0.743)  charge=  8.0480  magn= -0.0000
     atom   9 (R=0.743)  charge=  5.0677  magn=  0.0000
     atom  10 (R=0.743)  charge=  4.9974  magn=  0.0000
     atom  11 (R=0.743)  charge=  5.0556  magn=  0.0000
     atom  12 (R=0.743)  charge=  5.0584  magn= -0.0000
     atom  13 (R=0.743)  charge=  8.0594  magn= -0.0000
     atom  14 (R=0.743)  charge=  8.0663  magn= -0.0000
     atom  15 (R=0.743)  charge=  5.0445  magn=  0.0000
     atom  16 (R=0.743)  charge=  5.0714  magn=  0.0000
     atom  17 (R=0.743)  charge=  5.0432  magn=  0.0001
     atom  18 (R=0.743)  charge=  5.0419  magn=  0.0000
     atom  19 (R=0.743)  charge=  8.0874  magn= -0.0000
     atom  20 (R=0.743)  charge=  8.0875  magn= -0.0001
     atom  21 (R=0.743)  charge=  4.9345  magn=  0.0002
     atom  22 (R=0.743)  charge=  5.0262  magn= -0.0000
     atom  23 (R=0.743)  charge=  5.0425  magn=  0.0000
     atom  24 (R=0.743)  charge=  5.0426  magn=  0.0000
     atom  25 (R=0.743)  charge=  8.0712  magn= -0.0001
     atom  26 (R=0.743)  charge=  8.0673  magn= -0.0001
     atom  27 (R=0.743)  charge=  5.0507  magn=  0.0000
     atom  28 (R=0.743)  charge=  5.0899  magn=  0.0000
     atom  29 (R=0.743)  charge=  5.0534  magn=  0.0000
     atom  30 (R=0.743)  charge=  5.0547  magn=  0.0000
     atom  31 (R=0.743)  charge=  8.0608  magn= -0.0000
     atom  32 (R=0.743)  charge=  8.0482  magn= -0.0000
     atom  33 (R=0.743)  charge=  5.0679  magn=  0.0000
     atom  34 (R=0.743)  charge=  4.9963  magn=  0.0000
     atom  35 (R=0.743)  charge=  5.0558  magn= -0.0000
     atom  36 (R=0.743)  charge=  5.0580  magn=  0.0000
     atom  37 (R=0.743)  charge=  8.0670  magn= -0.0000
     atom  38 (R=0.743)  charge=  8.0667  magn= -0.0000
     atom  39 (R=0.743)  charge=  5.0387  magn=  0.0000
     atom  40 (R=0.743)  charge=  5.0730  magn=  0.0000
     atom  41 (R=0.743)  charge=  5.0440  magn=  0.0001
     atom  42 (R=0.743)  charge=  5.0430  magn=  0.0001
     atom  43 (R=0.743)  charge=  8.0879  magn= -0.0000
     atom  44 (R=0.743)  charge=  8.0842  magn= -0.0001
     atom  45 (R=0.743)  charge=  4.9345  magn=  0.0002
     atom  46 (R=0.743)  charge=  5.0425  magn=  0.0000
     atom  47 (R=0.743)  charge=  5.0426  magn=  0.0000
     atom  48 (R=0.596)  charge=  2.7577  magn=  0.0005
     atom  49 (R=0.451)  charge=  0.8549  magn=  0.0000
     atom  50 (R=0.451)  charge=  0.5106  magn= -0.0000
     atom  51 (R=0.451)  charge=  0.5113  magn= -0.0000
     atom  52 (R=0.451)  charge=  0.5057  magn=  0.0000

     End of self-consistent calculation

 ------ SPIN UP ------------

          k = 0.0000 0.0000 0.0000 ( 18029 PWs)   bands (ev):

   -56.8977 -56.8641 -56.0112 -56.0019 -55.9761 -55.9694 -55.8621 -55.8263
   -55.6450 -55.6098 -55.5599 -55.5394 -55.5259 -55.4404 -54.9889 -54.9536
   -33.3251 -33.1718 -33.1437 -33.0740 -32.9830 -32.9512 -32.4845 -32.4753
   -32.4048 -32.2970 -32.2515 -32.2246 -32.2095 -32.1855 -32.1527 -32.1496
   -32.1427 -32.1399 -32.1158 -32.1091 -32.1014 -32.0704 -32.0443 -32.0292
   -32.0155 -31.9982 -31.9899 -31.9664 -31.9518 -31.8983 -31.8765 -31.8741
   -31.7838 -31.7828 -31.7705 -31.7149 -31.7112 -31.6870 -31.6683 -31.6464
   -31.6228 -31.5762 -31.5191 -31.2280 -31.2089 -31.2068 -31.1781 -31.0485
   -17.0598 -16.6206 -16.3899 -16.2590 -16.1879 -16.1371 -16.0895 -15.9638
   -15.8919 -15.8883 -15.8509 -15.8125 -15.7442 -15.6044 -15.5071 -15.4480
   -15.4049 -15.2852 -15.2274 -15.1915 -15.1838 -15.1538 -15.1331 -14.9349
   -14.9119 -14.8162 -14.7999 -14.6753 -14.4493 -14.0589 -13.9489 -13.0892
    -7.8055  -4.6261  -4.1167  -3.8743  -3.7915  -3.6814  -3.6735  -3.5928
    -3.4772  -3.4266  -3.3809  -3.2653  -3.2615  -3.1157  -3.0984  -3.0724
    -3.0662  -3.0273  -2.9983  -2.9509  -2.8985  -2.8934  -2.8880  -2.7377
    -2.6372  -2.5681  -2.5449  -2.5281  -2.4999  -2.4077  -2.4030  -2.3876
    -2.3840  -2.2898  -2.1389  -2.1304  -2.0960  -2.0588  -2.0558  -2.0117
    -2.0024  -1.8455  -1.8016  -1.6836  -1.6730  -1.6383  -1.5717  -1.5680
    -1.4477  -1.3970  -1.3550  -1.3056  -1.1984  -1.1538  -1.1253  -1.0369
    -0.9759  -0.9387  -0.9201  -0.9008  -0.7934  -0.7852  -0.7700  -0.6788
    -0.6730  -0.6222  -0.5331  -0.5103  -0.5078  -0.4174  -0.4095  -0.3117
    -0.2764  -0.2242  -0.1939  -0.1142  -0.0836   0.0209   0.0594   0.0748
     0.2053   0.2195   0.2778   0.3445   0.4018   0.4450   0.4614   0.4957
     0.5050   0.5971   0.7059   0.7080   0.8195   0.8563   1.0141   1.0530
     1.3508   1.3617   2.0245   2.3776   2.5382   2.8364   3.0309   3.1435
     3.3540   3.3681   3.3738   3.5532   3.6015

[...]

          k =-0.0760-0.0000 0.0000 ( 17886 PWs)   bands (ev):

[...]

 ------ SPIN DOWN ----------

[...]

          k = 0.0380-0.0419 0.0000 ( 17876 PWs)   bands (ev):

[...]

          k =-0.0760-0.0839 0.0000 ( 17948 PWs)   bands (ev):

   -56.8812 -56.8808 -55.9952 -55.9907 -55.9865 -55.9861 -55.8472 -55.8411
   -55.6302 -55.6247 -55.5433 -55.5432 -55.5363 -55.4435 -54.9723 -54.9706
   -33.1579 -33.1575 -33.1421 -33.1419 -33.0272 -33.0269 -32.3143 -32.3118
   -32.2993 -32.2939 -32.2416 -32.2401 -32.1973 -32.1972 -32.1963 -32.1930
   -32.1848 -32.1823 -32.1812 -32.1792 -32.0990 -32.0937 -32.0477 -32.0438
   -31.9817 -31.9737 -31.9124 -31.9064 -31.8875 -31.8874 -31.8670 -31.8288
   -31.8273 -31.7931 -31.7685 -31.7684 -31.7602 -31.7293 -31.7293 -31.7098
   -31.6853 -31.6485 -31.3808 -31.3101 -31.1991 -31.1925 -31.1727 -31.1454
   -16.4078 -16.4058 -16.3741 -16.3738 -16.1029 -16.0993 -16.0505 -16.0484
   -15.8768 -15.8689 -15.6641 -15.6548 -15.6488 -15.6450 -15.5174 -15.5102
   -15.4472 -15.4338 -15.3492 -15.3359 -15.2780 -15.2716 -15.2366 -15.2126
   -14.8978 -14.8898 -14.7686 -14.7544 -14.6037 -14.0517 -14.0516 -13.1047
    -7.7954  -3.5069  -3.5061  -3.4398  -3.4389  -3.3146  -3.3078  -3.2384
    -3.2377  -3.1319  -3.1281  -3.0705  -3.0024  -2.9906  -2.9873  -2.9762
    -2.9672  -2.8352  -2.8326  -2.8196  -2.8046  -2.7529  -2.7504  -2.7354
    -2.6564  -2.6407  -2.6094  -2.5653  -2.4653  -2.4487  -2.4327  -2.4058
    -2.3475  -2.3358  -2.3218  -2.2763  -2.2567  -2.1542  -2.1072  -2.0621
    -1.9430  -1.9403  -1.9310  -1.9139  -1.7661  -1.7280  -1.6979  -1.6907
    -1.6825  -1.6333  -1.5407  -1.5326  -1.3982  -1.3935  -1.3219  -1.2392
    -1.2199  -1.1911  -1.0590  -1.0115  -0.9795  -0.9725  -0.9534  -0.9241
    -0.8961  -0.8686  -0.7239  -0.7040  -0.6812  -0.6433  -0.6305  -0.5767
    -0.5268  -0.4469  -0.3673  -0.3662  -0.2839  -0.2429  -0.1783  -0.0957
    -0.0836  -0.0777   0.2026   0.2809   0.3728   0.4571   0.5205   0.5829
     0.6074   0.6731   0.7048   0.8427   0.8460   0.8627   0.8629   0.9296
     0.9341   1.3331   1.9205   2.9512   2.9515   3.0189   3.0193   3.3430
     3.3485   3.4581   3.4675   3.5823   3.5849

     the Fermi energy is     2.2125 ev

!    total energy              =   -2919.13336147 Ry
     estimated scf accuracy    <       0.00000005 Ry
     smearing contrib. (-TS)   =      -0.00466308 Ry
     internal energy E=F+TS    =   -2919.12869839 Ry

     The total energy is F=E-TS. E is the sum of the following terms:
     one-electron contribution =  -24579.10335088 Ry
     hartree contribution      =   12373.74048312 Ry
     xc contribution           =    -479.90039738 Ry
     ewald contribution        =    9766.13444705 Ry
     electric field correction =       0.00011970 Ry

     total magnetization       =     0.00 Bohr mag/cell
     absolute magnetization    =     0.00 Bohr mag/cell

     convergence has been achieved in  58 iterations

     Forces acting on atoms (cartesian axes, Ry/au):

     atom    1 type  1   force =    -0.00002927   -0.00046187    0.12458907
     atom    2 type  1   force =    -0.00012453   -0.00053210   -0.16053763
     atom    3 type  2   force =     0.00016128   -0.00014193   -0.06863713
     atom    4 type  2   force =    -0.00004310   -0.00017609    0.02747165
     atom    5 type  2   force =    -0.01663919    0.00229407   -0.00875656
     atom    6 type  2   force =     0.01809985    0.00296183   -0.00970439
     atom    7 type  1   force =     0.00056373   -0.00363917    0.02216065
     atom    8 type  1   force =    -0.00015489   -0.00292539    0.11208840
     atom    9 type  2   force =     0.00047921   -0.00001763   -0.00024642
     atom   10 type  2   force =    -0.00265961    0.00368061   -0.07362392
     atom   11 type  2   force =     0.00130388   -0.00056450   -0.00040052
     atom   12 type  2   force =    -0.00057469   -0.00100794   -0.00076055
     atom   13 type  1   force =     0.00029025   -0.00065160    0.00044574
     atom   14 type  1   force =    -0.00082963   -0.00055005    0.00000514
     atom   15 type  2   force =    -0.00028410   -0.00138674   -0.00031106
     atom   16 type  2   force =     0.00028520    0.00008211   -0.00052350
     atom   17 type  2   force =    -0.00043042   -0.00033049   -0.00044467
     atom   18 type  2   force =     0.00021216   -0.00052041   -0.00076077
     atom   19 type  1   force =     0.00062212   -0.00121417   -0.00012602
     atom   20 type  1   force =    -0.00020894   -0.00043901   -0.00093393
     atom   21 type  2   force =     0.00005516   -0.00006386    0.09970449
     atom   22 type  2   force =     0.00008265   -0.00254682    0.00053593
     atom   23 type  2   force =    -0.07925250   -0.00009186   -0.03246802
     atom   24 type  2   force =     0.07912725    0.00035748   -0.03248928
     atom   25 type  1   force =     0.00000844   -0.00049669    0.12408564
     atom   26 type  1   force =    -0.00015578   -0.00044679   -0.16061585
     atom   27 type  2   force =     0.00029581   -0.00031898   -0.06765019
     atom   28 type  2   force =    -0.00002357   -0.00001608    0.02723756
     atom   29 type  2   force =    -0.01710223    0.00187145   -0.00886519
     atom   30 type  2   force =     0.01844189    0.00225867   -0.00975838
     atom   31 type  1   force =     0.00058910   -0.00093515    0.02169902
     atom   32 type  1   force =    -0.00010963    0.00054615    0.11255170
     atom   33 type  2   force =     0.00026348   -0.00064908   -0.00043340
     atom   34 type  2   force =    -0.00273294    0.00315887   -0.07273753
     atom   35 type  2   force =    -0.00108777    0.00020391    0.00017518
     atom   36 type  2   force =     0.00083587    0.00003544    0.00029810
     atom   37 type  1   force =    -0.00006575   -0.00006225   -0.00011394
     atom   38 type  1   force =     0.00087807   -0.00026165   -0.00018587
     atom   39 type  2   force =    -0.00009252   -0.00006049    0.00039660
     atom   40 type  2   force =     0.00007720   -0.00008254   -0.00010182
     atom   41 type  2   force =     0.00089155   -0.00059693    0.00014461
     atom   42 type  2   force =    -0.00066398   -0.00028915   -0.00034815
     atom   43 type  1   force =     0.00014660    0.00149888    0.00066140
     atom   44 type  1   force =    -0.00046301   -0.00109882    0.00128523
     atom   45 type  2   force =     0.00004529   -0.00006835    0.09972369
     atom   46 type  2   force =    -0.07926006   -0.00004419   -0.03246004
     atom   47 type  2   force =     0.07913580    0.00039896   -0.03247984
     atom   48 type  3   force =     0.00063325    0.00518932    0.00014462
     atom   49 type  4   force =    -0.00013743   -0.00143169    0.00038649
     atom   50 type  5   force =     0.00001373    0.00008777   -0.00082823
     atom   51 type  5   force =     0.00036371   -0.00027244    0.00118539
     atom   52 type  5   force =    -0.00077696   -0.00023265    0.00032650

     Total force =     0.425559     Total SCF correction =     0.000647
  @ DRIVER MODE: Message from server: STATUS
  @ DRIVER MODE: Message from server: GETFORCE
  @ DRIVER MODE: Returning v,forces,stress,ensemble

     Writing output data file ./calc.save/
  @ DRIVER MODE: Message from server: EXIT
  @ DRIVE MODE: Exiting

     General routines

     Parallel routines

   This run was terminated on:  17:58:34  15Jul2021

   JOB DONE.