     Program PWSCF v.6.7GPU starts on 24Aug2021 at  6: 2: 2

     R & G space division:  proc/nbgrp/npool/nimage =       6
     Reading input from /storage/home/hcoda1/3/ntian30/research/carbon/CH_vib/ads_slab/CHNNHH_a/out_0033/pw.inp
Warning: card &CELL ignored
Warning: card   CELL_DYNAMICS='IPI', ignored
Warning: card / ignored

     Current dimensions of program PWSCF are:
     Max number of different atomic species (ntypx) = 10
     Max number of k-points (npk) =  40000
     Max angular momentum in pseudopotentials (lmaxx) =  3
     Presently no symmetry can be used with electric field

     Message from routine cell_base_init:
     DEPRECATED: use true lattice parameter, not A to a.u. conversion factor

     IMPORTANT: XC functional enforced from input :
     Exchange-correlation= BEEF-VDW
                           (   1   4  43  14   2   0   0)
     Any further DFT definition will be discarded
     Please, verify this is what you really want

  @ DRIVER MODE: Connecting to
 qe_1139763_2632796.sched-torque.pace.gatech.edu07dv9xby_scratch
  using UNIX socket
  @ DRIVER MODE: Message from server: STATUS
  @ DRIVER MODE: Message from server: INIT
  @ DRIVER MODE: Receiving replica           0          -1
  @ DRIVER MODE: Receiving encoded integer          25
  @ DRIVER MODE:  SCF:  T  FORCE:  T  STRESS:  F  VC:  F  ENSEMBLE:  F
  @ DRIVER MODE:  SCF:  T  FORCE:  T  STRESS:  F  VC:  F  ENSEMBLE:  F

     Using Slab Decomposition

     bravais-lattice index     =            0
     lattice parameter (alat)  =       1.8897  a.u.
     unit-cell volume          =    6658.9804 (a.u.)^3
     number of atoms/cell      =           53
     number of atomic types    =            5
     number of electrons       =       395.00
     number of Kohn-Sham states=          207
     kinetic-energy cutoff     =      29.3995  Ry
     charge density cutoff     =     293.9946  Ry
     scf convergence threshold =      7.3E-08
     mixing beta               =       0.0500
     number of iterations used =            8  plain     mixing
     Exchange-correlation= BEEF-VDW
                           (   1   4  43  14   2   0   0)

     celldm(1)=   1.889726  celldm(2)=   0.000000  celldm(3)=   0.000000
     celldm(4)=   0.000000  celldm(5)=   0.000000  celldm(6)=   0.000000

     crystal axes: (cart. coord. in units of alat)
               a(1) = (   6.579727   0.000000   0.000000 )
               a(2) = (  -0.000775   5.961596   0.000000 )
               a(3) = (   0.000000   0.000000  25.155947 )

     reciprocal axes: (cart. coord. in units 2 pi/alat)
               b(1) = (  0.151982  0.000020  0.000000 )
               b(2) = (  0.000000  0.167740  0.000000 )
               b(3) = (  0.000000  0.000000  0.039752 )

     PseudoPot. # 1 for Ti read from file:
     /storage/coda1/p-amedford6/0/shared/rich_project_chbe-medford/medford-share/data/pseudos_module/espresso/nninc/pbe/van/Ti.UPF
     MD5 check sum: 8e4df49b7f0d34bbd5052bf3f5ea0213
     Pseudo is Ultrasoft, Zval = 12.0
     Generated by new atomic code, or converted to UPF format
     Using radial grid of  851 points,  6 beta functions with:
                l(1) =   0
                l(2) =   0
                l(3) =   1
                l(4) =   1
                l(5) =   2
                l(6) =   2
     Q(r) pseudized with  8 coefficients,  rinner =    1.000   1.000   1.000
                                                       1.000   1.000

     PseudoPot. # 2 for O  read from file:
     /storage/coda1/p-amedford6/0/shared/rich_project_chbe-medford/medford-share/data/pseudos_module/espresso/nninc/pbe/van/O.UPF
     MD5 check sum: 78c19812648e8988a0fe644b0f25305e
     Pseudo is Ultrasoft, Zval =  6.0
     Generated by new atomic code, or converted to UPF format
     Using radial grid of  737 points,  4 beta functions with:
                l(1) =   0
                l(2) =   0
                l(3) =   1
                l(4) =   1
     Q(r) pseudized with  8 coefficients,  rinner =    0.800   0.800   0.800

     PseudoPot. # 3 for N  read from file:
     /storage/coda1/p-amedford6/0/shared/rich_project_chbe-medford/medford-share/data/pseudos_module/espresso/nninc/pbe/van/N.UPF
     MD5 check sum: 90d10febe142ad51ac9d5be1deb811c4
     Pseudo is Ultrasoft, Zval =  5.0
     Generated by new atomic code, or converted to UPF format
     Using radial grid of  729 points,  4 beta functions with:
                l(1) =   0
                l(2) =   0
                l(3) =   1
                l(4) =   1
     Q(r) pseudized with  8 coefficients,  rinner =    0.800   0.800   0.800

     PseudoPot. # 4 for C  read from file:
     /storage/coda1/p-amedford6/0/shared/rich_project_chbe-medford/medford-share/data/pseudos_module/espresso/nninc/pbe/van/C.UPF
     MD5 check sum: 1a69bf6b8db32088f5b2163dbdb77a27
     Pseudo is Ultrasoft, Zval =  4.0
     Generated by new atomic code, or converted to UPF format
     Using radial grid of  721 points,  4 beta functions with:
                l(1) =   0
                l(2) =   0
                l(3) =   1
                l(4) =   1
     Q(r) pseudized with  8 coefficients,  rinner =    0.800   0.800   0.800

     PseudoPot. # 5 for H  read from file:
     /storage/coda1/p-amedford6/0/shared/rich_project_chbe-medford/medford-share/data/pseudos_module/espresso/nninc/pbe/van/H.UPF
     MD5 check sum: b5ee9d7bfd3a09ee7748110bda690ff7
     Pseudo is Ultrasoft, Zval =  1.0
     Generated by new atomic code, or converted to UPF format
     Using radial grid of  615 points,  1 beta functions with:
                l(1) =   0
     Q(r) pseudized with  8 coefficients,  rinner =    0.800

     atomic species   valence    mass     pseudopotential
        Ti1           12.00    47.86700     Ti( 1.00)
        O1             6.00    15.99900     O ( 1.00)
        N1             5.00    14.00700     N ( 1.00)
        C1             4.00    12.01100     C ( 1.00)
        H1             1.00     1.00800     H ( 1.00)

     No symmetry found

   Cartesian axes

     site n.     atom                  positions (alat units)
         1           Ti1 tau(   1) = (   0.0004258   2.9801865   6.0000000  )
         2           Ti1 tau(   2) = (   3.2906075   1.4906267   6.0002472  )
         3           O1  tau(   3) = (   0.0006271   0.0005054   7.9858123  )
         4           O1  tau(   4) = (   3.2906025   0.0005020   7.3038282  )
         5           O1  tau(   5) = (   4.5942328   1.4918067   9.2879030  )
         6           O1  tau(   6) = (   1.9868534   1.4903216   9.2879459  )
         7           Ti1 tau(   7) = (   3.2907910   2.8959150   9.1758416  )
         8           Ti1 tau(   8) = (   0.0015273   1.4827037   9.2680791  )
         9           O1  tau(   9) = (   3.2912281   5.9459940  11.3193265  )
        10           O1  tau(  10) = (   0.0116148   5.9584955  10.6183126  )
        11           O1  tau(  11) = (   1.3103257   1.4650607  12.6442557  )
        12           O1  tau(  12) = (   5.3047449   1.4806448  12.6312737  )
        13           Ti1 tau(  13) = (   6.5337005   3.0128982  12.6900614  )
        14           Ti1 tau(  14) = (   3.2207025   1.4698770  12.4715817  )
        15           O1  tau(  15) = (   6.5518216   5.9146589  14.6704082  )
        16           O1  tau(  16) = (   3.3240203   5.9583723  13.8895330  )
        17           O1  tau(  17) = (   4.5456974   1.5225049  16.1264218  )
        18           O1  tau(  18) = (   2.0489736   1.4727210  15.9535721  )
        19           Ti1 tau(  19) = (   3.2591190   2.9927146  15.6788090  )
        20           Ti1 tau(  20) = (   0.0289511   1.3544711  15.7732889  )
        21           O1  tau(  21) = (   3.2904802   0.0005063   4.7018136  )
        22           O1  tau(  22) = (   0.0559926   0.0451390  17.2112278  )
        23           O1  tau(  23) = (   1.3043587   1.4918075   6.0039043  )
        24           O1  tau(  24) = (   5.2767064   1.4903225   6.0039473  )
        25           Ti1 tau(  25) = (   0.0000382   5.9609847   6.0000000  )
        26           Ti1 tau(  26) = (   3.2902200   4.4714249   6.0002472  )
        27           O1  tau(  27) = (   0.0002396   2.9813036   7.9858123  )
        28           O1  tau(  28) = (   3.2902150   2.9813002   7.3038282  )
        29           O1  tau(  29) = (   4.5938453   4.4726049   9.2879030  )
        30           O1  tau(  30) = (   1.9864658   4.4711199   9.2879459  )
        31           Ti1 tau(  31) = (   3.2891106   5.8743827   9.1763621  )
        32           Ti1 tau(  32) = (   0.0006254   4.4649316   9.2693709  )
        33           O1  tau(  33) = (   3.2889932   2.9698301  11.3211337  )
        34           O1  tau(  34) = (   0.0092240   2.9805883  10.6323155  )
        35           O1  tau(  35) = (   1.3069247   4.4567274  12.6410950  )
        36           O1  tau(  36) = (   5.3013738   4.4587240  12.6283471  )
        37           Ti1 tau(  37) = (   6.5339814   0.0202798  12.5235249  )
        38           Ti1 tau(  38) = (   3.2191325   4.4512509  12.4750946  )
        39           O1  tau(  39) = (   6.5688456   2.9522374  14.7547250  )
        40           O1  tau(  40) = (   3.3031296   2.9710333  13.8824388  )
        41           O1  tau(  41) = (   4.5425837   4.4734130  15.9989242  )
        42           O1  tau(  42) = (   2.0771424   4.4889556  16.0364895  )
        43           Ti1 tau(  43) = (   3.3121389   0.0026565  15.6888161  )
        44           Ti1 tau(  44) = (   6.5128106   4.4989306  16.3061806  )
        45           O1  tau(  45) = (   3.2900926   2.9813045   4.7018136  )
        46           O1  tau(  46) = (   1.3039711   4.4726057   6.0039043  )
        47           O1  tau(  47) = (   5.2763189   4.4711207   6.0039473  )
        48           N1  tau(  48) = (   0.4628824   2.9849886  17.7976856  )
        49           C1  tau(  49) = (   1.4182946   2.9518240  18.6700831  )
        50           H1  tau(  50) = (   2.3503500   2.6458988  18.1556329  )
        51           N1  tau(  51) = (   5.7893717   3.5482605  18.2279111  )
        52           H1  tau(  52) = (   5.8942619   4.0012392  19.1365464  )
        53           H1  tau(  53) = (   5.0734348   2.8166848  18.2415795  )

     number of k points=    10  Fermi-Dirac smearing, width (Ry)=  0.0073
                       cart. coord. in units 2pi/alat
        k(    1) = (   0.0000000   0.0000000   0.0000000), wk =   0.1250000
        k(    2) = (   0.0000000   0.0419351   0.0000000), wk =   0.2500000
        k(    3) = (   0.0000000  -0.0838702   0.0000000), wk =   0.1250000
        k(    4) = (   0.0379955   0.0000049   0.0000000), wk =   0.2500000
        k(    5) = (   0.0379955   0.0419400   0.0000000), wk =   0.2500000
        k(    6) = (   0.0379955  -0.0838652   0.0000000), wk =   0.2500000
        k(    7) = (   0.0379955  -0.0419301   0.0000000), wk =   0.2500000
        k(    8) = (  -0.0759910  -0.0000099   0.0000000), wk =   0.1250000
        k(    9) = (  -0.0759910   0.0419252   0.0000000), wk =   0.2500000
        k(   10) = (  -0.0759910  -0.0838800   0.0000000), wk =   0.1250000

     Initial potential from superposition of free atoms

     starting charge  378.99916, renormalised to  395.00000

     negative rho (up, down):  1.775E-02 0.000E+00

     %%%%%%%%%%%%%%%%%%%%%%%%%%%%%%%%%%%%%%%%%%%%%%%%%%%%%%%%%%%%%%%%%%%%%%%%
     %                                                                      %
     % You are using vdW-DF, which was implemented by the Thonhauser group. %
     % Please cite the following two papers that made this development      %
     % possible and the two reviews that describe the various versions:     %
     %                                                                      %
     %   T. Thonhauser et al., PRL 115, 136402 (2015).                      %
     %   T. Thonhauser et al., PRB 76, 125112 (2007).                       %
     %   K. Berland et al., Rep. Prog. Phys. 78, 066501 (2015).             %
     %   D.C. Langreth et al., J. Phys.: Condens. Matter 21, 084203 (2009). %
     %                                                                      %
     %                                                                      %
     % If you are calculating the stress with vdW-DF, please also cite:     %
     %                                                                      %
     %   R. Sabatini et al., J. Phys.: Condens. Matter 24, 424209 (2012).   %
     %                                                                      %
     %%%%%%%%%%%%%%%%%%%%%%%%%%%%%%%%%%%%%%%%%%%%%%%%%%%%%%%%%%%%%%%%%%%%%%%%

     Adding external electric field

     Computed dipole along edir(3) :
        Dipole               -8.0620 Ry au,        -20.4914 Debye
        Dipole field         -0.0152 Ry au,

        Potential amp.        1.4103 Ry
        Total length         46.3494 bohr

     Starting wfcs are  299 atomic wfcs
  @ DRIVER MODE: Message from server: STATUS
  @ DRIVER MODE: Message from server: POSDATA
  @ DRIVER MODE: Reading and sharing cell
  @ DRIVER MODE: Reading and sharing positions
  @ DRIVER MODE: Received positions

     Self-consistent Calculation

     iteration #  1     ecut=    29.40 Ry     beta= 0.05
     Davidson diagonalization with overlap
     c_bands:  1 eigenvalues not converged
     c_bands:  1 eigenvalues not converged
     c_bands:  2 eigenvalues not converged
     c_bands:  3 eigenvalues not converged
     c_bands:  3 eigenvalues not converged
     c_bands:  2 eigenvalues not converged
     c_bands:  1 eigenvalues not converged
     ethr =  1.00E-05,  avg # of iterations = 19.3

[...]

     total energy              =   -2614.88073041 Ry
     estimated scf accuracy    <    3583.90782893 Ry

[...]

     iteration #  3     ecut=    29.40 Ry     beta= 0.05
     Davidson diagonalization with overlap
     ethr =  1.00E-02,  avg # of iterations = 13.8

[...]

     iteration # 55     ecut=    29.40 Ry     beta= 0.05
     Davidson diagonalization with overlap
     c_bands:  1 eigenvalues not converged
     ethr =  1.14E-09,  avg # of iterations = 14.7

[...]

     total energy              =   -2939.00597032 Ry
     estimated scf accuracy    <       0.00000008 Ry

     iteration # 64     ecut=    29.40 Ry     beta= 0.05
     Davidson diagonalization with overlap
     ethr =  2.01E-11,  avg # of iterations =  9.7

     negative rho (up, down):  1.647E-02 0.000E+00

     Adding external electric field

     Computed dipole along edir(3) :
        Dipole                0.3052 Ry au,          0.7757 Debye
        Dipole field          0.0006 Ry au,

        Potential amp.       -0.0534 Ry
        Total length         46.3494 bohr

     End of self-consistent calculation

          k = 0.0000 0.0000 0.0000 ( 18029 PWs)   bands (ev):

   -56.1066 -56.1043 -56.0725 -56.0680 -55.9946 -55.9603 -55.9543 -55.9192
   -55.9039 -55.8697 -55.8681 -55.8338 -55.6473 -55.5856 -55.0761 -55.0421
   -32.6634 -32.5877 -32.4862 -32.4260 -32.4118 -32.4076 -32.3989 -32.3593
   -32.3465 -32.3319 -32.3062 -32.2848 -32.2783 -32.2590 -32.2518 -32.2451
   -32.2097 -32.1964 -32.1937 -32.1893 -32.1851 -32.1641 -32.1579 -32.1416
   -32.1166 -32.1023 -32.1013 -32.1003 -32.0952 -32.0918 -32.0703 -32.0436
   -32.0433 -32.0287 -32.0212 -32.0019 -31.9801 -31.9527 -31.8750 -31.8462
   -31.8012 -31.7373 -31.4828 -31.3955 -31.3731 -31.2998 -31.2133 -31.1020
   -17.9695 -16.8724 -16.5827 -16.3674 -16.2618 -16.2464 -16.1400 -15.9547
   -15.8215 -15.7932 -15.6865 -15.6800 -15.6390 -15.6265 -15.5974 -15.5738
   -15.5656 -15.5390 -15.5363 -15.5203 -15.4758 -15.4525 -15.4333 -15.3373
   -15.2974 -15.2369 -15.2149 -15.1535 -15.0315 -14.7968 -13.5784 -13.4621
   -13.2914  -8.0366  -6.3384  -4.3602  -4.2466  -4.0700  -4.0093  -3.9675
    -3.9606  -3.7190  -3.6862  -3.3273  -3.2948  -3.2750  -3.2646  -3.2533
    -3.1369  -3.0185  -2.9626  -2.9209  -2.9106  -2.8998  -2.8926  -2.8799
    -2.8538  -2.8317  -2.7279  -2.6829  -2.6523  -2.5424  -2.5245  -2.4307
    -2.4166  -2.4056  -2.3709  -2.3506  -2.3417  -2.3157  -2.3045  -2.2765
    -2.1926  -2.1439  -2.0288  -1.9623  -1.8847  -1.8501  -1.7029  -1.6595
    -1.5712  -1.5647  -1.5463  -1.5243  -1.4911  -1.4051  -1.3301  -1.2413
    -1.1994  -1.1618  -1.1259  -1.0826  -1.0012  -0.9822  -0.9648  -0.8685
    -0.8645  -0.8554  -0.8119  -0.6109  -0.5858  -0.5522  -0.5394  -0.4622
    -0.4036  -0.3870  -0.3660  -0.3183  -0.2579  -0.1947  -0.1488  -0.1339
    -0.1225  -0.1192  -0.0845  -0.0587   0.0840   0.0945   0.1887   0.2007
     0.2239   0.3503   0.5247   0.5628   0.5836   0.7041   0.8769   0.9462
     1.0479   1.1391   1.5164   1.5617   2.4094   3.0313   3.1173   3.1511
     3.1707   3.2762   3.3089   3.4787   3.4940   3.5291   3.5486

[...]

          k = 0.0380-0.0419 0.0000 ( 17876 PWs)   bands (ev):

[...]

          k =-0.0760-0.0000 0.0000 ( 17886 PWs)   bands (ev):

[...]

          k =-0.0760-0.0839 0.0000 ( 17948 PWs)   bands (ev):

   -56.0906 -56.0883 -56.0881 -56.0840 -55.9855 -55.9634 -55.9507 -55.9286
   -55.8887 -55.8844 -55.8544 -55.8477 -55.6440 -55.5887 -55.0591 -55.0589
   -32.4669 -32.4623 -32.4038 -32.4024 -32.3853 -32.3836 -32.3655 -32.3532
   -32.3342 -32.3148 -32.2914 -32.2749 -32.2490 -32.2393 -32.2387 -32.2200
   -32.2199 -32.2105 -32.2080 -32.2023 -32.2011 -32.1930 -32.1872 -32.1731
   -32.1682 -32.1502 -32.1338 -32.1311 -32.0881 -32.0861 -32.0844 -32.0804
   -32.0719 -32.0693 -32.0659 -32.0641 -32.0603 -31.9707 -31.8866 -31.8395
   -31.8045 -31.7936 -31.3858 -31.3857 -31.2957 -31.2955 -31.2566 -31.2565
   -17.9595 -16.3082 -16.2923 -16.0759 -16.0312 -16.0271 -16.0063 -15.9179
   -15.8275 -15.8084 -15.7945 -15.7766 -15.7618 -15.6818 -15.6561 -15.6338
   -15.6299 -15.6174 -15.5623 -15.5567 -15.5537 -15.5485 -15.5284 -15.4952
   -15.4128 -15.4078 -15.3971 -15.1590 -15.0936 -15.0216 -13.5642 -13.5637
   -13.3043  -7.9951  -6.2742  -4.3770  -3.6012  -3.5824  -3.3562  -3.3095
    -3.2831  -3.2741  -3.1591  -3.0566  -3.0267  -3.0142  -2.9755  -2.9574
    -2.9448  -2.9324  -2.9196  -2.9004  -2.8748  -2.8410  -2.8356  -2.7898
    -2.7729  -2.7519  -2.7346  -2.7129  -2.7119  -2.6712  -2.6653  -2.6267
    -2.5886  -2.5433  -2.4329  -2.3800  -2.3385  -2.2883  -2.2353  -2.2238
    -2.2151  -2.1616  -2.1565  -2.1227  -2.0372  -1.9619  -1.8264  -1.8046
    -1.7716  -1.7306  -1.6977  -1.6000  -1.5564  -1.5073  -1.4553  -1.3993
    -1.3877  -1.3446  -1.3076  -1.2415  -1.2248  -1.1852  -1.1639  -1.1016
    -1.0600  -1.0558  -0.9922  -0.9249  -0.8671  -0.8634  -0.8428  -0.8279
    -0.7705  -0.7228  -0.6562  -0.6070  -0.5653  -0.4683  -0.4114  -0.2950
    -0.1868  -0.0679   0.0033   0.0070   0.0628   0.1401   0.1855   0.2204
     0.2309   0.2489   0.3408   0.4124   0.4316   0.4452   0.5117   0.6981
     1.3109   1.3121   1.3810   1.3818   2.4061   3.3193   3.3576   3.3718
     3.4030   3.5481   3.5507   3.5629   3.5666   3.6851   3.7195

     the Fermi energy is     3.0284 ev

!    total energy              =   -2939.00601818 Ry
     estimated scf accuracy    <       0.00000004 Ry
     smearing contrib. (-TS)   =      -0.02201198 Ry
     internal energy E=F+TS    =   -2938.98400619 Ry

     The total energy is F=E-TS. E is the sum of the following terms:
     one-electron contribution =  -24452.67300467 Ry
     hartree contribution      =   12311.40923924 Ry
     xc contribution           =    -485.12386845 Ry
     ewald contribution        =    9687.40345191 Ry
     electric field correction =       0.00017578 Ry

     convergence has been achieved in  64 iterations

     Forces acting on atoms (cartesian axes, Ry/au):

     atom    1 type  1   force =     0.00018934   -0.00029231    0.09692152
     atom    2 type  1   force =     0.00006775   -0.00079108   -0.17497886
     atom    3 type  2   force =     0.00014626   -0.00008805   -0.02552953
     atom    4 type  2   force =    -0.00003314   -0.00142566    0.05152681
     atom    5 type  2   force =    -0.01206049   -0.00173317    0.00278674
     atom    6 type  2   force =     0.01347623   -0.00134376    0.00222730
     atom    7 type  1   force =     0.00041242    0.00015894   -0.01207620
     atom    8 type  1   force =     0.00019581    0.02418490    0.02897580
     atom    9 type  2   force =    -0.00004417    0.00051959   -0.00006957
     atom   10 type  2   force =    -0.00266451    0.00014390   -0.01164568
     atom   11 type  2   force =    -0.00002914    0.00026569    0.00004209
     atom   12 type  2   force =    -0.00024860   -0.00002014    0.00014150
     atom   13 type  1   force =    -0.00013094    0.00113720   -0.00013493
     atom   14 type  1   force =    -0.00000436    0.00049450    0.00003877
     atom   15 type  2   force =     0.00010292   -0.00011629   -0.00005782
     atom   16 type  2   force =    -0.00021473    0.00023680   -0.00031059
     atom   17 type  2   force =     0.00037787    0.00014652   -0.00033580
     atom   18 type  2   force =    -0.00025185    0.00010398   -0.00012671
     atom   19 type  1   force =    -0.00013407   -0.00011945   -0.00050458
     atom   20 type  1   force =     0.00023775    0.00002967   -0.00022504
     atom   21 type  2   force =     0.00006804   -0.00007091    0.10299198
     atom   22 type  2   force =    -0.00001097   -0.00018474   -0.00031908
     atom   23 type  2   force =    -0.07169927   -0.00016967   -0.02790585
     atom   24 type  2   force =     0.07160234    0.00028891   -0.02794745
     atom   25 type  1   force =     0.00003649   -0.00025535    0.09681187
     atom   26 type  1   force =    -0.00000315   -0.00018423   -0.17515091
     atom   27 type  2   force =     0.00015521   -0.00026566   -0.02419298
     atom   28 type  2   force =     0.00001389   -0.00118023    0.05207947
     atom   29 type  2   force =    -0.01221595    0.00078147    0.00246706
     atom   30 type  2   force =     0.01351672    0.00126187    0.00187516
     atom   31 type  1   force =     0.00045579    0.00287219   -0.01396785
     atom   32 type  1   force =     0.00038784   -0.02518103    0.03046341
     atom   33 type  2   force =     0.00004092   -0.00008160   -0.00017539
     atom   34 type  2   force =    -0.00184215   -0.00050053   -0.02073019
     atom   35 type  2   force =    -0.00000336    0.00022714   -0.00005564
     atom   36 type  2   force =     0.00016885    0.00034180    0.00015880
     atom   37 type  1   force =    -0.00020809   -0.00085872   -0.00002969
     atom   38 type  1   force =     0.00008733    0.00012869   -0.00022719
     atom   39 type  2   force =     0.00008043    0.00031659   -0.00020265
     atom   40 type  2   force =    -0.00006899    0.00008125    0.00042330
     atom   41 type  2   force =     0.00048196    0.00008672   -0.00020824
     atom   42 type  2   force =    -0.00030174   -0.00006199   -0.00024473
     atom   43 type  1   force =    -0.00037193    0.00024895    0.00012209
     atom   44 type  1   force =     0.00002244   -0.00000284    0.00005789
     atom   45 type  2   force =     0.00005597   -0.00006838    0.10301019
     atom   46 type  2   force =    -0.07173167   -0.00012185   -0.02790900
     atom   47 type  2   force =     0.07161548    0.00025747   -0.02793410
     atom   48 type  3   force =     0.00081193    0.00094920   -0.00002202
     atom   49 type  4   force =    -0.00019369    0.00011461   -0.00017472
     atom   50 type  5   force =     0.00036483    0.00046184   -0.00015479
     atom   51 type  3   force =    -0.00735509   -0.00893052   -0.00063127
     atom   52 type  5   force =    -0.00023091   -0.00049879    0.00025833
     atom   53 type  5   force =     0.00688014    0.00870653    0.00079899

     Total force =     0.369346     Total SCF correction =     0.000281
  @ DRIVER MODE: Message from server: STATUS
  @ DRIVER MODE: Message from server: GETFORCE
  @ DRIVER MODE: Returning v,forces,stress,ensemble

     Writing output data file ./calc.save/
  @ DRIVER MODE: Message from server: EXIT
  @ DRIVE MODE: Exiting

     General routines

     Parallel routines

   This run was terminated on:   6:29:40  24Aug2021

   JOB DONE.