     Program PWSCF v.6.7GPU starts on 22Sep2021 at 17:49:38

     R & G space division:  proc/nbgrp/npool/nimage =      10
     Reading input from /storage/home/hcoda1/3/ntian30/research/carbon/CxH_vib/H2O_calc/ads_slab/CHNHHO_a/out_0006/pw.inp
Warning: card &CELL ignored
Warning: card   CELL_DYNAMICS='IPI', ignored
Warning: card / ignored

     Current dimensions of program PWSCF are:
     Max number of different atomic species (ntypx) = 10
     Max number of k-points (npk) =  40000
     Max angular momentum in pseudopotentials (lmaxx) =  3
     Presently no symmetry can be used with electric field

     Message from routine cell_base_init:
     DEPRECATED: use true lattice parameter, not A to a.u. conversion factor

     IMPORTANT: XC functional enforced from input :
     Exchange-correlation= BEEF-VDW
                           (   1   4  43  14   2   0   0)
     Any further DFT definition will be discarded
     Please, verify this is what you really want

  @ DRIVER MODE: Connecting to
 qe_1139763_2937314.sched-torque.pace.gatech.edurq2evbl1_scratch
  using UNIX socket
  @ DRIVER MODE: Message from server: STATUS
  @ DRIVER MODE: Message from server: INIT
  @ DRIVER MODE: Receiving replica           0          -1
  @ DRIVER MODE: Receiving encoded integer          25
  @ DRIVER MODE:  SCF:  T  FORCE:  T  STRESS:  F  VC:  F  ENSEMBLE:  F
  @ DRIVER MODE:  SCF:  T  FORCE:  T  STRESS:  F  VC:  F  ENSEMBLE:  F

     Using Slab Decomposition

     bravais-lattice index     =            0
     lattice parameter (alat)  =       1.8897  a.u.
     unit-cell volume          =    6658.9804 (a.u.)^3
     number of atoms/cell      =           53
     number of atomic types    =            5
     number of electrons       =       396.00
     number of Kohn-Sham states=          208
     kinetic-energy cutoff     =      29.3995  Ry
     charge density cutoff     =     293.9946  Ry
     scf convergence threshold =      7.3E-08
     mixing beta               =       0.0500
     number of iterations used =            8  plain     mixing
     Exchange-correlation= BEEF-VDW
                           (   1   4  43  14   2   0   0)

     celldm(1)=   1.889726  celldm(2)=   0.000000  celldm(3)=   0.000000
     celldm(4)=   0.000000  celldm(5)=   0.000000  celldm(6)=   0.000000

     crystal axes: (cart. coord. in units of alat)
               a(1) = (   6.579727   0.000000   0.000000 )
               a(2) = (  -0.000775   5.961596   0.000000 )
               a(3) = (   0.000000   0.000000  25.155947 )

     reciprocal axes: (cart. coord. in units 2 pi/alat)
               b(1) = (  0.151982  0.000020  0.000000 )
               b(2) = (  0.000000  0.167740  0.000000 )
               b(3) = (  0.000000  0.000000  0.039752 )

     PseudoPot. # 1 for Ti read from file:
     /storage/coda1/p-amedford6/0/shared/rich_project_chbe-medford/medford-share/data/pseudos_module/espresso/nninc/pbe/van/Ti.UPF
     MD5 check sum: 8e4df49b7f0d34bbd5052bf3f5ea0213
     Pseudo is Ultrasoft, Zval = 12.0
     Generated by new atomic code, or converted to UPF format
     Using radial grid of  851 points,  6 beta functions with:
                l(1) =   0
                l(2) =   0
                l(3) =   1
                l(4) =   1
                l(5) =   2
                l(6) =   2
     Q(r) pseudized with  8 coefficients,  rinner =    1.000   1.000   1.000
                                                       1.000   1.000

     PseudoPot. # 2 for O  read from file:
     /storage/coda1/p-amedford6/0/shared/rich_project_chbe-medford/medford-share/data/pseudos_module/espresso/nninc/pbe/van/O.UPF
     MD5 check sum: 78c19812648e8988a0fe644b0f25305e
     Pseudo is Ultrasoft, Zval =  6.0
     Generated by new atomic code, or converted to UPF format
     Using radial grid of  737 points,  4 beta functions with:
                l(1) =   0
                l(2) =   0
                l(3) =   1
                l(4) =   1
     Q(r) pseudized with  8 coefficients,  rinner =    0.800   0.800   0.800

     PseudoPot. # 3 for N  read from file:
     /storage/coda1/p-amedford6/0/shared/rich_project_chbe-medford/medford-share/data/pseudos_module/espresso/nninc/pbe/van/N.UPF
     MD5 check sum: 90d10febe142ad51ac9d5be1deb811c4
     Pseudo is Ultrasoft, Zval =  5.0
     Generated by new atomic code, or converted to UPF format
     Using radial grid of  729 points,  4 beta functions with:
                l(1) =   0
                l(2) =   0
                l(3) =   1
                l(4) =   1
     Q(r) pseudized with  8 coefficients,  rinner =    0.800   0.800   0.800

     PseudoPot. # 4 for C  read from file:
     /storage/coda1/p-amedford6/0/shared/rich_project_chbe-medford/medford-share/data/pseudos_module/espresso/nninc/pbe/van/C.UPF
     MD5 check sum: 1a69bf6b8db32088f5b2163dbdb77a27
     Pseudo is Ultrasoft, Zval =  4.0
     Generated by new atomic code, or converted to UPF format
     Using radial grid of  721 points,  4 beta functions with:
                l(1) =   0
                l(2) =   0
                l(3) =   1
                l(4) =   1
     Q(r) pseudized with  8 coefficients,  rinner =    0.800   0.800   0.800

     PseudoPot. # 5 for H  read from file:
     /storage/coda1/p-amedford6/0/shared/rich_project_chbe-medford/medford-share/data/pseudos_module/espresso/nninc/pbe/van/H.UPF
     MD5 check sum: b5ee9d7bfd3a09ee7748110bda690ff7
     Pseudo is Ultrasoft, Zval =  1.0
     Generated by new atomic code, or converted to UPF format
     Using radial grid of  615 points,  1 beta functions with:
                l(1) =   0
     Q(r) pseudized with  8 coefficients,  rinner =    0.800

     atomic species   valence    mass     pseudopotential
        Ti1           12.00    47.86700     Ti( 1.00)
        O1             6.00    15.99900     O ( 1.00)
        N1             5.00    14.00700     N ( 1.00)
        C1             4.00    12.01100     C ( 1.00)
        H1             1.00     1.00800     H ( 1.00)

     No symmetry found

   Cartesian axes

     site n.     atom                  positions (alat units)
         1           Ti1 tau(   1) = (   0.0004258   2.9801865   6.0000000  )
         2           Ti1 tau(   2) = (   3.2906075   1.4906267   6.0002472  )
         3           O1  tau(   3) = (   0.0006271   0.0005054   7.9858123  )
         4           O1  tau(   4) = (   3.2906025   0.0005020   7.3038282  )
         5           O1  tau(   5) = (   4.5942328   1.4918067   9.2879030  )
         6           O1  tau(   6) = (   1.9868534   1.4903216   9.2879459  )
         7           Ti1 tau(   7) = (   3.2907910   2.8959150   9.1758416  )
         8           Ti1 tau(   8) = (   0.0015273   1.4827037   9.2680791  )
         9           O1  tau(   9) = (   3.2817170   5.9459930  11.3074998  )
        10           O1  tau(  10) = (   0.0116148   5.9584955  10.6183126  )
        11           O1  tau(  11) = (   1.2737360   1.4926482  12.6406718  )
        12           O1  tau(  12) = (   5.2902952   1.4950437  12.6299455  )
        13           Ti1 tau(  13) = (   6.5743562   2.8588748  12.6391164  )
        14           Ti1 tau(  14) = (   3.2840152   1.3010445  12.6757008  )
        15           O1  tau(  15) = (   6.5722207   0.0022838  14.6395268  )
        16           O1  tau(  16) = (   3.2882888   0.0547267  13.9272720  )
        17           O1  tau(  17) = (   4.5277618   1.5549090  16.0796657  )
        18           O1  tau(  18) = (   1.9889223   1.5445724  16.0964948  )
        19           Ti1 tau(  19) = (   3.2710169   3.0098750  15.6493427  )
        20           Ti1 tau(  20) = (   0.0212523   1.3583160  16.0154628  )
        21           O1  tau(  21) = (   3.2904802   0.0005063   4.7018136  )
        22           O1  tau(  22) = (   6.5278121   5.9442159  17.1408904  )
        23           O1  tau(  23) = (   1.3043587   1.4918075   6.0039043  )
        24           O1  tau(  24) = (   5.2767064   1.4903225   6.0039473  )
        25           Ti1 tau(  25) = (   0.0000382   5.9609847   6.0000000  )
        26           Ti1 tau(  26) = (   3.2902200   4.4714249   6.0002472  )
        27           O1  tau(  27) = (   0.0002396   2.9813036   7.9858123  )
        28           O1  tau(  28) = (   3.2902150   2.9813002   7.3038282  )
        29           O1  tau(  29) = (   4.5938453   4.4726049   9.2879030  )
        30           O1  tau(  30) = (   1.9864658   4.4711199   9.2879459  )
        31           Ti1 tau(  31) = (   3.2891106   5.8743827   9.1763621  )
        32           Ti1 tau(  32) = (   0.0006254   4.4649316   9.2693709  )
        33           O1  tau(  33) = (   3.2809651   3.0158959  11.2742024  )
        34           O1  tau(  34) = (   0.0092240   2.9805883  10.6323155  )
        35           O1  tau(  35) = (   1.2801966   4.4796301  12.6363892  )
        36           O1  tau(  36) = (   5.2833020   4.4787161  12.6245292  )
        37           Ti1 tau(  37) = (   6.5725262   5.8449372  12.5269696  )
        38           Ti1 tau(  38) = (   3.2830651   4.3950422  12.4122791  )
        39           O1  tau(  39) = (   6.5612936   2.9998473  14.7091997  )
        40           O1  tau(  40) = (   3.2734765   2.9867355  13.8776313  )
        41           O1  tau(  41) = (   4.5260587   4.4294304  16.0527172  )
        42           O1  tau(  42) = (   1.9919704   4.4458081  16.0639873  )
        43           Ti1 tau(  43) = (   3.3135318   0.0270965  16.3071496  )
        44           Ti1 tau(  44) = (   0.0294795   4.5257316  15.8201724  )
        45           O1  tau(  45) = (   3.2900926   2.9813045   4.7018136  )
        46           O1  tau(  46) = (   1.3039711   4.4726057   6.0039043  )
        47           O1  tau(  47) = (   5.2763189   4.4711207   6.0039473  )
        48           N1  tau(  48) = (   6.4282372   2.9740631  17.7202171  )
        49           C1  tau(  49) = (   0.6535733   3.0176064  18.7020832  )
        50           H1  tau(  50) = (   1.7291544   2.9413089  18.4820742  )
        51           H1  tau(  51) = (   5.4410488   3.0579230  17.9716058  )
        52           O1  tau(  52) = (   3.3635319   0.0010587  18.1193045  )
        53           H1  tau(  53) = (   4.1580425   0.0400832  18.6733683  )

     number of k points=    10  Fermi-Dirac smearing, width (Ry)=  0.0073
                       cart. coord. in units 2pi/alat
        k(    1) = (   0.0000000   0.0000000   0.0000000), wk =   0.1250000
        k(    2) = (   0.0000000   0.0419351   0.0000000), wk =   0.2500000
        k(    3) = (   0.0000000  -0.0838702   0.0000000), wk =   0.1250000
        k(    4) = (   0.0379955   0.0000049   0.0000000), wk =   0.2500000
        k(    5) = (   0.0379955   0.0419400   0.0000000), wk =   0.2500000
        k(    6) = (   0.0379955  -0.0838652   0.0000000), wk =   0.2500000
        k(    7) = (   0.0379955  -0.0419301   0.0000000), wk =   0.2500000
        k(    8) = (  -0.0759910  -0.0000099   0.0000000), wk =   0.1250000
        k(    9) = (  -0.0759910   0.0419252   0.0000000), wk =   0.2500000
        k(   10) = (  -0.0759910  -0.0838800   0.0000000), wk =   0.1250000

     Initial potential from superposition of free atoms

     starting charge  379.99917, renormalised to  396.00000

     negative rho (up, down):  1.779E-02 0.000E+00

     %%%%%%%%%%%%%%%%%%%%%%%%%%%%%%%%%%%%%%%%%%%%%%%%%%%%%%%%%%%%%%%%%%%%%%%%
     %                                                                      %
     % You are using vdW-DF, which was implemented by the Thonhauser group. %
     % Please cite the following two papers that made this development      %
     % possible and the two reviews that describe the various versions:     %
     %                                                                      %
     %   T. Thonhauser et al., PRL 115, 136402 (2015).                      %
     %   T. Thonhauser et al., PRB 76, 125112 (2007).                       %
     %   K. Berland et al., Rep. Prog. Phys. 78, 066501 (2015).             %
     %   D.C. Langreth et al., J. Phys.: Condens. Matter 21, 084203 (2009). %
     %                                                                      %
     %                                                                      %
     % If you are calculating the stress with vdW-DF, please also cite:     %
     %                                                                      %
     %   R. Sabatini et al., J. Phys.: Condens. Matter 24, 424209 (2012).   %
     %                                                                      %
     %%%%%%%%%%%%%%%%%%%%%%%%%%%%%%%%%%%%%%%%%%%%%%%%%%%%%%%%%%%%%%%%%%%%%%%%

     Adding external electric field

     Computed dipole along edir(3) :
        Dipole               -8.0693 Ry au,        -20.5101 Debye
        Dipole field         -0.0152 Ry au,

        Potential amp.        1.4116 Ry
        Total length         46.3494 bohr

     Starting wfcs are  299 atomic wfcs
  @ DRIVER MODE: Message from server: STATUS
  @ DRIVER MODE: Message from server: POSDATA
  @ DRIVER MODE: Reading and sharing cell
  @ DRIVER MODE: Reading and sharing positions
  @ DRIVER MODE: Received positions

     Self-consistent Calculation

     iteration #  1     ecut=    29.40 Ry     beta= 0.05
     Davidson diagonalization with overlap
     c_bands:  2 eigenvalues not converged
     c_bands:  1 eigenvalues not converged
     c_bands:  3 eigenvalues not converged
     c_bands:  1 eigenvalues not converged
     c_bands:  2 eigenvalues not converged
     c_bands:  1 eigenvalues not converged
     c_bands:  1 eigenvalues not converged
     ethr =  1.00E-05,  avg # of iterations = 18.9

[...]

     total energy              =   -2618.23854628 Ry
     estimated scf accuracy    <    3681.25546571 Ry

     iteration #  2     ecut=    29.40 Ry     beta= 0.05
     Davidson diagonalization with overlap
     ethr =  1.00E-02,  avg # of iterations = 21.7

[...]

     iteration # 49     ecut=    29.40 Ry     beta= 0.05
     Davidson diagonalization with overlap
     c_bands:  1 eigenvalues not converged
     c_bands:  1 eigenvalues not converged
     ethr =  3.38E-07,  avg # of iterations = 15.3

[...]

     total energy              =   -2951.37635193 Ry
     estimated scf accuracy    <       0.00000008 Ry

     iteration # 73     ecut=    29.40 Ry     beta= 0.05
     Davidson diagonalization with overlap
     ethr =  2.00E-11,  avg # of iterations =  5.2

     negative rho (up, down):  1.665E-02 0.000E+00

     Adding external electric field

     Computed dipole along edir(3) :
        Dipole                0.1932 Ry au,          0.4911 Debye
        Dipole field          0.0004 Ry au,

        Potential amp.       -0.0338 Ry
        Total length         46.3494 bohr

     End of self-consistent calculation

          k = 0.0000 0.0000 0.0000 ( 18029 PWs)   bands (ev):

   -56.4140 -56.3801 -56.1616 -56.1379 -56.1041 -55.9404 -55.8873 -55.8715
   -55.8649 -55.8488 -55.8139 -55.7327 -55.6706 -55.5317 -55.2667 -55.2327
   -32.8786 -32.7081 -32.6881 -32.6106 -32.5682 -32.5018 -32.4746 -32.4550
   -32.4316 -32.4241 -32.3812 -32.3710 -32.3558 -32.3543 -32.3500 -32.2989
   -32.2767 -32.2703 -32.2430 -32.1737 -32.1566 -32.1531 -32.1521 -32.1197
   -32.1088 -32.0979 -32.0885 -32.0740 -32.0622 -32.0474 -32.0440 -32.0138
   -31.9988 -31.9848 -31.9660 -31.9654 -31.9403 -31.8781 -31.8658 -31.7908
   -31.7616 -31.7434 -31.6670 -31.5948 -31.5716 -31.4853 -31.3999 -31.2878
   -16.9282 -16.8140 -16.5923 -16.4392 -16.2817 -16.1775 -16.0596 -16.0185
   -15.9793 -15.8881 -15.8228 -15.7678 -15.7308 -15.6578 -15.6003 -15.5910
   -15.5623 -15.5285 -15.5164 -15.5017 -15.5002 -15.4809 -15.4525 -15.3354
   -15.2929 -15.2546 -15.2244 -15.2118 -15.0857 -14.8391 -14.7851 -13.7641
   -13.6501  -8.2589  -4.6965  -4.2708  -4.2548  -4.1158  -3.9442  -3.8820
    -3.8436  -3.5984  -3.5538  -3.5435  -3.3520  -3.2892  -3.2029  -3.1516
    -3.1352  -3.0963  -3.0252  -3.0134  -2.9873  -2.8976  -2.8610  -2.8494
    -2.8232  -2.7753  -2.7682  -2.6754  -2.6451  -2.6266  -2.5556  -2.4954
    -2.4682  -2.4542  -2.4374  -2.4239  -2.3796  -2.3699  -2.3420  -2.1977
    -2.1909  -2.1645  -2.0838  -2.0120  -1.8437  -1.7607  -1.7598  -1.6567
    -1.5833  -1.5759  -1.5219  -1.4754  -1.3873  -1.3767  -1.3666  -1.3255
    -1.2370  -1.2223  -1.1786  -1.1274  -1.0455  -0.9589  -0.9475  -0.9052
    -0.8798  -0.8111  -0.7226  -0.6803  -0.6245  -0.5924  -0.5504  -0.4829
    -0.4305  -0.4042  -0.3750  -0.3679  -0.3044  -0.2483  -0.2035  -0.1775
    -0.1127  -0.0938  -0.0478   0.0103   0.0342   0.0439   0.1613   0.2072
     0.2206   0.2687   0.3761   0.4318   0.5249   0.5823   0.6543   0.7593
     0.7646   0.9732   1.0738   1.3136   1.3540   2.5942   2.7740   2.8955
     2.9633   3.1632   3.2116   3.2290   3.5190   3.5282   3.5365   3.6311

[...]

          k = 0.0380-0.0419 0.0000 ( 17876 PWs)   bands (ev):

[...]

          k =-0.0760-0.0000 0.0000 ( 17886 PWs)   bands (ev):

[...]

          k =-0.0760-0.0839 0.0000 ( 17948 PWs)   bands (ev):

   -56.3975 -56.3964 -56.1610 -56.1227 -56.1192 -55.9342 -55.8934 -55.8689
   -55.8658 -55.8352 -55.8274 -55.7346 -55.6686 -55.5336 -55.2502 -55.2490
   -32.6951 -32.6948 -32.6931 -32.6926 -32.5201 -32.5188 -32.4427 -32.4380
   -32.4331 -32.3900 -32.3786 -32.3315 -32.3266 -32.3149 -32.3083 -32.2936
   -32.2487 -32.2364 -32.2072 -32.1683 -32.1660 -32.1619 -32.1582 -32.1549
   -32.1293 -32.1193 -32.1109 -32.0778 -32.0703 -32.0677 -32.0594 -32.0585
   -32.0419 -32.0099 -31.9954 -31.9702 -31.9556 -31.9323 -31.8800 -31.8714
   -31.7936 -31.7470 -31.5848 -31.5840 -31.4815 -31.4801 -31.4431 -31.4422
   -16.9132 -16.2340 -16.2075 -16.1280 -16.1031 -16.0986 -16.0627 -16.0403
   -15.8852 -15.8738 -15.8586 -15.7926 -15.7446 -15.7325 -15.7034 -15.6983
   -15.6371 -15.6199 -15.6131 -15.5607 -15.5481 -15.5203 -15.5057 -15.4761
   -15.4460 -15.4175 -15.2537 -15.2022 -15.1416 -15.1301 -14.9192 -13.7530
   -13.7524  -8.2703  -4.6882  -4.1658  -3.5232  -3.4843  -3.3583  -3.3551
    -3.2237  -3.2183  -3.1370  -3.0688  -3.0655  -2.9960  -2.9807  -2.9676
    -2.9343  -2.9109  -2.9052  -2.8998  -2.8665  -2.8537  -2.8299  -2.8194
    -2.8118  -2.8000  -2.7613  -2.7315  -2.7071  -2.6934  -2.6361  -2.6239
    -2.5121  -2.4430  -2.3991  -2.3981  -2.3934  -2.3546  -2.3108  -2.2974
    -2.2696  -2.2447  -2.1535  -2.0355  -2.0134  -1.8233  -1.7991  -1.7743
    -1.7539  -1.7022  -1.6988  -1.6350  -1.5813  -1.5686  -1.5508  -1.5302
    -1.4287  -1.3716  -1.3245  -1.3164  -1.2589  -1.2455  -1.2017  -1.0970
    -1.0497  -1.0188  -0.9878  -0.9790  -0.9427  -0.9143  -0.8576  -0.8227
    -0.8177  -0.7895  -0.7525  -0.5766  -0.4087  -0.3688  -0.3459  -0.2764
    -0.2617  -0.2114  -0.0697  -0.0311  -0.0226   0.0187   0.0639   0.0833
     0.1047   0.1626   0.3388   0.3642   0.4256   0.4797   0.4863   0.5694
     0.6685   1.1378   1.1455   1.1729   1.1737   2.6232   3.3188   3.3208
     3.3220   3.3384   3.3967   3.4776   3.4873   3.5163   3.6002   3.6323

     the Fermi energy is     2.7381 ev

!    total energy              =   -2951.37636505 Ry
     estimated scf accuracy    <       0.00000005 Ry
     smearing contrib. (-TS)   =      -0.01745297 Ry
     internal energy E=F+TS    =   -2951.35891208 Ry

     The total energy is F=E-TS. E is the sum of the following terms:
     one-electron contribution =  -24270.88628060 Ry
     hartree contribution      =   12221.51427918 Ry
     xc contribution           =    -487.05576591 Ry
     ewald contribution        =    9585.06878481 Ry
     electric field correction =       0.00007044 Ry

     convergence has been achieved in  73 iterations

     Forces acting on atoms (cartesian axes, Ry/au):

     atom    1 type  1   force =     0.00006054   -0.00028986    0.10071675
     atom    2 type  1   force =    -0.00005650    0.00024501   -0.16934907
     atom    3 type  2   force =     0.00000721   -0.00004932   -0.02981155
     atom    4 type  2   force =    -0.00000005   -0.00100048    0.04204880
     atom    5 type  2   force =    -0.00525252   -0.00241813   -0.00294885
     atom    6 type  2   force =     0.00640265   -0.00183745   -0.00455746
     atom    7 type  1   force =    -0.00066073   -0.00535788    0.02497702
     atom    8 type  1   force =     0.00077693    0.01605047    0.04100474
     atom    9 type  2   force =    -0.00021551    0.00026553    0.00049231
     atom   10 type  2   force =    -0.00258276    0.00081288   -0.03383801
     atom   11 type  2   force =     0.00014585    0.00003662    0.00021904
     atom   12 type  2   force =     0.00018734   -0.00034996    0.00019916
     atom   13 type  1   force =    -0.00069072   -0.00005705   -0.00102938
     atom   14 type  1   force =     0.00018669    0.00005608   -0.00021539
     atom   15 type  2   force =     0.00023837    0.00005943    0.00063317
     atom   16 type  2   force =     0.00005488   -0.00019409    0.00019947
     atom   17 type  2   force =     0.00023775    0.00026211    0.00046987
     atom   18 type  2   force =     0.00004180   -0.00004167    0.00027082
     atom   19 type  1   force =    -0.00007229    0.00017695   -0.00031092
     atom   20 type  1   force =     0.00002994    0.00004721   -0.00006768
     atom   21 type  2   force =     0.00007145    0.00015175    0.10151387
     atom   22 type  2   force =    -0.00005028    0.00011234    0.00052035
     atom   23 type  2   force =    -0.07482545   -0.00008810   -0.02881464
     atom   24 type  2   force =     0.07475636    0.00036444   -0.02884357
     atom   25 type  1   force =     0.00019617   -0.00035889    0.10057230
     atom   26 type  1   force =     0.00001092   -0.00113805   -0.16956176
     atom   27 type  2   force =     0.00004454   -0.00039988   -0.02829981
     atom   28 type  2   force =     0.00000913    0.00073804    0.03803474
     atom   29 type  2   force =    -0.00394392    0.00436098   -0.00517340
     atom   30 type  2   force =     0.00502186    0.00488535   -0.00684527
     atom   31 type  1   force =    -0.00064537    0.00468647    0.01081230
     atom   32 type  1   force =     0.00089000   -0.01904675    0.04037203
     atom   33 type  2   force =     0.00044116    0.00004414    0.00058455
     atom   34 type  2   force =    -0.00214526    0.00068591   -0.03909113
     atom   35 type  2   force =     0.00013552   -0.00052837    0.00001302
     atom   36 type  2   force =     0.00013540   -0.00026351    0.00025707
     atom   37 type  1   force =    -0.00003932   -0.00008058   -0.00072263
     atom   38 type  1   force =     0.00002194    0.00009406   -0.00030424
     atom   39 type  2   force =    -0.00005068    0.00041263    0.00068720
     atom   40 type  2   force =     0.00032332   -0.00006809    0.00072815
     atom   41 type  2   force =     0.00037907   -0.00004807    0.00061277
     atom   42 type  2   force =    -0.00024224    0.00007931    0.00046388
     atom   43 type  1   force =     0.00005832   -0.00004652    0.00021992
     atom   44 type  1   force =    -0.00017904    0.00049942   -0.00133396
     atom   45 type  2   force =     0.00006846   -0.00000469    0.10129759
     atom   46 type  2   force =    -0.07487536   -0.00001462   -0.02884652
     atom   47 type  2   force =     0.07478974    0.00041111   -0.02886897
     atom   48 type  3   force =    -0.00563899   -0.00108204   -0.01367835
     atom   49 type  4   force =     0.00841338    0.00060965    0.01106580
     atom   50 type  5   force =    -0.00070556   -0.00048024    0.00032319
     atom   51 type  5   force =    -0.00168790   -0.00035022    0.00237000
     atom   52 type  2   force =    -0.00015099   -0.00017723    0.00174261
     atom   53 type  5   force =     0.00057478   -0.00037613   -0.00090991

     Total force =     0.370122     Total SCF correction =     0.000857
  @ DRIVER MODE: Message from server: STATUS
  @ DRIVER MODE: Message from server: GETFORCE
  @ DRIVER MODE: Returning v,forces,stress,ensemble

     Writing output data file ./calc.save/
  @ DRIVER MODE: Message from server: EXIT
  @ DRIVE MODE: Exiting

     General routines

     Parallel routines

   This run was terminated on:  18: 9: 4  22Sep2021

   JOB DONE.