     Program PWSCF v.6.7GPU starts on 24Sep2021 at  3:14: 9

     R & G space division:  proc/nbgrp/npool/nimage =       8
     Reading input from /storage/home/hcoda1/3/ntian30/research/carbon/CxH_vib/H2O_calc/ads_slab/CH2ON2HO_b/out_0037/pw.inp
Warning: card &CELL ignored
Warning: card   CELL_DYNAMICS='IPI', ignored
Warning: card / ignored

     Current dimensions of program PWSCF are:
     Max number of different atomic species (ntypx) = 10
     Max number of k-points (npk) =  40000
     Max angular momentum in pseudopotentials (lmaxx) =  3
     Presently no symmetry can be used with electric field

     Message from routine cell_base_init:
     DEPRECATED: use true lattice parameter, not A to a.u. conversion factor

     IMPORTANT: XC functional enforced from input :
     Exchange-correlation= BEEF-VDW
                           (   1   4  43  14   2   0   0)
     Any further DFT definition will be discarded
     Please, verify this is what you really want

  @ DRIVER MODE: Connecting to
 qe_1139763_2947315.sched-torque.pace.gatech.edu8naq3ze0_scratch
  using UNIX socket
  @ DRIVER MODE: Message from server: STATUS
  @ DRIVER MODE: Message from server: INIT
  @ DRIVER MODE: Receiving replica           0          -1
  @ DRIVER MODE: Receiving encoded integer          25
  @ DRIVER MODE:  SCF:  T  FORCE:  T  STRESS:  F  VC:  F  ENSEMBLE:  F
  @ DRIVER MODE:  SCF:  T  FORCE:  T  STRESS:  F  VC:  F  ENSEMBLE:  F

     Using Slab Decomposition

     bravais-lattice index     =            0
     lattice parameter (alat)  =       1.8897  a.u.
     unit-cell volume          =    6658.9804 (a.u.)^3
     number of atoms/cell      =           55
     number of atomic types    =            5
     number of electrons       =       407.00
     number of Kohn-Sham states=          213
     kinetic-energy cutoff     =      29.3995  Ry
     charge density cutoff     =     293.9946  Ry
     scf convergence threshold =      7.3E-08
     mixing beta               =       0.0500
     number of iterations used =            8  plain     mixing
     Exchange-correlation= BEEF-VDW
                           (   1   4  43  14   2   0   0)

     celldm(1)=   1.889726  celldm(2)=   0.000000  celldm(3)=   0.000000
     celldm(4)=   0.000000  celldm(5)=   0.000000  celldm(6)=   0.000000

     crystal axes: (cart. coord. in units of alat)
               a(1) = (   6.579727   0.000000   0.000000 )
               a(2) = (  -0.000775   5.961596   0.000000 )
               a(3) = (   0.000000   0.000000  25.155947 )

     reciprocal axes: (cart. coord. in units 2 pi/alat)
               b(1) = (  0.151982  0.000020  0.000000 )
               b(2) = (  0.000000  0.167740  0.000000 )
               b(3) = (  0.000000  0.000000  0.039752 )

     PseudoPot. # 1 for C  read from file:
     /storage/coda1/p-amedford6/0/shared/rich_project_chbe-medford/medford-share/data/pseudos_module/espresso/nninc/pbe/van/C.UPF
     MD5 check sum: 1a69bf6b8db32088f5b2163dbdb77a27
     Pseudo is Ultrasoft, Zval =  4.0
     Generated by new atomic code, or converted to UPF format
     Using radial grid of  721 points,  4 beta functions with:
                l(1) =   0
                l(2) =   0
                l(3) =   1
                l(4) =   1
     Q(r) pseudized with  8 coefficients,  rinner =    0.800   0.800   0.800

     PseudoPot. # 2 for H  read from file:
     /storage/coda1/p-amedford6/0/shared/rich_project_chbe-medford/medford-share/data/pseudos_module/espresso/nninc/pbe/van/H.UPF
     MD5 check sum: b5ee9d7bfd3a09ee7748110bda690ff7
     Pseudo is Ultrasoft, Zval =  1.0
     Generated by new atomic code, or converted to UPF format
     Using radial grid of  615 points,  1 beta functions with:
                l(1) =   0
     Q(r) pseudized with  8 coefficients,  rinner =    0.800

     PseudoPot. # 3 for O  read from file:
     /storage/coda1/p-amedford6/0/shared/rich_project_chbe-medford/medford-share/data/pseudos_module/espresso/nninc/pbe/van/O.UPF
     MD5 check sum: 78c19812648e8988a0fe644b0f25305e
     Pseudo is Ultrasoft, Zval =  6.0
     Generated by new atomic code, or converted to UPF format
     Using radial grid of  737 points,  4 beta functions with:
                l(1) =   0
                l(2) =   0
                l(3) =   1
                l(4) =   1
     Q(r) pseudized with  8 coefficients,  rinner =    0.800   0.800   0.800

     PseudoPot. # 4 for Ti read from file:
     /storage/coda1/p-amedford6/0/shared/rich_project_chbe-medford/medford-share/data/pseudos_module/espresso/nninc/pbe/van/Ti.UPF
     MD5 check sum: 8e4df49b7f0d34bbd5052bf3f5ea0213
     Pseudo is Ultrasoft, Zval = 12.0
     Generated by new atomic code, or converted to UPF format
     Using radial grid of  851 points,  6 beta functions with:
                l(1) =   0
                l(2) =   0
                l(3) =   1
                l(4) =   1
                l(5) =   2
                l(6) =   2
     Q(r) pseudized with  8 coefficients,  rinner =    1.000   1.000   1.000
                                                       1.000   1.000

     PseudoPot. # 5 for N  read from file:
     /storage/coda1/p-amedford6/0/shared/rich_project_chbe-medford/medford-share/data/pseudos_module/espresso/nninc/pbe/van/N.UPF
     MD5 check sum: 90d10febe142ad51ac9d5be1deb811c4
     Pseudo is Ultrasoft, Zval =  5.0
     Generated by new atomic code, or converted to UPF format
     Using radial grid of  729 points,  4 beta functions with:
                l(1) =   0
                l(2) =   0
                l(3) =   1
                l(4) =   1
     Q(r) pseudized with  8 coefficients,  rinner =    0.800   0.800   0.800

     atomic species   valence    mass     pseudopotential
        C1             4.00    12.01100     C ( 1.00)
        H1             1.00     1.00800     H ( 1.00)
        O1             6.00    15.99900     O ( 1.00)
        Ti1           12.00    47.86700     Ti( 1.00)
        N1             5.00    14.00700     N ( 1.00)

     No symmetry found

   Cartesian axes

     site n.     atom                  positions (alat units)
         1           C1  tau(   1) = (   6.3959394   2.9948767  18.7016815  )
         2           H1  tau(   2) = (   6.3118651   3.9496324  19.2181435  )
         3           H1  tau(   3) = (   6.2946090   2.0524817  19.2375006  )
         4           O1  tau(   4) = (   3.2904802   0.0005063   4.7018136  )
         5           O1  tau(   5) = (   3.2900926   2.9813045   4.7018136  )
         6           O1  tau(   6) = (   1.3043587   1.4918075   6.0039043  )
         7           O1  tau(   7) = (   1.3039711   4.4726057   6.0039043  )
         8           O1  tau(   8) = (   5.2767064   1.4903225   6.0039473  )
         9           O1  tau(   9) = (   5.2763189   4.4711207   6.0039473  )
        10           O1  tau(  10) = (   3.2906025   0.0005020   7.3038282  )
        11           O1  tau(  11) = (   3.2902150   2.9813002   7.3038282  )
        12           O1  tau(  12) = (   0.0006271   0.0005054   7.9858123  )
        13           O1  tau(  13) = (   0.0002396   2.9813036   7.9858123  )
        14           O1  tau(  14) = (   4.5942328   1.4918067   9.2879030  )
        15           O1  tau(  15) = (   4.5938453   4.4726049   9.2879030  )
        16           O1  tau(  16) = (   1.9868534   1.4903216   9.2879459  )
        17           O1  tau(  17) = (   1.9864658   4.4711199   9.2879459  )
        18           O1  tau(  18) = (   0.0129981   2.9922367  10.5657274  )
        19           O1  tau(  19) = (   0.0144279   0.0091559  10.5889743  )
        20           O1  tau(  20) = (   3.3117767   2.9674386  11.3102582  )
        21           O1  tau(  21) = (   3.3129298   0.0243810  11.3450129  )
        22           O1  tau(  22) = (   5.3345884   1.4970258  12.6342112  )
        23           O1  tau(  23) = (   5.3394917   4.4808886  12.6396439  )
        24           O1  tau(  24) = (   1.3039726   1.5040805  12.6380785  )
        25           O1  tau(  25) = (   1.3005587   4.4728597  12.6427203  )
        26           O1  tau(  26) = (   3.3397831   2.9746101  13.9049785  )
        27           O1  tau(  27) = (   3.3223070   5.9049495  13.9699414  )
        28           O1  tau(  28) = (   0.0408547   5.9558716  14.6791314  )
        29           O1  tau(  29) = (   0.0240783   2.9814708  14.7219997  )
        30           O1  tau(  30) = (   4.6055448   4.4181431  16.1204950  )
        31           O1  tau(  31) = (   4.6084482   1.5084077  16.0967128  )
        32           O1  tau(  32) = (   2.0524258   4.3896087  16.0537013  )
        33           O1  tau(  33) = (   2.0565100   1.5382275  16.0573534  )
        34           O1  tau(  34) = (   0.0881354   5.9599038  17.1931241  )
        35           O1  tau(  35) = (   0.0264254   2.9794292  17.4619454  )
        36           Ti1 tau(  36) = (   0.0004258   2.9801865   6.0000000  )
        37           Ti1 tau(  37) = (   0.0000382   5.9609847   6.0000000  )
        38           Ti1 tau(  38) = (   3.2906075   1.4906267   6.0002472  )
        39           Ti1 tau(  39) = (   3.2902200   4.4714249   6.0002472  )
        40           Ti1 tau(  40) = (   3.3176177   0.0844252   9.1703869  )
        41           Ti1 tau(  41) = (   3.3271239   3.0668301   9.1994626  )
        42           Ti1 tau(  42) = (   0.0459265   4.5214211   9.2633915  )
        43           Ti1 tau(  43) = (   0.0410032   1.6055327   9.3499854  )
        44           Ti1 tau(  44) = (   3.3214603   4.6642404  12.6916750  )
        45           Ti1 tau(  45) = (   3.3199143   1.5801738  12.4350604  )
        46           Ti1 tau(  46) = (   0.0219714   0.0386744  12.4748393  )
        47           Ti1 tau(  47) = (   0.0368166   3.0234317  12.7766128  )
        48           Ti1 tau(  48) = (   3.3281430   2.9430002  15.6816790  )
        49           Ti1 tau(  49) = (   3.4175200   5.9218210  16.2589141  )
        50           Ti1 tau(  50) = (   0.0864224   1.3736379  15.9343534  )
        51           Ti1 tau(  51) = (   0.1056494   4.5744356  15.9464672  )
        52           N1  tau(  52) = (   3.6299987   3.2157240  20.3374172  )
        53           N1  tau(  53) = (   2.7220030   2.6454082  20.0695964  )
        54           O1  tau(  54) = (   3.1825635   5.9265077  18.0938652  )
        55           H1  tau(  55) = (   2.2801939   0.0950383  18.3989923  )

     number of k points=    10  Fermi-Dirac smearing, width (Ry)=  0.0073
                       cart. coord. in units 2pi/alat
        k(    1) = (   0.0000000   0.0000000   0.0000000), wk =   0.1250000
        k(    2) = (   0.0000000   0.0419351   0.0000000), wk =   0.2500000
        k(    3) = (   0.0000000  -0.0838702   0.0000000), wk =   0.1250000
        k(    4) = (   0.0379955   0.0000049   0.0000000), wk =   0.2500000
        k(    5) = (   0.0379955   0.0419400   0.0000000), wk =   0.2500000
        k(    6) = (   0.0379955  -0.0838652   0.0000000), wk =   0.2500000
        k(    7) = (   0.0379955  -0.0419301   0.0000000), wk =   0.2500000
        k(    8) = (  -0.0759910  -0.0000099   0.0000000), wk =   0.1250000
        k(    9) = (  -0.0759910   0.0419252   0.0000000), wk =   0.2500000
        k(   10) = (  -0.0759910  -0.0838800   0.0000000), wk =   0.1250000

     Initial potential from superposition of free atoms

     starting charge  390.99916, renormalised to  407.00000

     negative rho (up, down):  1.489E-02 0.000E+00

     %%%%%%%%%%%%%%%%%%%%%%%%%%%%%%%%%%%%%%%%%%%%%%%%%%%%%%%%%%%%%%%%%%%%%%%%
     %                                                                      %
     % You are using vdW-DF, which was implemented by the Thonhauser group. %
     % Please cite the following two papers that made this development      %
     % possible and the two reviews that describe the various versions:     %
     %                                                                      %
     %   T. Thonhauser et al., PRL 115, 136402 (2015).                      %
     %   T. Thonhauser et al., PRB 76, 125112 (2007).                       %
     %   K. Berland et al., Rep. Prog. Phys. 78, 066501 (2015).             %
     %   D.C. Langreth et al., J. Phys.: Condens. Matter 21, 084203 (2009). %
     %                                                                      %
     %                                                                      %
     % If you are calculating the stress with vdW-DF, please also cite:     %
     %                                                                      %
     %   R. Sabatini et al., J. Phys.: Condens. Matter 24, 424209 (2012).   %
     %                                                                      %
     %%%%%%%%%%%%%%%%%%%%%%%%%%%%%%%%%%%%%%%%%%%%%%%%%%%%%%%%%%%%%%%%%%%%%%%%

     Adding external electric field

     Computed dipole along edir(3) :
        Dipole              -15.3787 Ry au,        -39.0886 Debye
        Dipole field         -0.0290 Ry au,

        Potential amp.        2.6903 Ry
        Total length         46.3494 bohr

     Starting wfcs are  307 atomic wfcs
  @ DRIVER MODE: Message from server: STATUS
  @ DRIVER MODE: Message from server: POSDATA
  @ DRIVER MODE: Reading and sharing cell
  @ DRIVER MODE: Reading and sharing positions
  @ DRIVER MODE: Received positions

     Self-consistent Calculation

     iteration #  1     ecut=    29.40 Ry     beta= 0.05
     Davidson diagonalization with overlap
     c_bands:  1 eigenvalues not converged
     c_bands:  1 eigenvalues not converged
     c_bands:  1 eigenvalues not converged
     c_bands:  1 eigenvalues not converged
     c_bands:  3 eigenvalues not converged
     ethr =  1.00E-05,  avg # of iterations = 34.7

[...]

     total energy              =   -2231.67578171 Ry
     estimated scf accuracy    <    8831.98768665 Ry

     iteration #  2     ecut=    29.40 Ry     beta= 0.05
     Davidson diagonalization with overlap
     ethr =  1.00E-02,  avg # of iterations = 30.7

[...]

     iteration # 53     ecut=    29.40 Ry     beta= 0.05
     Davidson diagonalization with overlap
     c_bands:  1 eigenvalues not converged
     ethr =  2.38E-07,  avg # of iterations = 13.9

[...]

     total energy              =   -3003.97496023 Ry
     estimated scf accuracy    <       0.00000023 Ry

     iteration # 74     ecut=    29.40 Ry     beta= 0.05
     Davidson diagonalization with overlap
     ethr =  4.06E-11,  avg # of iterations =  9.2

     negative rho (up, down):  1.524E-02 0.000E+00

     Adding external electric field

     Computed dipole along edir(3) :
        Dipole                0.9016 Ry au,          2.2916 Debye
        Dipole field          0.0017 Ry au,

        Potential amp.       -0.1577 Ry
        Total length         46.3494 bohr

     End of self-consistent calculation

          k = 0.0000 0.0000 0.0000 ( 18029 PWs)   bands (ev):

   -55.6610 -55.6184 -55.5464 -55.4585 -55.4240 -55.4119 -55.4003 -55.3613
   -55.3067 -55.2739 -55.2686 -55.2358 -55.1928 -55.1011 -54.5098 -54.4758
   -32.1128 -32.0108 -31.9555 -31.9281 -31.9149 -31.8749 -31.8667 -31.8247
   -31.8191 -31.7620 -31.7575 -31.7444 -31.7358 -31.7285 -31.7241 -31.7017
   -31.6806 -31.6757 -31.6347 -31.6241 -31.6115 -31.6002 -31.5973 -31.5956
   -31.5590 -31.5545 -31.5156 -31.5110 -31.5082 -31.4983 -31.4968 -31.4887
   -31.4646 -31.4625 -31.4352 -31.4327 -31.4301 -31.3853 -31.3852 -31.3481
   -31.3094 -31.3061 -30.9125 -30.8360 -30.8127 -30.7294 -30.6434 -30.5322
   -21.1329 -20.0514 -16.3775 -16.1600 -15.9921 -15.8035 -15.7033 -15.6412
   -15.4342 -15.3751 -15.2981 -15.1431 -15.1157 -15.0797 -15.0504 -15.0285
   -15.0196 -14.9960 -14.9864 -14.9458 -14.9219 -14.9184 -14.8730 -14.8094
   -14.7638 -14.7549 -14.7104 -14.6513 -14.6059 -14.5930 -14.5357 -14.3474
   -13.0108 -12.8970  -9.2724  -6.4041  -5.5873  -5.5538  -4.2942  -4.2762
    -3.9270  -3.5561  -3.5150  -3.4702  -3.3871  -3.3649  -3.2362  -3.0700
    -3.0557  -2.8895  -2.7598  -2.6866  -2.6536  -2.6182  -2.5030  -2.4553
    -2.4286  -2.3909  -2.3597  -2.3348  -2.2954  -2.2780  -2.2442  -2.1992
    -2.1702  -2.0802  -2.0759  -2.0287  -1.9488  -1.9132  -1.9068  -1.9034
    -1.8817  -1.8360  -1.7963  -1.7508  -1.7235  -1.6730  -1.5663  -1.5469
    -1.5421  -1.4731  -1.2288  -1.0931  -1.0648  -0.9917  -0.9553  -0.9382
    -0.8990  -0.8944  -0.8798  -0.8449  -0.8158  -0.6969  -0.6348  -0.5729
    -0.5667  -0.5468  -0.5017  -0.4020  -0.3387  -0.3036  -0.2621  -0.2483
    -0.1782  -0.1614  -0.0811  -0.0481   0.0202   0.1262   0.1693   0.1990
     0.2179   0.2328   0.2821   0.3368   0.3912   0.4223   0.4341   0.4631
     0.5336   0.5568   0.5703   0.5975   0.6839   0.7505   0.7672   0.8283
     0.9124   0.9392   1.0349   1.1641   1.2383   1.4859   1.5120   1.5942
     1.7262   2.0742   2.1199   3.5536   3.6316   3.6614   3.7455   3.8078
     3.8352   3.9189   4.0032   4.0904   4.1245

[...]

          k = 0.0380-0.0419 0.0000 ( 17876 PWs)   bands (ev):

[...]

          k =-0.0760-0.0000 0.0000 ( 17886 PWs)   bands (ev):

[...]

          k =-0.0760-0.0839 0.0000 ( 17948 PWs)   bands (ev):

   -55.6526 -55.6267 -55.5455 -55.4464 -55.4359 -55.4050 -55.3979 -55.3681
   -55.3074 -55.2717 -55.2622 -55.2466 -55.1897 -55.1040 -54.4934 -54.4921
   -31.9500 -31.9388 -31.9221 -31.9167 -31.9096 -31.8154 -31.7987 -31.7790
   -31.7634 -31.7604 -31.7603 -31.7486 -31.7409 -31.6981 -31.6976 -31.6753
   -31.6598 -31.6527 -31.6408 -31.6308 -31.6256 -31.6230 -31.6109 -31.5956
   -31.5891 -31.5875 -31.5729 -31.5598 -31.5546 -31.5449 -31.5044 -31.5000
   -31.4939 -31.4765 -31.4716 -31.4671 -31.4533 -31.4503 -31.4199 -31.3882
   -31.3516 -31.3096 -30.8261 -30.8249 -30.7269 -30.7251 -30.6868 -30.6853
   -21.1327 -20.0457 -16.3533 -15.6734 -15.6124 -15.4675 -15.4462 -15.3886
   -15.3577 -15.2819 -15.2388 -15.2288 -15.2003 -15.1831 -15.1561 -15.1372
   -15.0995 -15.0777 -15.0274 -15.0215 -14.9710 -14.9663 -14.9573 -14.9338
   -14.8857 -14.8302 -14.8249 -14.8221 -14.7594 -14.7515 -14.6535 -14.4818
   -13.0006 -12.9982  -9.2808  -6.4014  -5.5761  -5.5087  -4.3019  -4.2767
    -3.8875  -3.6244  -3.0465  -2.9019  -2.8283  -2.6875  -2.5999  -2.5394
    -2.5278  -2.5070  -2.4704  -2.3982  -2.3872  -2.3327  -2.3285  -2.3214
    -2.3102  -2.2910  -2.2474  -2.2247  -2.2095  -2.1999  -2.1738  -2.1511
    -2.1372  -2.1248  -2.1169  -2.1048  -2.0917  -2.0482  -1.9830  -1.9155
    -1.8804  -1.8654  -1.7232  -1.7101  -1.6431  -1.6281  -1.6181  -1.5919
    -1.5842  -1.5053  -1.4546  -1.3109  -1.2879  -1.2532  -1.1962  -1.1525
    -1.0688  -1.0624  -1.0362  -0.9782  -0.9580  -0.9279  -0.9125  -0.8157
    -0.7383  -0.6936  -0.6557  -0.5421  -0.5252  -0.5102  -0.4493  -0.4227
    -0.4150  -0.4010  -0.3556  -0.2843  -0.2375  -0.2155  -0.1791  -0.1657
    -0.1042  -0.0567   0.0141   0.0836   0.1660   0.1852   0.2923   0.3684
     0.4151   0.5262   0.5847   0.6135   0.6439   0.7166   0.7659   0.7794
     0.8775   0.9362   0.9569   1.0248   1.0532   1.0940   1.1285   1.8830
     1.8960   1.9291   1.9413   3.5045   4.0408   4.0509   4.0646   4.0870
     4.1107   4.1343   4.2095   4.2497   4.2653

     the Fermi energy is     3.4948 ev

!    total energy              =   -3003.97497586 Ry
     estimated scf accuracy    <       0.00000007 Ry
     smearing contrib. (-TS)   =      -0.01900725 Ry
     internal energy E=F+TS    =   -3003.95596861 Ry

     The total energy is F=E-TS. E is the sum of the following terms:
     one-electron contribution =  -23046.93550037 Ry
     hartree contribution      =   11620.55093929 Ry
     xc contribution           =    -499.47276822 Ry
     ewald contribution        =    8921.89982669 Ry
     electric field correction =       0.00153399 Ry

     convergence has been achieved in  74 iterations

     Forces acting on atoms (cartesian axes, Ry/au):

     atom    1 type  1   force =    -0.00034402   -0.00002688    0.00055936
     atom    2 type  2   force =    -0.00044930   -0.00007473   -0.00022230
     atom    3 type  2   force =    -0.00052203    0.00007002   -0.00027142
     atom    4 type  3   force =    -0.00006495    0.00012118    0.10176739
     atom    5 type  3   force =    -0.00006351    0.00014597    0.10143660
     atom    6 type  3   force =    -0.07459624    0.00082257   -0.03019176
     atom    7 type  3   force =    -0.07406325   -0.00148525   -0.03017828
     atom    8 type  3   force =     0.07427486    0.00138368   -0.03024275
     atom    9 type  3   force =     0.07391584   -0.00108487   -0.03028785
     atom   10 type  3   force =     0.00081927    0.00107338    0.04836652
     atom   11 type  3   force =     0.00087727    0.00075779    0.05012453
     atom   12 type  3   force =     0.00040598   -0.00629313   -0.03720608
     atom   13 type  3   force =     0.00063923    0.00422528   -0.03094293
     atom   14 type  3   force =    -0.01076817   -0.00220100    0.00092166
     atom   15 type  3   force =    -0.01064818    0.00460099    0.00172959
     atom   16 type  3   force =     0.01298133   -0.00502585    0.00201986
     atom   17 type  3   force =     0.01234520    0.00211939    0.00233770
     atom   18 type  3   force =    -0.00037304    0.00005250    0.00008422
     atom   19 type  3   force =    -0.00020729    0.00027502    0.00002474
     atom   20 type  3   force =     0.00003314   -0.00076998    0.00012501
     atom   21 type  3   force =    -0.00022202   -0.00041609    0.00005695
     atom   22 type  3   force =     0.00022428   -0.00047613   -0.00004378
     atom   23 type  3   force =     0.00002166    0.00036070    0.00060490
     atom   24 type  3   force =    -0.00045186   -0.00034721   -0.00035617
     atom   25 type  3   force =    -0.00012021    0.00044436    0.00015322
     atom   26 type  3   force =    -0.00038546   -0.00024536   -0.00034854
     atom   27 type  3   force =    -0.00011653    0.00017799    0.00040822
     atom   28 type  3   force =     0.00046272    0.00009134    0.00005372
     atom   29 type  3   force =    -0.00015391   -0.00023735    0.00011043
     atom   30 type  3   force =    -0.00060809    0.00006733   -0.00023505
     atom   31 type  3   force =    -0.00057530   -0.00013195   -0.00000550
     atom   32 type  3   force =    -0.00026511    0.00013772   -0.00035589
     atom   33 type  3   force =    -0.00044185    0.00000040   -0.00021104
     atom   34 type  3   force =    -0.00085036   -0.00023177   -0.00059415
     atom   35 type  3   force =    -0.00025481   -0.00010751    0.00043659
     atom   36 type  4   force =    -0.00032884   -0.00159449    0.10371135
     atom   37 type  4   force =    -0.00011597    0.00148966    0.11782020
     atom   38 type  4   force =    -0.00038491    0.00605712   -0.16918108
     atom   39 type  4   force =    -0.00010701   -0.00503939   -0.16942897
     atom   40 type  4   force =     0.00030832    0.00007847   -0.00055792
     atom   41 type  4   force =     0.00003827   -0.00020001   -0.00019884
     atom   42 type  4   force =    -0.00017668    0.00083887   -0.00003031
     atom   43 type  4   force =    -0.00018857   -0.00053817   -0.00002653
     atom   44 type  4   force =    -0.00007717   -0.00034098    0.00025172
     atom   45 type  4   force =     0.00000037   -0.00013231   -0.00107460
     atom   46 type  4   force =    -0.00033213    0.00032862    0.00062561
     atom   47 type  4   force =    -0.00078255    0.00065456    0.00002236
     atom   48 type  4   force =     0.00021879   -0.00021716    0.00007283
     atom   49 type  4   force =     0.00010909    0.00012915    0.00059597
     atom   50 type  4   force =     0.00059382   -0.00003024   -0.00025509
     atom   51 type  4   force =     0.00040121   -0.00008234   -0.00042652
     atom   52 type  5   force =    -0.00123989   -0.00093896   -0.00062317
     atom   53 type  5   force =     0.00072940    0.00090168    0.00025421
     atom   54 type  3   force =     0.01714153   -0.00157816   -0.00674666
     atom   55 type  2   force =    -0.01626236    0.00244158    0.00556771

     Total force =     0.370006     Total SCF correction =     0.000578
  @ DRIVER MODE: Message from server: STATUS
  @ DRIVER MODE: Message from server: GETFORCE
  @ DRIVER MODE: Returning v,forces,stress,ensemble

     Writing output data file ./calc.save/
  @ DRIVER MODE: Message from server: EXIT
  @ DRIVE MODE: Exiting

     General routines

     Parallel routines

   This run was terminated on:   3:41:15  24Sep2021

   JOB DONE.