     Program PWSCF v.6.7GPU starts on 18Oct2021 at 20:53:32

     R & G space division:  proc/nbgrp/npool/nimage =       8
     Reading input from /storage/home/hcoda1/3/ntian30/research/carbon/CxH_vib/Thiel_calc/ads_slab/NH2HNH_perslab/out_0020/pw.inp
Warning: card &CELL ignored
Warning: card   CELL_DYNAMICS='IPI', ignored
Warning: card / ignored

     Current dimensions of program PWSCF are:
     Max number of different atomic species (ntypx) = 10
     Max number of k-points (npk) =  40000
     Max angular momentum in pseudopotentials (lmaxx) =  3
     Presently no symmetry can be used with electric field

     Message from routine cell_base_init:
     DEPRECATED: use true lattice parameter, not A to a.u. conversion factor

     IMPORTANT: XC functional enforced from input :
     Exchange-correlation= BEEF-VDW
                           (   1   4  43  14   2   0   0)
     Any further DFT definition will be discarded
     Please, verify this is what you really want

  @ DRIVER MODE: Connecting to
 qe_1139763_3255135.sched-torque.pace.gatech.edu108ruuxi_scratch
  using UNIX socket
  @ DRIVER MODE: Message from server: STATUS
  @ DRIVER MODE: Message from server: INIT
  @ DRIVER MODE: Receiving replica           0          -1
  @ DRIVER MODE: Receiving encoded integer          25
  @ DRIVER MODE:  SCF:  T  FORCE:  T  STRESS:  F  VC:  F  ENSEMBLE:  F
  @ DRIVER MODE:  SCF:  T  FORCE:  T  STRESS:  F  VC:  F  ENSEMBLE:  F

     Using Slab Decomposition

     bravais-lattice index     =            0
     lattice parameter (alat)  =       1.8897  a.u.
     unit-cell volume          =    9988.4706 (a.u.)^3
     number of atoms/cell      =           59
     number of atomic types    =            4
     number of electrons       =       440.00
     number of Kohn-Sham states=          230
     kinetic-energy cutoff     =      29.3995  Ry
     charge density cutoff     =     293.9946  Ry
     scf convergence threshold =      7.3E-08
     mixing beta               =       0.0500
     number of iterations used =            8  plain     mixing
     Exchange-correlation= BEEF-VDW
                           (   1   4  43  14   2   0   0)

     celldm(1)=   1.889726  celldm(2)=   0.000000  celldm(3)=   0.000000
     celldm(4)=   0.000000  celldm(5)=   0.000000  celldm(6)=   0.000000

     crystal axes: (cart. coord. in units of alat)
               a(1) = (   6.579727   0.000000   0.000000 )
               a(2) = (  -0.001163   8.942395   0.000000 )
               a(3) = (   0.000000   0.000000  25.155947 )

     reciprocal axes: (cart. coord. in units 2 pi/alat)
               b(1) = (  0.151982  0.000020  0.000000 )
               b(2) = (  0.000000  0.111827  0.000000 )
               b(3) = (  0.000000  0.000000  0.039752 )

     PseudoPot. # 1 for O  read from file:
     /storage/coda1/p-amedford6/0/shared/rich_project_chbe-medford/medford-share/data/pseudos_module/espresso/nninc/pbe/van/O.UPF
     MD5 check sum: 78c19812648e8988a0fe644b0f25305e
     Pseudo is Ultrasoft, Zval =  6.0
     Generated by new atomic code, or converted to UPF format
     Using radial grid of  737 points,  4 beta functions with:
                l(1) =   0
                l(2) =   0
                l(3) =   1
                l(4) =   1
     Q(r) pseudized with  8 coefficients,  rinner =    0.800   0.800   0.800

     PseudoPot. # 2 for Ti read from file:
     /storage/coda1/p-amedford6/0/shared/rich_project_chbe-medford/medford-share/data/pseudos_module/espresso/nninc/pbe/van/Ti.UPF
     MD5 check sum: 8e4df49b7f0d34bbd5052bf3f5ea0213
     Pseudo is Ultrasoft, Zval = 12.0
     Generated by new atomic code, or converted to UPF format
     Using radial grid of  851 points,  6 beta functions with:
                l(1) =   0
                l(2) =   0
                l(3) =   1
                l(4) =   1
                l(5) =   2
                l(6) =   2
     Q(r) pseudized with  8 coefficients,  rinner =    1.000   1.000   1.000
                                                       1.000   1.000

     PseudoPot. # 3 for H  read from file:
     /storage/coda1/p-amedford6/0/shared/rich_project_chbe-medford/medford-share/data/pseudos_module/espresso/nninc/pbe/van/H.UPF
     MD5 check sum: b5ee9d7bfd3a09ee7748110bda690ff7
     Pseudo is Ultrasoft, Zval =  1.0
     Generated by new atomic code, or converted to UPF format
     Using radial grid of  615 points,  1 beta functions with:
                l(1) =   0
     Q(r) pseudized with  8 coefficients,  rinner =    0.800

     PseudoPot. # 4 for N  read from file:
     /storage/coda1/p-amedford6/0/shared/rich_project_chbe-medford/medford-share/data/pseudos_module/espresso/nninc/pbe/van/N.UPF
     MD5 check sum: 90d10febe142ad51ac9d5be1deb811c4
     Pseudo is Ultrasoft, Zval =  5.0
     Generated by new atomic code, or converted to UPF format
     Using radial grid of  729 points,  4 beta functions with:
                l(1) =   0
                l(2) =   0
                l(3) =   1
                l(4) =   1
     Q(r) pseudized with  8 coefficients,  rinner =    0.800   0.800   0.800

     atomic species   valence    mass     pseudopotential
        O1             6.00    15.99900     O ( 1.00)
        Ti1           12.00    47.86700     Ti( 1.00)
        H1             1.00     1.00800     H ( 1.00)
        N1             5.00    14.00700     N ( 1.00)

     No symmetry found

   Cartesian axes

     site n.     atom                  positions (alat units)
         1           O1  tau(   1) = (   0.0007354   0.0005023  10.5931620  )
         2           O1  tau(   2) = (   3.2891522   8.9193323  13.7813865  )
         3           O1  tau(   3) = (  -0.0003195   8.9357148  17.1597790  )
         4           O1  tau(   4) = (   0.0006271   0.0005054   7.9858123  )
         5           O1  tau(   5) = (   3.2896276   8.9330874  11.1456747  )
         6           O1  tau(   6) = (   0.0000757   8.8957392  14.5326415  )
         7           O1  tau(   7) = (   1.9868534   1.4903216   9.2879459  )
         8           O1  tau(   8) = (   5.2085136   1.5567490  12.5272226  )
         9           O1  tau(   9) = (   2.0368910   1.4086519  15.9478609  )
        10           Ti1 tau(  10) = (   0.0007404   1.4906270   9.2895810  )
        11           Ti1 tau(  11) = (   3.2920048   1.2896434  12.4335303  )
        12           Ti1 tau(  12) = (   0.0003947   1.7483972  15.9485354  )
        13           O1  tau(  13) = (   4.5942328   1.4918067   9.2879030  )
        14           O1  tau(  14) = (   1.3734151   1.5562871  12.5269411  )
        15           O1  tau(  15) = (   4.5446063   1.4075665  15.9467422  )
        16           Ti1 tau(  16) = (   3.2902859   2.9801868   9.2893338  )
        17           Ti1 tau(  17) = (   0.0022843   2.7629733  12.5422407  )
        18           Ti1 tau(  18) = (   3.2887740   3.1097933  15.6402895  )
        19           O1  tau(  19) = (   0.0003479   2.9813005  10.5931620  )
        20           O1  tau(  20) = (   3.2903674   2.9527630  13.7969158  )
        21           O1  tau(  21) = (   0.0002396   2.9813036   7.9858123  )
        22           O1  tau(  22) = (   3.2906228   2.9775883  11.1663003  )
        23           O1  tau(  23) = (   0.0006598   2.9368866  14.5305733  )
        24           O1  tau(  24) = (   1.9864658   4.4711199   9.2879459  )
        25           O1  tau(  25) = (   5.2231876   4.5386380  12.5467233  )
        26           O1  tau(  26) = (   2.0248981   4.3679406  15.9930346  )
        27           Ti1 tau(  27) = (   0.0003529   4.4714252   9.2895810  )
        28           Ti1 tau(  28) = (   3.2918124   4.3135021  12.5344809  )
        29           Ti1 tau(  29) = (   6.5788423   4.6929592  16.0739603  )
        30           O1  tau(  30) = (   4.5938453   4.4726049   9.2879030  )
        31           O1  tau(  31) = (   1.3570704   4.5373869  12.5465102  )
        32           O1  tau(  32) = (   4.5538814   4.3671241  15.9936543  )
        33           Ti1 tau(  33) = (   3.2898983   5.9609850   9.2893338  )
        34           Ti1 tau(  34) = (   0.0013264   5.7428985  12.5110789  )
        35           Ti1 tau(  35) = (   3.2898306   6.0937744  16.2866611  )
        36           O1  tau(  36) = (  -0.0000397   5.9620987  10.5931620  )
        37           O1  tau(  37) = (   3.2897329   5.8964334  13.7986068  )
        38           O1  tau(  38) = (  -0.0007474   6.0119579  17.1634496  )
        39           O1  tau(  39) = (  -0.0001480   5.9621018   7.9858123  )
        40           O1  tau(  40) = (   3.2898370   5.9388437  11.1687384  )
        41           O1  tau(  41) = (  -0.0001539   5.9931028  14.5676369  )
        42           O1  tau(  42) = (   1.9860782   7.4519181   9.2879459  )
        43           O1  tau(  43) = (   5.2258842   7.5046952  12.5406166  )
        44           O1  tau(  44) = (   2.0242945   7.4351242  16.0034066  )
        45           Ti1 tau(  45) = (  -0.0000347   7.4522234   9.2895810  )
        46           Ti1 tau(  46) = (   3.2896699   7.1866417  12.6007890  )
        47           Ti1 tau(  47) = (   0.0000787   7.5542351  15.7482610  )
        48           O1  tau(  48) = (   4.5934577   7.4534031   9.2879030  )
        49           O1  tau(  49) = (   1.3527639   7.5038087  12.5404143  )
        50           O1  tau(  50) = (   4.5545665   7.4356877  16.0029592  )
        51           Ti1 tau(  51) = (   3.2895107   8.9417832   9.2893338  )
        52           Ti1 tau(  52) = (  -0.0005703   8.7121504  12.4856418  )
        53           Ti1 tau(  53) = (   3.2909615   0.1005107  15.6284087  )
        54           H1  tau(  54) = (   6.5785809   3.1351568  18.2688824  )
        55           H1  tau(  55) = (   6.5783155   8.7923607  18.1116139  )
        56           N1  tau(  56) = (  -0.0001347   2.9716693  17.2674093  )
        57           N1  tau(  57) = (   3.2997564   5.9921341  18.1800631  )
        58           H1  tau(  58) = (   3.2887465   5.1266479  18.7045293  )
        59           H1  tau(  59) = (   3.2892443   6.7858760  18.8071070  )

     number of k points=    10  Fermi-Dirac smearing, width (Ry)=  0.0073
                       cart. coord. in units 2pi/alat
        k(    1) = (   0.0000000   0.0000000   0.0000000), wk =   0.1250000
        k(    2) = (   0.0000000   0.0279567   0.0000000), wk =   0.2500000
        k(    3) = (   0.0000000  -0.0559134   0.0000000), wk =   0.1250000
        k(    4) = (   0.0379955   0.0000049   0.0000000), wk =   0.2500000
        k(    5) = (   0.0379955   0.0279617   0.0000000), wk =   0.2500000
        k(    6) = (   0.0379955  -0.0559085   0.0000000), wk =   0.2500000
        k(    7) = (   0.0379955  -0.0279518   0.0000000), wk =   0.2500000
        k(    8) = (  -0.0759910  -0.0000099   0.0000000), wk =   0.1250000
        k(    9) = (  -0.0759910   0.0279468   0.0000000), wk =   0.2500000
        k(   10) = (  -0.0759910  -0.0559233   0.0000000), wk =   0.1250000

     Initial potential from superposition of free atoms

     starting charge  421.99910, renormalised to  440.00000

     negative rho (up, down):  3.702E-02 0.000E+00

     %%%%%%%%%%%%%%%%%%%%%%%%%%%%%%%%%%%%%%%%%%%%%%%%%%%%%%%%%%%%%%%%%%%%%%%%
     %                                                                      %
     % You are using vdW-DF, which was implemented by the Thonhauser group. %
     % Please cite the following two papers that made this development      %
     % possible and the two reviews that describe the various versions:     %
     %                                                                      %
     %   T. Thonhauser et al., PRL 115, 136402 (2015).                      %
     %   T. Thonhauser et al., PRB 76, 125112 (2007).                       %
     %   K. Berland et al., Rep. Prog. Phys. 78, 066501 (2015).             %
     %   D.C. Langreth et al., J. Phys.: Condens. Matter 21, 084203 (2009). %
     %                                                                      %
     %                                                                      %
     % If you are calculating the stress with vdW-DF, please also cite:     %
     %                                                                      %
     %   R. Sabatini et al., J. Phys.: Condens. Matter 24, 424209 (2012).   %
     %                                                                      %
     %%%%%%%%%%%%%%%%%%%%%%%%%%%%%%%%%%%%%%%%%%%%%%%%%%%%%%%%%%%%%%%%%%%%%%%%

     Adding external electric field

     Computed dipole along edir(3) :
        Dipole               -3.9424 Ry au,        -10.0206 Debye
        Dipole field         -0.0050 Ry au,

        Potential amp.        0.4598 Ry
        Total length         46.3494 bohr

     Starting wfcs are  332 atomic wfcs
  @ DRIVER MODE: Message from server: STATUS
  @ DRIVER MODE: Message from server: POSDATA
  @ DRIVER MODE: Reading and sharing cell
  @ DRIVER MODE: Reading and sharing positions
  @ DRIVER MODE: Received positions

     Self-consistent Calculation

     iteration #  1     ecut=    29.40 Ry     beta= 0.05
     Davidson diagonalization with overlap
     c_bands:  1 eigenvalues not converged
     c_bands:  2 eigenvalues not converged
     c_bands:  4 eigenvalues not converged
     c_bands:  3 eigenvalues not converged
     c_bands:  2 eigenvalues not converged
     c_bands:  2 eigenvalues not converged
     c_bands:  4 eigenvalues not converged
     c_bands:  3 eigenvalues not converged
     c_bands:  2 eigenvalues not converged
     ethr =  1.00E-05,  avg # of iterations = 19.2

[...]

     total energy              =   -3294.67556475 Ry
     estimated scf accuracy    <      19.62391005 Ry

     iteration #  2     ecut=    29.40 Ry     beta= 0.05
     Davidson diagonalization with overlap
     ethr =  4.46E-03,  avg # of iterations =  1.0

[...]

     iteration # 29     ecut=    29.40 Ry     beta= 0.05
     Davidson diagonalization with overlap
     c_bands:  1 eigenvalues not converged
     ethr =  1.50E-07,  avg # of iterations =  6.6

[...]

     total energy              =   -3293.29232509 Ry
     estimated scf accuracy    <       0.00000022 Ry

     iteration # 57     ecut=    29.40 Ry     beta= 0.05
     Davidson diagonalization with overlap
     ethr =  4.74E-11,  avg # of iterations =  5.0

     negative rho (up, down):  3.602E-02 0.000E+00

     Adding external electric field

     Computed dipole along edir(3) :
        Dipole                1.2940 Ry au,          3.2891 Debye
        Dipole field          0.0016 Ry au,

        Potential amp.       -0.1509 Ry
        Total length         46.3494 bohr

     End of self-consistent calculation

          k = 0.0000 0.0000 0.0000 ( 26871 PWs)   bands (ev):

   -58.2973 -58.2733 -58.2696 -58.2100 -58.1616 -57.7938 -57.7735 -57.7574
   -57.6222 -57.5922 -57.5717 -57.5132 -57.4888 -56.8992 -56.8778 -56.8520
   -56.8425 -56.8370 -34.6883 -34.6613 -34.6312 -34.6194 -34.6138 -34.6087
   -34.5458 -34.4824 -34.4724 -34.4097 -34.4057 -34.4029 -34.3889 -34.3587
   -34.3339 -34.1961 -34.1500 -34.1451 -34.1248 -34.0965 -34.0830 -34.0785
   -34.0578 -34.0209 -34.0089 -33.9633 -33.9192 -33.8746 -33.8598 -33.8507
   -33.8351 -33.8273 -33.7804 -33.7574 -33.7490 -33.7434 -33.6967 -33.6909
   -33.6778 -33.3607 -33.2225 -33.2122 -33.2026 -33.1882 -33.1814 -33.1745
   -33.1631 -33.1175 -33.0855 -33.0797 -33.0268 -33.0256 -33.0087 -32.8855
   -18.9127 -18.8269 -18.3717 -18.2961 -18.1746 -18.1194 -18.1131 -18.0477
   -17.9449 -17.7238 -17.6835 -17.6747 -17.6465 -17.5388 -17.5308 -17.5272
   -17.4932 -17.4863 -17.4739 -17.3860 -17.3270 -17.3146 -17.3088 -17.3087
   -17.1998 -17.1753 -17.1234 -17.0572 -17.0452 -16.9493 -16.7647 -16.4314
   -15.3535 -15.3128 -15.3031 -15.1566 -13.6005  -6.9787  -6.6260  -6.1791
    -5.9855  -5.7754  -5.6370  -5.5223  -5.4693  -5.3768  -5.3108  -5.2859
    -5.2685  -5.2284  -5.1946  -5.1678  -5.0650  -5.0551  -4.9740  -4.9196
    -4.8740  -4.8278  -4.7856  -4.7392  -4.7368  -4.6975  -4.6284  -4.6178
    -4.5831  -4.5358  -4.5068  -4.4986  -4.4434  -4.4147  -4.3938  -4.2739
    -4.2595  -4.1919  -4.1805  -4.1731  -4.0681  -4.0612  -4.0180  -3.9871
    -3.9806  -3.9615  -3.9110  -3.8313  -3.8030  -3.6440  -3.6212  -3.6118
    -3.5198  -3.3809  -3.3675  -3.3232  -3.2037  -3.1365  -3.1125  -3.0771
    -3.0571  -3.0397  -3.0166  -3.0050  -2.9715  -2.8771  -2.8761  -2.8149
    -2.8126  -2.7978  -2.7758  -2.7705  -2.7310  -2.6584  -2.5992  -2.5866
    -2.5654  -2.5478  -2.4613  -2.4469  -2.3561  -2.3407  -2.2847  -2.2424
    -2.2364  -2.1708  -2.0960  -2.0883  -2.0242  -1.9998  -1.8259  -1.8009
    -1.7233  -1.7178  -1.6513  -1.6244  -1.6016  -1.5493  -1.4246  -1.3935
    -1.2980  -1.1863  -1.0221  -0.7823  -0.5919  -0.5703  -0.5611  -0.5290
    -0.4353  -0.3824  -0.3664  -0.2714   0.9810   1.1270   1.2800   1.3016
     1.4953   1.6049   1.6175   1.6727   1.7516   1.8502

[...]

          k = 0.0380-0.0280 0.0000 ( 26873 PWs)   bands (ev):

[...]

          k =-0.0760-0.0000 0.0000 ( 26902 PWs)   bands (ev):

[...]

          k =-0.0760-0.0559 0.0000 ( 26868 PWs)   bands (ev):

   -58.2906 -58.2866 -58.2629 -58.2098 -58.1617 -57.7938 -57.7730 -57.7578
   -57.6206 -57.5956 -57.5699 -57.5131 -57.4889 -56.8992 -56.8750 -56.8578
   -56.8424 -56.8339 -34.7136 -34.7099 -34.6635 -34.6390 -34.6061 -34.4978
   -34.4830 -34.4490 -34.4459 -34.4333 -34.4268 -34.4069 -34.3847 -34.3814
   -34.3607 -34.2314 -34.1727 -34.1675 -34.1394 -34.1219 -34.0788 -34.0027
   -33.9988 -33.9987 -33.9647 -33.9277 -33.9208 -33.9067 -33.8987 -33.8750
   -33.8657 -33.8502 -33.7753 -33.7669 -33.7395 -33.7135 -33.7128 -33.6947
   -33.6890 -33.3363 -33.2641 -33.2235 -33.2185 -33.2082 -33.1851 -33.1766
   -33.1244 -33.0806 -33.0724 -33.0535 -33.0307 -32.9965 -32.9900 -32.9730
   -18.8911 -18.6218 -18.4744 -18.2383 -18.1382 -17.9744 -17.8916 -17.8788
   -17.8609 -17.8600 -17.7609 -17.7499 -17.6988 -17.6740 -17.6311 -17.6215
   -17.6092 -17.5721 -17.5659 -17.4525 -17.3620 -17.3528 -17.2576 -17.2426
   -17.2154 -17.1538 -17.1355 -17.0461 -17.0268 -16.9540 -16.7727 -16.4162
   -15.3645 -15.3528 -15.2423 -15.1573 -13.5975  -6.9508  -6.6271  -5.9497
    -5.7549  -5.7206  -5.6700  -5.3496  -5.3122  -5.2276  -5.2020  -5.1631
    -5.1377  -5.1237  -5.0936  -5.0823  -5.0071  -4.9703  -4.9612  -4.9574
    -4.9143  -4.8954  -4.8470  -4.8257  -4.7761  -4.7552  -4.7472  -4.7129
    -4.6688  -4.6503  -4.5758  -4.5705  -4.4972  -4.4577  -4.3188  -4.2350
    -4.2097  -4.1802  -4.0836  -4.0698  -4.0370  -3.9411  -3.9253  -3.9047
    -3.7770  -3.7421  -3.6329  -3.6169  -3.5678  -3.5448  -3.5170  -3.4894
    -3.4250  -3.3829  -3.3668  -3.3618  -3.3277  -3.2593  -3.2291  -3.2125
    -3.1807  -3.1629  -3.1526  -3.1418  -3.0756  -3.0589  -3.0291  -2.9896
    -2.9283  -2.9041  -2.8488  -2.8478  -2.7867  -2.7472  -2.6928  -2.6868
    -2.6147  -2.5925  -2.5863  -2.5785  -2.4776  -2.4519  -2.4441  -2.3027
    -2.1641  -2.1128  -2.0698  -1.9665  -1.9086  -1.9049  -1.8810  -1.8129
    -1.7881  -1.7048  -1.6503  -1.6267  -1.6194  -1.5938  -1.3751  -1.3450
    -1.3333  -1.2902  -1.2262  -1.1317  -0.8125  -0.5927  -0.5795  -0.4996
    -0.4766  -0.4236  -0.4023  -0.3878   1.0301   1.2051   1.2767   1.3699
     1.3706   1.4031   1.4529   1.6187   1.6521   1.7070

     the Fermi energy is     0.3879 ev

!    total energy              =   -3293.29237703 Ry
     estimated scf accuracy    <       0.00000002 Ry
     smearing contrib. (-TS)   =      -0.00047772 Ry
     internal energy E=F+TS    =   -3293.29189931 Ry

     The total energy is F=E-TS. E is the sum of the following terms:
     one-electron contribution =  -34638.96975396 Ry
     hartree contribution      =   17383.78101291 Ry
     xc contribution           =    -542.08689310 Ry
     ewald contribution        =   14503.98162820 Ry
     electric field correction =       0.00210663 Ry

     convergence has been achieved in  57 iterations

     Forces acting on atoms (cartesian axes, Ry/au):

     atom    1 type  1   force =     0.00000971    0.00245146    0.04674101
     atom    2 type  1   force =    -0.00000193   -0.00342017   -0.00288329
     atom    3 type  1   force =     0.00000869    0.00324564   -0.00096066
     atom    4 type  1   force =     0.00005214   -0.00098308    0.10170021
     atom    5 type  1   force =    -0.00001016   -0.00071460    0.00563487
     atom    6 type  1   force =     0.00000522    0.00367121    0.00081227
     atom    7 type  1   force =     0.07819901    0.00086241   -0.03540934
     atom    8 type  1   force =     0.00833670   -0.02588181    0.00018348
     atom    9 type  1   force =     0.00848011    0.02069234    0.00128486
     atom   10 type  2   force =    -0.00007105    0.00867425   -0.15837664
     atom   11 type  2   force =    -0.00004507    0.02308227   -0.00229872
     atom   12 type  2   force =     0.00005828   -0.02561757   -0.00427427
     atom   13 type  1   force =    -0.07829392    0.00040565   -0.03539790
     atom   14 type  1   force =    -0.00838262   -0.02579518    0.00018796
     atom   15 type  1   force =    -0.00844993    0.02079456    0.00131115
     atom   16 type  2   force =     0.00012584    0.00086409    0.07318485
     atom   17 type  2   force =     0.00006073    0.03071961    0.00240164
     atom   18 type  2   force =     0.00003563   -0.02688058    0.00067300
     atom   19 type  1   force =     0.00004042    0.00299664    0.05011661
     atom   20 type  1   force =    -0.00002648   -0.00127113   -0.00144997
     atom   21 type  1   force =     0.00005089   -0.00064807    0.10018032
     atom   22 type  1   force =    -0.00001681   -0.00180047    0.00546573
     atom   23 type  1   force =    -0.00001412    0.00237374    0.00381465
     atom   24 type  1   force =     0.07914890    0.00064697   -0.03606284
     atom   25 type  1   force =     0.00924464   -0.02948663    0.00062511
     atom   26 type  1   force =     0.00847476    0.02168531    0.00334834
     atom   27 type  2   force =    -0.00005940   -0.00813973   -0.15492449
     atom   28 type  2   force =    -0.00000343    0.02629182   -0.00223560
     atom   29 type  2   force =    -0.00009145   -0.02439123   -0.00336348
     atom   30 type  1   force =    -0.07923996    0.00023735   -0.03605927
     atom   31 type  1   force =    -0.00925361   -0.02941791    0.00063137
     atom   32 type  1   force =    -0.00845926    0.02152847    0.00313906
     atom   33 type  2   force =     0.00014086   -0.00255815    0.07886840
     atom   34 type  2   force =     0.00004438    0.03585132    0.00274420
     atom   35 type  2   force =     0.00049772   -0.02921575    0.00299775
     atom   36 type  1   force =     0.00004123    0.00307008    0.05240373
     atom   37 type  1   force =    -0.00002080   -0.00187432   -0.00284329
     atom   38 type  1   force =     0.00021144    0.00200991    0.00083018
     atom   39 type  1   force =     0.00004571    0.00287238    0.10110213
     atom   40 type  1   force =    -0.00000857   -0.00170291    0.00620070
     atom   41 type  1   force =    -0.00002450    0.00300375    0.00388521
     atom   42 type  1   force =     0.07825986    0.00076432   -0.03488199
     atom   43 type  1   force =     0.00660774   -0.02304150   -0.00020192
     atom   44 type  1   force =     0.01115741    0.02199922   -0.00691288
     atom   45 type  2   force =    -0.00005348   -0.00550871   -0.16465306
     atom   46 type  2   force =    -0.00006279    0.01958172    0.00099815
     atom   47 type  2   force =    -0.00013836   -0.01855134    0.00738869
     atom   48 type  1   force =    -0.07835677    0.00031557   -0.03486488
     atom   49 type  1   force =    -0.00664788   -0.02300876   -0.00019504
     atom   50 type  1   force =    -0.01111232    0.02222929   -0.00735390
     atom   51 type  2   force =     0.00013690   -0.00437078    0.06097336
     atom   52 type  2   force =     0.00011537    0.02965099    0.00358455
     atom   53 type  2   force =     0.00000961   -0.02498534    0.00094000
     atom   54 type  3   force =    -0.00002733    0.00076874   -0.00013959
     atom   55 type  3   force =    -0.00004149   -0.00009734    0.00012689
     atom   56 type  4   force =     0.00000082    0.00701374    0.00057994
     atom   57 type  4   force =    -0.00089285   -0.00049100    0.00063333
     atom   58 type  3   force =     0.00006214   -0.00004797   -0.00011380
     atom   59 type  3   force =     0.00014348   -0.00045279    0.00016315

     Total force =     0.437305     Total SCF correction =     0.000359
  @ DRIVER MODE: Message from server: STATUS
  @ DRIVER MODE: Message from server: GETFORCE
  @ DRIVER MODE: Returning v,forces,stress,ensemble

     Writing output data file ./calc.save/
  @ DRIVER MODE: Message from server: EXIT
  @ DRIVE MODE: Exiting

     General routines

     Parallel routines

   This run was terminated on:  21:22: 4  18Oct2021

   JOB DONE.