     Program PWSCF v.6.7GPU starts on 16Sep2021 at  4:53: 9

     R & G space division:  proc/nbgrp/npool/nimage =      10
     Reading input from /storage/home/hcoda1/3/ntian30/research/carbon/CxH_vib/H2O_calc/ads_slab/CHN2H2O_c/out_0042/pw.inp
Warning: card &CELL ignored
Warning: card   CELL_DYNAMICS='IPI', ignored
Warning: card / ignored

     Current dimensions of program PWSCF are:
     Max number of different atomic species (ntypx) = 10
     Max number of k-points (npk) =  40000
     Max angular momentum in pseudopotentials (lmaxx) =  3
     Presently no symmetry can be used with electric field

     Message from routine cell_base_init:
     DEPRECATED: use true lattice parameter, not A to a.u. conversion factor

     IMPORTANT: XC functional enforced from input :
     Exchange-correlation= BEEF-VDW
                           (   1   4  43  14   2   0   0)
     Any further DFT definition will be discarded
     Please, verify this is what you really want

  @ DRIVER MODE: Connecting to
 qe_1139763_2852625.sched-torque.pace.gatech.edu1bago9j3_scratch
  using UNIX socket
  @ DRIVER MODE: Message from server: STATUS
  @ DRIVER MODE: Message from server: INIT
  @ DRIVER MODE: Receiving replica           0          -1
  @ DRIVER MODE: Receiving encoded integer          25
  @ DRIVER MODE:  SCF:  T  FORCE:  T  STRESS:  F  VC:  F  ENSEMBLE:  F
  @ DRIVER MODE:  SCF:  T  FORCE:  T  STRESS:  F  VC:  F  ENSEMBLE:  F

     Using Slab Decomposition

     bravais-lattice index     =            0
     lattice parameter (alat)  =       1.8897  a.u.
     unit-cell volume          =    6658.9804 (a.u.)^3
     number of atoms/cell      =           54
     number of atomic types    =            5
     number of electrons       =       401.00
     number of Kohn-Sham states=          210
     kinetic-energy cutoff     =      29.3995  Ry
     charge density cutoff     =     293.9946  Ry
     scf convergence threshold =      7.3E-08
     mixing beta               =       0.0500
     number of iterations used =            8  plain     mixing
     Exchange-correlation= BEEF-VDW
                           (   1   4  43  14   2   0   0)

     celldm(1)=   1.889726  celldm(2)=   0.000000  celldm(3)=   0.000000
     celldm(4)=   0.000000  celldm(5)=   0.000000  celldm(6)=   0.000000

     crystal axes: (cart. coord. in units of alat)
               a(1) = (   6.579727   0.000000   0.000000 )
               a(2) = (  -0.000775   5.961596   0.000000 )
               a(3) = (   0.000000   0.000000  25.155947 )

     reciprocal axes: (cart. coord. in units 2 pi/alat)
               b(1) = (  0.151982  0.000020  0.000000 )
               b(2) = (  0.000000  0.167740  0.000000 )
               b(3) = (  0.000000  0.000000  0.039752 )

     PseudoPot. # 1 for Ti read from file:
     /storage/coda1/p-amedford6/0/shared/rich_project_chbe-medford/medford-share/data/pseudos_module/espresso/nninc/pbe/van/Ti.UPF
     MD5 check sum: 8e4df49b7f0d34bbd5052bf3f5ea0213
     Pseudo is Ultrasoft, Zval = 12.0
     Generated by new atomic code, or converted to UPF format
     Using radial grid of  851 points,  6 beta functions with:
                l(1) =   0
                l(2) =   0
                l(3) =   1
                l(4) =   1
                l(5) =   2
                l(6) =   2
     Q(r) pseudized with  8 coefficients,  rinner =    1.000   1.000   1.000
                                                       1.000   1.000

     PseudoPot. # 2 for O  read from file:
     /storage/coda1/p-amedford6/0/shared/rich_project_chbe-medford/medford-share/data/pseudos_module/espresso/nninc/pbe/van/O.UPF
     MD5 check sum: 78c19812648e8988a0fe644b0f25305e
     Pseudo is Ultrasoft, Zval =  6.0
     Generated by new atomic code, or converted to UPF format
     Using radial grid of  737 points,  4 beta functions with:
                l(1) =   0
                l(2) =   0
                l(3) =   1
                l(4) =   1
     Q(r) pseudized with  8 coefficients,  rinner =    0.800   0.800   0.800

     PseudoPot. # 3 for C  read from file:
     /storage/coda1/p-amedford6/0/shared/rich_project_chbe-medford/medford-share/data/pseudos_module/espresso/nninc/pbe/van/C.UPF
     MD5 check sum: 1a69bf6b8db32088f5b2163dbdb77a27
     Pseudo is Ultrasoft, Zval =  4.0
     Generated by new atomic code, or converted to UPF format
     Using radial grid of  721 points,  4 beta functions with:
                l(1) =   0
                l(2) =   0
                l(3) =   1
                l(4) =   1
     Q(r) pseudized with  8 coefficients,  rinner =    0.800   0.800   0.800

     PseudoPot. # 4 for H  read from file:
     /storage/coda1/p-amedford6/0/shared/rich_project_chbe-medford/medford-share/data/pseudos_module/espresso/nninc/pbe/van/H.UPF
     MD5 check sum: b5ee9d7bfd3a09ee7748110bda690ff7
     Pseudo is Ultrasoft, Zval =  1.0
     Generated by new atomic code, or converted to UPF format
     Using radial grid of  615 points,  1 beta functions with:
                l(1) =   0
     Q(r) pseudized with  8 coefficients,  rinner =    0.800

     PseudoPot. # 5 for N  read from file:
     /storage/coda1/p-amedford6/0/shared/rich_project_chbe-medford/medford-share/data/pseudos_module/espresso/nninc/pbe/van/N.UPF
     MD5 check sum: 90d10febe142ad51ac9d5be1deb811c4
     Pseudo is Ultrasoft, Zval =  5.0
     Generated by new atomic code, or converted to UPF format
     Using radial grid of  729 points,  4 beta functions with:
                l(1) =   0
                l(2) =   0
                l(3) =   1
                l(4) =   1
     Q(r) pseudized with  8 coefficients,  rinner =    0.800   0.800   0.800

     atomic species   valence    mass     pseudopotential
        Ti1           12.00    47.86700     Ti( 1.00)
        O1             6.00    15.99900     O ( 1.00)
        C1             4.00    12.01100     C ( 1.00)
        H1             1.00     1.00800     H ( 1.00)
        N1             5.00    14.00700     N ( 1.00)

     No symmetry found

   Cartesian axes

     site n.     atom                  positions (alat units)
         1           Ti1 tau(   1) = (   0.0004258   2.9801865   6.0000000  )
         2           Ti1 tau(   2) = (   3.2906075   1.4906267   6.0002472  )
         3           O1  tau(   3) = (   0.0006271   0.0005054   7.9858123  )
         4           O1  tau(   4) = (   3.2906025   0.0005020   7.3038282  )
         5           O1  tau(   5) = (   4.5942328   1.4918067   9.2879030  )
         6           O1  tau(   6) = (   1.9868534   1.4903216   9.2879459  )
         7           Ti1 tau(   7) = (   3.2907910   2.8959150   9.1758416  )
         8           Ti1 tau(   8) = (   0.0015273   1.4827037   9.2680791  )
         9           O1  tau(   9) = (   3.2982821   5.9591942  11.3418950  )
        10           O1  tau(  10) = (   0.0116148   5.9584955  10.6183126  )
        11           O1  tau(  11) = (   1.2990089   1.4837789  12.6285733  )
        12           O1  tau(  12) = (   5.2904647   1.4888503  12.6163117  )
        13           Ti1 tau(  13) = (   0.0603338   2.9457994  12.6026339  )
        14           Ti1 tau(  14) = (   3.3706290   1.4705258  12.5092779  )
        15           O1  tau(  15) = (   6.5788109   0.0160518  14.6499261  )
        16           O1  tau(  16) = (   3.3158691   0.0087694  13.9605792  )
        17           O1  tau(  17) = (   4.5613999   1.5213109  16.0555727  )
        18           O1  tau(  18) = (   2.0390476   1.5587733  16.0026688  )
        19           Ti1 tau(  19) = (   3.2958454   3.0042652  15.6812246  )
        20           Ti1 tau(  20) = (   0.0477533   1.5223793  15.8108347  )
        21           O1  tau(  21) = (   3.2904802   0.0005063   4.7018136  )
        22           O1  tau(  22) = (   0.0778492   0.0082781  17.2116806  )
        23           O1  tau(  23) = (   1.3043587   1.4918075   6.0039043  )
        24           O1  tau(  24) = (   5.2767064   1.4903225   6.0039473  )
        25           Ti1 tau(  25) = (   0.0000382   5.9609847   6.0000000  )
        26           Ti1 tau(  26) = (   3.2902200   4.4714249   6.0002472  )
        27           O1  tau(  27) = (   0.0002396   2.9813036   7.9858123  )
        28           O1  tau(  28) = (   3.2902150   2.9813002   7.3038282  )
        29           O1  tau(  29) = (   4.5938453   4.4726049   9.2879030  )
        30           O1  tau(  30) = (   1.9864658   4.4711199   9.2879459  )
        31           Ti1 tau(  31) = (   3.2891106   5.8743827   9.1763621  )
        32           Ti1 tau(  32) = (   0.0006254   4.4649316   9.2693709  )
        33           O1  tau(  33) = (   3.3003553   2.9806904  11.3444413  )
        34           O1  tau(  34) = (   0.0092240   2.9805883  10.6323155  )
        35           O1  tau(  35) = (   1.2971990   4.4717445  12.6361083  )
        36           O1  tau(  36) = (   5.2938362   4.4783115  12.6231241  )
        37           Ti1 tau(  37) = (   0.0537182   5.9220384  12.5388396  )
        38           Ti1 tau(  38) = (   3.3696634   4.4695314  12.5002334  )
        39           O1  tau(  39) = (   0.0023790   2.9538485  14.6690360  )
        40           O1  tau(  40) = (   3.3142834   2.9899978  13.8932647  )
        41           O1  tau(  41) = (   4.5682027   4.4688565  16.0600133  )
        42           O1  tau(  42) = (   2.0418658   4.4415600  16.0251682  )
        43           Ti1 tau(  43) = (   3.3511655   0.0130708  15.8150828  )
        44           Ti1 tau(  44) = (   0.0311020   4.6533438  16.0685068  )
        45           O1  tau(  45) = (   3.2900926   2.9813045   4.7018136  )
        46           O1  tau(  46) = (   1.3039711   4.4726057   6.0039043  )
        47           O1  tau(  47) = (   5.2763189   4.4711207   6.0039473  )
        48           C1  tau(  48) = (   0.0453995   2.9433715  17.6444507  )
        49           H1  tau(  49) = (   0.9770157   2.9292850  18.2072415  )
        50           N1  tau(  50) = (   5.5932985   2.7872967  18.4085793  )
        51           N1  tau(  51) = (   4.6087457   2.6299947  18.9712495  )
        52           O1  tau(  52) = (   3.0556172   5.9408547  18.1262901  )
        53           H1  tau(  53) = (   3.4776725   0.7204629  18.5958315  )
        54           H1  tau(  54) = (   2.0935776   0.0631959  18.2689326  )

     number of k points=    10  Fermi-Dirac smearing, width (Ry)=  0.0073
                       cart. coord. in units 2pi/alat
        k(    1) = (   0.0000000   0.0000000   0.0000000), wk =   0.1250000
        k(    2) = (   0.0000000   0.0419351   0.0000000), wk =   0.2500000
        k(    3) = (   0.0000000  -0.0838702   0.0000000), wk =   0.1250000
        k(    4) = (   0.0379955   0.0000049   0.0000000), wk =   0.2500000
        k(    5) = (   0.0379955   0.0419400   0.0000000), wk =   0.2500000
        k(    6) = (   0.0379955  -0.0838652   0.0000000), wk =   0.2500000
        k(    7) = (   0.0379955  -0.0419301   0.0000000), wk =   0.2500000
        k(    8) = (  -0.0759910  -0.0000099   0.0000000), wk =   0.1250000
        k(    9) = (  -0.0759910   0.0419252   0.0000000), wk =   0.2500000
        k(   10) = (  -0.0759910  -0.0838800   0.0000000), wk =   0.1250000

     Initial potential from superposition of free atoms

     starting charge  384.99916, renormalised to  401.00000

     negative rho (up, down):  1.775E-02 0.000E+00

     %%%%%%%%%%%%%%%%%%%%%%%%%%%%%%%%%%%%%%%%%%%%%%%%%%%%%%%%%%%%%%%%%%%%%%%%
     %                                                                      %
     % You are using vdW-DF, which was implemented by the Thonhauser group. %
     % Please cite the following two papers that made this development      %
     % possible and the two reviews that describe the various versions:     %
     %                                                                      %
     %   T. Thonhauser et al., PRL 115, 136402 (2015).                      %
     %   T. Thonhauser et al., PRB 76, 125112 (2007).                       %
     %   K. Berland et al., Rep. Prog. Phys. 78, 066501 (2015).             %
     %   D.C. Langreth et al., J. Phys.: Condens. Matter 21, 084203 (2009). %
     %                                                                      %
     %                                                                      %
     % If you are calculating the stress with vdW-DF, please also cite:     %
     %                                                                      %
     %   R. Sabatini et al., J. Phys.: Condens. Matter 24, 424209 (2012).   %
     %                                                                      %
     %%%%%%%%%%%%%%%%%%%%%%%%%%%%%%%%%%%%%%%%%%%%%%%%%%%%%%%%%%%%%%%%%%%%%%%%

     Adding external electric field

     Computed dipole along edir(3) :
        Dipole              -11.5991 Ry au,        -29.4821 Debye
        Dipole field         -0.0219 Ry au,

        Potential amp.        2.0291 Ry
        Total length         46.3494 bohr

     Starting wfcs are  303 atomic wfcs
  @ DRIVER MODE: Message from server: STATUS
  @ DRIVER MODE: Message from server: POSDATA
  @ DRIVER MODE: Reading and sharing cell
  @ DRIVER MODE: Reading and sharing positions
  @ DRIVER MODE: Received positions

     Self-consistent Calculation

     iteration #  1     ecut=    29.40 Ry     beta= 0.05
     Davidson diagonalization with overlap
     c_bands:  3 eigenvalues not converged
     c_bands:  1 eigenvalues not converged
     c_bands:  3 eigenvalues not converged
     c_bands:  3 eigenvalues not converged
     c_bands:  5 eigenvalues not converged
     c_bands:  2 eigenvalues not converged
     c_bands:  3 eigenvalues not converged
     c_bands:  1 eigenvalues not converged
     c_bands:  5 eigenvalues not converged
     ethr =  1.00E-05,  avg # of iterations = 23.5

[...]

     total energy              =   -2415.42592467 Ry
     estimated scf accuracy    <    6267.18744495 Ry

     iteration #  2     ecut=    29.40 Ry     beta= 0.05
     Davidson diagonalization with overlap
     ethr =  1.00E-02,  avg # of iterations = 30.3

[...]

     iteration # 79     ecut=    29.40 Ry     beta= 0.05
     Davidson diagonalization with overlap
     c_bands:  1 eigenvalues not converged
     ethr =  2.01E-11,  avg # of iterations = 12.7

[...]

     total energy              =   -2971.50214193 Ry
     estimated scf accuracy    <       0.00000016 Ry

     iteration # 80     ecut=    29.40 Ry     beta= 0.05
     Davidson diagonalization with overlap
     ethr =  2.01E-11,  avg # of iterations =  6.6

     negative rho (up, down):  1.755E-02 0.000E+00

     Adding external electric field

     Computed dipole along edir(3) :
        Dipole                0.5811 Ry au,          1.4769 Debye
        Dipole field          0.0011 Ry au,

        Potential amp.       -0.1016 Ry
        Total length         46.3494 bohr

     End of self-consistent calculation

          k = 0.0000 0.0000 0.0000 ( 18029 PWs)   bands (ev):

   -55.8788 -55.8448 -55.8447 -55.8397 -55.8081 -55.7223 -55.6930 -55.6848
   -55.6593 -55.6589 -55.6492 -55.6255 -55.4110 -55.2194 -54.8606 -54.8266
   -32.3873 -32.3623 -32.2451 -32.2175 -32.1917 -32.1712 -32.1492 -32.1428
   -32.1226 -32.0706 -32.0656 -32.0635 -32.0312 -32.0249 -32.0198 -31.9940
   -31.9842 -31.9766 -31.9697 -31.9419 -31.9361 -31.9188 -31.8973 -31.8867
   -31.8837 -31.8720 -31.8715 -31.8576 -31.8509 -31.8460 -31.8350 -31.8321
   -31.8274 -31.8230 -31.8125 -31.8005 -31.7712 -31.6595 -31.6259 -31.4794
   -31.4640 -31.4324 -31.2678 -31.1791 -31.1567 -31.0846 -30.9981 -30.8870
   -20.5017 -18.7821 -16.5816 -16.3513 -16.1273 -16.0364 -15.9914 -15.7813
   -15.6722 -15.6165 -15.4929 -15.4296 -15.4207 -15.4133 -15.3922 -15.3823
   -15.3257 -15.3156 -15.3029 -15.2975 -15.2695 -15.2327 -15.2169 -15.2156
   -15.1440 -15.0407 -15.0197 -14.9967 -14.9945 -14.9365 -14.4955 -13.6097
   -13.3625 -13.2460  -6.6032  -5.8288  -4.7080  -4.4890  -3.9556  -3.8214
    -3.7859  -3.7502  -3.7149  -3.5188  -3.4910  -3.3755  -3.2369  -3.1286
    -3.0593  -3.0250  -2.9702  -2.8945  -2.8249  -2.7627  -2.7270  -2.6845
    -2.6754  -2.6396  -2.6332  -2.6152  -2.5948  -2.4952  -2.4602  -2.4114
    -2.3464  -2.2447  -2.2245  -2.1926  -2.1875  -2.1520  -2.1443  -2.1229
    -2.1058  -2.0962  -2.0211  -1.9248  -1.8753  -1.7828  -1.6706  -1.5334
    -1.5294  -1.4856  -1.3580  -1.3446  -1.3145  -1.2879  -1.2724  -1.2293
    -1.1410  -1.0848  -1.0385  -0.9751  -0.9019  -0.8129  -0.7708  -0.7190
    -0.6547  -0.6381  -0.6301  -0.6114  -0.5737  -0.4665  -0.4453  -0.3677
    -0.3641  -0.2783  -0.2470  -0.1865  -0.1559  -0.1179  -0.0791  -0.0056
     0.0146   0.0393   0.0576   0.0849   0.0937   0.1354   0.1681   0.1727
     0.3682   0.3938   0.4528   0.4626   0.5222   0.6440   0.6623   0.7764
     0.8935   1.0890   1.1621   1.2552   1.3539   1.7334   1.7792   1.7841
     3.2445   3.3421   3.3807   3.3896   3.4771   3.4887   3.7057   3.7515
     3.7591   3.8141

[...]

          k = 0.0380-0.0419 0.0000 ( 17876 PWs)   bands (ev):

[...]

          k =-0.0760-0.0000 0.0000 ( 17886 PWs)   bands (ev):

[...]

          k =-0.0760-0.0839 0.0000 ( 17948 PWs)   bands (ev):

   -55.8623 -55.8612 -55.8386 -55.8293 -55.8228 -55.7110 -55.6961 -55.6763
   -55.6750 -55.6506 -55.6443 -55.6407 -55.4096 -55.2207 -54.8437 -54.8434
   -32.2043 -32.1820 -32.1779 -32.1772 -32.1571 -32.1561 -32.1294 -32.1023
   -32.0893 -32.0619 -32.0539 -32.0495 -32.0359 -32.0052 -31.9973 -31.9906
   -31.9832 -31.9826 -31.9819 -31.9805 -31.9789 -31.9767 -31.9573 -31.9246
   -31.9123 -31.9074 -31.8996 -31.8783 -31.8776 -31.8742 -31.8670 -31.8595
   -31.8557 -31.8516 -31.8491 -31.8467 -31.7834 -31.6628 -31.6191 -31.5364
   -31.4817 -31.4554 -31.1695 -31.1693 -31.0807 -31.0805 -31.0414 -31.0413
   -20.5010 -18.7812 -16.0422 -15.9260 -15.8443 -15.8034 -15.7356 -15.6996
   -15.6525 -15.5880 -15.5579 -15.5547 -15.4998 -15.4840 -15.4434 -15.4292
   -15.4044 -15.3982 -15.3825 -15.3341 -15.3221 -15.3137 -15.3050 -15.3014
   -15.2609 -15.2263 -15.2011 -15.1967 -15.0908 -14.9601 -14.6700 -13.6185
   -13.3479 -13.3477  -6.6011  -5.8239  -4.6667  -4.4629  -3.6320  -3.3322
    -3.3204  -3.1023  -3.0486  -2.9898  -2.9837  -2.9389  -2.8161  -2.7885
    -2.7400  -2.7317  -2.6928  -2.6875  -2.6827  -2.6630  -2.6295  -2.6102
    -2.6049  -2.5540  -2.5481  -2.5412  -2.5234  -2.5127  -2.5054  -2.4808
    -2.4542  -2.4384  -2.4217  -2.3920  -2.3095  -2.2791  -2.1111  -2.0698
    -2.0220  -2.0135  -1.9827  -1.9619  -1.9499  -1.9285  -1.8850  -1.7275
    -1.6502  -1.5831  -1.5718  -1.5621  -1.4873  -1.4707  -1.3595  -1.3223
    -1.2893  -1.2550  -1.1809  -1.1024  -1.0944  -1.0727  -0.9683  -0.9610
    -0.9273  -0.8835  -0.8449  -0.8339  -0.8253  -0.7479  -0.6916  -0.6199
    -0.6138  -0.5894  -0.5766  -0.5501  -0.5250  -0.4311  -0.3641  -0.3078
    -0.2742  -0.1868  -0.1574   0.0652   0.0864   0.1975   0.2106   0.2785
     0.3199   0.4285   0.4367   0.4840   0.5075   0.5328   0.5948   0.6607
     0.6703   0.6975   0.8155   1.5252   1.5265   1.5989   1.5992   1.6984
     3.5633   3.5952   3.6278   3.6377   3.7474   3.7679   3.7881   3.7906
     3.9062   3.9258

     the Fermi energy is     3.2522 ev

!    total energy              =   -2971.50215223 Ry
     estimated scf accuracy    <       0.00000007 Ry
     smearing contrib. (-TS)   =      -0.02121673 Ry
     internal energy E=F+TS    =   -2971.48093550 Ry

     The total energy is F=E-TS. E is the sum of the following terms:
     one-electron contribution =  -24213.42131229 Ry
     hartree contribution      =   12197.40532564 Ry
     xc contribution           =    -492.39389386 Ry
     ewald contribution        =    9536.92830788 Ry
     electric field correction =       0.00063714 Ry

     convergence has been achieved in  80 iterations

     Forces acting on atoms (cartesian axes, Ry/au):

     atom    1 type  1   force =     0.00019589   -0.00029170    0.09586742
     atom    2 type  1   force =    -0.00004722   -0.00048043   -0.17571610
     atom    3 type  2   force =     0.00007177   -0.00014299   -0.02405662
     atom    4 type  2   force =     0.00005813   -0.00155783    0.05356519
     atom    5 type  2   force =    -0.01129464   -0.00084747    0.00337051
     atom    6 type  2   force =     0.01316587   -0.00018295    0.00286036
     atom    7 type  1   force =    -0.00060086    0.00052482   -0.00603853
     atom    8 type  1   force =     0.00022152    0.00883694    0.02326161
     atom    9 type  2   force =    -0.00020792    0.00014097   -0.00006920
     atom   10 type  2   force =    -0.00059797    0.00120260   -0.01588512
     atom   11 type  2   force =    -0.00018949    0.00013741   -0.00003685
     atom   12 type  2   force =    -0.00019401   -0.00008191   -0.00016699
     atom   13 type  1   force =    -0.00000093    0.00057605    0.00017644
     atom   14 type  1   force =    -0.00006059    0.00004515   -0.00002971
     atom   15 type  2   force =    -0.00026254   -0.00012047   -0.00006429
     atom   16 type  2   force =    -0.00021385    0.00023948   -0.00005264
     atom   17 type  2   force =    -0.00029047   -0.00004556    0.00018362
     atom   18 type  2   force =    -0.00044855    0.00028150   -0.00013160
     atom   19 type  1   force =    -0.00021419   -0.00035782   -0.00014127
     atom   20 type  1   force =    -0.00014718   -0.00050426    0.00008553
     atom   21 type  2   force =     0.00006364   -0.00004380    0.10325615
     atom   22 type  2   force =     0.00005826    0.00012912   -0.00020884
     atom   23 type  2   force =    -0.07143977   -0.00011857   -0.02767662
     atom   24 type  2   force =     0.07142026    0.00030521   -0.02770766
     atom   25 type  1   force =     0.00002856   -0.00023959    0.09564234
     atom   26 type  1   force =    -0.00015281   -0.00036559   -0.17587323
     atom   27 type  2   force =     0.00010165   -0.00019946   -0.02306100
     atom   28 type  2   force =     0.00012384   -0.00121983    0.05307866
     atom   29 type  2   force =    -0.01154521    0.00062264    0.00328480
     atom   30 type  2   force =     0.01328558    0.00093234    0.00278651
     atom   31 type  1   force =    -0.00047051    0.00377950   -0.01063539
     atom   32 type  1   force =     0.00008146   -0.01102819    0.02367149
     atom   33 type  2   force =     0.00011414   -0.00003576    0.00004760
     atom   34 type  2   force =     0.00007807    0.00062087   -0.02082634
     atom   35 type  2   force =    -0.00019868   -0.00022333    0.00000452
     atom   36 type  2   force =    -0.00038388    0.00001661   -0.00009060
     atom   37 type  1   force =     0.00032923   -0.00052489   -0.00006851
     atom   38 type  1   force =     0.00001154   -0.00001690   -0.00019847
     atom   39 type  2   force =    -0.00036222    0.00000428    0.00004149
     atom   40 type  2   force =     0.00004152   -0.00015423   -0.00031629
     atom   41 type  2   force =    -0.00033597   -0.00017942    0.00001689
     atom   42 type  2   force =     0.00009097   -0.00011018   -0.00010653
     atom   43 type  1   force =    -0.00005590   -0.00041610   -0.00002820
     atom   44 type  1   force =    -0.00012199   -0.00014652    0.00028001
     atom   45 type  2   force =     0.00006312   -0.00008508    0.10325141
     atom   46 type  2   force =    -0.07144765   -0.00010807   -0.02769907
     atom   47 type  2   force =     0.07144627    0.00032954   -0.02772478
     atom   48 type  3   force =    -0.00013348    0.00007344    0.00047559
     atom   49 type  4   force =     0.00026454    0.00019870    0.00017554
     atom   50 type  5   force =     0.00115936    0.00056168   -0.00037411
     atom   51 type  5   force =    -0.00124162    0.00016009    0.00003839
     atom   52 type  2   force =    -0.00351722    0.00083305    0.00123920
     atom   53 type  4   force =     0.00108881    0.00002494    0.00041936
     atom   54 type  4   force =     0.00261333   -0.00074802   -0.00209601

     Total force =     0.366870     Total SCF correction =     0.000857
  @ DRIVER MODE: Message from server: STATUS
  @ DRIVER MODE: Message from server: GETFORCE
  @ DRIVER MODE: Returning v,forces,stress,ensemble

     Writing output data file ./calc.save/
  @ DRIVER MODE: Message from server: EXIT
  @ DRIVE MODE: Exiting

     General routines

     Parallel routines

   This run was terminated on:   5:13:47  16Sep2021

   JOB DONE.