     Program PWSCF v.6.7GPU starts on  9Sep2021 at  8:44:22

     R & G space division:  proc/nbgrp/npool/nimage =      10
     Reading input from /storage/home/hcoda1/3/ntian30/research/carbon/CxH_vib/CH3_calc/ads_slab/CH3OH_e/out_0033/pw.inp
Warning: card &CELL ignored
Warning: card   CELL_DYNAMICS='IPI', ignored
Warning: card / ignored

     Current dimensions of program PWSCF are:
     Max number of different atomic species (ntypx) = 10
     Max number of k-points (npk) =  40000
     Max angular momentum in pseudopotentials (lmaxx) =  3
     Presently no symmetry can be used with electric field

     Message from routine cell_base_init:
     DEPRECATED: use true lattice parameter, not A to a.u. conversion factor

     IMPORTANT: XC functional enforced from input :
     Exchange-correlation= BEEF-VDW
                           (   1   4  43  14   2   0   0)
     Any further DFT definition will be discarded
     Please, verify this is what you really want

  @ DRIVER MODE: Connecting to
 qe_1139763_2767404.sched-torque.pace.gatech.eduvetd5xle_scratch
  using UNIX socket
  @ DRIVER MODE: Message from server: STATUS
  @ DRIVER MODE: Message from server: INIT
  @ DRIVER MODE: Receiving replica           0          -1
  @ DRIVER MODE: Receiving encoded integer          25
  @ DRIVER MODE:  SCF:  T  FORCE:  T  STRESS:  F  VC:  F  ENSEMBLE:  F
  @ DRIVER MODE:  SCF:  T  FORCE:  T  STRESS:  F  VC:  F  ENSEMBLE:  F

     Using Slab Decomposition

     bravais-lattice index     =            0
     lattice parameter (alat)  =       1.8897  a.u.
     unit-cell volume          =    6658.9804 (a.u.)^3
     number of atoms/cell      =           53
     number of atomic types    =            4
     number of electrons       =       392.00
     number of Kohn-Sham states=          206
     kinetic-energy cutoff     =      29.3995  Ry
     charge density cutoff     =     293.9946  Ry
     scf convergence threshold =      7.3E-08
     mixing beta               =       0.0500
     number of iterations used =            8  plain     mixing
     Exchange-correlation= BEEF-VDW
                           (   1   4  43  14   2   0   0)

     celldm(1)=   1.889726  celldm(2)=   0.000000  celldm(3)=   0.000000
     celldm(4)=   0.000000  celldm(5)=   0.000000  celldm(6)=   0.000000

     crystal axes: (cart. coord. in units of alat)
               a(1) = (   6.579727   0.000000   0.000000 )
               a(2) = (  -0.000775   5.961596   0.000000 )
               a(3) = (   0.000000   0.000000  25.155947 )

     reciprocal axes: (cart. coord. in units 2 pi/alat)
               b(1) = (  0.151982  0.000020  0.000000 )
               b(2) = (  0.000000  0.167740  0.000000 )
               b(3) = (  0.000000  0.000000  0.039752 )

     PseudoPot. # 1 for Ti read from file:
     /storage/coda1/p-amedford6/0/shared/rich_project_chbe-medford/medford-share/data/pseudos_module/espresso/nninc/pbe/van/Ti.UPF
     MD5 check sum: 8e4df49b7f0d34bbd5052bf3f5ea0213
     Pseudo is Ultrasoft, Zval = 12.0
     Generated by new atomic code, or converted to UPF format
     Using radial grid of  851 points,  6 beta functions with:
                l(1) =   0
                l(2) =   0
                l(3) =   1
                l(4) =   1
                l(5) =   2
                l(6) =   2
     Q(r) pseudized with  8 coefficients,  rinner =    1.000   1.000   1.000
                                                       1.000   1.000

     PseudoPot. # 2 for O  read from file:
     /storage/coda1/p-amedford6/0/shared/rich_project_chbe-medford/medford-share/data/pseudos_module/espresso/nninc/pbe/van/O.UPF
     MD5 check sum: 78c19812648e8988a0fe644b0f25305e
     Pseudo is Ultrasoft, Zval =  6.0
     Generated by new atomic code, or converted to UPF format
     Using radial grid of  737 points,  4 beta functions with:
                l(1) =   0
                l(2) =   0
                l(3) =   1
                l(4) =   1
     Q(r) pseudized with  8 coefficients,  rinner =    0.800   0.800   0.800

     PseudoPot. # 3 for C  read from file:
     /storage/coda1/p-amedford6/0/shared/rich_project_chbe-medford/medford-share/data/pseudos_module/espresso/nninc/pbe/van/C.UPF
     MD5 check sum: 1a69bf6b8db32088f5b2163dbdb77a27
     Pseudo is Ultrasoft, Zval =  4.0
     Generated by new atomic code, or converted to UPF format
     Using radial grid of  721 points,  4 beta functions with:
                l(1) =   0
                l(2) =   0
                l(3) =   1
                l(4) =   1
     Q(r) pseudized with  8 coefficients,  rinner =    0.800   0.800   0.800

     PseudoPot. # 4 for H  read from file:
     /storage/coda1/p-amedford6/0/shared/rich_project_chbe-medford/medford-share/data/pseudos_module/espresso/nninc/pbe/van/H.UPF
     MD5 check sum: b5ee9d7bfd3a09ee7748110bda690ff7
     Pseudo is Ultrasoft, Zval =  1.0
     Generated by new atomic code, or converted to UPF format
     Using radial grid of  615 points,  1 beta functions with:
                l(1) =   0
     Q(r) pseudized with  8 coefficients,  rinner =    0.800

     atomic species   valence    mass     pseudopotential
        Ti1           12.00    47.86700     Ti( 1.00)
        O1             6.00    15.99900     O ( 1.00)
        C1             4.00    12.01100     C ( 1.00)
        H1             1.00     1.00800     H ( 1.00)

     No symmetry found

   Cartesian axes

     site n.     atom                  positions (alat units)
         1           Ti1 tau(   1) = (   0.0004258   2.9801865   6.0000000  )
         2           Ti1 tau(   2) = (   3.2906075   1.4906267   6.0002472  )
         3           O1  tau(   3) = (   0.0006271   0.0005054   7.9858123  )
         4           O1  tau(   4) = (   3.2906025   0.0005020   7.3038282  )
         5           O1  tau(   5) = (   4.5942328   1.4918067   9.2879030  )
         6           O1  tau(   6) = (   1.9868534   1.4903216   9.2879459  )
         7           Ti1 tau(   7) = (   3.3184627   3.0104606   9.1553648  )
         8           Ti1 tau(   8) = (   0.0346466   1.5145919   9.2725854  )
         9           O1  tau(   9) = (   3.3323670   0.0074739  11.3628161  )
        10           O1  tau(  10) = (   0.0072146   0.0022432  10.6032180  )
        11           O1  tau(  11) = (   1.3334854   1.5010653  12.6312402  )
        12           O1  tau(  12) = (   5.3322653   1.4967215  12.6661074  )
        13           Ti1 tau(  13) = (   0.0399007   3.0049294  12.5399032  )
        14           Ti1 tau(  14) = (   3.3257882   1.5006484  12.5017209  )
        15           O1  tau(  15) = (   0.0958175   0.0109015  14.6781201  )
        16           O1  tau(  16) = (   3.3209445   0.0065530  13.9947117  )
        17           O1  tau(  17) = (   4.6470289   1.5235192  16.1521327  )
        18           O1  tau(  18) = (   2.1274687   1.5288575  16.1863263  )
        19           Ti1 tau(  19) = (   3.3866828   2.9872137  15.7186651  )
        20           Ti1 tau(  20) = (   0.0851359   1.3433488  15.9962781  )
        21           O1  tau(  21) = (   3.2904802   0.0005063   4.7018136  )
        22           O1  tau(  22) = (   0.0861787   0.0156205  17.2101336  )
        23           O1  tau(  23) = (   1.3043587   1.4918075   6.0039043  )
        24           O1  tau(  24) = (   5.2767064   1.4903225   6.0039473  )
        25           Ti1 tau(  25) = (   0.0000382   5.9609847   6.0000000  )
        26           Ti1 tau(  26) = (   3.2902200   4.4714249   6.0002472  )
        27           O1  tau(  27) = (   0.0002396   2.9813036   7.9858123  )
        28           O1  tau(  28) = (   3.2902150   2.9813002   7.3038282  )
        29           O1  tau(  29) = (   4.5938453   4.4726049   9.2879030  )
        30           O1  tau(  30) = (   1.9864658   4.4711199   9.2879459  )
        31           Ti1 tau(  31) = (   3.3160408   0.0312979   9.1533790  )
        32           Ti1 tau(  32) = (   0.0342031   4.4824714   9.2635914  )
        33           O1  tau(  33) = (   3.3296961   2.9874083  11.3532073  )
        34           O1  tau(  34) = (   0.0071558   2.9827229  10.6249429  )
        35           O1  tau(  35) = (   1.3339759   4.4780823  12.6303471  )
        36           O1  tau(  36) = (   5.3316377   4.4803543  12.6653953  )
        37           Ti1 tau(  37) = (   0.0318003   0.0267859  12.4824326  )
        38           Ti1 tau(  38) = (   3.3243002   4.4792164  12.4996646  )
        39           O1  tau(  39) = (   0.1017966   3.0039049  14.8467192  )
        40           O1  tau(  40) = (   3.3365867   2.9884115  13.9371009  )
        41           O1  tau(  41) = (   4.6519449   4.4651455  16.1366910  )
        42           O1  tau(  42) = (   2.1329502   4.4467914  16.2189938  )
        43           Ti1 tau(  43) = (   3.3530478   0.0116223  15.7847896  )
        44           Ti1 tau(  44) = (   0.0420906   4.5503417  15.8661587  )
        45           O1  tau(  45) = (   3.2900926   2.9813045   4.7018136  )
        46           O1  tau(  46) = (   1.3039711   4.4726057   6.0039043  )
        47           O1  tau(  47) = (   5.2763189   4.4711207   6.0039473  )
        48           C1  tau(  48) = (   6.0571888   3.1179766  18.9039971  )
        49           O1  tau(  49) = (   0.2335693   3.0433622  17.6694830  )
        50           H1  tau(  50) = (   5.0284728   2.8969007  18.6408099  )
        51           H1  tau(  51) = (   1.1757692   3.2348548  17.8288520  )
        52           H1  tau(  52) = (   6.4315421   2.3664480  19.5988381  )
        53           H1  tau(  53) = (   6.1352977   4.1138860  19.3131673  )

     number of k points=    10  Fermi-Dirac smearing, width (Ry)=  0.0073
                       cart. coord. in units 2pi/alat
        k(    1) = (   0.0000000   0.0000000   0.0000000), wk =   0.1250000
        k(    2) = (   0.0000000   0.0419351   0.0000000), wk =   0.2500000
        k(    3) = (   0.0000000  -0.0838702   0.0000000), wk =   0.1250000
        k(    4) = (   0.0379955   0.0000049   0.0000000), wk =   0.2500000
        k(    5) = (   0.0379955   0.0419400   0.0000000), wk =   0.2500000
        k(    6) = (   0.0379955  -0.0838652   0.0000000), wk =   0.2500000
        k(    7) = (   0.0379955  -0.0419301   0.0000000), wk =   0.2500000
        k(    8) = (  -0.0759910  -0.0000099   0.0000000), wk =   0.1250000
        k(    9) = (  -0.0759910   0.0419252   0.0000000), wk =   0.2500000
        k(   10) = (  -0.0759910  -0.0838800   0.0000000), wk =   0.1250000

     Initial potential from superposition of free atoms

     starting charge  375.99917, renormalised to  392.00000

     negative rho (up, down):  1.694E-02 0.000E+00

     %%%%%%%%%%%%%%%%%%%%%%%%%%%%%%%%%%%%%%%%%%%%%%%%%%%%%%%%%%%%%%%%%%%%%%%%
     %                                                                      %
     % You are using vdW-DF, which was implemented by the Thonhauser group. %
     % Please cite the following two papers that made this development      %
     % possible and the two reviews that describe the various versions:     %
     %                                                                      %
     %   T. Thonhauser et al., PRL 115, 136402 (2015).                      %
     %   T. Thonhauser et al., PRB 76, 125112 (2007).                       %
     %   K. Berland et al., Rep. Prog. Phys. 78, 066501 (2015).             %
     %   D.C. Langreth et al., J. Phys.: Condens. Matter 21, 084203 (2009). %
     %                                                                      %
     %                                                                      %
     % If you are calculating the stress with vdW-DF, please also cite:     %
     %                                                                      %
     %   R. Sabatini et al., J. Phys.: Condens. Matter 24, 424209 (2012).   %
     %                                                                      %
     %%%%%%%%%%%%%%%%%%%%%%%%%%%%%%%%%%%%%%%%%%%%%%%%%%%%%%%%%%%%%%%%%%%%%%%%

     Adding external electric field

     Computed dipole along edir(3) :
        Dipole               -7.1856 Ry au,        -18.2640 Debye
        Dipole field         -0.0136 Ry au,

        Potential amp.        1.2570 Ry
        Total length         46.3494 bohr

     Starting wfcs are  296 atomic wfcs
  @ DRIVER MODE: Message from server: STATUS
  @ DRIVER MODE: Message from server: POSDATA
  @ DRIVER MODE: Reading and sharing cell
  @ DRIVER MODE: Reading and sharing positions
  @ DRIVER MODE: Received positions

     Self-consistent Calculation

     iteration #  1     ecut=    29.40 Ry     beta= 0.05
     Davidson diagonalization with overlap
     c_bands:  1 eigenvalues not converged
     c_bands:  1 eigenvalues not converged
     c_bands:  2 eigenvalues not converged
     c_bands:  2 eigenvalues not converged
     c_bands:  1 eigenvalues not converged
     c_bands:  1 eigenvalues not converged
     ethr =  1.00E-05,  avg # of iterations = 19.0

[...]

     total energy              =   -2696.72768283 Ry
     estimated scf accuracy    <    2608.92749362 Ry

[...]

     iteration #  3     ecut=    29.40 Ry     beta= 0.05
     Davidson diagonalization with overlap
     ethr =  1.00E-02,  avg # of iterations = 15.1

[...]

     iteration # 67     ecut=    29.40 Ry     beta= 0.05
     Davidson diagonalization with overlap
     c_bands:  1 eigenvalues not converged
     c_bands:  1 eigenvalues not converged
     ethr =  4.16E-09,  avg # of iterations = 15.9

[...]

     total energy              =   -2932.64523944 Ry
     estimated scf accuracy    <       0.00000008 Ry

     iteration # 77     ecut=    29.40 Ry     beta= 0.05
     Davidson diagonalization with overlap
     ethr =  1.95E-11,  avg # of iterations =  7.6

     negative rho (up, down):  1.739E-02 0.000E+00

     Adding external electric field

     Computed dipole along edir(3) :
        Dipole                1.3752 Ry au,          3.4954 Debye
        Dipole field          0.0026 Ry au,

        Potential amp.       -0.2406 Ry
        Total length         46.3494 bohr

     End of self-consistent calculation

          k = 0.0000 0.0000 0.0000 ( 18029 PWs)   bands (ev):

   -55.3996 -55.3674 -55.3634 -55.3330 -55.2942 -55.2879 -55.2862 -55.2423
   -55.2263 -55.2257 -55.1918 -55.1840 -55.1801 -55.1499 -54.4578 -54.4237
   -31.9752 -31.9069 -31.8625 -31.7729 -31.7270 -31.7036 -31.6963 -31.6951
   -31.6565 -31.6556 -31.6111 -31.6101 -31.6067 -31.6000 -31.5776 -31.5560
   -31.5517 -31.5342 -31.5293 -31.5215 -31.5194 -31.5082 -31.4843 -31.4838
   -31.4833 -31.4637 -31.4584 -31.4552 -31.4248 -31.4184 -31.4097 -31.3900
   -31.3881 -31.3878 -31.3681 -31.3624 -31.3534 -31.3428 -31.3280 -31.3206
   -31.3099 -31.2957 -30.8698 -30.7674 -30.7458 -30.6863 -30.6000 -30.4887
   -20.2567 -16.2469 -15.9802 -15.8453 -15.7409 -15.6187 -15.4906 -15.4786
   -15.3462 -15.2191 -15.1527 -15.1313 -15.0944 -15.0783 -15.0456 -15.0405
   -15.0254 -14.9543 -14.9279 -14.9090 -14.8831 -14.8791 -14.8416 -14.8306
   -14.7898 -14.7831 -14.6371 -14.5580 -14.4969 -14.2582 -12.9584 -12.8390
   -11.2604  -7.0125  -5.2160  -5.0767  -3.5820  -3.4107  -3.3606  -3.3313
    -3.3253  -3.1999  -3.0934  -3.0344  -2.8282  -2.7005  -2.6666  -2.6603
    -2.6229  -2.5843  -2.4700  -2.3800  -2.3537  -2.3406  -2.2940  -2.2872
    -2.2706  -2.2173  -2.1954  -2.1755  -2.1696  -2.0104  -1.9456  -1.8984
    -1.8846  -1.8377  -1.7995  -1.7397  -1.7363  -1.7212  -1.6836  -1.6795
    -1.6593  -1.6263  -1.6116  -1.4392  -1.3924  -1.3629  -1.2688  -1.1754
    -1.0892  -0.9896  -0.9728  -0.9586  -0.9138  -0.8463  -0.8379  -0.8045
    -0.7661  -0.6462  -0.5790  -0.5319  -0.4786  -0.4014  -0.4008  -0.3418
    -0.2039  -0.1896  -0.1812  -0.1658  -0.0624   0.0171   0.0298   0.0893
     0.1388   0.1616   0.2342   0.2538   0.3191   0.3424   0.4075   0.4247
     0.5118   0.5329   0.5469   0.5668   0.5845   0.6763   0.7026   0.7495
     0.7566   0.9115   1.0398   1.1630   1.1771   1.4575   1.5488   1.5683
     1.7275   2.1543   2.2091   3.6983   3.7627   3.8112   3.8198   3.8309
     3.9088   4.1874   4.1940   4.1996   4.2149   4.2240

[...]

          k = 0.0380-0.0419 0.0000 ( 17876 PWs)   bands (ev):

[...]

          k =-0.0760-0.0000 0.0000 ( 17886 PWs)   bands (ev):

[...]

          k =-0.0760-0.0839 0.0000 ( 17948 PWs)   bands (ev):

   -55.3823 -55.3804 -55.3521 -55.3482 -55.2881 -55.2844 -55.2801 -55.2499
   -55.2306 -55.2110 -55.2067 -55.1827 -55.1692 -55.1648 -54.4407 -54.4407
   -31.8249 -31.7782 -31.7767 -31.7031 -31.6792 -31.6756 -31.6630 -31.6453
   -31.6381 -31.6180 -31.6049 -31.6007 -31.5956 -31.5775 -31.5495 -31.5397
   -31.5306 -31.5272 -31.5272 -31.5242 -31.5230 -31.5196 -31.5116 -31.4846
   -31.4778 -31.4749 -31.4723 -31.4716 -31.4701 -31.4686 -31.4644 -31.4500
   -31.4412 -31.4358 -31.4222 -31.4113 -31.4096 -31.3913 -31.3868 -31.3700
   -31.3569 -31.3527 -30.7584 -30.7584 -30.6826 -30.6824 -30.6432 -30.6431
   -20.2531 -15.7752 -15.6840 -15.6093 -15.4201 -15.4089 -15.4000 -15.3934
   -15.2811 -15.2520 -15.2205 -15.1796 -15.1636 -15.1597 -15.1431 -15.1353
   -14.9982 -14.9945 -14.9893 -14.9878 -14.9172 -14.9123 -14.8977 -14.8831
   -14.8448 -14.8402 -14.8245 -14.8186 -14.7179 -14.5758 -12.9403 -12.9395
   -11.2622  -7.0130  -5.2061  -5.0667  -3.1184  -2.9619  -2.8808  -2.8702
    -2.6343  -2.6276  -2.5876  -2.5272  -2.4759  -2.4241  -2.3987  -2.3956
    -2.3179  -2.3140  -2.3072  -2.3017  -2.2695  -2.2660  -2.2226  -2.1987
    -2.1755  -2.1207  -2.1033  -2.0930  -2.0697  -2.0651  -2.0562  -2.0312
    -2.0263  -2.0078  -1.9407  -1.8608  -1.7905  -1.7723  -1.7379  -1.6240
    -1.6139  -1.5791  -1.5370  -1.4940  -1.4732  -1.4486  -1.4024  -1.3497
    -1.2476  -1.1944  -1.1867  -1.1466  -1.0790  -1.0330  -0.9996  -0.9507
    -0.9017  -0.8695  -0.8283  -0.7613  -0.7111  -0.6212  -0.6152  -0.5716
    -0.4313  -0.4259  -0.4005  -0.3899  -0.3871  -0.3012  -0.2874  -0.2420
    -0.1960  -0.1419  -0.1173  -0.1091   0.0871   0.0966   0.1814   0.2739
     0.2837   0.4389   0.4544   0.5212   0.5929   0.6365   0.6767   0.7400
     0.8394   0.8716   0.8947   0.9885   1.0302   1.0358   1.0626   1.9202
     1.9214   2.0233   2.0263   3.8398   3.9123   3.9448   4.0162   4.0770
     4.2071   4.2199   4.2501   4.2560   4.3327   4.3519

     the Fermi energy is     3.7532 ev

!    total energy              =   -2932.64525015 Ry
     estimated scf accuracy    <       0.00000005 Ry
     smearing contrib. (-TS)   =      -0.03689713 Ry
     internal energy E=F+TS    =   -2932.60835302 Ry

     The total energy is F=E-TS. E is the sum of the following terms:
     one-electron contribution =  -24389.46033741 Ry
     hartree contribution      =   12284.50784627 Ry
     xc contribution           =    -483.02457663 Ry
     ewald contribution        =    9655.36514592 Ry
     electric field correction =       0.00356883 Ry

     convergence has been achieved in  77 iterations

     Forces acting on atoms (cartesian axes, Ry/au):

     atom    1 type  1   force =    -0.00033904   -0.00014488    0.09278761
     atom    2 type  1   force =    -0.00024422    0.00065483   -0.18343315
     atom    3 type  2   force =     0.00047524    0.00086433   -0.02412867
     atom    4 type  2   force =     0.00075608    0.00051719    0.04951409
     atom    5 type  2   force =    -0.01310344    0.00029281    0.00324691
     atom    6 type  2   force =     0.01563446   -0.00028534    0.00543714
     atom    7 type  1   force =     0.00018662    0.00090626   -0.00000862
     atom    8 type  1   force =    -0.00021964   -0.00028095   -0.00039096
     atom    9 type  2   force =    -0.00005777    0.00023158   -0.00023690
     atom   10 type  2   force =     0.00013969    0.00048700    0.00163005
     atom   11 type  2   force =    -0.00000526   -0.00045995    0.00002833
     atom   12 type  2   force =    -0.00055640    0.00041076   -0.00027837
     atom   13 type  1   force =     0.00101367   -0.00064952    0.00009592
     atom   14 type  1   force =    -0.00080803    0.00093804    0.00066230
     atom   15 type  2   force =    -0.00065233   -0.00022792   -0.00024791
     atom   16 type  2   force =     0.00065107   -0.00023988   -0.00045478
     atom   17 type  2   force =    -0.00062939    0.00005356    0.00093643
     atom   18 type  2   force =    -0.00043973   -0.00020648    0.00016652
     atom   19 type  1   force =    -0.00012010   -0.00086349    0.00007397
     atom   20 type  1   force =    -0.00041868    0.00015687   -0.00009166
     atom   21 type  2   force =    -0.00005317    0.00001322    0.10499151
     atom   22 type  2   force =    -0.00020207   -0.00134847    0.00100811
     atom   23 type  2   force =    -0.06793303   -0.00004144   -0.02677769
     atom   24 type  2   force =     0.06771364    0.00040405   -0.02687009
     atom   25 type  1   force =    -0.00037823    0.00013105    0.09635652
     atom   26 type  1   force =    -0.00022494   -0.00046808   -0.18355874
     atom   27 type  2   force =     0.00042127    0.00058522   -0.02276962
     atom   28 type  2   force =     0.00079351    0.00033311    0.04921500
     atom   29 type  2   force =    -0.01324309    0.00068058    0.00320892
     atom   30 type  2   force =     0.01571341    0.00023812    0.00536034
     atom   31 type  1   force =     0.00029740   -0.00137695   -0.00017628
     atom   32 type  1   force =    -0.00005934   -0.00013329    0.00030247
     atom   33 type  2   force =     0.00033657   -0.00009731    0.00078191
     atom   34 type  2   force =     0.00036637    0.00036340    0.00037117
     atom   35 type  2   force =    -0.00035648    0.00004561    0.00012744
     atom   36 type  2   force =    -0.00026333    0.00028102    0.00001162
     atom   37 type  1   force =     0.00137036   -0.00001351   -0.00052153
     atom   38 type  1   force =    -0.00077036   -0.00078077    0.00092254
     atom   39 type  2   force =    -0.00065049    0.00019709   -0.00056543
     atom   40 type  2   force =    -0.00062667    0.00037104   -0.00014913
     atom   41 type  2   force =    -0.00064991   -0.00007694    0.00072508
     atom   42 type  2   force =    -0.00077262   -0.00026244    0.00022578
     atom   43 type  1   force =    -0.00038695    0.00098895    0.00037051
     atom   44 type  1   force =     0.00031107    0.00019422    0.00065618
     atom   45 type  2   force =    -0.00005394    0.00003089    0.10496468
     atom   46 type  2   force =    -0.06789456   -0.00057691   -0.02680259
     atom   47 type  2   force =     0.06766501   -0.00010393   -0.02687540
     atom   48 type  3   force =    -0.00081642   -0.01162638   -0.00386893
     atom   49 type  2   force =    -0.00062864   -0.00055474   -0.00032737
     atom   50 type  4   force =    -0.00002576   -0.00033037    0.00093737
     atom   51 type  4   force =    -0.00019720   -0.00027340    0.00038474
     atom   52 type  4   force =    -0.00068576   -0.00029446   -0.00047614
     atom   53 type  4   force =     0.00062155    0.01134701    0.00350881

     Total force =     0.368462     Total SCF correction =     0.000603
  @ DRIVER MODE: Message from server: STATUS
  @ DRIVER MODE: Message from server: GETFORCE
  @ DRIVER MODE: Returning v,forces,stress,ensemble

     Writing output data file ./calc.save/
  @ DRIVER MODE: Message from server: EXIT
  @ DRIVE MODE: Exiting

     General routines

     Parallel routines

   This run was terminated on:   9: 4:57   9Sep2021

   JOB DONE.