     Program PWSCF v.6.7GPU starts on 23Aug2021 at 15:38:16

     R & G space division:  proc/nbgrp/npool/nimage =       6
     Reading input from /storage/home/hcoda1/3/ntian30/research/carbon/CH_vib/ads_slab/CHN2_b/out_0006/pw.inp
Warning: card &CELL ignored
Warning: card   CELL_DYNAMICS='IPI', ignored
Warning: card / ignored

     Current dimensions of program PWSCF are:
     Max number of different atomic species (ntypx) = 10
     Max number of k-points (npk) =  40000
     Max angular momentum in pseudopotentials (lmaxx) =  3
     Presently no symmetry can be used with electric field

     Message from routine cell_base_init:
     DEPRECATED: use true lattice parameter, not A to a.u. conversion factor

     IMPORTANT: XC functional enforced from input :
     Exchange-correlation= BEEF-VDW
                           (   1   4  43  14   2   0   0)
     Any further DFT definition will be discarded
     Please, verify this is what you really want

  @ DRIVER MODE: Connecting to
 qe_1139763_2632794.sched-torque.pace.gatech.edubi0jt4kx_scratch
  using UNIX socket
  @ DRIVER MODE: Message from server: STATUS
  @ DRIVER MODE: Message from server: INIT
  @ DRIVER MODE: Receiving replica           0          -1
  @ DRIVER MODE: Receiving encoded integer          25
  @ DRIVER MODE:  SCF:  T  FORCE:  T  STRESS:  F  VC:  F  ENSEMBLE:  F
  @ DRIVER MODE:  SCF:  T  FORCE:  T  STRESS:  F  VC:  F  ENSEMBLE:  F

     Using Slab Decomposition

     bravais-lattice index     =            0
     lattice parameter (alat)  =       1.8897  a.u.
     unit-cell volume          =    6658.9804 (a.u.)^3
     number of atoms/cell      =           51
     number of atomic types    =            5
     number of electrons       =       393.00
     number of Kohn-Sham states=          206
     kinetic-energy cutoff     =      29.3995  Ry
     charge density cutoff     =     293.9946  Ry
     scf convergence threshold =      7.3E-08
     mixing beta               =       0.0500
     number of iterations used =            8  plain     mixing
     Exchange-correlation= BEEF-VDW
                           (   1   4  43  14   2   0   0)

     celldm(1)=   1.889726  celldm(2)=   0.000000  celldm(3)=   0.000000
     celldm(4)=   0.000000  celldm(5)=   0.000000  celldm(6)=   0.000000

     crystal axes: (cart. coord. in units of alat)
               a(1) = (   6.579727   0.000000   0.000000 )
               a(2) = (  -0.000775   5.961596   0.000000 )
               a(3) = (   0.000000   0.000000  25.155947 )

     reciprocal axes: (cart. coord. in units 2 pi/alat)
               b(1) = (  0.151982  0.000020  0.000000 )
               b(2) = (  0.000000  0.167740  0.000000 )
               b(3) = (  0.000000  0.000000  0.039752 )

     PseudoPot. # 1 for Ti read from file:
     /storage/coda1/p-amedford6/0/shared/rich_project_chbe-medford/medford-share/data/pseudos_module/espresso/nninc/pbe/van/Ti.UPF
     MD5 check sum: 8e4df49b7f0d34bbd5052bf3f5ea0213
     Pseudo is Ultrasoft, Zval = 12.0
     Generated by new atomic code, or converted to UPF format
     Using radial grid of  851 points,  6 beta functions with:
                l(1) =   0
                l(2) =   0
                l(3) =   1
                l(4) =   1
                l(5) =   2
                l(6) =   2
     Q(r) pseudized with  8 coefficients,  rinner =    1.000   1.000   1.000
                                                       1.000   1.000

     PseudoPot. # 2 for O  read from file:
     /storage/coda1/p-amedford6/0/shared/rich_project_chbe-medford/medford-share/data/pseudos_module/espresso/nninc/pbe/van/O.UPF
     MD5 check sum: 78c19812648e8988a0fe644b0f25305e
     Pseudo is Ultrasoft, Zval =  6.0
     Generated by new atomic code, or converted to UPF format
     Using radial grid of  737 points,  4 beta functions with:
                l(1) =   0
                l(2) =   0
                l(3) =   1
                l(4) =   1
     Q(r) pseudized with  8 coefficients,  rinner =    0.800   0.800   0.800

     PseudoPot. # 3 for N  read from file:
     /storage/coda1/p-amedford6/0/shared/rich_project_chbe-medford/medford-share/data/pseudos_module/espresso/nninc/pbe/van/N.UPF
     MD5 check sum: 90d10febe142ad51ac9d5be1deb811c4
     Pseudo is Ultrasoft, Zval =  5.0
     Generated by new atomic code, or converted to UPF format
     Using radial grid of  729 points,  4 beta functions with:
                l(1) =   0
                l(2) =   0
                l(3) =   1
                l(4) =   1
     Q(r) pseudized with  8 coefficients,  rinner =    0.800   0.800   0.800

     PseudoPot. # 4 for C  read from file:
     /storage/coda1/p-amedford6/0/shared/rich_project_chbe-medford/medford-share/data/pseudos_module/espresso/nninc/pbe/van/C.UPF
     MD5 check sum: 1a69bf6b8db32088f5b2163dbdb77a27
     Pseudo is Ultrasoft, Zval =  4.0
     Generated by new atomic code, or converted to UPF format
     Using radial grid of  721 points,  4 beta functions with:
                l(1) =   0
                l(2) =   0
                l(3) =   1
                l(4) =   1
     Q(r) pseudized with  8 coefficients,  rinner =    0.800   0.800   0.800

     PseudoPot. # 5 for H  read from file:
     /storage/coda1/p-amedford6/0/shared/rich_project_chbe-medford/medford-share/data/pseudos_module/espresso/nninc/pbe/van/H.UPF
     MD5 check sum: b5ee9d7bfd3a09ee7748110bda690ff7
     Pseudo is Ultrasoft, Zval =  1.0
     Generated by new atomic code, or converted to UPF format
     Using radial grid of  615 points,  1 beta functions with:
                l(1) =   0
     Q(r) pseudized with  8 coefficients,  rinner =    0.800

     atomic species   valence    mass     pseudopotential
        Ti1           12.00    47.86700     Ti( 1.00)
        O1             6.00    15.99900     O ( 1.00)
        N1             5.00    14.00700     N ( 1.00)
        C1             4.00    12.01100     C ( 1.00)
        H1             1.00     1.00800     H ( 1.00)

     No symmetry found

   Cartesian axes

     site n.     atom                  positions (alat units)
         1           Ti1 tau(   1) = (   0.0004258   2.9801865   6.0000000  )
         2           Ti1 tau(   2) = (   3.2906075   1.4906267   6.0002472  )
         3           O1  tau(   3) = (   0.0006271   0.0005054   7.9858123  )
         4           O1  tau(   4) = (   3.2906025   0.0005020   7.3038282  )
         5           O1  tau(   5) = (   4.5942328   1.4918067   9.2879030  )
         6           O1  tau(   6) = (   1.9868534   1.4903216   9.2879459  )
         7           Ti1 tau(   7) = (   3.2907910   2.8959150   9.1758416  )
         8           Ti1 tau(   8) = (   0.0015273   1.4827037   9.2680791  )
         9           O1  tau(   9) = (   3.2950996   0.0139504  11.3317891  )
        10           O1  tau(  10) = (   0.0116148   5.9584955  10.6183126  )
        11           O1  tau(  11) = (   1.2919129   1.4990403  12.6236220  )
        12           O1  tau(  12) = (   5.2764399   1.5074276  12.6212280  )
        13           Ti1 tau(  13) = (   0.0528816   2.9532107  12.6238214  )
        14           Ti1 tau(  14) = (   3.3640876   1.5054642  12.4823551  )
        15           O1  tau(  15) = (   0.0126464   0.0517330  14.6735668  )
        16           O1  tau(  16) = (   3.2893787   0.0313947  13.9162352  )
        17           O1  tau(  17) = (   4.5455072   1.5470193  16.0571763  )
        18           O1  tau(  18) = (   2.0683839   1.5479149  16.0688871  )
        19           Ti1 tau(  19) = (   3.3004933   3.0285056  15.7062229  )
        20           Ti1 tau(  20) = (   6.5748692   1.5544668  15.8636821  )
        21           O1  tau(  21) = (   3.2904802   0.0005063   4.7018136  )
        22           O1  tau(  22) = (   0.0156978   0.0568370  17.2307755  )
        23           O1  tau(  23) = (   1.3043587   1.4918075   6.0039043  )
        24           O1  tau(  24) = (   5.2767064   1.4903225   6.0039473  )
        25           Ti1 tau(  25) = (   0.0000382   5.9609847   6.0000000  )
        26           Ti1 tau(  26) = (   3.2902200   4.4714249   6.0002472  )
        27           O1  tau(  27) = (   0.0002396   2.9813036   7.9858123  )
        28           O1  tau(  28) = (   3.2902150   2.9813002   7.3038282  )
        29           O1  tau(  29) = (   4.5938453   4.4726049   9.2879030  )
        30           O1  tau(  30) = (   1.9864658   4.4711199   9.2879459  )
        31           Ti1 tau(  31) = (   3.2891106   5.8743827   9.1763621  )
        32           Ti1 tau(  32) = (   0.0006254   4.4649316   9.2693709  )
        33           O1  tau(  33) = (   3.2930415   3.0011583  11.3325650  )
        34           O1  tau(  34) = (   0.0092240   2.9805883  10.6323155  )
        35           O1  tau(  35) = (   1.2898468   4.4882246  12.6384491  )
        36           O1  tau(  36) = (   5.2806636   4.4975927  12.6358184  )
        37           Ti1 tau(  37) = (   0.0525728   5.9296047  12.5528222  )
        38           Ti1 tau(  38) = (   3.3636738   4.4864912  12.4891182  )
        39           O1  tau(  39) = (   0.0107234   2.9627607  14.6747216  )
        40           O1  tau(  40) = (   3.2927234   3.0099296  13.9079960  )
        41           O1  tau(  41) = (   4.5395255   4.5218754  16.0742521  )
        42           O1  tau(  42) = (   2.0629885   4.5199598  16.0715304  )
        43           Ti1 tau(  43) = (   3.2878121   0.0461507  15.7166771  )
        44           Ti1 tau(  44) = (   0.0020781   4.6962996  16.1098215  )
        45           O1  tau(  45) = (   3.2900926   2.9813045   4.7018136  )
        46           O1  tau(  46) = (   1.3039711   4.4726057   6.0039043  )
        47           O1  tau(  47) = (   5.2763189   4.4711207   6.0039473  )
        48           N1  tau(  48) = (   0.1203982   2.9607606  18.6252809  )
        49           N1  tau(  49) = (   0.0157770   3.0106383  17.4001577  )
        50           C1  tau(  50) = (   0.0651646   2.9076078  19.8026698  )
        51           H1  tau(  51) = (   0.7310076   2.8879977  20.6380856  )

     number of k points=    10  Fermi-Dirac smearing, width (Ry)=  0.0073
                       cart. coord. in units 2pi/alat
        k(    1) = (   0.0000000   0.0000000   0.0000000), wk =   0.1250000
        k(    2) = (   0.0000000   0.0419351   0.0000000), wk =   0.2500000
        k(    3) = (   0.0000000  -0.0838702   0.0000000), wk =   0.1250000
        k(    4) = (   0.0379955   0.0000049   0.0000000), wk =   0.2500000
        k(    5) = (   0.0379955   0.0419400   0.0000000), wk =   0.2500000
        k(    6) = (   0.0379955  -0.0838652   0.0000000), wk =   0.2500000
        k(    7) = (   0.0379955  -0.0419301   0.0000000), wk =   0.2500000
        k(    8) = (  -0.0759910  -0.0000099   0.0000000), wk =   0.1250000
        k(    9) = (  -0.0759910   0.0419252   0.0000000), wk =   0.2500000
        k(   10) = (  -0.0759910  -0.0838800   0.0000000), wk =   0.1250000

     Initial potential from superposition of free atoms

     starting charge  376.99918, renormalised to  393.00000

     negative rho (up, down):  1.564E-02 0.000E+00

     %%%%%%%%%%%%%%%%%%%%%%%%%%%%%%%%%%%%%%%%%%%%%%%%%%%%%%%%%%%%%%%%%%%%%%%%
     %                                                                      %
     % You are using vdW-DF, which was implemented by the Thonhauser group. %
     % Please cite the following two papers that made this development      %
     % possible and the two reviews that describe the various versions:     %
     %                                                                      %
     %   T. Thonhauser et al., PRL 115, 136402 (2015).                      %
     %   T. Thonhauser et al., PRB 76, 125112 (2007).                       %
     %   K. Berland et al., Rep. Prog. Phys. 78, 066501 (2015).             %
     %   D.C. Langreth et al., J. Phys.: Condens. Matter 21, 084203 (2009). %
     %                                                                      %
     %                                                                      %
     % If you are calculating the stress with vdW-DF, please also cite:     %
     %                                                                      %
     %   R. Sabatini et al., J. Phys.: Condens. Matter 24, 424209 (2012).   %
     %                                                                      %
     %%%%%%%%%%%%%%%%%%%%%%%%%%%%%%%%%%%%%%%%%%%%%%%%%%%%%%%%%%%%%%%%%%%%%%%%

     Adding external electric field

     Computed dipole along edir(3) :
        Dipole               -7.5541 Ry au,        -19.2006 Debye
        Dipole field         -0.0143 Ry au,

        Potential amp.        1.3215 Ry
        Total length         46.3494 bohr

     Starting wfcs are  297 atomic wfcs
  @ DRIVER MODE: Message from server: STATUS
  @ DRIVER MODE: Message from server: POSDATA
  @ DRIVER MODE: Reading and sharing cell
  @ DRIVER MODE: Reading and sharing positions
  @ DRIVER MODE: Received positions

     Self-consistent Calculation

     iteration #  1     ecut=    29.40 Ry     beta= 0.05
     Davidson diagonalization with overlap
     c_bands:  1 eigenvalues not converged
     c_bands:  1 eigenvalues not converged
     c_bands:  1 eigenvalues not converged
     ethr =  1.00E-05,  avg # of iterations = 18.4

[...]

     total energy              =   -2707.47035443 Ry
     estimated scf accuracy    <    2542.02938303 Ry

[...]

     iteration #  3     ecut=    29.40 Ry     beta= 0.05
     Davidson diagonalization with overlap
     ethr =  1.00E-02,  avg # of iterations = 16.5

[...]

     iteration # 75     ecut=    29.40 Ry     beta= 0.05
     Davidson diagonalization with overlap
     c_bands:  2 eigenvalues not converged
     ethr =  4.78E-11,  avg # of iterations = 14.1

[...]

     total energy              =   -2936.63896298 Ry
     estimated scf accuracy    <       0.00000008 Ry

     iteration # 79     ecut=    29.40 Ry     beta= 0.05
     Davidson diagonalization with overlap
     ethr =  2.10E-11,  avg # of iterations = 10.6

     negative rho (up, down):  1.611E-02 0.000E+00

     Adding external electric field

     Computed dipole along edir(3) :
        Dipole                0.7772 Ry au,          1.9756 Debye
        Dipole field          0.0015 Ry au,

        Potential amp.       -0.1360 Ry
        Total length         46.3494 bohr

     End of self-consistent calculation

          k = 0.0000 0.0000 0.0000 ( 18029 PWs)   bands (ev):

   -55.8913 -55.8899 -55.8572 -55.8532 -55.7501 -55.7366 -55.7149 -55.7003
   -55.6990 -55.6663 -55.6660 -55.6323 -55.4510 -55.2060 -54.8701 -54.8360
   -32.4438 -32.3739 -32.2473 -32.1995 -32.1970 -32.1909 -32.1840 -32.1565
   -32.1339 -32.1085 -32.0777 -32.0683 -32.0633 -32.0436 -32.0361 -32.0296
   -31.9958 -31.9828 -31.9751 -31.9541 -31.9518 -31.9485 -31.9303 -31.9039
   -31.8970 -31.8894 -31.8866 -31.8778 -31.8755 -31.8680 -31.8628 -31.8412
   -31.8312 -31.8192 -31.8070 -31.8041 -31.7780 -31.6720 -31.6641 -31.4840
   -31.4358 -31.4341 -31.2772 -31.1888 -31.1664 -31.0939 -31.0074 -30.8964
   -19.1824 -16.6306 -16.3656 -16.1201 -16.0388 -16.0095 -15.8939 -15.7320
   -15.6148 -15.5539 -15.4536 -15.4477 -15.4278 -15.3946 -15.3653 -15.3395
   -15.3347 -15.3249 -15.3085 -15.2760 -15.2522 -15.2306 -15.2073 -15.1181
   -15.0606 -15.0255 -14.9651 -14.9577 -14.9479 -14.4886 -13.9909 -13.3719
   -13.2555  -6.7022  -5.2988  -4.1997  -4.0050  -3.9028  -3.8461  -3.7977
    -3.7424  -3.6383  -3.5014  -3.4322  -3.1189  -3.0666  -3.0546  -3.0300
    -3.0054  -2.7921  -2.7275  -2.7039  -2.6703  -2.6653  -2.6624  -2.6537
    -2.6371  -2.6043  -2.4829  -2.4269  -2.3558  -2.3166  -2.2859  -2.2781
    -2.2036  -2.1643  -2.1535  -2.1286  -2.1267  -2.1027  -2.0937  -2.0766
    -1.9396  -1.8723  -1.7510  -1.6852  -1.6515  -1.5000  -1.4764  -1.3691
    -1.3433  -1.3199  -1.2838  -1.2523  -1.1939  -1.0606  -1.0524  -1.0416
    -1.0112  -0.9108  -0.8579  -0.7855  -0.7291  -0.7145  -0.6613  -0.6484
    -0.6450  -0.6027  -0.4476  -0.3659  -0.3068  -0.2969  -0.2520  -0.1917
    -0.1615  -0.0840  -0.0411  -0.0110  -0.0013   0.0457   0.0826   0.1066
     0.1170   0.1266   0.1402   0.3258   0.3675   0.3859   0.4442   0.4602
     0.6337   0.6779   0.7646   0.8587   1.0780   1.1526   1.2359   1.3134
     1.3449   1.5770   1.7239   1.7695   3.2402   3.3299   3.3665   3.3753
     3.4825   3.5550   3.6969   3.7091   3.7297   3.7725

[...]

          k = 0.0380-0.0419 0.0000 ( 17876 PWs)   bands (ev):

[...]

          k =-0.0760-0.0000 0.0000 ( 17886 PWs)   bands (ev):

[...]

          k =-0.0760-0.0839 0.0000 ( 17948 PWs)   bands (ev):

   -55.8752 -55.8746 -55.8737 -55.8677 -55.7367 -55.7282 -55.7250 -55.7105
   -55.6842 -55.6818 -55.6508 -55.6477 -55.4499 -55.2070 -54.8531 -54.8529
   -32.2500 -32.2430 -32.1895 -32.1889 -32.1698 -32.1690 -32.1412 -32.1367
   -32.0968 -32.0893 -32.0632 -32.0612 -32.0218 -32.0144 -32.0057 -32.0038
   -31.9965 -31.9961 -31.9943 -31.9933 -31.9890 -31.9860 -31.9528 -31.9419
   -31.9330 -31.9272 -31.9131 -31.9097 -31.8844 -31.8836 -31.8819 -31.8793
   -31.8653 -31.8635 -31.8601 -31.8578 -31.8277 -31.6747 -31.6598 -31.5543
   -31.4560 -31.4376 -31.1792 -31.1790 -31.0901 -31.0899 -31.0508 -31.0507
   -19.1799 -16.0586 -16.0452 -15.8412 -15.8076 -15.7951 -15.7877 -15.6716
   -15.5925 -15.5842 -15.5830 -15.4813 -15.4692 -15.4611 -15.4290 -15.4192
   -15.3996 -15.3982 -15.3599 -15.3528 -15.3468 -15.3296 -15.3219 -15.2361
   -15.2098 -15.2056 -15.1743 -15.0609 -14.9267 -14.6689 -13.9974 -13.3573
   -13.3572  -6.7012  -5.2667  -4.1644  -3.9026  -3.3482  -3.3317  -3.0771
    -3.0454  -3.0363  -2.9810  -2.8091  -2.7915  -2.7678  -2.7458  -2.7153
    -2.7088  -2.7015  -2.6943  -2.6755  -2.6313  -2.6070  -2.5766  -2.5620
    -2.5477  -2.5473  -2.5167  -2.5038  -2.4628  -2.4501  -2.4376  -2.4149
    -2.3906  -2.3809  -2.2269  -2.1341  -2.1028  -2.0302  -2.0235  -1.9826
    -1.9561  -1.9412  -1.9175  -1.8824  -1.7407  -1.6261  -1.5898  -1.5752
    -1.4952  -1.4516  -1.3759  -1.3161  -1.2719  -1.2653  -1.2089  -1.1610
    -1.0994  -1.0874  -1.0246  -0.9910  -0.9557  -0.9208  -0.8806  -0.8501
    -0.8448  -0.7597  -0.7114  -0.7016  -0.6492  -0.6453  -0.6154  -0.5585
    -0.5392  -0.5120  -0.3884  -0.3685  -0.2643  -0.1811  -0.1244   0.0766
     0.1575   0.1827   0.2361   0.3065   0.3939   0.4098   0.4254   0.4311
     0.4793   0.5303   0.6379   0.6487   0.6871   0.8176   1.2349   1.4565
     1.5162   1.5169   1.5892   1.5894   3.5537   3.5636   3.5815   3.5978
     3.7535   3.7562   3.7758   3.7773   3.9114   3.9237

     the Fermi energy is     3.2418 ev

!    total energy              =   -2936.63896979 Ry
     estimated scf accuracy    <       0.00000007 Ry
     smearing contrib. (-TS)   =      -0.02146160 Ry
     internal energy E=F+TS    =   -2936.61750819 Ry

     The total energy is F=E-TS. E is the sum of the following terms:
     one-electron contribution =  -24289.77220203 Ry
     hartree contribution      =   12230.64871719 Ry
     xc contribution           =    -483.56857357 Ry
     ewald contribution        =    9606.07341018 Ry
     electric field correction =       0.00114003 Ry

     convergence has been achieved in  79 iterations

     Forces acting on atoms (cartesian axes, Ry/au):

     atom    1 type  1   force =     0.00009675   -0.00014846    0.09650260
     atom    2 type  1   force =    -0.00016033   -0.00058665   -0.17554560
     atom    3 type  2   force =    -0.00000121    0.00006125   -0.02461317
     atom    4 type  2   force =     0.00005102   -0.00130259    0.05297664
     atom    5 type  2   force =    -0.01198841    0.00009774    0.00367426
     atom    6 type  2   force =     0.01363461    0.00068892    0.00268131
     atom    7 type  1   force =    -0.00091151    0.00090152   -0.01121579
     atom    8 type  1   force =     0.00035684    0.00992081    0.02721042
     atom    9 type  2   force =    -0.00018558   -0.00023430    0.00016123
     atom   10 type  2   force =    -0.00142618    0.00227474   -0.01250055
     atom   11 type  2   force =    -0.00012676    0.00025892   -0.00025825
     atom   12 type  2   force =     0.00033507    0.00000576   -0.00056799
     atom   13 type  1   force =     0.00035086   -0.00122353   -0.00062450
     atom   14 type  1   force =     0.00042185    0.00000711   -0.00000563
     atom   15 type  2   force =    -0.00000989   -0.00073514   -0.00042873
     atom   16 type  2   force =     0.00009770   -0.00047863    0.00003615
     atom   17 type  2   force =    -0.00060951   -0.00066714    0.00004289
     atom   18 type  2   force =    -0.00008853   -0.00082081   -0.00022546
     atom   19 type  1   force =     0.00003240   -0.00030475   -0.00006362
     atom   20 type  1   force =     0.00019350    0.00043543    0.00090634
     atom   21 type  2   force =     0.00003481   -0.00003933    0.10327176
     atom   22 type  2   force =    -0.00033458   -0.00085253   -0.00068314
     atom   23 type  2   force =    -0.07150552   -0.00010071   -0.02769703
     atom   24 type  2   force =     0.07141696    0.00031882   -0.02770537
     atom   25 type  1   force =     0.00006810   -0.00013799    0.09603039
     atom   26 type  1   force =    -0.00022863   -0.00021920   -0.17571450
     atom   27 type  2   force =     0.00006141   -0.00012659   -0.02363995
     atom   28 type  2   force =     0.00005596   -0.00109229    0.05316247
     atom   29 type  2   force =    -0.01211286    0.00087054    0.00328405
     atom   30 type  2   force =     0.01366554    0.00133765    0.00233512
     atom   31 type  1   force =    -0.00082741    0.00332047   -0.01189440
     atom   32 type  1   force =     0.00042702   -0.01207298    0.02752874
     atom   33 type  2   force =     0.00022047    0.00015967    0.00011689
     atom   34 type  2   force =    -0.00106998    0.00252832   -0.02032549
     atom   35 type  2   force =     0.00016008   -0.00087219   -0.00029133
     atom   36 type  2   force =     0.00039394   -0.00059363   -0.00058388
     atom   37 type  1   force =     0.00006132    0.00117225   -0.00033160
     atom   38 type  1   force =     0.00033134    0.00032334   -0.00012688
     atom   39 type  2   force =    -0.00005892    0.00036939   -0.00069384
     atom   40 type  2   force =    -0.00001497    0.00005873   -0.00055349
     atom   41 type  2   force =     0.00030266    0.00003565   -0.00014060
     atom   42 type  2   force =    -0.00032647    0.00025493    0.00077626
     atom   43 type  1   force =    -0.00013847   -0.00035938    0.00003539
     atom   44 type  1   force =    -0.00003151   -0.00102224    0.00099048
     atom   45 type  2   force =     0.00004503   -0.00005441    0.10327626
     atom   46 type  2   force =    -0.07150110   -0.00006888   -0.02769864
     atom   47 type  2   force =     0.07142724    0.00034326   -0.02771123
     atom   48 type  3   force =    -0.00295152    0.00168714   -0.06179886
     atom   49 type  3   force =     0.00244938   -0.00105176    0.02268131
     atom   50 type  4   force =     0.00072151   -0.00177539    0.03495973
     atom   51 type  5   force =    -0.00080350   -0.00049087    0.00099882

     Total force =     0.375183     Total SCF correction =     0.000722
  @ DRIVER MODE: Message from server: STATUS
  @ DRIVER MODE: Message from server: GETFORCE
  @ DRIVER MODE: Returning v,forces,stress,ensemble

     Writing output data file ./calc.save/
  @ DRIVER MODE: Message from server: EXIT
  @ DRIVE MODE: Exiting

     General routines

     Parallel routines

   This run was terminated on:  16:11:50  23Aug2021

   JOB DONE.