     Program PWSCF v.6.7GPU starts on 22Sep2021 at 12: 7:24

     R & G space division:  proc/nbgrp/npool/nimage =      10
     Reading input from /storage/home/hcoda1/3/ntian30/research/carbon/CxH_vib/CH_calc/ads_slab/CHNHNHH2O_b/out_0039/pw.inp
Warning: card &CELL ignored
Warning: card   CELL_DYNAMICS='IPI', ignored
Warning: card / ignored

     Current dimensions of program PWSCF are:
     Max number of different atomic species (ntypx) = 10
     Max number of k-points (npk) =  40000
     Max angular momentum in pseudopotentials (lmaxx) =  3
     Presently no symmetry can be used with electric field

     Message from routine cell_base_init:
     DEPRECATED: use true lattice parameter, not A to a.u. conversion factor

     IMPORTANT: XC functional enforced from input :
     Exchange-correlation= BEEF-VDW
                           (   1   4  43  14   2   0   0)
     Any further DFT definition will be discarded
     Please, verify this is what you really want

  @ DRIVER MODE: Connecting to
 qe_1139763_2927424.sched-torque.pace.gatech.eduphk9qu0w_scratch
  using UNIX socket
  @ DRIVER MODE: Message from server: STATUS
  @ DRIVER MODE: Message from server: INIT
  @ DRIVER MODE: Receiving replica           0          -1
  @ DRIVER MODE: Receiving encoded integer          25
  @ DRIVER MODE:  SCF:  T  FORCE:  T  STRESS:  F  VC:  F  ENSEMBLE:  F
  @ DRIVER MODE:  SCF:  T  FORCE:  T  STRESS:  F  VC:  F  ENSEMBLE:  F

     Using Slab Decomposition

     bravais-lattice index     =            0
     lattice parameter (alat)  =       1.8897  a.u.
     unit-cell volume          =    6658.9804 (a.u.)^3
     number of atoms/cell      =           56
     number of atomic types    =            5
     number of electrons       =       403.00
     number of Kohn-Sham states=          211
     kinetic-energy cutoff     =      29.3995  Ry
     charge density cutoff     =     293.9946  Ry
     scf convergence threshold =      7.3E-08
     mixing beta               =       0.0500
     number of iterations used =            8  plain     mixing
     Exchange-correlation= BEEF-VDW
                           (   1   4  43  14   2   0   0)

     celldm(1)=   1.889726  celldm(2)=   0.000000  celldm(3)=   0.000000
     celldm(4)=   0.000000  celldm(5)=   0.000000  celldm(6)=   0.000000

     crystal axes: (cart. coord. in units of alat)
               a(1) = (   6.579727   0.000000   0.000000 )
               a(2) = (  -0.000775   5.961596   0.000000 )
               a(3) = (   0.000000   0.000000  25.155947 )

     reciprocal axes: (cart. coord. in units 2 pi/alat)
               b(1) = (  0.151982  0.000020  0.000000 )
               b(2) = (  0.000000  0.167740  0.000000 )
               b(3) = (  0.000000  0.000000  0.039752 )

     PseudoPot. # 1 for Ti read from file:
     /storage/coda1/p-amedford6/0/shared/rich_project_chbe-medford/medford-share/data/pseudos_module/espresso/nninc/pbe/van/Ti.UPF
     MD5 check sum: 8e4df49b7f0d34bbd5052bf3f5ea0213
     Pseudo is Ultrasoft, Zval = 12.0
     Generated by new atomic code, or converted to UPF format
     Using radial grid of  851 points,  6 beta functions with:
                l(1) =   0
                l(2) =   0
                l(3) =   1
                l(4) =   1
                l(5) =   2
                l(6) =   2
     Q(r) pseudized with  8 coefficients,  rinner =    1.000   1.000   1.000
                                                       1.000   1.000

     PseudoPot. # 2 for O  read from file:
     /storage/coda1/p-amedford6/0/shared/rich_project_chbe-medford/medford-share/data/pseudos_module/espresso/nninc/pbe/van/O.UPF
     MD5 check sum: 78c19812648e8988a0fe644b0f25305e
     Pseudo is Ultrasoft, Zval =  6.0
     Generated by new atomic code, or converted to UPF format
     Using radial grid of  737 points,  4 beta functions with:
                l(1) =   0
                l(2) =   0
                l(3) =   1
                l(4) =   1
     Q(r) pseudized with  8 coefficients,  rinner =    0.800   0.800   0.800

     PseudoPot. # 3 for N  read from file:
     /storage/coda1/p-amedford6/0/shared/rich_project_chbe-medford/medford-share/data/pseudos_module/espresso/nninc/pbe/van/N.UPF
     MD5 check sum: 90d10febe142ad51ac9d5be1deb811c4
     Pseudo is Ultrasoft, Zval =  5.0
     Generated by new atomic code, or converted to UPF format
     Using radial grid of  729 points,  4 beta functions with:
                l(1) =   0
                l(2) =   0
                l(3) =   1
                l(4) =   1
     Q(r) pseudized with  8 coefficients,  rinner =    0.800   0.800   0.800

     PseudoPot. # 4 for C  read from file:
     /storage/coda1/p-amedford6/0/shared/rich_project_chbe-medford/medford-share/data/pseudos_module/espresso/nninc/pbe/van/C.UPF
     MD5 check sum: 1a69bf6b8db32088f5b2163dbdb77a27
     Pseudo is Ultrasoft, Zval =  4.0
     Generated by new atomic code, or converted to UPF format
     Using radial grid of  721 points,  4 beta functions with:
                l(1) =   0
                l(2) =   0
                l(3) =   1
                l(4) =   1
     Q(r) pseudized with  8 coefficients,  rinner =    0.800   0.800   0.800

     PseudoPot. # 5 for H  read from file:
     /storage/coda1/p-amedford6/0/shared/rich_project_chbe-medford/medford-share/data/pseudos_module/espresso/nninc/pbe/van/H.UPF
     MD5 check sum: b5ee9d7bfd3a09ee7748110bda690ff7
     Pseudo is Ultrasoft, Zval =  1.0
     Generated by new atomic code, or converted to UPF format
     Using radial grid of  615 points,  1 beta functions with:
                l(1) =   0
     Q(r) pseudized with  8 coefficients,  rinner =    0.800

     atomic species   valence    mass     pseudopotential
        Ti1           12.00    47.86700     Ti( 1.00)
        O1             6.00    15.99900     O ( 1.00)
        N1             5.00    14.00700     N ( 1.00)
        C1             4.00    12.01100     C ( 1.00)
        H1             1.00     1.00800     H ( 1.00)

     No symmetry found

   Cartesian axes

     site n.     atom                  positions (alat units)
         1           Ti1 tau(   1) = (   0.0004258   2.9801865   6.0000000  )
         2           Ti1 tau(   2) = (   3.2906075   1.4906267   6.0002472  )
         3           O1  tau(   3) = (   0.0006271   0.0005054   7.9858123  )
         4           O1  tau(   4) = (   3.2906025   0.0005020   7.3038282  )
         5           O1  tau(   5) = (   4.5942328   1.4918067   9.2879030  )
         6           O1  tau(   6) = (   1.9868534   1.4903216   9.2879459  )
         7           Ti1 tau(   7) = (   3.2907910   2.8959150   9.1758416  )
         8           Ti1 tau(   8) = (   0.0015273   1.4827037   9.2680791  )
         9           O1  tau(   9) = (   3.2780774   5.9605562  11.3537357  )
        10           O1  tau(  10) = (   0.0116148   5.9584955  10.6183126  )
        11           O1  tau(  11) = (   1.2922713   1.4781662  12.6511241  )
        12           O1  tau(  12) = (   5.2965393   1.5043564  12.6031353  )
        13           Ti1 tau(  13) = (   6.5273184   3.0207086  12.5807821  )
        14           Ti1 tau(  14) = (   3.2344070   1.4559942  12.5004267  )
        15           O1  tau(  15) = (   6.4759410   0.0295824  14.6525783  )
        16           O1  tau(  16) = (   3.3604338   0.0238249  13.9383540  )
        17           O1  tau(  17) = (   4.5324113   1.5808541  16.1066768  )
        18           O1  tau(  18) = (   1.9684897   1.4712893  15.8817925  )
        19           Ti1 tau(  19) = (   3.2566353   3.0739815  15.8599551  )
        20           Ti1 tau(  20) = (   6.5466614   1.5318677  15.7800735  )
        21           O1  tau(  21) = (   3.2904802   0.0005063   4.7018136  )
        22           O1  tau(  22) = (   6.5744325   0.0155309  17.2227980  )
        23           O1  tau(  23) = (   1.3043587   1.4918075   6.0039043  )
        24           O1  tau(  24) = (   5.2767064   1.4903225   6.0039473  )
        25           Ti1 tau(  25) = (   0.0000382   5.9609847   6.0000000  )
        26           Ti1 tau(  26) = (   3.2902200   4.4714249   6.0002472  )
        27           O1  tau(  27) = (   0.0002396   2.9813036   7.9858123  )
        28           O1  tau(  28) = (   3.2902150   2.9813002   7.3038282  )
        29           O1  tau(  29) = (   4.5938453   4.4726049   9.2879030  )
        30           O1  tau(  30) = (   1.9864658   4.4711199   9.2879459  )
        31           Ti1 tau(  31) = (   3.2891106   5.8743827   9.1763621  )
        32           Ti1 tau(  32) = (   0.0006254   4.4649316   9.2693709  )
        33           O1  tau(  33) = (   3.2727763   2.9788165  11.3438337  )
        34           O1  tau(  34) = (   0.0092240   2.9805883  10.6323155  )
        35           O1  tau(  35) = (   1.2865780   4.4896361  12.6556599  )
        36           O1  tau(  36) = (   5.2967437   4.4749066  12.6066920  )
        37           Ti1 tau(  37) = (   6.5467059   0.0356701  12.5108493  )
        38           Ti1 tau(  38) = (   3.2305653   4.4019604  12.5605372  )
        39           O1  tau(  39) = (   6.5199767   2.9846217  14.6905747  )
        40           O1  tau(  40) = (   3.2851694   3.0254550  13.9321539  )
        41           O1  tau(  41) = (   4.5310495   4.4602642  16.1636806  )
        42           O1  tau(  42) = (   1.9842988   4.5744318  15.9411167  )
        43           Ti1 tau(  43) = (   3.2691225   0.1036042  15.7405456  )
        44           Ti1 tau(  44) = (   6.5697781   4.6877429  16.0360384  )
        45           O1  tau(  45) = (   3.2900926   2.9813045   4.7018136  )
        46           O1  tau(  46) = (   1.3039711   4.4726057   6.0039043  )
        47           O1  tau(  47) = (   5.2763189   4.4711207   6.0039473  )
        48           N1  tau(  48) = (   1.2792381   2.8578196  18.3696018  )
        49           N1  tau(  49) = (   0.1888888   2.9646215  17.5057353  )
        50           C1  tau(  50) = (   2.5352320   2.9081513  18.0382144  )
        51           H1  tau(  51) = (   3.1442446   2.7411670  18.9317345  )
        52           H1  tau(  52) = (   1.0014291   2.6635404  19.3302151  )
        53           H1  tau(  53) = (   5.9397212   2.8571719  18.0851170  )
        54           O1  tau(  54) = (   3.2630597   0.0241043  18.2348460  )
        55           H1  tau(  55) = (   4.0455299   5.4198958  18.2485053  )
        56           H1  tau(  56) = (   2.4923979   5.4091459  18.3156537  )

     number of k points=    10  Fermi-Dirac smearing, width (Ry)=  0.0073
                       cart. coord. in units 2pi/alat
        k(    1) = (   0.0000000   0.0000000   0.0000000), wk =   0.1250000
        k(    2) = (   0.0000000   0.0419351   0.0000000), wk =   0.2500000
        k(    3) = (   0.0000000  -0.0838702   0.0000000), wk =   0.1250000
        k(    4) = (   0.0379955   0.0000049   0.0000000), wk =   0.2500000
        k(    5) = (   0.0379955   0.0419400   0.0000000), wk =   0.2500000
        k(    6) = (   0.0379955  -0.0838652   0.0000000), wk =   0.2500000
        k(    7) = (   0.0379955  -0.0419301   0.0000000), wk =   0.2500000
        k(    8) = (  -0.0759910  -0.0000099   0.0000000), wk =   0.1250000
        k(    9) = (  -0.0759910   0.0419252   0.0000000), wk =   0.2500000
        k(   10) = (  -0.0759910  -0.0838800   0.0000000), wk =   0.1250000

     Initial potential from superposition of free atoms

     starting charge  386.99914, renormalised to  403.00000

     negative rho (up, down):  1.738E-02 0.000E+00

     %%%%%%%%%%%%%%%%%%%%%%%%%%%%%%%%%%%%%%%%%%%%%%%%%%%%%%%%%%%%%%%%%%%%%%%%
     %                                                                      %
     % You are using vdW-DF, which was implemented by the Thonhauser group. %
     % Please cite the following two papers that made this development      %
     % possible and the two reviews that describe the various versions:     %
     %                                                                      %
     %   T. Thonhauser et al., PRL 115, 136402 (2015).                      %
     %   T. Thonhauser et al., PRB 76, 125112 (2007).                       %
     %   K. Berland et al., Rep. Prog. Phys. 78, 066501 (2015).             %
     %   D.C. Langreth et al., J. Phys.: Condens. Matter 21, 084203 (2009). %
     %                                                                      %
     %                                                                      %
     % If you are calculating the stress with vdW-DF, please also cite:     %
     %                                                                      %
     %   R. Sabatini et al., J. Phys.: Condens. Matter 24, 424209 (2012).   %
     %                                                                      %
     %%%%%%%%%%%%%%%%%%%%%%%%%%%%%%%%%%%%%%%%%%%%%%%%%%%%%%%%%%%%%%%%%%%%%%%%

     Adding external electric field

     Computed dipole along edir(3) :
        Dipole              -12.3463 Ry au,        -31.3811 Debye
        Dipole field         -0.0233 Ry au,

        Potential amp.        2.1598 Ry
        Total length         46.3494 bohr

     Starting wfcs are  305 atomic wfcs
  @ DRIVER MODE: Message from server: STATUS
  @ DRIVER MODE: Message from server: POSDATA
  @ DRIVER MODE: Reading and sharing cell
  @ DRIVER MODE: Reading and sharing positions
  @ DRIVER MODE: Received positions

     Self-consistent Calculation

     iteration #  1     ecut=    29.40 Ry     beta= 0.05
     Davidson diagonalization with overlap
     c_bands:  5 eigenvalues not converged
     c_bands:  3 eigenvalues not converged
     c_bands:  3 eigenvalues not converged
     c_bands:  1 eigenvalues not converged
     c_bands:  2 eigenvalues not converged
     c_bands:  2 eigenvalues not converged
     c_bands:  5 eigenvalues not converged
     c_bands:  2 eigenvalues not converged
     c_bands:  4 eigenvalues not converged
     ethr =  1.00E-05,  avg # of iterations = 29.3

[...]

     total energy              =   -2358.70457441 Ry
     estimated scf accuracy    <    6971.23404084 Ry

     iteration #  2     ecut=    29.40 Ry     beta= 0.05
     Davidson diagonalization with overlap
     ethr =  1.00E-02,  avg # of iterations = 25.2

[...]

     iteration # 67     ecut=    29.40 Ry     beta= 0.05
     Davidson diagonalization with overlap
     c_bands:  1 eigenvalues not converged
     c_bands:  1 eigenvalues not converged
     ethr =  1.82E-10,  avg # of iterations = 15.2

[...]

     total energy              =   -2973.93994075 Ry
     estimated scf accuracy    <       0.00000011 Ry

     iteration # 70     ecut=    29.40 Ry     beta= 0.05
     Davidson diagonalization with overlap
     ethr =  2.27E-11,  avg # of iterations =  9.1

     negative rho (up, down):  1.725E-02 0.000E+00

     Adding external electric field

     Computed dipole along edir(3) :
        Dipole                1.4004 Ry au,          3.5595 Debye
        Dipole field          0.0026 Ry au,

        Potential amp.       -0.2450 Ry
        Total length         46.3494 bohr

     End of self-consistent calculation

          k = 0.0000 0.0000 0.0000 ( 18029 PWs)   bands (ev):

   -55.3193 -55.2852 -55.2101 -55.1860 -55.1671 -55.1555 -55.1401 -55.1182
   -55.1062 -55.1037 -55.0970 -55.0624 -54.9921 -54.8340 -54.2998 -54.2657
   -31.8035 -31.7310 -31.6567 -31.6498 -31.6399 -31.6112 -31.5867 -31.5644
   -31.5199 -31.5011 -31.4717 -31.4638 -31.4554 -31.4407 -31.4254 -31.4210
   -31.3979 -31.3801 -31.3766 -31.3648 -31.3349 -31.3327 -31.3286 -31.3257
   -31.3228 -31.3188 -31.3148 -31.2968 -31.2886 -31.2787 -31.2720 -31.2716
   -31.2614 -31.2601 -31.2514 -31.2479 -31.2401 -31.2147 -31.2096 -31.0902
   -31.0752 -31.0495 -30.7066 -30.6185 -30.5961 -30.5236 -30.4371 -30.3259
   -18.9291 -18.6541 -15.9774 -15.7936 -15.6126 -15.4735 -15.3916 -15.1600
   -15.1016 -15.0631 -14.9820 -14.9591 -14.8586 -14.8397 -14.8382 -14.8200
   -14.8171 -14.7619 -14.7469 -14.7424 -14.6939 -14.6870 -14.6618 -14.6462
   -14.5936 -14.5150 -14.5064 -14.4600 -14.4147 -14.3682 -14.0228 -13.4135
   -12.8004 -12.6839  -8.8034  -7.2710  -6.7219  -4.3214  -3.7833  -3.3606
    -3.2842  -3.2489  -3.2239  -3.0880  -2.9711  -2.8509  -2.7555  -2.6685
    -2.5843  -2.4799  -2.4236  -2.3774  -2.3165  -2.2571  -2.2310  -2.1452
    -2.1254  -2.1060  -2.0847  -2.0578  -2.0284  -1.9909  -1.8689  -1.8580
    -1.7758  -1.7198  -1.6825  -1.6629  -1.6387  -1.6333  -1.6005  -1.5805
    -1.5721  -1.5604  -1.5597  -1.5243  -1.3848  -1.3617  -1.3321  -1.3101
    -1.1629  -1.0255  -0.9366  -0.9342  -0.8250  -0.7600  -0.7567  -0.7184
    -0.7027  -0.6007  -0.5151  -0.4789  -0.4538  -0.3755  -0.3179  -0.2624
    -0.2106  -0.1756  -0.1086  -0.0847  -0.0681  -0.0513   0.0181   0.0804
     0.1417   0.2269   0.2703   0.2947   0.3859   0.3998   0.4229   0.4877
     0.5198   0.5645   0.6000   0.6292   0.6527   0.6830   0.7082   0.7515
     0.7896   0.9152   0.9333   0.9620   0.9832   1.1576   1.2070   1.3101
     1.3402   1.4418   1.4842   1.6631   1.7243   1.8038   1.9162   2.2944
     2.3402   3.7899   3.9013   3.9354   3.9603   3.9996   4.0510   4.2575
     4.3305   4.3720   4.4293

[...]

          k = 0.0380-0.0419 0.0000 ( 17876 PWs)   bands (ev):

[...]

          k =-0.0760-0.0000 0.0000 ( 17886 PWs)   bands (ev):

[...]

          k =-0.0760-0.0839 0.0000 ( 17948 PWs)   bands (ev):

   -55.3025 -55.3019 -55.2006 -55.1826 -55.1757 -55.1441 -55.1300 -55.1231
   -55.1225 -55.1073 -55.0837 -55.0758 -54.9903 -54.8356 -54.2827 -54.2827
   -31.6190 -31.6185 -31.5969 -31.5964 -31.5652 -31.5335 -31.5024 -31.4898
   -31.4827 -31.4673 -31.4486 -31.4433 -31.4394 -31.4301 -31.4249 -31.4235
   -31.4219 -31.4215 -31.4162 -31.4008 -31.3901 -31.3758 -31.3647 -31.3625
   -31.3577 -31.3532 -31.3441 -31.3314 -31.3255 -31.3240 -31.3086 -31.2993
   -31.2964 -31.2955 -31.2937 -31.2912 -31.2607 -31.2334 -31.2195 -31.1463
   -31.0926 -31.0782 -30.6088 -30.6088 -30.5195 -30.5194 -30.4804 -30.4804
   -18.9204 -18.6585 -15.3549 -15.3199 -15.2817 -15.2544 -15.2384 -15.1176
   -15.1036 -15.0681 -15.0266 -15.0133 -14.9831 -14.9544 -14.9057 -14.8971
   -14.8629 -14.8433 -14.8042 -14.7778 -14.7584 -14.7540 -14.7373 -14.7156
   -14.6721 -14.6503 -14.6378 -14.6335 -14.5816 -14.4874 -14.2081 -13.4361
   -12.7858 -12.7857  -8.7991  -7.1962  -6.7226  -4.5278  -3.5730  -2.8459
    -2.6691  -2.6304  -2.5750  -2.4878  -2.4406  -2.3189  -2.3122  -2.2892
    -2.2441  -2.2312  -2.1907  -2.1501  -2.1444  -2.1164  -2.1043  -2.0593
    -2.0484  -2.0450  -2.0308  -1.9981  -1.9915  -1.9711  -1.9475  -1.9440
    -1.9334  -1.9172  -1.8841  -1.8770  -1.8494  -1.8306  -1.6814  -1.6046
    -1.5626  -1.4851  -1.4620  -1.4451  -1.4262  -1.3915  -1.3714  -1.3456
    -1.3174  -1.1717  -1.0328  -0.9962  -0.9719  -0.8728  -0.8578  -0.8386
    -0.7911  -0.7497  -0.7146  -0.6565  -0.6468  -0.6012  -0.5798  -0.4598
    -0.4226  -0.3243  -0.2876  -0.2857  -0.2688  -0.2532  -0.2364  -0.2107
    -0.1613  -0.0897  -0.0741  -0.0256  -0.0017   0.0009   0.0140   0.1600
     0.2307   0.2512   0.3534   0.3835   0.5583   0.7225   0.7341   0.8019
     0.8649   0.9202   0.9539   0.9938   1.0041   1.0696   1.0946   1.1992
     1.2094   1.2583   1.2634   1.3418   1.3546   2.0880   2.0897   2.1601
     2.1603   4.1538   4.1698   4.1976   4.2607   4.3043   4.3159   4.3533
     4.3569   4.4601   4.4760

     the Fermi energy is     3.8081 ev

!    total energy              =   -2973.93996058 Ry
     estimated scf accuracy    <       0.00000004 Ry
     smearing contrib. (-TS)   =      -0.02072180 Ry
     internal energy E=F+TS    =   -2973.91923878 Ry

     The total energy is F=E-TS. E is the sum of the following terms:
     one-electron contribution =  -24339.10598087 Ry
     hartree contribution      =   12267.26237935 Ry
     xc contribution           =    -494.12868064 Ry
     ewald contribution        =    9592.04934244 Ry
     electric field correction =       0.00370095 Ry

     convergence has been achieved in  70 iterations

     Forces acting on atoms (cartesian axes, Ry/au):

     atom    1 type  1   force =     0.00002432   -0.00009406    0.09508233
     atom    2 type  1   force =     0.00017825   -0.00069488   -0.17563507
     atom    3 type  2   force =     0.00008860   -0.00005018   -0.02295249
     atom    4 type  2   force =     0.00002101   -0.00143225    0.05288408
     atom    5 type  2   force =    -0.01000276   -0.00031195    0.00381208
     atom    6 type  2   force =     0.01112695    0.00020399    0.00206666
     atom    7 type  1   force =    -0.00021542    0.00178380   -0.00588287
     atom    8 type  1   force =     0.00080982    0.01008368    0.01604484
     atom    9 type  2   force =    -0.00015934    0.00086974    0.00033067
     atom   10 type  2   force =    -0.00227308    0.00217603   -0.01800218
     atom   11 type  2   force =     0.00022957   -0.00003599    0.00007953
     atom   12 type  2   force =    -0.00033747   -0.00018714    0.00056043
     atom   13 type  1   force =    -0.00002519    0.00125891    0.00016915
     atom   14 type  1   force =    -0.00012206    0.00010225   -0.00001250
     atom   15 type  2   force =     0.00012166    0.00023950    0.00000464
     atom   16 type  2   force =    -0.00037783    0.00044270   -0.00017452
     atom   17 type  2   force =    -0.00023590   -0.00034193    0.00012906
     atom   18 type  2   force =    -0.00000770   -0.00004650    0.00049586
     atom   19 type  1   force =    -0.00050605    0.00048044   -0.00025402
     atom   20 type  1   force =    -0.00025658   -0.00009466    0.00011773
     atom   21 type  2   force =     0.00009132   -0.00008535    0.10318002
     atom   22 type  2   force =     0.00038883    0.00003973    0.00061365
     atom   23 type  2   force =    -0.07161085   -0.00016528   -0.02757680
     atom   24 type  2   force =     0.07156989    0.00024895   -0.02762595
     atom   25 type  1   force =     0.00023776   -0.00039105    0.09519509
     atom   26 type  1   force =    -0.00003901   -0.00019813   -0.17580376
     atom   27 type  2   force =     0.00012170   -0.00012108   -0.02197772
     atom   28 type  2   force =     0.00001503   -0.00139586    0.05321283
     atom   29 type  2   force =    -0.01034543   -0.00022717    0.00365451
     atom   30 type  2   force =     0.01138408    0.00042432    0.00192299
     atom   31 type  1   force =    -0.00030401    0.00266759   -0.00008262
     atom   32 type  1   force =     0.00067423   -0.01114874    0.01692248
     atom   33 type  2   force =     0.00037346   -0.00027304    0.00000531
     atom   34 type  2   force =    -0.00033870    0.00144231   -0.01893333
     atom   35 type  2   force =    -0.00001848   -0.00035210   -0.00016741
     atom   36 type  2   force =     0.00001410   -0.00024536    0.00043445
     atom   37 type  1   force =    -0.00005368   -0.00121695    0.00032877
     atom   38 type  1   force =    -0.00039636    0.00088137    0.00006301
     atom   39 type  2   force =     0.00009949    0.00004000    0.00011202
     atom   40 type  2   force =    -0.00049153   -0.00060519   -0.00001322
     atom   41 type  2   force =     0.00028399   -0.00026279    0.00009546
     atom   42 type  2   force =    -0.00025335   -0.00040303   -0.00031234
     atom   43 type  1   force =    -0.00024373   -0.00040613    0.00041073
     atom   44 type  1   force =     0.00004237   -0.00036562    0.00016353
     atom   45 type  2   force =     0.00010030   -0.00010250    0.10320004
     atom   46 type  2   force =    -0.07159648   -0.00017065   -0.02756893
     atom   47 type  2   force =     0.07159709    0.00024324   -0.02758088
     atom   48 type  3   force =     0.00025945   -0.00056293    0.00030262
     atom   49 type  3   force =     0.00003972    0.00010460   -0.00016603
     atom   50 type  4   force =     0.00027417   -0.00052138    0.00040166
     atom   51 type  5   force =    -0.00013234   -0.00051426   -0.00022019
     atom   52 type  5   force =    -0.00003091   -0.00100653   -0.00081012
     atom   53 type  5   force =     0.00017167   -0.00040050   -0.00061471
     atom   54 type  2   force =    -0.00001945    0.01747814   -0.00136028
     atom   55 type  5   force =     0.00740926   -0.00799652    0.00036150
     atom   56 type  5   force =    -0.00735438   -0.00878358    0.00137019

     Total force =     0.365957     Total SCF correction =     0.000404
  @ DRIVER MODE: Message from server: STATUS
  @ DRIVER MODE: Message from server: GETFORCE
  @ DRIVER MODE: Returning v,forces,stress,ensemble

     Writing output data file ./calc.save/
  @ DRIVER MODE: Message from server: EXIT
  @ DRIVE MODE: Exiting

     General routines

     Parallel routines

   This run was terminated on:  12:28:39  22Sep2021

   JOB DONE.