     Program PWSCF v.6.7GPU starts on 24Aug2021 at 13: 1:47

     R & G space division:  proc/nbgrp/npool/nimage =      72
     Reading input from /storage/home/hcoda1/3/ntian30/research/carbon/CH2_vib/ads_slab/CH2N_a/out_0012/pw.inp
Warning: card &CELL ignored
Warning: card   CELL_DYNAMICS='IPI', ignored
Warning: card / ignored

     Current dimensions of program PWSCF are:
     Max number of different atomic species (ntypx) = 10
     Max number of k-points (npk) =  40000
     Max angular momentum in pseudopotentials (lmaxx) =  3
     Presently no symmetry can be used with electric field

     Message from routine cell_base_init:
     DEPRECATED: use true lattice parameter, not A to a.u. conversion factor

     IMPORTANT: XC functional enforced from input :
     Exchange-correlation= BEEF-VDW
                           (   1   4  43  14   2   0   0)
     Any further DFT definition will be discarded
     Please, verify this is what you really want

  @ DRIVER MODE: Connecting to
 qe_1139763_2641441.sched-torque.pace.gatech.edutiezc1pb_scratch
  using UNIX socket
  @ DRIVER MODE: Message from server: STATUS
  @ DRIVER MODE: Message from server: INIT
  @ DRIVER MODE: Receiving replica           0          -1
  @ DRIVER MODE: Receiving encoded integer          25
  @ DRIVER MODE:  SCF:  T  FORCE:  T  STRESS:  F  VC:  F  ENSEMBLE:  F
  @ DRIVER MODE:  SCF:  T  FORCE:  T  STRESS:  F  VC:  F  ENSEMBLE:  F

     Using Slab Decomposition

     bravais-lattice index     =            0
     lattice parameter (alat)  =       1.8897  a.u.
     unit-cell volume          =    6658.9804 (a.u.)^3
     number of atoms/cell      =           51
     number of atomic types    =            5
     number of electrons       =       389.00
     number of Kohn-Sham states=          204
     kinetic-energy cutoff     =      29.3995  Ry
     charge density cutoff     =     293.9946  Ry
     scf convergence threshold =      7.3E-08
     mixing beta               =       0.0500
     number of iterations used =            8  plain     mixing
     Exchange-correlation= BEEF-VDW
                           (   1   4  43  14   2   0   0)

     celldm(1)=   1.889726  celldm(2)=   0.000000  celldm(3)=   0.000000
     celldm(4)=   0.000000  celldm(5)=   0.000000  celldm(6)=   0.000000

     crystal axes: (cart. coord. in units of alat)
               a(1) = (   6.579727   0.000000   0.000000 )
               a(2) = (  -0.000775   5.961596   0.000000 )
               a(3) = (   0.000000   0.000000  25.155947 )

     reciprocal axes: (cart. coord. in units 2 pi/alat)
               b(1) = (  0.151982  0.000020  0.000000 )
               b(2) = (  0.000000  0.167740  0.000000 )
               b(3) = (  0.000000  0.000000  0.039752 )

     PseudoPot. # 1 for Ti read from file:
     /storage/coda1/p-amedford6/0/shared/rich_project_chbe-medford/medford-share/data/pseudos_module/espresso/nninc/pbe/van/Ti.UPF
     MD5 check sum: 8e4df49b7f0d34bbd5052bf3f5ea0213
     Pseudo is Ultrasoft, Zval = 12.0
     Generated by new atomic code, or converted to UPF format
     Using radial grid of  851 points,  6 beta functions with:
                l(1) =   0
                l(2) =   0
                l(3) =   1
                l(4) =   1
                l(5) =   2
                l(6) =   2
     Q(r) pseudized with  8 coefficients,  rinner =    1.000   1.000   1.000
                                                       1.000   1.000

     PseudoPot. # 2 for O  read from file:
     /storage/coda1/p-amedford6/0/shared/rich_project_chbe-medford/medford-share/data/pseudos_module/espresso/nninc/pbe/van/O.UPF
     MD5 check sum: 78c19812648e8988a0fe644b0f25305e
     Pseudo is Ultrasoft, Zval =  6.0
     Generated by new atomic code, or converted to UPF format
     Using radial grid of  737 points,  4 beta functions with:
                l(1) =   0
                l(2) =   0
                l(3) =   1
                l(4) =   1
     Q(r) pseudized with  8 coefficients,  rinner =    0.800   0.800   0.800

     PseudoPot. # 3 for N  read from file:
     /storage/coda1/p-amedford6/0/shared/rich_project_chbe-medford/medford-share/data/pseudos_module/espresso/nninc/pbe/van/N.UPF
     MD5 check sum: 90d10febe142ad51ac9d5be1deb811c4
     Pseudo is Ultrasoft, Zval =  5.0
     Generated by new atomic code, or converted to UPF format
     Using radial grid of  729 points,  4 beta functions with:
                l(1) =   0
                l(2) =   0
                l(3) =   1
                l(4) =   1
     Q(r) pseudized with  8 coefficients,  rinner =    0.800   0.800   0.800

     PseudoPot. # 4 for C  read from file:
     /storage/coda1/p-amedford6/0/shared/rich_project_chbe-medford/medford-share/data/pseudos_module/espresso/nninc/pbe/van/C.UPF
     MD5 check sum: 1a69bf6b8db32088f5b2163dbdb77a27
     Pseudo is Ultrasoft, Zval =  4.0
     Generated by new atomic code, or converted to UPF format
     Using radial grid of  721 points,  4 beta functions with:
                l(1) =   0
                l(2) =   0
                l(3) =   1
                l(4) =   1
     Q(r) pseudized with  8 coefficients,  rinner =    0.800   0.800   0.800

     PseudoPot. # 5 for H  read from file:
     /storage/coda1/p-amedford6/0/shared/rich_project_chbe-medford/medford-share/data/pseudos_module/espresso/nninc/pbe/van/H.UPF
     MD5 check sum: b5ee9d7bfd3a09ee7748110bda690ff7
     Pseudo is Ultrasoft, Zval =  1.0
     Generated by new atomic code, or converted to UPF format
     Using radial grid of  615 points,  1 beta functions with:
                l(1) =   0
     Q(r) pseudized with  8 coefficients,  rinner =    0.800

     atomic species   valence    mass     pseudopotential
        Ti1           12.00    47.86700     Ti( 1.00)
        O1             6.00    15.99900     O ( 1.00)
        N1             5.00    14.00700     N ( 1.00)
        C1             4.00    12.01100     C ( 1.00)
        H1             1.00     1.00800     H ( 1.00)

     No symmetry found

   Cartesian axes

     site n.     atom                  positions (alat units)
         1           Ti1 tau(   1) = (   0.0004258   2.9801865   6.0000000  )
         2           Ti1 tau(   2) = (   3.2906075   1.4906267   6.0002472  )
         3           O1  tau(   3) = (   0.0006271   0.0005054   7.9858123  )
         4           O1  tau(   4) = (   3.2906025   0.0005020   7.3038282  )
         5           O1  tau(   5) = (   4.5942328   1.4918067   9.2879030  )
         6           O1  tau(   6) = (   1.9868534   1.4903216   9.2879459  )
         7           Ti1 tau(   7) = (   3.2907910   2.8959150   9.1758416  )
         8           Ti1 tau(   8) = (   0.0015273   1.4827037   9.2680791  )
         9           O1  tau(   9) = (   3.3121109   0.0111249  11.3310253  )
        10           O1  tau(  10) = (   0.0116148   5.9584955  10.6183126  )
        11           O1  tau(  11) = (   1.3329579   1.5011098  12.6063046  )
        12           O1  tau(  12) = (   5.3158149   1.4916659  12.6245769  )
        13           Ti1 tau(  13) = (   6.5431557   2.9598450  12.6156978  )
        14           Ti1 tau(  14) = (   3.2273839   1.5049138  12.4779161  )
        15           O1  tau(  15) = (   0.0471551   0.0364395  14.6528705  )
        16           O1  tau(  16) = (   3.3160098   0.0207640  13.9215624  )
        17           O1  tau(  17) = (   4.5810600   1.5471256  16.0564497  )
        18           O1  tau(  18) = (   2.0947546   1.5446786  16.0656860  )
        19           Ti1 tau(  19) = (   3.3354243   3.0239694  15.7034691  )
        20           Ti1 tau(  20) = (   0.0419518   1.5622418  15.8401859  )
        21           O1  tau(  21) = (   3.2904802   0.0005063   4.7018136  )
        22           O1  tau(  22) = (   0.0415632   0.0558952  17.2248266  )
        23           O1  tau(  23) = (   1.3043587   1.4918075   6.0039043  )
        24           O1  tau(  24) = (   5.2767064   1.4903225   6.0039473  )
        25           Ti1 tau(  25) = (   0.0000382   5.9609847   6.0000000  )
        26           Ti1 tau(  26) = (   3.2902200   4.4714249   6.0002472  )
        27           O1  tau(  27) = (   0.0002396   2.9813036   7.9858123  )
        28           O1  tau(  28) = (   3.2902150   2.9813002   7.3038282  )
        29           O1  tau(  29) = (   4.5938453   4.4726049   9.2879030  )
        30           O1  tau(  30) = (   1.9864658   4.4711199   9.2879459  )
        31           Ti1 tau(  31) = (   3.2891106   5.8743827   9.1763621  )
        32           Ti1 tau(  32) = (   0.0006254   4.4649316   9.2693709  )
        33           O1  tau(  33) = (   3.3101407   2.9955762  11.3294870  )
        34           O1  tau(  34) = (   0.0092240   2.9805883  10.6323155  )
        35           O1  tau(  35) = (   1.3272401   4.4878838  12.6173354  )
        36           O1  tau(  36) = (   5.3164082   4.4812184  12.6342743  )
        37           Ti1 tau(  37) = (   6.5430856   5.9365306  12.5602028  )
        38           Ti1 tau(  38) = (   3.2246414   4.4845729  12.4831641  )
        39           O1  tau(  39) = (   0.0420920   2.9623338  14.6463429  )
        40           O1  tau(  40) = (   3.3182946   3.0055568  13.9055467  )
        41           O1  tau(  41) = (   4.5797692   4.5125808  16.0776662  )
        42           O1  tau(  42) = (   2.0972274   4.5146901  16.0918111  )
        43           Ti1 tau(  43) = (   3.3319946   0.0399457  15.7186693  )
        44           Ti1 tau(  44) = (   0.0407629   4.6953510  16.1098173  )
        45           O1  tau(  45) = (   3.2900926   2.9813045   4.7018136  )
        46           O1  tau(  46) = (   1.3039711   4.4726057   6.0039043  )
        47           O1  tau(  47) = (   5.2763189   4.4711207   6.0039473  )
        48           N1  tau(  48) = (   0.0554023   2.9932257  17.3910969  )
        49           C1  tau(  49) = (   0.1090839   2.9222626  18.6572186  )
        50           H1  tau(  50) = (   0.1225839   3.8204711  19.2773028  )
        51           H1  tau(  51) = (   0.1417253   1.9549180  19.1625725  )

     number of k points=    10  Fermi-Dirac smearing, width (Ry)=  0.0073
                       cart. coord. in units 2pi/alat
        k(    1) = (   0.0000000   0.0000000   0.0000000), wk =   0.1250000
        k(    2) = (   0.0000000   0.0419351   0.0000000), wk =   0.2500000
        k(    3) = (   0.0000000  -0.0838702   0.0000000), wk =   0.1250000
        k(    4) = (   0.0379955   0.0000049   0.0000000), wk =   0.2500000
        k(    5) = (   0.0379955   0.0419400   0.0000000), wk =   0.2500000
        k(    6) = (   0.0379955  -0.0838652   0.0000000), wk =   0.2500000
        k(    7) = (   0.0379955  -0.0419301   0.0000000), wk =   0.2500000
        k(    8) = (  -0.0759910  -0.0000099   0.0000000), wk =   0.1250000
        k(    9) = (  -0.0759910   0.0419252   0.0000000), wk =   0.2500000
        k(   10) = (  -0.0759910  -0.0838800   0.0000000), wk =   0.1250000

     Initial potential from superposition of free atoms

     starting charge  372.99918, renormalised to  389.00000

     negative rho (up, down):  1.812E-02 0.000E+00

     %%%%%%%%%%%%%%%%%%%%%%%%%%%%%%%%%%%%%%%%%%%%%%%%%%%%%%%%%%%%%%%%%%%%%%%%
     %                                                                      %
     % You are using vdW-DF, which was implemented by the Thonhauser group. %
     % Please cite the following two papers that made this development      %
     % possible and the two reviews that describe the various versions:     %
     %                                                                      %
     %   T. Thonhauser et al., PRL 115, 136402 (2015).                      %
     %   T. Thonhauser et al., PRB 76, 125112 (2007).                       %
     %   K. Berland et al., Rep. Prog. Phys. 78, 066501 (2015).             %
     %   D.C. Langreth et al., J. Phys.: Condens. Matter 21, 084203 (2009). %
     %                                                                      %
     %                                                                      %
     % If you are calculating the stress with vdW-DF, please also cite:     %
     %                                                                      %
     %   R. Sabatini et al., J. Phys.: Condens. Matter 24, 424209 (2012).   %
     %                                                                      %
     %%%%%%%%%%%%%%%%%%%%%%%%%%%%%%%%%%%%%%%%%%%%%%%%%%%%%%%%%%%%%%%%%%%%%%%%

     Adding external electric field

     Computed dipole along edir(3) :
        Dipole               -4.6889 Ry au,        -11.9179 Debye
        Dipole field         -0.0088 Ry au,

        Potential amp.        0.8202 Ry
        Total length         46.3494 bohr

     Starting wfcs are  294 atomic wfcs
  @ DRIVER MODE: Message from server: STATUS
  @ DRIVER MODE: Message from server: POSDATA
  @ DRIVER MODE: Reading and sharing cell
  @ DRIVER MODE: Reading and sharing positions
  @ DRIVER MODE: Received positions

     Self-consistent Calculation

     iteration #  1     ecut=    29.40 Ry     beta= 0.05
     Davidson diagonalization with overlap
     c_bands:  3 eigenvalues not converged
     c_bands:  1 eigenvalues not converged
     c_bands:  1 eigenvalues not converged
     c_bands:  3 eigenvalues not converged
     c_bands:  3 eigenvalues not converged
     c_bands:  2 eigenvalues not converged
     c_bands:  2 eigenvalues not converged
     ethr =  1.00E-05,  avg # of iterations = 19.8

[...]

     total energy              =   -2865.16990789 Ry
     estimated scf accuracy    <     600.73310059 Ry

     iteration #  2     ecut=    29.40 Ry     beta= 0.05
     Davidson diagonalization with overlap
     ethr =  1.00E-02,  avg # of iterations = 14.8

[...]

     iteration # 56     ecut=    29.40 Ry     beta= 0.05
     Davidson diagonalization with overlap
     c_bands:  1 eigenvalues not converged
     ethr =  2.08E-07,  avg # of iterations = 13.1

[...]

     total energy              =   -2917.92268488 Ry
     estimated scf accuracy    <       0.00000010 Ry

     iteration # 72     ecut=    29.40 Ry     beta= 0.05
     Davidson diagonalization with overlap
     ethr =  2.66E-11,  avg # of iterations =  7.1

     negative rho (up, down):  1.844E-02 0.000E+00

     Adding external electric field

     Computed dipole along edir(3) :
        Dipole                0.7783 Ry au,          1.9783 Debye
        Dipole field          0.0015 Ry au,

        Potential amp.       -0.1362 Ry
        Total length         46.3494 bohr

     End of self-consistent calculation

          k = 0.0000 0.0000 0.0000 ( 18029 PWs)   bands (ev):

   -55.9896 -55.9803 -55.9556 -55.9439 -55.8663 -55.8370 -55.8164 -55.8026
   -55.7981 -55.7641 -55.7619 -55.7283 -55.5148 -55.2405 -54.9668 -54.9327
   -32.5347 -32.4720 -32.3382 -32.3185 -32.2971 -32.2919 -32.2826 -32.2525
   -32.2322 -32.2068 -32.1999 -32.1775 -32.1605 -32.1418 -32.1334 -32.1202
   -32.0988 -32.0939 -32.0790 -32.0467 -32.0457 -32.0428 -31.9962 -31.9952
   -31.9939 -31.9925 -31.9860 -31.9783 -31.9643 -31.9519 -31.9435 -31.9374
   -31.9285 -31.9279 -31.9151 -31.9056 -31.8741 -31.7644 -31.6967 -31.5301
   -31.4951 -31.4524 -31.3740 -31.2856 -31.2632 -31.1907 -31.1042 -30.9932
   -16.7315 -16.4632 -16.2371 -16.1410 -16.1101 -15.9937 -15.8279 -15.7096
   -15.6585 -15.5602 -15.5467 -15.5253 -15.4917 -15.4601 -15.4545 -15.4325
   -15.4284 -15.4096 -15.3959 -15.3489 -15.3263 -15.2913 -15.1929 -15.1630
   -15.1234 -15.0945 -15.0538 -15.0449 -14.8409 -14.5526 -13.4692 -13.3528
    -7.6053  -4.3617  -4.1087  -3.9880  -3.9433  -3.8948  -3.8357  -3.6270
    -3.5369  -3.5082  -3.2198  -3.1729  -3.1556  -3.1430  -3.1046  -2.8892
    -2.8360  -2.8041  -2.7821  -2.7687  -2.7576  -2.7498  -2.7289  -2.7028
    -2.5886  -2.5317  -2.5279  -2.4071  -2.3795  -2.3215  -2.3014  -2.2547
    -2.2383  -2.2300  -2.2024  -2.1915  -2.1787  -2.1453  -2.0689  -1.9565
    -1.8064  -1.7872  -1.7518  -1.6059  -1.5966  -1.5353  -1.4441  -1.4290
    -1.4147  -1.3806  -1.3616  -1.2921  -1.1657  -1.1417  -1.1318  -1.0303
    -0.9837  -0.9663  -0.8696  -0.8342  -0.7652  -0.7533  -0.7423  -0.7053
    -0.5460  -0.4845  -0.4560  -0.3909  -0.3606  -0.2952  -0.2868  -0.2594
    -0.1784  -0.1241  -0.1057  -0.1010  -0.0505  -0.0146   0.0024   0.0121
     0.0232   0.0379   0.2098   0.2826   0.2895   0.3685   0.3782   0.5395
     0.6009   0.6677   0.7764   0.9807   1.0552   1.1449   1.2477   1.4276
     1.6266   1.6722   3.1469   3.2306   3.2788   3.2884   3.3897   3.4273
     3.6001   3.6056   3.6208   3.6948

[...]

          k = 0.0380-0.0419 0.0000 ( 17876 PWs)   bands (ev):

[...]

          k =-0.0760-0.0000 0.0000 ( 17886 PWs)   bands (ev):

[...]

          k =-0.0760-0.0839 0.0000 ( 17948 PWs)   bands (ev):

   -55.9729 -55.9721 -55.9647 -55.9593 -55.8594 -55.8232 -55.8202 -55.8194
   -55.7818 -55.7800 -55.7460 -55.7444 -55.5138 -55.2414 -54.9498 -54.9496
   -32.3405 -32.3353 -32.2876 -32.2870 -32.2684 -32.2676 -32.2498 -32.2378
   -32.1899 -32.1838 -32.1774 -32.1705 -32.1334 -32.1156 -32.1102 -32.1091
   -32.0999 -32.0939 -32.0924 -32.0915 -32.0849 -32.0824 -32.0628 -32.0392
   -32.0355 -32.0244 -32.0154 -32.0018 -31.9807 -31.9803 -31.9777 -31.9762
   -31.9606 -31.9598 -31.9559 -31.9529 -31.8772 -31.7669 -31.6929 -31.5955
   -31.4968 -31.4732 -31.2759 -31.2758 -31.1869 -31.1867 -31.1475 -31.1474
   -16.1638 -16.1446 -15.9329 -15.9057 -15.9006 -15.8892 -15.7606 -15.6999
   -15.6840 -15.6821 -15.6026 -15.5808 -15.5595 -15.5317 -15.5207 -15.5082
   -15.5022 -15.4915 -15.4509 -15.4448 -15.4252 -15.4181 -15.3149 -15.3058
   -15.3018 -15.2450 -15.1719 -15.0317 -14.8532 -14.7238 -13.4548 -13.4545
    -7.6014  -4.3457  -3.6597  -3.4542  -3.4316  -3.1631  -3.1461  -3.1372
    -3.0769  -2.9042  -2.8883  -2.8653  -2.8443  -2.8157  -2.8139  -2.7928
    -2.7902  -2.7798  -2.7324  -2.7265  -2.7023  -2.6658  -2.6559  -2.6445
    -2.6351  -2.6119  -2.6017  -2.5597  -2.5301  -2.5228  -2.5079  -2.4842
    -2.2975  -2.2162  -2.1898  -2.1268  -2.1194  -2.0843  -2.0532  -2.0410
    -2.0243  -1.9744  -1.8926  -1.7220  -1.6894  -1.6710  -1.6030  -1.5832
    -1.5425  -1.4577  -1.3884  -1.3647  -1.3588  -1.3103  -1.2017  -1.1787
    -1.1660  -1.0923  -1.0526  -1.0402  -0.9967  -0.9822  -0.9496  -0.9441
    -0.8507  -0.8009  -0.7546  -0.7522  -0.7068  -0.6402  -0.6273  -0.6003
    -0.4908  -0.4720  -0.3859  -0.3716  -0.2718  -0.2051  -0.0052   0.0571
     0.0824   0.1411   0.2211   0.3009   0.3164   0.3304   0.3309   0.3784
     0.4473   0.5431   0.5524   0.6064   0.7111   1.3237   1.4190   1.4196
     1.4920   1.4921   3.4325   3.4430   3.4820   3.5038   3.6385   3.6555
     3.6783   3.6794   3.7303   3.8160

     the Fermi energy is     3.1446 ev

!    total energy              =   -2917.92269687 Ry
     estimated scf accuracy    <       0.00000007 Ry
     smearing contrib. (-TS)   =      -0.02182218 Ry
     internal energy E=F+TS    =   -2917.90087469 Ry

     The total energy is F=E-TS. E is the sum of the following terms:
     one-electron contribution =  -24776.22984146 Ry
     hartree contribution      =   12471.83421252 Ry
     xc contribution           =    -479.17764195 Ry
     ewald contribution        =    9865.67125301 Ry
     electric field correction =       0.00114320 Ry

     convergence has been achieved in  72 iterations

     Forces acting on atoms (cartesian axes, Ry/au):

     atom    1 type  1   force =     0.00017322   -0.00023621    0.09667891
     atom    2 type  1   force =     0.00007024   -0.00052938   -0.17542619
     atom    3 type  2   force =     0.00018052    0.00000747   -0.02478682
     atom    4 type  2   force =     0.00005725   -0.00133304    0.05290962
     atom    5 type  2   force =    -0.01176706    0.00012692    0.00258311
     atom    6 type  2   force =     0.01393751    0.00051476    0.00338638
     atom    7 type  1   force =     0.00129638    0.00070282   -0.01175084
     atom    8 type  1   force =    -0.00004956    0.00765302    0.02823493
     atom    9 type  2   force =    -0.00024123   -0.00023761   -0.00012234
     atom   10 type  2   force =    -0.00220593    0.00207855   -0.01528167
     atom   11 type  2   force =     0.00000628   -0.00008812    0.00022363
     atom   12 type  2   force =    -0.00003553    0.00015121   -0.00006657
     atom   13 type  1   force =    -0.00104831   -0.00025653    0.00001502
     atom   14 type  1   force =    -0.00022626   -0.00026316    0.00059988
     atom   15 type  2   force =    -0.00030824   -0.00000189   -0.00034678
     atom   16 type  2   force =     0.00025348    0.00007806   -0.00055461
     atom   17 type  2   force =    -0.00001318    0.00004214   -0.00026120
     atom   18 type  2   force =    -0.00004745    0.00027726   -0.00056868
     atom   19 type  1   force =    -0.00063122    0.00010643   -0.00030094
     atom   20 type  1   force =     0.00015636   -0.00076089    0.00078041
     atom   21 type  2   force =     0.00008700   -0.00004653    0.10323924
     atom   22 type  2   force =     0.00044637   -0.00027494    0.00018739
     atom   23 type  2   force =    -0.07147611   -0.00015472   -0.02767924
     atom   24 type  2   force =     0.07147077    0.00033384   -0.02776352
     atom   25 type  1   force =     0.00018671   -0.00023999    0.09618782
     atom   26 type  1   force =     0.00011643   -0.00029684   -0.17555425
     atom   27 type  2   force =     0.00022346   -0.00011764   -0.02386943
     atom   28 type  2   force =     0.00009019   -0.00110279    0.05285012
     atom   29 type  2   force =    -0.01197493    0.00068435    0.00233318
     atom   30 type  2   force =     0.01400890    0.00103239    0.00318541
     atom   31 type  1   force =     0.00113864    0.00334045   -0.01206721
     atom   32 type  1   force =    -0.00024266   -0.00973051    0.02866820
     atom   33 type  2   force =    -0.00017306    0.00031542   -0.00009584
     atom   34 type  2   force =    -0.00172808    0.00174932   -0.02357226
     atom   35 type  2   force =     0.00000425    0.00008867    0.00022168
     atom   36 type  2   force =     0.00055785    0.00011793    0.00021002
     atom   37 type  1   force =    -0.00100070   -0.00038509    0.00032496
     atom   38 type  1   force =     0.00023064   -0.00011507    0.00053940
     atom   39 type  2   force =    -0.00006003   -0.00052734   -0.00075388
     atom   40 type  2   force =    -0.00004287    0.00025816    0.00044029
     atom   41 type  2   force =    -0.00075122   -0.00043396   -0.00020884
     atom   42 type  2   force =    -0.00003919   -0.00070623   -0.00077570
     atom   43 type  1   force =    -0.00047557    0.00001688   -0.00014727
     atom   44 type  1   force =     0.00013894   -0.00004611    0.00089072
     atom   45 type  2   force =     0.00006458   -0.00006860    0.10326207
     atom   46 type  2   force =    -0.07147356   -0.00008664   -0.02769533
     atom   47 type  2   force =     0.07148953    0.00033399   -0.02777254
     atom   48 type  3   force =     0.00185560   -0.00158234    0.02263398
     atom   49 type  4   force =    -0.00253545   -0.00011035   -0.03142215
     atom   50 type  5   force =     0.00038104    0.00362714    0.00436364
     atom   51 type  5   force =    -0.00007474   -0.00390461    0.00389410

     Total force =     0.370101     Total SCF correction =     0.000680
  @ DRIVER MODE: Message from server: STATUS
  @ DRIVER MODE: Message from server: GETFORCE
  @ DRIVER MODE: Returning v,forces,stress,ensemble

     Writing output data file ./calc.save/
  @ DRIVER MODE: Message from server: EXIT
  @ DRIVE MODE: Exiting

     General routines

     Parallel routines

   This run was terminated on:  13:21:25  24Aug2021

   JOB DONE.