     Program PWSCF v.6.8 starts on 15Oct2021 at 16:12:46

     R & G space division:  proc/nbgrp/npool/nimage =       4

     Reading input from /storage/home/hcoda1/3/ntian30/research/carbon/Thiel_calc/ads_slab/N2HH_perslab/Thiel_calc.log/pw.inp
Warning: card &CELL ignored
Warning: card   CELL_DYNAMICS='IPI', ignored
Warning: card / ignored

     Current dimensions of program PWSCF are:
     Max number of different atomic species (ntypx) = 10
     Max number of k-points (npk) =  40000
     Max angular momentum in pseudopotentials (lmaxx) =  4
     Presently no symmetry can be used with electric field

     Message from routine cell_base_init:
     DEPRECATED: use true lattice parameter, not A to a.u. conversion factor

     IMPORTANT: XC functional enforced from input :
     Exchange-correlation= BEEF-VDW
                           (   1   4  43  14   2   0   0)
     Any further DFT definition will be discarded
     Please, verify this is what you really want

  @ DRIVER MODE: Connecting to
 qe_1139763_3223916.sched-torque.pace.gatech.edun1kzhe0u_scratch
  using UNIX socket
  @ DRIVER MODE: Message from server: STATUS
  @ DRIVER MODE: Message from server: INIT
  @ DRIVER MODE: Receiving replica           0          -1
  @ DRIVER MODE: Receiving encoded integer          25
  @ DRIVER MODE:  SCF:  T  FORCE:  T  STRESS:  F  VC:  F  ENSEMBLE:  F
  @ DRIVER MODE:  SCF:  T  FORCE:  T  STRESS:  F  VC:  F  ENSEMBLE:  F

     Using Slab Decomposition

     bravais-lattice index     =            0
     lattice parameter (alat)  =       1.8897  a.u.
     unit-cell volume          =    9988.4706 (a.u.)^3
     number of atoms/cell      =           57
     number of atomic types    =            4
     number of electrons       =       438.00
     number of Kohn-Sham states=          229
     kinetic-energy cutoff     =      29.3995  Ry
     charge density cutoff     =     293.9946  Ry
     scf convergence threshold =      7.3E-08
     mixing beta               =       0.0500
     number of iterations used =            8  plain     mixing
     Exchange-correlation= BEEF-VDW
                           (   1   4  43  14   2   0   0)

     celldm(1)=   1.889726  celldm(2)=   0.000000  celldm(3)=   0.000000
     celldm(4)=   0.000000  celldm(5)=   0.000000  celldm(6)=   0.000000

     crystal axes: (cart. coord. in units of alat)
               a(1) = (   6.579727   0.000000   0.000000 )
               a(2) = (  -0.001163   8.942395   0.000000 )
               a(3) = (   0.000000   0.000000  25.155947 )

     reciprocal axes: (cart. coord. in units 2 pi/alat)
               b(1) = (  0.151982  0.000020  0.000000 )
               b(2) = (  0.000000  0.111827  0.000000 )
               b(3) = (  0.000000  0.000000  0.039752 )

     PseudoPot. # 1 for O  read from file:
     /storage/coda1/p-amedford6/0/shared/rich_project_chbe-medford/medford-share/data/pseudos_module/espresso/nninc/pbe/van/O.UPF
     MD5 check sum: 78c19812648e8988a0fe644b0f25305e
     Pseudo is Ultrasoft, Zval =  6.0
     Generated by new atomic code, or converted to UPF format
     Using radial grid of  737 points,  4 beta functions with:
                l(1) =   0
                l(2) =   0
                l(3) =   1
                l(4) =   1
     Q(r) pseudized with  8 coefficients,  rinner =    0.800   0.800   0.800

     PseudoPot. # 2 for Ti read from file:
     /storage/coda1/p-amedford6/0/shared/rich_project_chbe-medford/medford-share/data/pseudos_module/espresso/nninc/pbe/van/Ti.UPF
     MD5 check sum: 8e4df49b7f0d34bbd5052bf3f5ea0213
     Pseudo is Ultrasoft, Zval = 12.0
     Generated by new atomic code, or converted to UPF format
     Using radial grid of  851 points,  6 beta functions with:
                l(1) =   0
                l(2) =   0
                l(3) =   1
                l(4) =   1
                l(5) =   2
                l(6) =   2
     Q(r) pseudized with  8 coefficients,  rinner =    1.000   1.000   1.000
                                                       1.000   1.000

     PseudoPot. # 3 for H  read from file:
     /storage/coda1/p-amedford6/0/shared/rich_project_chbe-medford/medford-share/data/pseudos_module/espresso/nninc/pbe/van/H.UPF
     MD5 check sum: b5ee9d7bfd3a09ee7748110bda690ff7
     Pseudo is Ultrasoft, Zval =  1.0
     Generated by new atomic code, or converted to UPF format
     Using radial grid of  615 points,  1 beta functions with:
                l(1) =   0
     Q(r) pseudized with  8 coefficients,  rinner =    0.800

     PseudoPot. # 4 for N  read from file:
     /storage/coda1/p-amedford6/0/shared/rich_project_chbe-medford/medford-share/data/pseudos_module/espresso/nninc/pbe/van/N.UPF
     MD5 check sum: 90d10febe142ad51ac9d5be1deb811c4
     Pseudo is Ultrasoft, Zval =  5.0
     Generated by new atomic code, or converted to UPF format
     Using radial grid of  729 points,  4 beta functions with:
                l(1) =   0
                l(2) =   0
                l(3) =   1
                l(4) =   1
     Q(r) pseudized with  8 coefficients,  rinner =    0.800   0.800   0.800

     atomic species   valence    mass     pseudopotential
        O1             6.00    15.99900     O ( 1.00)
        Ti1           12.00    47.86700     Ti( 1.00)
        H1             1.00     1.00800     H ( 1.00)
        N1             5.00    14.00700     N ( 1.00)

     No symmetry found

   Cartesian axes

     site n.     atom                  positions (alat units)
         1           O1  tau(   1) = (   0.0007354   0.0005023  10.5931620  )
         2           O1  tau(   2) = (   3.2905955   0.0005026  13.8824958  )
         3           O1  tau(   3) = (   0.0007284   0.0005029  17.1718295  )
         4           O1  tau(   4) = (   0.0006271   0.0005054   7.9858123  )
         5           O1  tau(   5) = (   3.2904872   0.0005057  11.2751460  )
         6           O1  tau(   6) = (   0.0006201   0.0005060  14.5644798  )
         7           O1  tau(   7) = (   1.9868534   1.4903216   9.2879459  )
         8           O1  tau(   8) = (   5.2767135   1.4903219  12.5772797  )
         9           O1  tau(   9) = (   1.9868463   1.4903222  15.8666135  )
        10           Ti1 tau(  10) = (   0.0007404   1.4906270   9.2895810  )
        11           Ti1 tau(  11) = (   3.2906005   1.4906273  12.5789147  )
        12           Ti1 tau(  12) = (   0.0007334   1.4906276  15.8682485  )
        13           O1  tau(  13) = (   4.5942328   1.4918067   9.2879030  )
        14           O1  tau(  14) = (   1.3043657   1.4918069  12.5772368  )
        15           O1  tau(  15) = (   4.5942258   1.4918072  15.8665706  )
        16           Ti1 tau(  16) = (   3.2902859   2.9801868   9.2893338  )
        17           Ti1 tau(  17) = (   0.0004188   2.9801870  12.5786675  )
        18           Ti1 tau(  18) = (   3.2902789   2.9801873  15.8680013  )
        19           O1  tau(  19) = (   0.0003479   2.9813005  10.5931620  )
        20           O1  tau(  20) = (   3.2902079   2.9813008  13.8824958  )
        21           O1  tau(  21) = (   0.0002396   2.9813036   7.9858123  )
        22           O1  tau(  22) = (   3.2900997   2.9813039  11.2751460  )
        23           O1  tau(  23) = (   0.0002325   2.9813042  14.5644798  )
        24           O1  tau(  24) = (   1.9864658   4.4711199   9.2879459  )
        25           O1  tau(  25) = (   5.2763259   4.4711201  12.5772797  )
        26           O1  tau(  26) = (   1.9864588   4.4711204  15.8666135  )
        27           Ti1 tau(  27) = (   0.0003529   4.4714252   9.2895810  )
        28           Ti1 tau(  28) = (   3.2902129   4.4714255  12.5789147  )
        29           Ti1 tau(  29) = (   0.0003458   4.4714258  15.8682485  )
        30           O1  tau(  30) = (   4.5938453   4.4726049   9.2879030  )
        31           O1  tau(  31) = (   1.3039782   4.4726052  12.5772368  )
        32           O1  tau(  32) = (   4.5938383   4.4726054  15.8665706  )
        33           Ti1 tau(  33) = (   3.2898983   5.9609850   9.2893338  )
        34           Ti1 tau(  34) = (   0.0000312   5.9609853  12.5786675  )
        35           Ti1 tau(  35) = (   3.2898913   5.9609855  15.8680013  )
        36           O1  tau(  36) = (  -0.0000397   5.9620987  10.5931620  )
        37           O1  tau(  37) = (   3.2898204   5.9620990  13.8824958  )
        38           O1  tau(  38) = (  -0.0000467   5.9620993  17.1718295  )
        39           O1  tau(  39) = (  -0.0001480   5.9621018   7.9858123  )
        40           O1  tau(  40) = (   3.2897121   5.9621021  11.2751460  )
        41           O1  tau(  41) = (  -0.0001550   5.9621024  14.5644798  )
        42           O1  tau(  42) = (   1.9860782   7.4519181   9.2879459  )
        43           O1  tau(  43) = (   5.2759383   7.4519184  12.5772797  )
        44           O1  tau(  44) = (   1.9860712   7.4519187  15.8666135  )
        45           Ti1 tau(  45) = (  -0.0000347   7.4522234   9.2895810  )
        46           Ti1 tau(  46) = (   3.2898254   7.4522237  12.5789147  )
        47           Ti1 tau(  47) = (  -0.0000417   7.4522240  15.8682485  )
        48           O1  tau(  48) = (   4.5934577   7.4534031   9.2879030  )
        49           O1  tau(  49) = (   1.3035906   7.4534034  12.5772368  )
        50           O1  tau(  50) = (   4.5934507   7.4534037  15.8665706  )
        51           Ti1 tau(  51) = (   3.2895107   8.9417832   9.2893338  )
        52           Ti1 tau(  52) = (  -0.0003564   8.9417835  12.5786675  )
        53           Ti1 tau(  53) = (   3.2895037   8.9417838  15.8680013  )
        54           H1  tau(  54) = (  -0.0000467   5.9620993  18.1718295  )
        55           H1  tau(  55) = (   0.0007284   0.0005029  18.1718295  )
        56           N1  tau(  56) = (   0.0003408   2.9813011  18.6718295  )
        57           N1  tau(  57) = (   0.0003408   2.9813011  17.5418495  )

     number of k points=     1  Fermi-Dirac smearing, width (Ry)=  0.0073
                       cart. coord. in units 2pi/alat
        k(    1) = (   0.0000000   0.0000000   0.0000000), wk =   2.0000000

     Initial potential from superposition of free atoms

     starting charge  419.99912, renormalised to  438.00000

     negative rho (up, down):  3.531E-02 0.000E+00

     %%%%%%%%%%%%%%%%%%%%%%%%%%%%%%%%%%%%%%%%%%%%%%%%%%%%%%%%%%%%%%%%%%%%%%%%
     %                                                                      %
     % You are using vdW-DF, which was implemented by the Thonhauser group. %
     % Please cite the following two papers that made this development      %
     % possible and the two reviews that describe the various versions:     %
     %                                                                      %
     %   T. Thonhauser et al., PRL 115, 136402 (2015).                      %
     %   T. Thonhauser et al., PRB 76, 125112 (2007).                       %
     %   K. Berland et al., Rep. Prog. Phys. 78, 066501 (2015).             %
     %   D.C. Langreth et al., J. Phys.: Condens. Matter 21, 084203 (2009). %
     %                                                                      %
[...]
     atom   27 type  2   force =    -0.00003757   -0.00007311   -0.15079987
     atom   28 type  2   force =    -0.00003290   -0.00065533   -0.01132309
     atom   29 type  2   force =    -0.00003934    0.00809021   -0.10565749
     atom   30 type  1   force =    -0.08165995    0.00017899   -0.03187720
     atom   31 type  1   force =     0.00598140    0.00003879    0.00997651
     atom   32 type  1   force =    -0.00340298   -0.01197767    0.05992983
     atom   33 type  2   force =     0.00007342   -0.00047284    0.10905466
     atom   34 type  2   force =     0.00008284   -0.00092413   -0.06863417
     atom   35 type  2   force =     0.00010568    0.00761156   -0.13308136
     atom   36 type  1   force =     0.00000314   -0.00001954    0.06641569
     atom   37 type  1   force =     0.00001417   -0.00063983    0.04666757
     atom   38 type  1   force =     0.00000295    0.00326786    0.11300962
     atom   39 type  1   force =     0.00004613    0.00010671    0.10039611
     atom   40 type  1   force =     0.00004946   -0.00020475   -0.03183661
     atom   41 type  1   force =     0.00004243    0.00399284    0.05918618
     atom   42 type  1   force =     0.08157587    0.00046708   -0.03196500
     atom   43 type  1   force =    -0.00610160    0.00051231    0.01026974
     atom   44 type  1   force =     0.01147256    0.00020624    0.05124688
     atom   45 type  2   force =    -0.00004535   -0.00030087   -0.15063942
     atom   46 type  2   force =    -0.00002764   -0.00023447   -0.01148770
     atom   47 type  2   force =    -0.00003724   -0.00015663   -0.09358299
     atom   48 type  1   force =    -0.08167425    0.00015601   -0.03192779
     atom   49 type  1   force =     0.00599141    0.00008480    0.01029711
     atom   50 type  1   force =    -0.01159148   -0.00015479    0.05125361
     atom   51 type  2   force =     0.00008888   -0.00044093    0.10906486
     atom   52 type  2   force =     0.00008953    0.00004066   -0.06863481
     atom   53 type  2   force =     0.00012194   -0.00736720   -0.13309923
     atom   54 type  3   force =    -0.00001237   -0.00371773   -0.05748345
     atom   55 type  3   force =    -0.00001565    0.00372669   -0.05747233
     atom   56 type  4   force =    -0.00001507   -0.00001486    0.11047337
     atom   57 type  4   force =     0.00001241    0.00004946   -0.09727679

     Total force =     0.625577     Total SCF correction =     0.000512
  @ DRIVER MODE: Message from server: STATUS
  @ DRIVER MODE: Message from server: GETFORCE
  @ DRIVER MODE: Returning v,forces,stress,ensemble

     Writing config to output data dir ./calc.save/
     Message from routine punch:
     wavefunctions written to file
  @ DRIVER MODE: Message from server: STATUS
  @ DRIVER MODE: Message from server: INIT
  @ DRIVER MODE: Receiving replica           0           0
  @ DRIVER MODE: Receiving encoded integer          25
  @ DRIVER MODE:  SCF:  T  FORCE:  T  STRESS:  F  VC:  F  ENSEMBLE:  F
  @ DRIVER MODE:  SCF:  T  FORCE:  T  STRESS:  F  VC:  F  ENSEMBLE:  F
  @ DRIVER MODE: Message from server: STATUS
  @ DRIVER MODE: Message from server: POSDATA
  @ DRIVER MODE: Reading and sharing positions
  @ DRIVER MODE: Received positions
     NEW-OLD atomic charge density approx. for the potential

[...]

     Self-consistent Calculation

[...]

     iteration # 16     ecut=    29.40 Ry     beta= 0.05
     Davidson diagonalization with overlap
     c_bands:  1 eigenvalues not converged
     ethr =  1.34E-10,  avg # of iterations = 20.0

[...]

     total energy              =   -3290.70543873 Ry
     estimated scf accuracy    <       0.00000012 Ry

     iteration # 19     ecut=    29.40 Ry     beta= 0.05
     Davidson diagonalization with overlap
     ethr =  2.73E-11,  avg # of iterations = 17.0

[...]

     End of self-consistent calculation

          k = 0.0000 0.0000 0.0000 ( 26871 PWs)   bands (ev):

   -57.6741 -57.6531 -57.6104 -57.6049 -57.5959 -57.5820 -57.5801 -57.5782
   -57.5579 -57.4894 -57.4826 -57.4739 -57.4588 -57.4558 -57.4519 -56.8686
   -56.8447 -56.8391 -34.1497 -34.1207 -34.1109 -34.0993 -34.0158 -34.0029
   -33.9892 -33.9879 -33.9799 -33.9672 -33.9623 -33.9460 -33.9420 -33.9403
   -33.9289 -33.9109 -33.9101 -33.8934 -33.8854 -33.8795 -33.8626 -33.8597
   -33.8498 -33.8357 -33.8296 -33.8269 -33.8208 -33.8144 -33.8087 -33.8016
   -33.7855 -33.7469 -33.6943 -33.6742 -33.6727 -33.6711 -33.6394 -33.6294
   -33.6235 -33.5880 -33.5823 -33.5767 -33.5741 -33.5624 -33.5516 -33.1877
   -33.1798 -33.1638 -33.1495 -33.1449 -33.0965 -33.0349 -33.0282 -32.8972
   -23.6945 -19.5843 -19.4551 -18.6201 -18.1309 -18.0397 -18.0188 -17.9869
   -17.9557 -17.8010 -17.7873 -17.7542 -17.7392 -17.6621 -17.6205 -17.5926
   -17.5460 -17.5356 -17.5252 -17.4894 -17.4314 -17.4102 -17.3929 -17.3905
   -17.3797 -17.3734 -17.2642 -17.1515 -17.1449 -17.1095 -17.0219 -17.0204
   -16.7152 -15.2785 -15.2173 -15.2133  -8.9327  -7.2554  -7.1272  -6.8364
    -6.8286  -5.9887  -5.6670  -5.6038  -5.5496  -5.5183  -5.2640  -5.2486
    -5.2081  -5.1619  -5.1400  -5.0764  -5.0733  -5.0557  -4.9554  -4.9469
    -4.9160  -4.9035  -4.8670  -4.8571  -4.7267  -4.7174  -4.6844  -4.6607
    -4.6305  -4.6052  -4.5738  -4.5411  -4.5181  -4.4918  -4.4560  -4.4342
    -4.3586  -4.2469  -4.1790  -4.1509  -4.1255  -4.0933  -4.0609  -4.0283
    -3.9153  -3.9016  -3.8435  -3.8083  -3.7899  -3.7547  -3.6890  -3.6568
    -3.6360  -3.5997  -3.5867  -3.5664  -3.5512  -3.5245  -3.4422  -3.3779
    -3.3440  -3.2507  -3.2141  -3.1808  -3.1441  -3.0651  -2.9816  -2.8972
    -2.8689  -2.7441  -2.7349  -2.7153  -2.6624  -2.5120  -2.5072  -2.4658
    -2.4566  -2.4233  -2.4079  -2.3930  -2.3573  -2.3444  -2.3286  -2.2599
    -2.2473  -2.1989  -2.1584  -2.1389  -2.1148  -2.1042  -2.0543  -1.9839
    -1.9295  -1.8233  -1.8047  -1.6187  -1.6185  -1.6158  -1.5849  -1.4813
    -1.4580  -1.1135  -0.9103  -0.5956  -0.5367  -0.5342  -0.2052  -0.2005
    -0.0511   1.2804   1.4089   1.4890   1.5900   1.5986   1.7464   1.7709
     1.8025   1.8594   1.8698   1.9182   1.9447

     the Fermi energy is     1.4116 ev

!    total energy              =   -3290.70543817 Ry
     estimated scf accuracy    <       0.00000005 Ry
     smearing contrib. (-TS)   =      -0.04693422 Ry
     internal energy E=F+TS    =   -3290.65850395 Ry

     The total energy is F=E-TS. E is the sum of the following terms:
     one-electron contribution =  -33574.73195857 Ry
     hartree contribution      =   16850.78635571 Ry
     xc contribution           =    -540.47755772 Ry
     ewald contribution        =   13973.76200960 Ry
     electric field correction =       0.00264703 Ry

     convergence has been achieved in  19 iterations

     Forces acting on atoms (cartesian axes, Ry/au):

     atom    1 type  1   force =     0.00048722    0.00580162    0.06747062
     atom    2 type  1   force =    -0.00005917   -0.00016695    0.00016371
     atom    3 type  1   force =     0.00028817    0.00011981    0.00051768
     atom    4 type  1   force =     0.00003007    0.00048393    0.10981288
     atom    5 type  1   force =     0.00004049   -0.00009014   -0.00000006
     atom    6 type  1   force =    -0.00005724   -0.00020562    0.00004624
     atom    7 type  1   force =     0.05198687    0.00031279   -0.02932527
     atom    8 type  1   force =     0.00022313   -0.00004453    0.00008969
     atom    9 type  1   force =    -0.00019689    0.00010655    0.00006722
     atom   10 type  2   force =     0.00010829   -0.00649459   -0.20044711
     atom   11 type  2   force =    -0.00018803   -0.00000310    0.00008625
     atom   12 type  2   force =    -0.00022644   -0.00016168    0.00002372
     atom   13 type  1   force =    -0.05209893   -0.00006305   -0.02866235
     atom   14 type  1   force =    -0.00048217    0.00020639    0.00004980
     atom   15 type  1   force =    -0.00010741   -0.00001091    0.00033957
     atom   16 type  2   force =    -0.00038003   -0.00110748    0.07728640
     atom   17 type  2   force =     0.00021833    0.00041626    0.00003540
     atom   18 type  2   force =     0.00002740   -0.00025855   -0.00013044
     atom   19 type  1   force =     0.00085672    0.00180800    0.07330277
     atom   20 type  1   force =    -0.00010643    0.00005057   -0.00023334
     atom   21 type  1   force =     0.00005642    0.00058847    0.11113761
     atom   22 type  1   force =     0.00000787    0.00002726   -0.00008649
     atom   23 type  1   force =    -0.00023358    0.00017811   -0.00021443
     atom   24 type  1   force =     0.05161527   -0.00056239   -0.02927062
     atom   25 type  1   force =     0.00001311    0.00003047   -0.00007360
     atom   26 type  1   force =    -0.00038444    0.00005810   -0.00004906
     atom   27 type  2   force =     0.00004475    0.00252669   -0.20308746
     atom   28 type  2   force =     0.00018007   -0.00018528    0.00025070
     atom   29 type  2   force =    -0.00022919   -0.00001247    0.00021002
     atom   30 type  1   force =    -0.05175810   -0.00095237   -0.02850969
     atom   31 type  1   force =     0.00036941    0.00001167    0.00011437
     atom   32 type  1   force =     0.00022110   -0.00018688    0.00006646
     atom   33 type  2   force =    -0.00033154   -0.00132161    0.07736798
     atom   34 type  2   force =    -0.00019452   -0.00010612    0.00002900
     atom   35 type  2   force =     0.00016913    0.00035226   -0.00016548
     atom   36 type  1   force =     0.00010634    0.00100937    0.06782754
     atom   37 type  1   force =     0.00008967    0.00000665    0.00002506
     atom   38 type  1   force =     0.00031667   -0.00006362    0.00070247
     atom   39 type  1   force =     0.00009319   -0.00144255    0.11033024
     atom   40 type  1   force =     0.00002163   -0.00004834    0.00002801
     atom   41 type  1   force =    -0.00009439   -0.00019042    0.00016772
     atom   42 type  1   force =     0.05235070   -0.00066564   -0.02888637
     atom   43 type  1   force =    -0.00017936   -0.00001945    0.00001882
     atom   44 type  1   force =     0.00021469   -0.00033272   -0.00012624
     atom   45 type  2   force =     0.00021052    0.00207169   -0.19737401
     atom   46 type  2   force =     0.00006750    0.00012180   -0.00004566
     atom   47 type  2   force =    -0.00003251    0.00024689   -0.00012038
     atom   48 type  1   force =    -0.05251394   -0.00111577   -0.02824760
     atom   49 type  1   force =     0.00010570   -0.00002235    0.00008538
     atom   50 type  1   force =    -0.00002774    0.00009827   -0.00003173
     atom   51 type  2   force =    -0.00034503   -0.00051446    0.07793026
     atom   52 type  2   force =     0.00024616   -0.00011397    0.00007930
     atom   53 type  2   force =    -0.00024472   -0.00004566    0.00009401
     atom   54 type  3   force =    -0.00006300    0.00033180   -0.00052998
     atom   55 type  3   force =    -0.00031514   -0.00037498   -0.00038153
     atom   56 type  4   force =    -0.00002196   -0.00068588    0.00076531
     atom   57 type  4   force =     0.00010539    0.00060411   -0.00052330

     Total force =     0.459206     Total SCF correction =     0.000823
  @ DRIVER MODE: Message from server: STATUS
  @ DRIVER MODE: Message from server: GETFORCE
  @ DRIVER MODE: Returning v,forces,stress,ensemble

     Writing config to output data dir ./calc.save/
     Message from routine punch:
     wavefunctions written to file
  @ DRIVER MODE: Message from server: STATUS
  @ DRIVER MODE: Message from server: INIT
  @ DRIVER MODE: Receiving replica           0           0
  @ DRIVER MODE: Receiving encoded integer           2
  @ DRIVER MODE:  SCF:  T  FORCE:  T  STRESS:  F  VC:  F  ENSEMBLE:  F
  @ DRIVER MODE:  SCF:  F  FORCE:  F  STRESS:  F  VC:  F  ENSEMBLE:  T
  @ DRIVER MODE: Message from server: STATUS
  @ DRIVER MODE: Message from server: POSDATA
  @ DRIVER MODE: Reading and sharing positions
  @ DRIVER MODE: Received positions
     NEW-OLD atomic charge density approx. for the potential

[...]

     Adding external electric field

     Computed dipole along edir(3) :
        Dipole                1.4505 Ry au,          3.6869 Debye
        Dipole field          0.0018 Ry au,

        Potential amp.       -0.1692 Ry
        Total length         46.3494 bohr

  @ DRIVER MODE: BEEF-vdw

[...]

     negative rho (up, down):  3.501E-02 0.000E+00

     negative rho (up, down):  3.501E-02 0.000E+00
 BEEFens 2000 ensemble energies
             -0.387897440392786E+02
             -0.224984734246884E+01
             -0.800915912526224E+01
              0.269375276205380E+02
             -0.133635572954635E+02
             -0.103303223498807E+02
             -0.269311256052386E+02
             -0.563237164073403E+02
             -0.241088866186307E+02
             -0.253528479255391E+02
             -0.234591167129575E+02
              0.474740648075729E+01
              0.221125066812894E+01
             -0.114968365650782E+01
              0.193598495786415E+01
              0.296646684763061E+02
             -0.114666798807837E+02
             -0.811309351697537E+01
              0.130725051924559E+02
             -0.693435617559988E+02
              0.347272103177065E+02
             -0.149070091417086E+02
             -0.270060762642628E+01
             -0.629655815007264E+01
             -0.108951932094840E+01
             -0.242179284480792E+01
              0.537902484278809E+02
             -0.167480322554251E+02
             -0.452763152926309E+01
             -0.339496277963380E+02
              0.439852706881121E+02
             -0.491773469324256E+01
             -0.238943580694788E+02
              0.126031517781546E+02
             -0.230367947843442E+01
              0.145063450803353E+02
             -0.636207967947115E+00
              0.310808890579327E+01
              0.211118984973316E+02
             -0.612255950998562E+02
              0.341082428392266E+02
              0.909075007971417E+01
             -0.697410805104437E+01
             -0.195926263829514E+02
              0.771612836876278E+01
             -0.122524636979061E+02
              0.278362892265517E+02
              0.222839836783154E+02
             -0.143882975588423E+02
             -0.182991087274273E+02
             -0.193090717873229E+02
             -0.232744376583038E+02
              0.117688957213125E+02
             -0.303353101530672E+02
              0.928672467382501E+01
              0.387524617825344E+02
              0.446124753820535E+02
              0.208447350045371E+02
              0.933808835130714E+01
              0.193979457505155E+02
[...]
             -0.456507687436384E+02
              0.309513674536356E+01
             -0.158959412556748E+01
             -0.635481227892302E+01
              0.484575341300797E-01
             -0.406723542361877E+02
             -0.790248059158868E+01
              0.550693505552589E+01
              0.827025247283194E+01
              0.304452787661232E+02
             -0.265878953768118E+02
              0.348381324737368E+02
             -0.248952504746073E+02
              0.159750726399541E+02
              0.251610690392477E+02

 BEEF-vdW xc energy contributions
           1 :   -457.984293244029
           2 :    398.725060869171
           3 :   -303.498917392233
           4 :    204.553180332323
           5 :   -127.090175330696
           6 :    80.7809538028689
           7 :   -61.2843623654887
           8 :    57.5101177040930
           9 :   -59.1141281700089
          10 :    60.3497637397265
          11 :   -59.8469695335255
          12 :    58.1660596919853
          13 :   -55.7016019730854
          14 :    52.1222509932271
          15 :   -47.0303711914048
          16 :    40.7051042255118
          17 :   -34.2413424987733
          18 :    29.0172231631835
          19 :   -25.9782381856716
          20 :    25.2289602857409
          21 :   -26.1567850007353
          22 :    27.8689281784076
          23 :   -29.5789449737920
          24 :    30.7192668607261
          25 :   -30.9114986208336
          26 :    29.9665348178797
          27 :   -27.9252962943462
          28 :    25.0669260188844
          29 :   -21.8866210467185
          30 :    19.0164419119761
          31 :   -53.6918950417783
          32 :   -36.3801565833362
  @ DRIVER MODE: Message from server: STATUS
  @ DRIVER MODE: Message from server: GETFORCE
  @ DRIVER MODE: Returning v,forces,stress,ensemble
  @ DRIVE MODE: Returning Ensemble Energies

     Writing config to output data dir ./calc.save/
     Message from routine punch:
     wavefunctions written to file
  @ DRIVER MODE: Message from server: EXIT
  @ DRIVE MODE: Exiting

     General routines

     Parallel routines

   This run was terminated on:   3: 6:29  16Oct2021

   JOB DONE.