     Program PWSCF v.6.7GPU starts on 23Sep2021 at  2:38:51

     R & G space division:  proc/nbgrp/npool/nimage =      10
     Reading input from /storage/home/hcoda1/3/ntian30/research/carbon/CxH_vib/H2O_calc/ads_slab/CHNHNHHO_b/out_0032/pw.inp
Warning: card &CELL ignored
Warning: card   CELL_DYNAMICS='IPI', ignored
Warning: card / ignored

     Current dimensions of program PWSCF are:
     Max number of different atomic species (ntypx) = 10
     Max number of k-points (npk) =  40000
     Max angular momentum in pseudopotentials (lmaxx) =  3
     Presently no symmetry can be used with electric field

     Message from routine cell_base_init:
     DEPRECATED: use true lattice parameter, not A to a.u. conversion factor

     IMPORTANT: XC functional enforced from input :
     Exchange-correlation= BEEF-VDW
                           (   1   4  43  14   2   0   0)
     Any further DFT definition will be discarded
     Please, verify this is what you really want

  @ DRIVER MODE: Connecting to
 qe_1139763_2937316.sched-torque.pace.gatech.edu6e3z7ktz_scratch
  using UNIX socket
  @ DRIVER MODE: Message from server: STATUS
  @ DRIVER MODE: Message from server: INIT
  @ DRIVER MODE: Receiving replica           0          -1
  @ DRIVER MODE: Receiving encoded integer          25
  @ DRIVER MODE:  SCF:  T  FORCE:  T  STRESS:  F  VC:  F  ENSEMBLE:  F
  @ DRIVER MODE:  SCF:  T  FORCE:  T  STRESS:  F  VC:  F  ENSEMBLE:  F

     Using Slab Decomposition

     bravais-lattice index     =            0
     lattice parameter (alat)  =       1.8897  a.u.
     unit-cell volume          =    6658.9804 (a.u.)^3
     number of atoms/cell      =           55
     number of atomic types    =            5
     number of electrons       =       402.00
     number of Kohn-Sham states=          211
     kinetic-energy cutoff     =      29.3995  Ry
     charge density cutoff     =     293.9946  Ry
     scf convergence threshold =      7.3E-08
     mixing beta               =       0.0500
     number of iterations used =            8  plain     mixing
     Exchange-correlation= BEEF-VDW
                           (   1   4  43  14   2   0   0)

     celldm(1)=   1.889726  celldm(2)=   0.000000  celldm(3)=   0.000000
     celldm(4)=   0.000000  celldm(5)=   0.000000  celldm(6)=   0.000000

     crystal axes: (cart. coord. in units of alat)
               a(1) = (   6.579727   0.000000   0.000000 )
               a(2) = (  -0.000775   5.961596   0.000000 )
               a(3) = (   0.000000   0.000000  25.155947 )

     reciprocal axes: (cart. coord. in units 2 pi/alat)
               b(1) = (  0.151982  0.000020  0.000000 )
               b(2) = (  0.000000  0.167740  0.000000 )
               b(3) = (  0.000000  0.000000  0.039752 )

     PseudoPot. # 1 for Ti read from file:
     /storage/coda1/p-amedford6/0/shared/rich_project_chbe-medford/medford-share/data/pseudos_module/espresso/nninc/pbe/van/Ti.UPF
     MD5 check sum: 8e4df49b7f0d34bbd5052bf3f5ea0213
     Pseudo is Ultrasoft, Zval = 12.0
     Generated by new atomic code, or converted to UPF format
     Using radial grid of  851 points,  6 beta functions with:
                l(1) =   0
                l(2) =   0
                l(3) =   1
                l(4) =   1
                l(5) =   2
                l(6) =   2
     Q(r) pseudized with  8 coefficients,  rinner =    1.000   1.000   1.000
                                                       1.000   1.000

     PseudoPot. # 2 for O  read from file:
     /storage/coda1/p-amedford6/0/shared/rich_project_chbe-medford/medford-share/data/pseudos_module/espresso/nninc/pbe/van/O.UPF
     MD5 check sum: 78c19812648e8988a0fe644b0f25305e
     Pseudo is Ultrasoft, Zval =  6.0
     Generated by new atomic code, or converted to UPF format
     Using radial grid of  737 points,  4 beta functions with:
                l(1) =   0
                l(2) =   0
                l(3) =   1
                l(4) =   1
     Q(r) pseudized with  8 coefficients,  rinner =    0.800   0.800   0.800

     PseudoPot. # 3 for N  read from file:
     /storage/coda1/p-amedford6/0/shared/rich_project_chbe-medford/medford-share/data/pseudos_module/espresso/nninc/pbe/van/N.UPF
     MD5 check sum: 90d10febe142ad51ac9d5be1deb811c4
     Pseudo is Ultrasoft, Zval =  5.0
     Generated by new atomic code, or converted to UPF format
     Using radial grid of  729 points,  4 beta functions with:
                l(1) =   0
                l(2) =   0
                l(3) =   1
                l(4) =   1
     Q(r) pseudized with  8 coefficients,  rinner =    0.800   0.800   0.800

     PseudoPot. # 4 for C  read from file:
     /storage/coda1/p-amedford6/0/shared/rich_project_chbe-medford/medford-share/data/pseudos_module/espresso/nninc/pbe/van/C.UPF
     MD5 check sum: 1a69bf6b8db32088f5b2163dbdb77a27
     Pseudo is Ultrasoft, Zval =  4.0
     Generated by new atomic code, or converted to UPF format
     Using radial grid of  721 points,  4 beta functions with:
                l(1) =   0
                l(2) =   0
                l(3) =   1
                l(4) =   1
     Q(r) pseudized with  8 coefficients,  rinner =    0.800   0.800   0.800

     PseudoPot. # 5 for H  read from file:
     /storage/coda1/p-amedford6/0/shared/rich_project_chbe-medford/medford-share/data/pseudos_module/espresso/nninc/pbe/van/H.UPF
     MD5 check sum: b5ee9d7bfd3a09ee7748110bda690ff7
     Pseudo is Ultrasoft, Zval =  1.0
     Generated by new atomic code, or converted to UPF format
     Using radial grid of  615 points,  1 beta functions with:
                l(1) =   0
     Q(r) pseudized with  8 coefficients,  rinner =    0.800

     atomic species   valence    mass     pseudopotential
        Ti1           12.00    47.86700     Ti( 1.00)
        O1             6.00    15.99900     O ( 1.00)
        N1             5.00    14.00700     N ( 1.00)
        C1             4.00    12.01100     C ( 1.00)
        H1             1.00     1.00800     H ( 1.00)

     No symmetry found

   Cartesian axes

     site n.     atom                  positions (alat units)
         1           Ti1 tau(   1) = (   0.0004258   2.9801865   6.0000000  )
         2           Ti1 tau(   2) = (   3.2906075   1.4906267   6.0002472  )
         3           O1  tau(   3) = (   0.0006271   0.0005054   7.9858123  )
         4           O1  tau(   4) = (   3.2906025   0.0005020   7.3038282  )
         5           O1  tau(   5) = (   4.5942328   1.4918067   9.2879030  )
         6           O1  tau(   6) = (   1.9868534   1.4903216   9.2879459  )
         7           Ti1 tau(   7) = (   3.2907910   2.8959150   9.1758416  )
         8           Ti1 tau(   8) = (   0.0015273   1.4827037   9.2680791  )
         9           O1  tau(   9) = (   3.2644249   0.0086278  11.2869930  )
        10           O1  tau(  10) = (   0.0116148   5.9584955  10.6183126  )
        11           O1  tau(  11) = (   1.2700591   1.4733127  12.6309263  )
        12           O1  tau(  12) = (   5.2751843   1.4954020  12.5848179  )
        13           Ti1 tau(  13) = (   6.5455424   3.1153876  12.7101385  )
        14           Ti1 tau(  14) = (   3.2833704   1.6184148  12.4736748  )
        15           O1  tau(  15) = (   6.4599305   0.0050319  14.6091115  )
        16           O1  tau(  16) = (   3.3300269   5.9263713  13.9180617  )
        17           O1  tau(  17) = (   4.5165145   1.5716339  16.0125648  )
        18           O1  tau(  18) = (   1.9127028   1.4417528  15.8564018  )
        19           Ti1 tau(  19) = (   3.2288969   3.0847727  15.7886749  )
        20           Ti1 tau(  20) = (   6.4478006   1.4606891  15.8161894  )
        21           O1  tau(  21) = (   3.2904802   0.0005063   4.7018136  )
        22           O1  tau(  22) = (   6.4882405   0.0114324  17.1415363  )
        23           O1  tau(  23) = (   1.3043587   1.4918075   6.0039043  )
        24           O1  tau(  24) = (   5.2767064   1.4903225   6.0039473  )
        25           Ti1 tau(  25) = (   0.0000382   5.9609847   6.0000000  )
        26           Ti1 tau(  26) = (   3.2902200   4.4714249   6.0002472  )
        27           O1  tau(  27) = (   0.0002396   2.9813036   7.9858123  )
        28           O1  tau(  28) = (   3.2902150   2.9813002   7.3038282  )
        29           O1  tau(  29) = (   4.5938453   4.4726049   9.2879030  )
        30           O1  tau(  30) = (   1.9864658   4.4711199   9.2879459  )
        31           Ti1 tau(  31) = (   3.2891106   5.8743827   9.1763621  )
        32           Ti1 tau(  32) = (   0.0006254   4.4649316   9.2693709  )
        33           O1  tau(  33) = (   3.2692249   2.9538419  11.2423542  )
        34           O1  tau(  34) = (   0.0092240   2.9805883  10.6323155  )
        35           O1  tau(  35) = (   1.2565178   4.4877289  12.6449601  )
        36           O1  tau(  36) = (   5.2732762   4.4628510  12.5929129  )
        37           Ti1 tau(  37) = (   6.5734634   0.1294159  12.5697125  )
        38           Ti1 tau(  38) = (   3.2704022   4.6437612  12.6513646  )
        39           O1  tau(  39) = (   6.5063912   2.9643141  14.6466205  )
        40           O1  tau(  40) = (   3.2471416   2.9787476  13.8564769  )
        41           O1  tau(  41) = (   4.5405411   4.3625105  16.0593999  )
        42           O1  tau(  42) = (   1.9254132   4.5167653  15.8604027  )
        43           Ti1 tau(  43) = (   3.1528194   0.1083906  16.0566338  )
        44           Ti1 tau(  44) = (   6.5270785   4.6226534  15.9816197  )
        45           O1  tau(  45) = (   3.2900926   2.9813045   4.7018136  )
        46           O1  tau(  46) = (   1.3039711   4.4726057   6.0039043  )
        47           O1  tau(  47) = (   5.2763189   4.4711207   6.0039473  )
        48           N1  tau(  48) = (   1.2829970   2.9130689  18.3045482  )
        49           N1  tau(  49) = (   0.1654257   2.9641015  17.4510142  )
        50           C1  tau(  50) = (   2.5260228   2.9473648  17.9488278  )
        51           H1  tau(  51) = (   3.1619500   2.8785295  18.8336233  )
        52           H1  tau(  52) = (   1.0209804   2.8219014  19.2831343  )
        53           H1  tau(  53) = (   5.9403595   2.9248499  18.0583253  )
        54           O1  tau(  54) = (   3.2854906   0.0173217  17.9285145  )
        55           H1  tau(  55) = (   4.1908827   5.7946650  18.2246816  )

     number of k points=    10  Fermi-Dirac smearing, width (Ry)=  0.0073
                       cart. coord. in units 2pi/alat
        k(    1) = (   0.0000000   0.0000000   0.0000000), wk =   0.1250000
        k(    2) = (   0.0000000   0.0419351   0.0000000), wk =   0.2500000
        k(    3) = (   0.0000000  -0.0838702   0.0000000), wk =   0.1250000
        k(    4) = (   0.0379955   0.0000049   0.0000000), wk =   0.2500000
        k(    5) = (   0.0379955   0.0419400   0.0000000), wk =   0.2500000
        k(    6) = (   0.0379955  -0.0838652   0.0000000), wk =   0.2500000
        k(    7) = (   0.0379955  -0.0419301   0.0000000), wk =   0.2500000
        k(    8) = (  -0.0759910  -0.0000099   0.0000000), wk =   0.1250000
        k(    9) = (  -0.0759910   0.0419252   0.0000000), wk =   0.2500000
        k(   10) = (  -0.0759910  -0.0838800   0.0000000), wk =   0.1250000

     Initial potential from superposition of free atoms

     starting charge  385.99915, renormalised to  402.00000

     negative rho (up, down):  1.797E-02 0.000E+00

     %%%%%%%%%%%%%%%%%%%%%%%%%%%%%%%%%%%%%%%%%%%%%%%%%%%%%%%%%%%%%%%%%%%%%%%%
     %                                                                      %
     % You are using vdW-DF, which was implemented by the Thonhauser group. %
     % Please cite the following two papers that made this development      %
     % possible and the two reviews that describe the various versions:     %
     %                                                                      %
     %   T. Thonhauser et al., PRL 115, 136402 (2015).                      %
     %   T. Thonhauser et al., PRB 76, 125112 (2007).                       %
     %   K. Berland et al., Rep. Prog. Phys. 78, 066501 (2015).             %
     %   D.C. Langreth et al., J. Phys.: Condens. Matter 21, 084203 (2009). %
     %                                                                      %
     %                                                                      %
     % If you are calculating the stress with vdW-DF, please also cite:     %
     %                                                                      %
     %   R. Sabatini et al., J. Phys.: Condens. Matter 24, 424209 (2012).   %
     %                                                                      %
     %%%%%%%%%%%%%%%%%%%%%%%%%%%%%%%%%%%%%%%%%%%%%%%%%%%%%%%%%%%%%%%%%%%%%%%%

     Adding external electric field

     Computed dipole along edir(3) :
        Dipole              -10.6951 Ry au,        -27.1842 Debye
        Dipole field         -0.0202 Ry au,

        Potential amp.        1.8709 Ry
        Total length         46.3494 bohr

     Starting wfcs are  304 atomic wfcs
  @ DRIVER MODE: Message from server: STATUS
  @ DRIVER MODE: Message from server: POSDATA
  @ DRIVER MODE: Reading and sharing cell
  @ DRIVER MODE: Reading and sharing positions
  @ DRIVER MODE: Received positions

     Self-consistent Calculation

     iteration #  1     ecut=    29.40 Ry     beta= 0.05
     Davidson diagonalization with overlap
     c_bands:  2 eigenvalues not converged
     c_bands:  4 eigenvalues not converged
     c_bands:  4 eigenvalues not converged
     c_bands:  4 eigenvalues not converged
     c_bands:  3 eigenvalues not converged
     c_bands:  3 eigenvalues not converged
     c_bands:  2 eigenvalues not converged
     c_bands:  4 eigenvalues not converged
     c_bands:  4 eigenvalues not converged
     ethr =  1.00E-05,  avg # of iterations = 21.9

[...]

     total energy              =   -2416.33950421 Ry
     estimated scf accuracy    <    6205.65191288 Ry

     iteration #  2     ecut=    29.40 Ry     beta= 0.05
     Davidson diagonalization with overlap
     ethr =  1.00E-02,  avg # of iterations = 25.6

[...]

     iteration # 65     ecut=    29.40 Ry     beta= 0.05
     Davidson diagonalization with overlap
     c_bands:  1 eigenvalues not converged
     ethr =  1.95E-07,  avg # of iterations =  8.0

[...]

     total energy              =   -2972.68736771 Ry
     estimated scf accuracy    <       0.00000011 Ry

     iteration # 92     ecut=    29.40 Ry     beta= 0.05
     Davidson diagonalization with overlap
     ethr =  2.15E-11,  avg # of iterations =  2.0

     negative rho (up, down):  1.823E-02 0.000E+00

     Adding external electric field

     Computed dipole along edir(3) :
        Dipole                0.6950 Ry au,          1.7666 Debye
        Dipole field          0.0013 Ry au,

        Potential amp.       -0.1216 Ry
        Total length         46.3494 bohr

     End of self-consistent calculation

          k = 0.0000 0.0000 0.0000 ( 18029 PWs)   bands (ev):

   -56.6071 -56.5736 -55.7187 -55.6850 -55.4152 -55.3714 -55.1435 -55.1097
   -54.9718 -54.9633 -54.9325 -54.8932 -54.8133 -54.7848 -54.7821 -54.7098
   -33.0254 -32.8795 -32.8515 -32.7853 -32.6952 -32.6525 -32.2073 -31.9413
   -31.9033 -31.9019 -31.8656 -31.8541 -31.8291 -31.6442 -31.6348 -31.6073
   -31.5725 -31.5279 -31.5149 -31.4919 -31.4675 -31.4673 -31.4488 -31.3788
   -31.3461 -31.2878 -31.2754 -31.2669 -31.2327 -31.2287 -31.1778 -31.1646
   -31.1553 -31.1132 -31.1082 -31.0948 -31.0687 -31.0622 -31.0607 -31.0239
   -31.0085 -31.0053 -30.9978 -30.9863 -30.9431 -30.9211 -30.9172 -30.9026
   -18.0724 -16.7074 -16.1536 -15.9197 -15.7971 -15.7786 -15.7701 -15.7534
   -15.5609 -15.5106 -15.4075 -15.3295 -15.3060 -15.0731 -15.0480 -14.9758
   -14.8439 -14.8090 -14.7251 -14.6993 -14.6894 -14.6091 -14.5942 -14.5090
   -14.4589 -14.4416 -14.3536 -14.2458 -14.1920 -14.0806 -14.0367 -13.6413
   -13.5349 -12.9865  -8.2635  -6.7863  -4.2813  -3.8353  -3.6189  -3.4610
    -3.3002  -3.2658  -3.1181  -3.0886  -3.0441  -3.0118  -2.9537  -2.9374
    -2.8647  -2.8448  -2.7434  -2.7138  -2.6592  -2.6402  -2.4094  -2.3513
    -2.3150  -2.3132  -2.2097  -2.1338  -2.1112  -2.1065  -2.0376  -1.9669
    -1.9090  -1.8633  -1.8456  -1.8244  -1.8006  -1.7009  -1.6156  -1.6034
    -1.5975  -1.5542  -1.4446  -1.4145  -1.3930  -1.3323  -1.2681  -1.2073
    -1.1742  -1.1517  -1.0526  -1.0418  -0.9389  -0.9111  -0.8761  -0.8206
    -0.7418  -0.7149  -0.5956  -0.5850  -0.4778  -0.4707  -0.4435  -0.4376
    -0.3378  -0.2574  -0.2038  -0.1518  -0.1275  -0.1064  -0.0476  -0.0411
    -0.0041   0.0318   0.1076   0.2003   0.2630   0.2983   0.3411   0.4961
     0.5375   0.5680   0.5819   0.6702   0.7142   0.7360   0.7692   0.8471
     0.8745   0.8772   0.9764   1.0144   1.0543   1.0784   1.1375   1.1742
     1.2027   1.3800   1.4120   1.4334   1.4542   1.5298   1.7645   1.7981
     1.9340   2.6876   2.8610   3.1304   3.2868   3.6531   3.6732   3.6916
     3.6928   3.9711   4.1411

[...]

          k = 0.0380-0.0419 0.0000 ( 17876 PWs)   bands (ev):

[...]

          k =-0.0760-0.0000 0.0000 ( 17886 PWs)   bands (ev):

[...]

          k =-0.0760-0.0839 0.0000 ( 17948 PWs)   bands (ev):

   -56.5905 -56.5900 -55.7035 -55.7000 -55.4072 -55.3793 -55.1266 -55.1265
   -54.9699 -54.9590 -54.9308 -54.8975 -54.8106 -54.7852 -54.7848 -54.7125
   -32.8654 -32.8651 -32.8431 -32.8422 -32.7389 -32.7389 -32.0301 -32.0259
   -31.9009 -31.8930 -31.8773 -31.8764 -31.7201 -31.6986 -31.6320 -31.6241
   -31.6058 -31.6007 -31.4804 -31.4804 -31.3857 -31.3457 -31.3453 -31.3071
   -31.3066 -31.2914 -31.2705 -31.2458 -31.2226 -31.2082 -31.1952 -31.1891
   -31.1727 -31.1467 -31.1442 -31.1328 -31.1189 -31.0999 -31.0787 -31.0621
   -31.0498 -31.0403 -31.0261 -31.0147 -31.0095 -30.9615 -30.9222 -30.9098
   -18.0674 -16.0721 -16.0691 -16.0173 -16.0167 -15.7696 -15.7621 -15.7014
   -15.4590 -15.4536 -15.2661 -15.1533 -15.1312 -15.0731 -15.0691 -14.9366
   -14.9168 -14.8985 -14.8106 -14.7602 -14.7274 -14.7054 -14.6411 -14.5722
   -14.4613 -14.4435 -14.4295 -14.3939 -14.3383 -14.2448 -14.2062 -13.6397
   -13.6389 -13.0072  -8.2554  -6.7068  -3.9855  -3.2941  -3.1357  -3.1347
    -3.1341  -3.1128  -2.9095  -2.8936  -2.8851  -2.7147  -2.6212  -2.6158
    -2.6134  -2.4746  -2.4427  -2.4375  -2.4173  -2.4026  -2.3281  -2.3137
    -2.3101  -2.2745  -2.2521  -2.0975  -2.0893  -2.0404  -1.9726  -1.9627
    -1.9402  -1.9064  -1.8417  -1.8040  -1.7995  -1.7818  -1.7642  -1.7441
    -1.6988  -1.6500  -1.4474  -1.4004  -1.3838  -1.3639  -1.3192  -1.3102
    -1.2912  -1.2329  -1.1954  -1.1860  -1.1612  -1.1334  -1.0603  -1.0409
    -0.9953  -0.8630  -0.8149  -0.7871  -0.7513  -0.6581  -0.6185  -0.5902
    -0.5576  -0.4698  -0.4129  -0.3798  -0.3021  -0.2644  -0.2189  -0.1936
    -0.1701  -0.1246  -0.1059   0.0023   0.0582   0.0899   0.1128   0.1982
     0.3279   0.3437   0.3974   0.4461   0.5387   0.5775   0.6553   0.6977
     0.7803   0.8584   0.9292   1.0793   1.1151   1.1707   1.2373   1.2541
     1.2558   1.2847   1.2960   1.3395   1.3610   1.4452   1.5204   1.6798
     1.6984   3.2825   3.2839   3.3416   3.3451   3.6503   3.6566   3.7593
     3.7664   4.0775   4.1276

     the Fermi energy is     2.3646 ev

!    total energy              =   -2972.68737246 Ry
     estimated scf accuracy    <       0.00000006 Ry
     smearing contrib. (-TS)   =      -0.00151988 Ry
     internal energy E=F+TS    =   -2972.68585258 Ry

     The total energy is F=E-TS. E is the sum of the following terms:
     one-electron contribution =  -24519.67831506 Ry
     hartree contribution      =   12356.13641245 Ry
     xc contribution           =    -493.19850169 Ry
     ewald contribution        =    9684.05364006 Ry
     electric field correction =       0.00091166 Ry

     convergence has been achieved in  92 iterations

     Forces acting on atoms (cartesian axes, Ry/au):

     atom    1 type  1   force =     0.00016030   -0.00060986    0.12519039
     atom    2 type  1   force =     0.00002396    0.00003204   -0.15412695
     atom    3 type  2   force =    -0.00003025   -0.00028129   -0.06549907
     atom    4 type  2   force =    -0.00011328    0.00074330    0.01449666
     atom    5 type  2   force =     0.00025109   -0.00326039   -0.01521253
     atom    6 type  2   force =     0.00026086   -0.00242356   -0.01817672
     atom    7 type  1   force =    -0.00129801   -0.00082508    0.06317148
     atom    8 type  1   force =     0.00164978    0.01847595    0.09184789
     atom    9 type  2   force =     0.00018110   -0.00020243   -0.00010006
     atom   10 type  2   force =    -0.00307491    0.00125937   -0.06785352
     atom   11 type  2   force =    -0.00036239   -0.00020319   -0.00022099
     atom   12 type  2   force =    -0.00028316    0.00043636    0.00014981
     atom   13 type  1   force =     0.00102688    0.00024066   -0.00005354
     atom   14 type  1   force =    -0.00051355    0.00062001   -0.00057686
     atom   15 type  2   force =    -0.00005215    0.00062861    0.00014909
     atom   16 type  2   force =     0.00007941    0.00019003   -0.00020355
     atom   17 type  2   force =    -0.00026206    0.00018036   -0.00014704
     atom   18 type  2   force =     0.00082539   -0.00061800    0.00004973
     atom   19 type  1   force =    -0.00031876   -0.00034157   -0.00014620
     atom   20 type  1   force =     0.00058734   -0.00037546   -0.00027132
     atom   21 type  2   force =     0.00008272    0.00005188    0.09748190
     atom   22 type  2   force =    -0.00021613    0.00022693    0.00045007
     atom   23 type  2   force =    -0.08326418    0.00001222   -0.03310653
     atom   24 type  2   force =     0.08317592    0.00045540   -0.03312504
     atom   25 type  1   force =     0.00014972   -0.00036362    0.12541837
     atom   26 type  1   force =    -0.00002689   -0.00122960   -0.15379295
     atom   27 type  2   force =    -0.00002156   -0.00014767   -0.06358526
     atom   28 type  2   force =     0.00000307    0.00070976    0.01024506
     atom   29 type  2   force =    -0.00226150    0.00250674   -0.01350468
     atom   30 type  2   force =     0.00264538    0.00282349   -0.01638931
     atom   31 type  1   force =    -0.00126613   -0.00143230    0.06110533
     atom   32 type  1   force =     0.00158123   -0.01942872    0.09389607
     atom   33 type  2   force =     0.00025897    0.00001131   -0.00020969
     atom   34 type  2   force =    -0.00075848    0.00124475   -0.07928363
     atom   35 type  2   force =     0.00028452   -0.00003540    0.00008982
     atom   36 type  2   force =    -0.00052792    0.00015205    0.00040343
     atom   37 type  1   force =     0.00094399    0.00012664    0.00035038
     atom   38 type  1   force =    -0.00055797   -0.00027443   -0.00005304
     atom   39 type  2   force =     0.00035639    0.00012582   -0.00000497
     atom   40 type  2   force =    -0.00015476    0.00011111    0.00042658
     atom   41 type  2   force =    -0.00021127   -0.00004606   -0.00040835
     atom   42 type  2   force =     0.00048952   -0.00026218    0.00027770
     atom   43 type  1   force =    -0.00097512   -0.00038979   -0.00049562
     atom   44 type  1   force =     0.00026203    0.00087895   -0.00026853
     atom   45 type  2   force =     0.00007247    0.00005805    0.09734035
     atom   46 type  2   force =    -0.08320687   -0.00003557   -0.03309061
     atom   47 type  2   force =     0.08315283    0.00038039   -0.03309576
     atom   48 type  3   force =     0.00165438   -0.00007761   -0.00071300
     atom   49 type  3   force =     0.01066604    0.00028606   -0.00559664
     atom   50 type  4   force =     0.00043734   -0.00027636    0.00027148
     atom   51 type  5   force =    -0.00014541   -0.00021819   -0.00035640
     atom   52 type  5   force =     0.00014215   -0.00013967   -0.00054412
     atom   53 type  5   force =    -0.01188002   -0.00069437    0.00696885
     atom   54 type  2   force =     0.00010159    0.00045301    0.00055386
     atom   55 type  5   force =     0.00027636    0.00077114   -0.00012179

     Total force =     0.420154     Total SCF correction =     0.000857
  @ DRIVER MODE: Message from server: STATUS
  @ DRIVER MODE: Message from server: GETFORCE
  @ DRIVER MODE: Returning v,forces,stress,ensemble

     Writing output data file ./calc.save/
  @ DRIVER MODE: Message from server: EXIT
  @ DRIVE MODE: Exiting

     General routines

     Parallel routines

   This run was terminated on:   3: 4:16  23Sep2021

   JOB DONE.