     Program PWSCF v.6.7GPU starts on 23Sep2021 at  0:27:20

     R & G space division:  proc/nbgrp/npool/nimage =       8
     Reading input from /storage/home/hcoda1/3/ntian30/research/carbon/CxH_vib/H2O_calc/ads_slab/CH3HO_a/out_0007/pw.inp
Warning: card &CELL ignored
Warning: card   CELL_DYNAMICS='IPI', ignored
Warning: card / ignored

     Current dimensions of program PWSCF are:
     Max number of different atomic species (ntypx) = 10
     Max number of k-points (npk) =  40000
     Max angular momentum in pseudopotentials (lmaxx) =  3
     Presently no symmetry can be used with electric field

     Message from routine cell_base_init:
     DEPRECATED: use true lattice parameter, not A to a.u. conversion factor

     IMPORTANT: XC functional enforced from input :
     Exchange-correlation= BEEF-VDW
                           (   1   4  43  14   2   0   0)
     Any further DFT definition will be discarded
     Please, verify this is what you really want

  @ DRIVER MODE: Connecting to
 qe_1139763_2941010.sched-torque.pace.gatech.eduathxd2cv_scratch
  using UNIX socket
  @ DRIVER MODE: Message from server: STATUS
  @ DRIVER MODE: Message from server: INIT
  @ DRIVER MODE: Receiving replica           0          -1
  @ DRIVER MODE: Receiving encoded integer          25
  @ DRIVER MODE:  SCF:  T  FORCE:  T  STRESS:  F  VC:  F  ENSEMBLE:  F
  @ DRIVER MODE:  SCF:  T  FORCE:  T  STRESS:  F  VC:  F  ENSEMBLE:  F

     Using Slab Decomposition

     bravais-lattice index     =            0
     lattice parameter (alat)  =       1.8897  a.u.
     unit-cell volume          =    6658.9804 (a.u.)^3
     number of atoms/cell      =           53
     number of atomic types    =            4
     number of electrons       =       392.00
     number of Kohn-Sham states=          206
     kinetic-energy cutoff     =      29.3995  Ry
     charge density cutoff     =     293.9946  Ry
     scf convergence threshold =      7.3E-08
     mixing beta               =       0.0500
     number of iterations used =            8  plain     mixing
     Exchange-correlation= BEEF-VDW
                           (   1   4  43  14   2   0   0)

     celldm(1)=   1.889726  celldm(2)=   0.000000  celldm(3)=   0.000000
     celldm(4)=   0.000000  celldm(5)=   0.000000  celldm(6)=   0.000000

     crystal axes: (cart. coord. in units of alat)
               a(1) = (   6.579727   0.000000   0.000000 )
               a(2) = (  -0.000775   5.961596   0.000000 )
               a(3) = (   0.000000   0.000000  25.155947 )

     reciprocal axes: (cart. coord. in units 2 pi/alat)
               b(1) = (  0.151982  0.000020  0.000000 )
               b(2) = (  0.000000  0.167740  0.000000 )
               b(3) = (  0.000000  0.000000  0.039752 )

     PseudoPot. # 1 for Ti read from file:
     /storage/coda1/p-amedford6/0/shared/rich_project_chbe-medford/medford-share/data/pseudos_module/espresso/nninc/pbe/van/Ti.UPF
     MD5 check sum: 8e4df49b7f0d34bbd5052bf3f5ea0213
     Pseudo is Ultrasoft, Zval = 12.0
     Generated by new atomic code, or converted to UPF format
     Using radial grid of  851 points,  6 beta functions with:
                l(1) =   0
                l(2) =   0
                l(3) =   1
                l(4) =   1
                l(5) =   2
                l(6) =   2
     Q(r) pseudized with  8 coefficients,  rinner =    1.000   1.000   1.000
                                                       1.000   1.000

     PseudoPot. # 2 for O  read from file:
     /storage/coda1/p-amedford6/0/shared/rich_project_chbe-medford/medford-share/data/pseudos_module/espresso/nninc/pbe/van/O.UPF
     MD5 check sum: 78c19812648e8988a0fe644b0f25305e
     Pseudo is Ultrasoft, Zval =  6.0
     Generated by new atomic code, or converted to UPF format
     Using radial grid of  737 points,  4 beta functions with:
                l(1) =   0
                l(2) =   0
                l(3) =   1
                l(4) =   1
     Q(r) pseudized with  8 coefficients,  rinner =    0.800   0.800   0.800

     PseudoPot. # 3 for C  read from file:
     /storage/coda1/p-amedford6/0/shared/rich_project_chbe-medford/medford-share/data/pseudos_module/espresso/nninc/pbe/van/C.UPF
     MD5 check sum: 1a69bf6b8db32088f5b2163dbdb77a27
     Pseudo is Ultrasoft, Zval =  4.0
     Generated by new atomic code, or converted to UPF format
     Using radial grid of  721 points,  4 beta functions with:
                l(1) =   0
                l(2) =   0
                l(3) =   1
                l(4) =   1
     Q(r) pseudized with  8 coefficients,  rinner =    0.800   0.800   0.800

     PseudoPot. # 4 for H  read from file:
     /storage/coda1/p-amedford6/0/shared/rich_project_chbe-medford/medford-share/data/pseudos_module/espresso/nninc/pbe/van/H.UPF
     MD5 check sum: b5ee9d7bfd3a09ee7748110bda690ff7
     Pseudo is Ultrasoft, Zval =  1.0
     Generated by new atomic code, or converted to UPF format
     Using radial grid of  615 points,  1 beta functions with:
                l(1) =   0
     Q(r) pseudized with  8 coefficients,  rinner =    0.800

     atomic species   valence    mass     pseudopotential
        Ti1           12.00    47.86700     Ti( 1.00)
        O1             6.00    15.99900     O ( 1.00)
        C1             4.00    12.01100     C ( 1.00)
        H1             1.00     1.00800     H ( 1.00)

     No symmetry found

   Cartesian axes

     site n.     atom                  positions (alat units)
         1           Ti1 tau(   1) = (   0.0004258   2.9801865   6.0000000  )
         2           Ti1 tau(   2) = (   3.2906075   1.4906267   6.0002472  )
         3           O1  tau(   3) = (   0.0006271   0.0005054   7.9858123  )
         4           O1  tau(   4) = (   3.2906025   0.0005020   7.3038282  )
         5           O1  tau(   5) = (   4.5942328   1.4918067   9.2879030  )
         6           O1  tau(   6) = (   1.9868534   1.4903216   9.2879459  )
         7           Ti1 tau(   7) = (   3.2776386   2.8603028   9.2190116  )
         8           Ti1 tau(   8) = (   6.5598479   1.4304724   9.3580194  )
         9           O1  tau(   9) = (   3.2889234   5.9509398  11.3217173  )
        10           O1  tau(  10) = (   6.5764018   5.9495644  10.5876710  )
        11           O1  tau(  11) = (   1.2812264   1.4943635  12.6442538  )
        12           O1  tau(  12) = (   5.3065913   1.4950901  12.6410841  )
        13           Ti1 tau(  13) = (   0.0201148   2.8652118  12.8170930  )
        14           Ti1 tau(  14) = (   3.2957237   1.3106547  12.6889287  )
        15           O1  tau(  15) = (   6.5548780   5.9443598  14.6367865  )
        16           O1  tau(  16) = (   3.2877845   0.0417723  13.9217912  )
        17           O1  tau(  17) = (   4.5532326   1.5761655  16.0783859  )
        18           O1  tau(  18) = (   2.0366504   1.5601698  16.0762102  )
        19           Ti1 tau(  19) = (   3.2678531   3.0297845  15.6708759  )
        20           Ti1 tau(  20) = (   6.4629285   1.5188837  16.1410570  )
        21           O1  tau(  21) = (   3.2904802   0.0005063   4.7018136  )
        22           O1  tau(  22) = (   6.5629482   0.0231895  17.1619738  )
        23           O1  tau(  23) = (   1.3043587   1.4918075   6.0039043  )
        24           O1  tau(  24) = (   5.2767064   1.4903225   6.0039473  )
        25           Ti1 tau(  25) = (   0.0000382   5.9609847   6.0000000  )
        26           Ti1 tau(  26) = (   3.2902200   4.4714249   6.0002472  )
        27           O1  tau(  27) = (   0.0002396   2.9813036   7.9858123  )
        28           O1  tau(  28) = (   3.2902150   2.9813002   7.3038282  )
        29           O1  tau(  29) = (   4.5938453   4.4726049   9.2879030  )
        30           O1  tau(  30) = (   1.9864658   4.4711199   9.2879459  )
        31           Ti1 tau(  31) = (   3.2699525   5.8470351   9.1790592  )
        32           Ti1 tau(  32) = (   6.5580068   4.3764721   9.3475679  )
        33           O1  tau(  33) = (   3.2877686   3.0124297  11.2895287  )
        34           O1  tau(  34) = (   0.0005883   2.9642609  10.5504472  )
        35           O1  tau(  35) = (   1.2748618   4.4645017  12.6259732  )
        36           O1  tau(  36) = (   5.2954498   4.4639995  12.6225180  )
        37           Ti1 tau(  37) = (   6.5558271   5.8472513  12.6028672  )
        38           Ti1 tau(  38) = (   3.2807834   4.4064534  12.4217905  )
        39           O1  tau(  39) = (   6.5786029   2.9813041  14.7145626  )
        40           O1  tau(  40) = (   3.2869290   2.9992676  13.8921391  )
        41           O1  tau(  41) = (   4.5413935   4.4541386  16.0960746  )
        42           O1  tau(  42) = (   2.0104822   4.4576224  16.0708021  )
        43           Ti1 tau(  43) = (   3.1667734   0.0431258  16.3165854  )
        44           Ti1 tau(  44) = (   6.5007865   4.6242813  15.9014112  )
        45           O1  tau(  45) = (   3.2900926   2.9813045   4.7018136  )
        46           O1  tau(  46) = (   1.3039711   4.4726057   6.0039043  )
        47           O1  tau(  47) = (   5.2763189   4.4711207   6.0039473  )
        48           C1  tau(  48) = (   0.0287742   2.9159372  17.8309569  )
        49           H1  tau(  49) = (   0.0109232   3.9694834  18.1111783  )
        50           H1  tau(  50) = (   0.9459818   2.5003430  18.2552837  )
        51           H1  tau(  51) = (   5.7514102   2.4667126  18.3442606  )
        52           O1  tau(  52) = (   3.2249103   0.0683284  18.1361362  )
        53           H1  tau(  53) = (   3.4857875   5.2839856  18.6954204  )

     number of k points=    10  Fermi-Dirac smearing, width (Ry)=  0.0073
                       cart. coord. in units 2pi/alat
        k(    1) = (   0.0000000   0.0000000   0.0000000), wk =   0.1250000
        k(    2) = (   0.0000000   0.0419351   0.0000000), wk =   0.2500000
        k(    3) = (   0.0000000  -0.0838702   0.0000000), wk =   0.1250000
        k(    4) = (   0.0379955   0.0000049   0.0000000), wk =   0.2500000
        k(    5) = (   0.0379955   0.0419400   0.0000000), wk =   0.2500000
        k(    6) = (   0.0379955  -0.0838652   0.0000000), wk =   0.2500000
        k(    7) = (   0.0379955  -0.0419301   0.0000000), wk =   0.2500000
        k(    8) = (  -0.0759910  -0.0000099   0.0000000), wk =   0.1250000
        k(    9) = (  -0.0759910   0.0419252   0.0000000), wk =   0.2500000
        k(   10) = (  -0.0759910  -0.0838800   0.0000000), wk =   0.1250000

     Initial potential from superposition of free atoms

     starting charge  375.99917, renormalised to  392.00000

     negative rho (up, down):  1.891E-02 0.000E+00

     %%%%%%%%%%%%%%%%%%%%%%%%%%%%%%%%%%%%%%%%%%%%%%%%%%%%%%%%%%%%%%%%%%%%%%%%
     %                                                                      %
     % You are using vdW-DF, which was implemented by the Thonhauser group. %
     % Please cite the following two papers that made this development      %
     % possible and the two reviews that describe the various versions:     %
     %                                                                      %
     %   T. Thonhauser et al., PRL 115, 136402 (2015).                      %
     %   T. Thonhauser et al., PRB 76, 125112 (2007).                       %
     %   K. Berland et al., Rep. Prog. Phys. 78, 066501 (2015).             %
     %   D.C. Langreth et al., J. Phys.: Condens. Matter 21, 084203 (2009). %
     %                                                                      %
     %                                                                      %
     % If you are calculating the stress with vdW-DF, please also cite:     %
     %                                                                      %
     %   R. Sabatini et al., J. Phys.: Condens. Matter 24, 424209 (2012).   %
     %                                                                      %
     %%%%%%%%%%%%%%%%%%%%%%%%%%%%%%%%%%%%%%%%%%%%%%%%%%%%%%%%%%%%%%%%%%%%%%%%

     Adding external electric field

     Computed dipole along edir(3) :
        Dipole               -5.0034 Ry au,        -12.7174 Debye
        Dipole field         -0.0094 Ry au,

        Potential amp.        0.8753 Ry
        Total length         46.3494 bohr

     Starting wfcs are  296 atomic wfcs
  @ DRIVER MODE: Message from server: STATUS
  @ DRIVER MODE: Message from server: POSDATA
  @ DRIVER MODE: Reading and sharing cell
  @ DRIVER MODE: Reading and sharing positions
  @ DRIVER MODE: Received positions

     Self-consistent Calculation

     iteration #  1     ecut=    29.40 Ry     beta= 0.05
     Davidson diagonalization with overlap
     c_bands:  5 eigenvalues not converged
     c_bands:  4 eigenvalues not converged
     c_bands:  5 eigenvalues not converged
     c_bands:  3 eigenvalues not converged
     c_bands:  2 eigenvalues not converged
     c_bands:  2 eigenvalues not converged
     c_bands:  1 eigenvalues not converged
     c_bands:  2 eigenvalues not converged
     c_bands:  3 eigenvalues not converged
     ethr =  1.00E-05,  avg # of iterations = 19.7

[...]

     total energy              =   -2842.30265307 Ry
     estimated scf accuracy    <     998.89552655 Ry

     iteration #  2     ecut=    29.40 Ry     beta= 0.05
     Davidson diagonalization with overlap
     ethr =  1.00E-02,  avg # of iterations = 16.0

[...]

     iteration # 38     ecut=    29.40 Ry     beta= 0.05
     Davidson diagonalization with overlap
     c_bands:  1 eigenvalues not converged
     ethr =  9.39E-07,  avg # of iterations =  6.5

[...]

     total energy              =   -2932.63111717 Ry
     estimated scf accuracy    <       0.00000017 Ry

     iteration # 59     ecut=    29.40 Ry     beta= 0.05
     Davidson diagonalization with overlap
     ethr =  2.45E-11,  avg # of iterations =  5.0

     negative rho (up, down):  1.833E-02 0.000E+00

     Adding external electric field

     Computed dipole along edir(3) :
        Dipole                0.4023 Ry au,          1.0226 Debye
        Dipole field          0.0008 Ry au,

        Potential amp.       -0.0704 Ry
        Total length         46.3494 bohr

     End of self-consistent calculation

          k = 0.0000 0.0000 0.0000 ( 18029 PWs)   bands (ev):

   -56.6133 -56.5632 -56.0782 -56.0396 -56.0046 -55.9340 -55.9081 -55.8948
   -55.8536 -55.8478 -55.8053 -55.7826 -55.7268 -55.6357 -55.2248 -55.1909
   -33.0251 -32.8783 -32.8241 -32.7921 -32.6964 -32.6512 -32.5034 -32.4882
   -32.4505 -32.3435 -32.3242 -32.3189 -32.3128 -32.3053 -32.2862 -32.2687
   -32.2456 -32.2245 -32.2184 -32.1431 -32.1396 -32.1381 -32.1251 -32.1139
   -32.1079 -32.1034 -32.0926 -32.0898 -32.0848 -32.0536 -32.0400 -32.0394
   -32.0095 -31.9995 -31.9953 -31.9834 -31.9675 -31.9510 -31.8922 -31.8591
   -31.8454 -31.8380 -31.6194 -31.5650 -31.5406 -31.4362 -31.3513 -31.2405
   -16.9225 -16.7697 -16.6314 -16.4088 -16.2686 -16.1579 -15.9403 -15.9292
   -15.8074 -15.8035 -15.7616 -15.6362 -15.6217 -15.5853 -15.5740 -15.5498
   -15.5362 -15.5259 -15.5215 -15.4973 -15.4616 -15.4388 -15.3956 -15.3242
   -15.2592 -15.2417 -15.2031 -15.1397 -15.1071 -14.8727 -13.7266 -13.6180
    -9.3759  -4.6681  -4.2958  -4.0802  -3.9659  -3.9242  -3.7863  -3.6405
    -3.4641  -3.3699  -3.2411  -3.2340  -3.1640  -3.1218  -3.1110  -3.1057
    -3.0210  -2.9740  -2.9467  -2.9180  -2.9042  -2.8519  -2.8177  -2.7752
    -2.7543  -2.7526  -2.7089  -2.6807  -2.5357  -2.5052  -2.4877  -2.4815
    -2.4412  -2.4238  -2.3886  -2.3722  -2.2920  -2.2091  -2.1902  -2.1293
    -2.0647  -2.0181  -1.8273  -1.8153  -1.7159  -1.6387  -1.6157  -1.5692
    -1.5298  -1.4888  -1.4214  -1.3957  -1.3081  -1.2537  -1.2009  -1.1884
    -1.1562  -1.1218  -1.0801  -0.9754  -0.9262  -0.9207  -0.8107  -0.7579
    -0.6926  -0.6878  -0.6321  -0.5990  -0.4962  -0.4778  -0.4453  -0.4096
    -0.3778  -0.3541  -0.2963  -0.2757  -0.2468  -0.1854  -0.1462  -0.1265
    -0.0972  -0.0823  -0.0183   0.0384   0.0576   0.1639   0.1826   0.2185
     0.2897   0.3795   0.4330   0.5204   0.6933   0.7925   0.8265   0.9376
     1.0071   1.0532   1.3439   1.3900   2.6881   2.8502   3.1296   3.2819
     3.3045   3.3599   3.4070   3.4626   3.6217   3.6521

[...]

          k = 0.0380-0.0419 0.0000 ( 17876 PWs)   bands (ev):

[...]

          k =-0.0760-0.0000 0.0000 ( 17886 PWs)   bands (ev):

[...]

          k =-0.0760-0.0839 0.0000 ( 17948 PWs)   bands (ev):

   -56.6068 -56.5696 -56.0771 -56.0374 -55.9999 -55.9385 -55.9101 -55.8956
   -55.8516 -55.8394 -55.8136 -55.7807 -55.7287 -55.6375 -55.2081 -55.2075
   -32.8741 -32.8576 -32.8280 -32.8256 -32.7586 -32.7269 -32.3829 -32.3574
   -32.3438 -32.3231 -32.2925 -32.2902 -32.2676 -32.2632 -32.2500 -32.2429
   -32.2194 -32.2170 -32.2073 -32.1886 -32.1837 -32.1658 -32.1606 -32.1369
   -32.1335 -32.1332 -32.1195 -32.1040 -32.0997 -32.0703 -32.0618 -32.0495
   -32.0474 -32.0407 -32.0069 -32.0043 -31.9904 -31.9873 -31.9689 -31.8934
   -31.8815 -31.8489 -31.5538 -31.5535 -31.4351 -31.4332 -31.3935 -31.3925
   -16.9079 -16.1667 -16.0828 -16.0765 -16.0657 -16.0359 -15.9907 -15.9215
   -15.9186 -15.8257 -15.7936 -15.7583 -15.7242 -15.7083 -15.6548 -15.6499
   -15.6330 -15.5687 -15.5261 -15.4996 -15.4814 -15.4771 -15.4490 -15.4295
   -15.4178 -15.3987 -15.3329 -15.2996 -15.2227 -15.0129 -13.7225 -13.7209
    -9.3905  -4.6756  -3.3949  -3.3249  -3.2537  -3.2346  -3.1566  -3.1113
    -3.0979  -3.0754  -3.0478  -3.0171  -2.9884  -2.9750  -2.9271  -2.9158
    -2.9088  -2.9057  -2.8976  -2.8845  -2.8587  -2.8057  -2.7958  -2.7894
    -2.7686  -2.7623  -2.7464  -2.7246  -2.6806  -2.6656  -2.6220  -2.4598
    -2.4300  -2.4224  -2.3750  -2.3516  -2.3008  -2.2722  -2.1955  -2.1822
    -2.1745  -2.1431  -2.0276  -1.9104  -1.7804  -1.7711  -1.7347  -1.6645
    -1.6296  -1.5650  -1.5365  -1.5133  -1.4882  -1.4451  -1.4257  -1.3383
    -1.3296  -1.2875  -1.2730  -1.2573  -1.1749  -1.1133  -1.0851  -1.0626
    -1.0232  -0.9880  -0.9285  -0.8820  -0.8694  -0.8399  -0.8214  -0.7043
    -0.6702  -0.6401  -0.4921  -0.4560  -0.4506  -0.4031  -0.2507  -0.2076
    -0.1575  -0.1128  -0.0836   0.0465   0.0911   0.1379   0.1452   0.1998
     0.3187   0.3418   0.3862   0.4528   0.4762   0.4867   0.5268   1.0284
     1.1854   1.1881   1.1966   1.2019   3.2296   3.2539   3.2665   3.2976
     3.4700   3.5396   3.5756   3.6041   3.6510   3.7113

     the Fermi energy is     2.0972 ev

!    total energy              =   -2932.63117634 Ry
     estimated scf accuracy    <       0.00000004 Ry
     smearing contrib. (-TS)   =      -0.00015675 Ry
     internal energy E=F+TS    =   -2932.63101959 Ry

     The total energy is F=E-TS. E is the sum of the following terms:
     one-electron contribution =  -24308.08046771 Ry
     hartree contribution      =   12238.21165448 Ry
     xc contribution           =    -482.65160887 Ry
     ewald contribution        =    9619.88909704 Ry
     electric field correction =       0.00030547 Ry

     convergence has been achieved in  59 iterations

     Forces acting on atoms (cartesian axes, Ry/au):

     atom    1 type  1   force =     0.00035438   -0.00030782    0.13238528
     atom    2 type  1   force =     0.00005393    0.00689000   -0.15774971
     atom    3 type  2   force =     0.00014711    0.00441516   -0.05306892
     atom    4 type  2   force =    -0.00038371   -0.00087199    0.04047632
     atom    5 type  2   force =    -0.00907588   -0.00264852    0.00214755
     atom    6 type  2   force =     0.00918074   -0.00496211    0.00181767
     atom    7 type  1   force =     0.00069245    0.00107857    0.00044883
     atom    8 type  1   force =    -0.00079327   -0.00014192   -0.00012333
     atom    9 type  2   force =     0.00000613   -0.00017215    0.00050841
     atom   10 type  2   force =     0.00004964   -0.00006606   -0.00012650
     atom   11 type  2   force =    -0.00057839    0.00020522   -0.00040206
     atom   12 type  2   force =    -0.00052437   -0.00055374   -0.00060897
     atom   13 type  1   force =     0.00095640   -0.00085309   -0.00001687
     atom   14 type  1   force =    -0.00105635   -0.00093728    0.00006904
     atom   15 type  2   force =     0.00002352    0.00015481   -0.00084419
     atom   16 type  2   force =     0.00009409    0.00002604   -0.00039739
     atom   17 type  2   force =     0.00001475   -0.00011737    0.00008581
     atom   18 type  2   force =    -0.00015422   -0.00005401    0.00025602
     atom   19 type  1   force =     0.00008810   -0.00012393   -0.00090355
     atom   20 type  1   force =    -0.00026854   -0.00030808   -0.00005829
     atom   21 type  2   force =     0.00016194    0.00008644    0.09920588
     atom   22 type  2   force =     0.00017713    0.00014639   -0.00001052
     atom   23 type  2   force =    -0.08042189    0.00141959   -0.03415382
     atom   24 type  2   force =     0.08050864    0.00192050   -0.03419699
     atom   25 type  1   force =     0.00021445   -0.00004143    0.14218573
     atom   26 type  1   force =     0.00010411   -0.00849448   -0.15822512
     atom   27 type  2   force =    -0.00010993   -0.00043652   -0.05129261
     atom   28 type  2   force =    -0.00024903   -0.00030682    0.04226546
     atom   29 type  2   force =    -0.00857235    0.00487145    0.00031257
     atom   30 type  2   force =     0.00772372    0.00352137    0.00001527
     atom   31 type  1   force =     0.00054450   -0.00128904    0.00087893
     atom   32 type  1   force =    -0.00091513    0.00037134   -0.00077268
     atom   33 type  2   force =     0.00001985   -0.00027396   -0.00017383
     atom   34 type  2   force =     0.00000288   -0.00100610    0.00033803
     atom   35 type  2   force =    -0.00038658    0.00005385   -0.00021204
     atom   36 type  2   force =     0.00020939   -0.00021647   -0.00023382
     atom   37 type  1   force =     0.00101581    0.00078730    0.00045522
     atom   38 type  1   force =    -0.00047942    0.00001226    0.00018710
     atom   39 type  2   force =    -0.00026017   -0.00025730   -0.00016508
     atom   40 type  2   force =     0.00024820   -0.00028287   -0.00001732
     atom   41 type  2   force =     0.00011126   -0.00012743   -0.00005226
     atom   42 type  2   force =     0.00003799    0.00029104   -0.00001369
     atom   43 type  1   force =    -0.00001843    0.00035537   -0.00078241
     atom   44 type  1   force =     0.00037170    0.00014526    0.00002005
     atom   45 type  2   force =     0.00015842    0.00004319    0.09876578
     atom   46 type  2   force =    -0.08045717   -0.00101663   -0.03416269
     atom   47 type  2   force =     0.08054900   -0.00053415   -0.03419583
     atom   48 type  3   force =    -0.00152588    0.00012623   -0.00021861
     atom   49 type  4   force =     0.00135031    0.00001417    0.00056040
     atom   50 type  4   force =     0.00005985    0.00068090    0.00067419
     atom   51 type  4   force =    -0.00039332   -0.00106816   -0.00005517
     atom   52 type  2   force =     0.00065814   -0.00162662   -0.00048322
     atom   53 type  4   force =     0.00073549    0.00147961   -0.00034201

     Total force =     0.383758     Total SCF correction =     0.000462
  @ DRIVER MODE: Message from server: STATUS
  @ DRIVER MODE: Message from server: GETFORCE
  @ DRIVER MODE: Returning v,forces,stress,ensemble

     Writing output data file ./calc.save/
  @ DRIVER MODE: Message from server: EXIT
  @ DRIVE MODE: Exiting

     General routines

     Parallel routines

   This run was terminated on:   0:45:30  23Sep2021

   JOB DONE.