     Program PWSCF v.6.7GPU starts on 22Sep2021 at 18: 9: 4

     R & G space division:  proc/nbgrp/npool/nimage =      10
     Reading input from /storage/home/hcoda1/3/ntian30/research/carbon/CxH_vib/H2O_calc/ads_slab/CH2NHO_a/out_0006/pw.inp
Warning: card &CELL ignored
Warning: card   CELL_DYNAMICS='IPI', ignored
Warning: card / ignored

     Current dimensions of program PWSCF are:
     Max number of different atomic species (ntypx) = 10
     Max number of k-points (npk) =  40000
     Max angular momentum in pseudopotentials (lmaxx) =  3
     Presently no symmetry can be used with electric field

     Message from routine cell_base_init:
     DEPRECATED: use true lattice parameter, not A to a.u. conversion factor

     IMPORTANT: XC functional enforced from input :
     Exchange-correlation= BEEF-VDW
                           (   1   4  43  14   2   0   0)
     Any further DFT definition will be discarded
     Please, verify this is what you really want

  @ DRIVER MODE: Connecting to
 qe_1139763_2937321.sched-torque.pace.gatech.edug7tv0je0_scratch
  using UNIX socket
  @ DRIVER MODE: Message from server: STATUS
  @ DRIVER MODE: Message from server: INIT
  @ DRIVER MODE: Receiving replica           0          -1
  @ DRIVER MODE: Receiving encoded integer          25
  @ DRIVER MODE:  SCF:  T  FORCE:  T  STRESS:  F  VC:  F  ENSEMBLE:  F
  @ DRIVER MODE:  SCF:  T  FORCE:  T  STRESS:  F  VC:  F  ENSEMBLE:  F

     Using Slab Decomposition

     bravais-lattice index     =            0
     lattice parameter (alat)  =       1.8897  a.u.
     unit-cell volume          =    6658.9804 (a.u.)^3
     number of atoms/cell      =           53
     number of atomic types    =            5
     number of electrons       =       396.00
     number of Kohn-Sham states=          208
     kinetic-energy cutoff     =      29.3995  Ry
     charge density cutoff     =     293.9946  Ry
     scf convergence threshold =      7.3E-08
     mixing beta               =       0.0500
     number of iterations used =            8  plain     mixing
     Exchange-correlation= BEEF-VDW
                           (   1   4  43  14   2   0   0)

     celldm(1)=   1.889726  celldm(2)=   0.000000  celldm(3)=   0.000000
     celldm(4)=   0.000000  celldm(5)=   0.000000  celldm(6)=   0.000000

     crystal axes: (cart. coord. in units of alat)
               a(1) = (   6.579727   0.000000   0.000000 )
               a(2) = (  -0.000775   5.961596   0.000000 )
               a(3) = (   0.000000   0.000000  25.155947 )

     reciprocal axes: (cart. coord. in units 2 pi/alat)
               b(1) = (  0.151982  0.000020  0.000000 )
               b(2) = (  0.000000  0.167740  0.000000 )
               b(3) = (  0.000000  0.000000  0.039752 )

     PseudoPot. # 1 for Ti read from file:
     /storage/coda1/p-amedford6/0/shared/rich_project_chbe-medford/medford-share/data/pseudos_module/espresso/nninc/pbe/van/Ti.UPF
     MD5 check sum: 8e4df49b7f0d34bbd5052bf3f5ea0213
     Pseudo is Ultrasoft, Zval = 12.0
     Generated by new atomic code, or converted to UPF format
     Using radial grid of  851 points,  6 beta functions with:
                l(1) =   0
                l(2) =   0
                l(3) =   1
                l(4) =   1
                l(5) =   2
                l(6) =   2
     Q(r) pseudized with  8 coefficients,  rinner =    1.000   1.000   1.000
                                                       1.000   1.000

     PseudoPot. # 2 for O  read from file:
     /storage/coda1/p-amedford6/0/shared/rich_project_chbe-medford/medford-share/data/pseudos_module/espresso/nninc/pbe/van/O.UPF
     MD5 check sum: 78c19812648e8988a0fe644b0f25305e
     Pseudo is Ultrasoft, Zval =  6.0
     Generated by new atomic code, or converted to UPF format
     Using radial grid of  737 points,  4 beta functions with:
                l(1) =   0
                l(2) =   0
                l(3) =   1
                l(4) =   1
     Q(r) pseudized with  8 coefficients,  rinner =    0.800   0.800   0.800

     PseudoPot. # 3 for N  read from file:
     /storage/coda1/p-amedford6/0/shared/rich_project_chbe-medford/medford-share/data/pseudos_module/espresso/nninc/pbe/van/N.UPF
     MD5 check sum: 90d10febe142ad51ac9d5be1deb811c4
     Pseudo is Ultrasoft, Zval =  5.0
     Generated by new atomic code, or converted to UPF format
     Using radial grid of  729 points,  4 beta functions with:
                l(1) =   0
                l(2) =   0
                l(3) =   1
                l(4) =   1
     Q(r) pseudized with  8 coefficients,  rinner =    0.800   0.800   0.800

     PseudoPot. # 4 for C  read from file:
     /storage/coda1/p-amedford6/0/shared/rich_project_chbe-medford/medford-share/data/pseudos_module/espresso/nninc/pbe/van/C.UPF
     MD5 check sum: 1a69bf6b8db32088f5b2163dbdb77a27
     Pseudo is Ultrasoft, Zval =  4.0
     Generated by new atomic code, or converted to UPF format
     Using radial grid of  721 points,  4 beta functions with:
                l(1) =   0
                l(2) =   0
                l(3) =   1
                l(4) =   1
     Q(r) pseudized with  8 coefficients,  rinner =    0.800   0.800   0.800

     PseudoPot. # 5 for H  read from file:
     /storage/coda1/p-amedford6/0/shared/rich_project_chbe-medford/medford-share/data/pseudos_module/espresso/nninc/pbe/van/H.UPF
     MD5 check sum: b5ee9d7bfd3a09ee7748110bda690ff7
     Pseudo is Ultrasoft, Zval =  1.0
     Generated by new atomic code, or converted to UPF format
     Using radial grid of  615 points,  1 beta functions with:
                l(1) =   0
     Q(r) pseudized with  8 coefficients,  rinner =    0.800

     atomic species   valence    mass     pseudopotential
        Ti1           12.00    47.86700     Ti( 1.00)
        O1             6.00    15.99900     O ( 1.00)
        N1             5.00    14.00700     N ( 1.00)
        C1             4.00    12.01100     C ( 1.00)
        H1             1.00     1.00800     H ( 1.00)

     No symmetry found

   Cartesian axes

     site n.     atom                  positions (alat units)
         1           Ti1 tau(   1) = (   0.0004258   2.9801865   6.0000000  )
         2           Ti1 tau(   2) = (   3.2906075   1.4906267   6.0002472  )
         3           O1  tau(   3) = (   0.0006271   0.0005054   7.9858123  )
         4           O1  tau(   4) = (   3.2906025   0.0005020   7.3038282  )
         5           O1  tau(   5) = (   4.5942328   1.4918067   9.2879030  )
         6           O1  tau(   6) = (   1.9868534   1.4903216   9.2879459  )
         7           Ti1 tau(   7) = (   3.2907910   2.8959150   9.1758416  )
         8           Ti1 tau(   8) = (   0.0015273   1.4827037   9.2680791  )
         9           O1  tau(   9) = (   3.3049783   5.9490022  11.2668993  )
        10           O1  tau(  10) = (   0.0116148   5.9584955  10.6183126  )
        11           O1  tau(  11) = (   1.3054562   1.4902858  12.6165390  )
        12           O1  tau(  12) = (   5.3128925   1.4966897  12.6222362  )
        13           Ti1 tau(  13) = (   0.0227526   2.8513963  12.7011302  )
        14           Ti1 tau(  14) = (   3.3146314   1.3157910  12.6511296  )
        15           O1  tau(  15) = (   0.0292331   0.0037381  14.6451560  )
        16           O1  tau(  16) = (   3.3105559   0.0332628  13.8611824  )
        17           O1  tau(  17) = (   4.5798417   1.5533887  16.0574704  )
        18           O1  tau(  18) = (   2.0659959   1.5620864  16.0379710  )
        19           Ti1 tau(  19) = (   3.3199680   3.0150018  15.6455324  )
        20           Ti1 tau(  20) = (   6.5662113   1.5085715  15.8767718  )
        21           O1  tau(  21) = (   3.2904802   0.0005063   4.7018136  )
        22           O1  tau(  22) = (   0.0336757   0.0283057  17.1922241  )
        23           O1  tau(  23) = (   1.3043587   1.4918075   6.0039043  )
        24           O1  tau(  24) = (   5.2767064   1.4903225   6.0039473  )
        25           Ti1 tau(  25) = (   0.0000382   5.9609847   6.0000000  )
        26           Ti1 tau(  26) = (   3.2902200   4.4714249   6.0002472  )
        27           O1  tau(  27) = (   0.0002396   2.9813036   7.9858123  )
        28           O1  tau(  28) = (   3.2902150   2.9813002   7.3038282  )
        29           O1  tau(  29) = (   4.5938453   4.4726049   9.2879030  )
        30           O1  tau(  30) = (   1.9864658   4.4711199   9.2879459  )
        31           Ti1 tau(  31) = (   3.2891106   5.8743827   9.1763621  )
        32           Ti1 tau(  32) = (   0.0006254   4.4649316   9.2693709  )
        33           O1  tau(  33) = (   3.3044035   3.0314990  11.2389097  )
        34           O1  tau(  34) = (   0.0092240   2.9805883  10.6323155  )
        35           O1  tau(  35) = (   1.3090660   4.4724101  12.6204063  )
        36           O1  tau(  36) = (   5.3093727   4.4739031  12.6240458  )
        37           Ti1 tau(  37) = (   0.0315986   5.8296340  12.6341251  )
        38           Ti1 tau(  38) = (   3.3217628   4.4127071  12.4104736  )
        39           O1  tau(  39) = (   0.0286309   2.9529265  14.6620113  )
        40           O1  tau(  40) = (   3.3111648   2.9942334  13.8608864  )
        41           O1  tau(  41) = (   4.5850423   4.4544105  16.0703757  )
        42           O1  tau(  42) = (   2.0817017   4.4739285  16.0881885  )
        43           Ti1 tau(  43) = (   3.2564312   0.0343949  16.3346327  )
        44           Ti1 tau(  44) = (   6.5491996   4.6347227  16.0815441  )
        45           O1  tau(  45) = (   3.2900926   2.9813045   4.7018136  )
        46           O1  tau(  46) = (   1.3039711   4.4726057   6.0039043  )
        47           O1  tau(  47) = (   5.2763189   4.4711207   6.0039473  )
        48           N1  tau(  48) = (   0.0476609   2.9608057  17.4146342  )
        49           C1  tau(  49) = (   0.0744360   2.8714357  18.6596517  )
        50           H1  tau(  50) = (   0.0810575   3.7616739  19.3027278  )
        51           H1  tau(  51) = (   0.0872865   1.8968143  19.1621030  )
        52           O1  tau(  52) = (   3.2917830   0.0572188  18.1605702  )
        53           H1  tau(  53) = (   2.8914424   5.3141097  18.6896264  )

     number of k points=    10  Fermi-Dirac smearing, width (Ry)=  0.0073
                       cart. coord. in units 2pi/alat
        k(    1) = (   0.0000000   0.0000000   0.0000000), wk =   0.1250000
        k(    2) = (   0.0000000   0.0419351   0.0000000), wk =   0.2500000
        k(    3) = (   0.0000000  -0.0838702   0.0000000), wk =   0.1250000
        k(    4) = (   0.0379955   0.0000049   0.0000000), wk =   0.2500000
        k(    5) = (   0.0379955   0.0419400   0.0000000), wk =   0.2500000
        k(    6) = (   0.0379955  -0.0838652   0.0000000), wk =   0.2500000
        k(    7) = (   0.0379955  -0.0419301   0.0000000), wk =   0.2500000
        k(    8) = (  -0.0759910  -0.0000099   0.0000000), wk =   0.1250000
        k(    9) = (  -0.0759910   0.0419252   0.0000000), wk =   0.2500000
        k(   10) = (  -0.0759910  -0.0838800   0.0000000), wk =   0.1250000

     Initial potential from superposition of free atoms

     starting charge  379.99917, renormalised to  396.00000

     negative rho (up, down):  1.694E-02 0.000E+00

     %%%%%%%%%%%%%%%%%%%%%%%%%%%%%%%%%%%%%%%%%%%%%%%%%%%%%%%%%%%%%%%%%%%%%%%%
     %                                                                      %
     % You are using vdW-DF, which was implemented by the Thonhauser group. %
     % Please cite the following two papers that made this development      %
     % possible and the two reviews that describe the various versions:     %
     %                                                                      %
     %   T. Thonhauser et al., PRL 115, 136402 (2015).                      %
     %   T. Thonhauser et al., PRB 76, 125112 (2007).                       %
     %   K. Berland et al., Rep. Prog. Phys. 78, 066501 (2015).             %
     %   D.C. Langreth et al., J. Phys.: Condens. Matter 21, 084203 (2009). %
     %                                                                      %
     %                                                                      %
     % If you are calculating the stress with vdW-DF, please also cite:     %
     %                                                                      %
     %   R. Sabatini et al., J. Phys.: Condens. Matter 24, 424209 (2012).   %
     %                                                                      %
     %%%%%%%%%%%%%%%%%%%%%%%%%%%%%%%%%%%%%%%%%%%%%%%%%%%%%%%%%%%%%%%%%%%%%%%%

     Adding external electric field

     Computed dipole along edir(3) :
        Dipole               -7.7091 Ry au,        -19.5946 Debye
        Dipole field         -0.0145 Ry au,

        Potential amp.        1.3486 Ry
        Total length         46.3494 bohr

     Starting wfcs are  299 atomic wfcs
  @ DRIVER MODE: Message from server: STATUS
  @ DRIVER MODE: Message from server: POSDATA
  @ DRIVER MODE: Reading and sharing cell
  @ DRIVER MODE: Reading and sharing positions
  @ DRIVER MODE: Received positions

     Self-consistent Calculation

     iteration #  1     ecut=    29.40 Ry     beta= 0.05
     Davidson diagonalization with overlap
     c_bands:  1 eigenvalues not converged
     c_bands:  3 eigenvalues not converged
     c_bands:  2 eigenvalues not converged
     c_bands:  3 eigenvalues not converged
     c_bands:  2 eigenvalues not converged
     c_bands:  4 eigenvalues not converged
     c_bands:  1 eigenvalues not converged
     ethr =  1.00E-05,  avg # of iterations = 19.6

[...]

     total energy              =   -2658.39889306 Ry
     estimated scf accuracy    <    3233.28230413 Ry

[...]

     iteration #  3     ecut=    29.40 Ry     beta= 0.05
     Davidson diagonalization with overlap
     ethr =  1.00E-02,  avg # of iterations = 14.7

[...]

     iteration # 47     ecut=    29.40 Ry     beta= 0.05
     Davidson diagonalization with overlap
     c_bands:  1 eigenvalues not converged
     ethr =  1.37E-06,  avg # of iterations = 13.9

[...]

     total energy              =   -2951.50516696 Ry
     estimated scf accuracy    <       0.00000011 Ry

     iteration # 72     ecut=    29.40 Ry     beta= 0.05
     Davidson diagonalization with overlap
     ethr =  2.84E-11,  avg # of iterations =  5.0

     negative rho (up, down):  1.700E-02 0.000E+00

     Adding external electric field

     Computed dipole along edir(3) :
        Dipole                0.3595 Ry au,          0.9138 Debye
        Dipole field          0.0007 Ry au,

        Potential amp.       -0.0629 Ry
        Total length         46.3494 bohr

     End of self-consistent calculation

          k = 0.0000 0.0000 0.0000 ( 18029 PWs)   bands (ev):

   -56.8820 -56.8484 -56.0115 -55.9756 -55.7630 -55.6991 -55.5554 -55.4433
   -55.4094 -55.4011 -55.3410 -55.3147 -55.2833 -55.2734 -55.0835 -55.0298
   -33.3023 -33.1557 -33.1276 -33.0591 -32.9688 -32.9292 -32.4945 -32.2406
   -32.2319 -32.2035 -32.1517 -32.1492 -32.1227 -31.9961 -31.9811 -31.9319
   -31.9043 -31.9035 -31.8787 -31.8627 -31.8232 -31.8033 -31.7899 -31.7726
   -31.7712 -31.7654 -31.7332 -31.7007 -31.6678 -31.6481 -31.6029 -31.5674
   -31.5589 -31.5378 -31.5335 -31.5296 -31.5121 -31.4906 -31.4888 -31.4754
   -31.4558 -31.4414 -31.3460 -31.3244 -31.2916 -31.2900 -31.2700 -31.2313
   -16.9958 -16.4661 -16.4558 -16.2050 -16.1026 -16.0825 -16.0576 -15.9921
   -15.7960 -15.7318 -15.7093 -15.6502 -15.5350 -15.4042 -15.3076 -15.1739
   -15.0836 -15.0377 -15.0311 -15.0181 -14.9853 -14.9741 -14.9524 -14.8826
   -14.8648 -14.7908 -14.6963 -14.6589 -14.6119 -14.3476 -14.3322 -13.9407
   -13.8335  -7.1663  -4.5676  -4.1574  -3.9939  -3.9329  -3.7677  -3.5931
    -3.5911  -3.4512  -3.4069  -3.2726  -3.2636  -3.2496  -3.1637  -3.1601
    -3.0262  -2.9628  -2.9486  -2.8514  -2.8104  -2.6569  -2.6244  -2.5310
    -2.4815  -2.4585  -2.3908  -2.3499  -2.3239  -2.2964  -2.2719  -2.2190
    -2.1909  -2.1618  -2.0855  -2.0590  -1.9839  -1.9377  -1.9288  -1.9104
    -1.8064  -1.7787  -1.7375  -1.6016  -1.5365  -1.5179  -1.4953  -1.4438
    -1.3811  -1.3664  -1.3131  -1.2085  -1.1325  -1.1118  -1.0510  -1.0373
    -1.0207  -0.8997  -0.8428  -0.7497  -0.7332  -0.7263  -0.6645  -0.6035
    -0.5637  -0.4754  -0.3991  -0.3957  -0.3779  -0.3402  -0.3202  -0.2654
    -0.1530  -0.1121  -0.0648   0.0096   0.0268   0.1214   0.2177   0.2489
     0.2616   0.3060   0.3319   0.3550   0.4158   0.4798   0.4922   0.5604
     0.5737   0.5783   0.6602   0.7501   0.7912   0.8407   0.8634   0.8744
     0.9956   1.0807   1.1142   1.1593   1.5193   1.7750   2.4082   2.5770
     2.8534   3.0040   3.3263   3.3946   3.4065   3.4104   3.6726   3.8014

[...]

          k = 0.0380-0.0419 0.0000 ( 17876 PWs)   bands (ev):

[...]

          k =-0.0760-0.0000 0.0000 ( 17886 PWs)   bands (ev):

[...]

          k =-0.0760-0.0839 0.0000 ( 17948 PWs)   bands (ev):

   -56.8658 -56.8645 -55.9998 -55.9871 -55.7581 -55.7039 -55.5545 -55.4269
   -55.4258 -55.3975 -55.3417 -55.3181 -55.2820 -55.2722 -55.0848 -55.0309
   -33.1421 -33.1407 -33.1202 -33.1188 -33.0130 -33.0120 -32.3201 -32.3092
   -32.1943 -32.1819 -32.1815 -32.1733 -32.0637 -32.0209 -31.9893 -31.9781
   -31.9312 -31.9267 -31.8500 -31.8016 -31.7789 -31.7780 -31.7580 -31.7281
   -31.7099 -31.6585 -31.6571 -31.6505 -31.6473 -31.6456 -31.6248 -31.6193
   -31.6084 -31.6075 -31.5954 -31.5541 -31.5494 -31.5245 -31.5157 -31.4992
   -31.4835 -31.4394 -31.4319 -31.3630 -31.3478 -31.2940 -31.2721 -31.2508
   -16.4542 -16.3590 -16.3567 -16.3058 -16.3042 -16.0567 -16.0517 -15.8031
   -15.7719 -15.5971 -15.5136 -15.4806 -15.4306 -15.3891 -15.3627 -15.2618
   -15.2444 -15.1535 -15.1245 -15.1136 -15.0721 -15.0211 -14.9774 -14.9481
   -14.9127 -14.8168 -14.7626 -14.7211 -14.6986 -14.5300 -14.4751 -13.9380
   -13.9374  -7.1613  -4.1557  -3.9857  -3.4269  -3.4221  -3.4144  -3.4068
    -3.3615  -3.1806  -3.1727  -2.9922  -2.9635  -2.9602  -2.8897  -2.8840
    -2.7770  -2.7088  -2.7059  -2.7021  -2.6729  -2.6421  -2.6361  -2.5824
    -2.4829  -2.4306  -2.4034  -2.3840  -2.3537  -2.3243  -2.2720  -2.1809
    -2.1688  -2.1600  -2.1313  -2.1152  -2.0862  -2.0830  -1.9490  -1.8410
    -1.7743  -1.7211  -1.7066  -1.6956  -1.6693  -1.6285  -1.5993  -1.5833
    -1.5446  -1.4776  -1.4543  -1.4032  -1.3634  -1.3079  -1.2224  -1.1617
    -1.0994  -1.0756  -0.9414  -0.9234  -0.9057  -0.8711  -0.8368  -0.8250
    -0.7572  -0.6834  -0.6269  -0.6075  -0.5417  -0.5185  -0.4877  -0.4501
    -0.4434  -0.3821  -0.3643  -0.3075  -0.2940  -0.1725  -0.0899   0.0272
     0.0607   0.0822   0.1288   0.1696   0.3065   0.3169   0.3679   0.4794
     0.5147   0.6571   0.6739   0.7773   0.8239   0.8906   0.9518   0.9560
     0.9590   0.9833   1.0112   1.0349   1.1079   1.7102   2.9978   3.0006
     3.0576   3.0633   3.3696   3.3739   3.4780   3.4836   3.7835   3.7900

     the Fermi energy is     2.1547 ev

!    total energy              =   -2951.50517999 Ry
     estimated scf accuracy    <       0.00000006 Ry
     smearing contrib. (-TS)   =      -0.00249546 Ry
     internal energy E=F+TS    =   -2951.50268453 Ry

     The total energy is F=E-TS. E is the sum of the following terms:
     one-electron contribution =  -24179.15771928 Ry
     hartree contribution      =   12179.01216211 Ry
     xc contribution           =    -487.04841391 Ry
     ewald contribution        =    9535.69104264 Ry
     electric field correction =       0.00024392 Ry

     convergence has been achieved in  72 iterations

     Forces acting on atoms (cartesian axes, Ry/au):

     atom    1 type  1   force =     0.00001032   -0.00051308    0.12436529
     atom    2 type  1   force =    -0.00009871    0.00035070   -0.15496310
     atom    3 type  2   force =     0.00004496   -0.00012111   -0.06501430
     atom    4 type  2   force =     0.00007372    0.00023481    0.01729360
     atom    5 type  2   force =    -0.00340589   -0.00145131   -0.01341118
     atom    6 type  2   force =     0.00544354   -0.00094208   -0.01312668
     atom    7 type  1   force =     0.00029220   -0.00647268    0.05849263
     atom    8 type  1   force =     0.00011725    0.00856057    0.09545229
     atom    9 type  2   force =     0.00026742   -0.00009639    0.00050660
     atom   10 type  2   force =    -0.00166496    0.00091976   -0.05926669
     atom   11 type  2   force =     0.00076214   -0.00031989   -0.00024138
     atom   12 type  2   force =    -0.00098992   -0.00071594    0.00001441
     atom   13 type  1   force =    -0.00020357   -0.00077248   -0.00061775
     atom   14 type  1   force =     0.00003140   -0.00072261   -0.00039730
     atom   15 type  2   force =     0.00003054   -0.00001854    0.00080540
     atom   16 type  2   force =    -0.00008998    0.00000492   -0.00027876
     atom   17 type  2   force =     0.00052050   -0.00003046   -0.00008942
     atom   18 type  2   force =    -0.00064914   -0.00008946   -0.00008806
     atom   19 type  1   force =    -0.00020935   -0.00138774   -0.00005416
     atom   20 type  1   force =    -0.00007021    0.00049620    0.00072448
     atom   21 type  2   force =     0.00002375    0.00021654    0.09789935
     atom   22 type  2   force =    -0.00029202   -0.00047873    0.00008784
     atom   23 type  2   force =    -0.08246167    0.00005182   -0.03289849
     atom   24 type  2   force =     0.08234586    0.00049398   -0.03295106
     atom   25 type  1   force =     0.00002764   -0.00057951    0.12460711
     atom   26 type  1   force =    -0.00019630   -0.00146777   -0.15534082
     atom   27 type  2   force =     0.00011538   -0.00079509   -0.06333418
     atom   28 type  2   force =     0.00005495    0.00197357    0.01275537
     atom   29 type  2   force =    -0.00158037    0.00507398   -0.01672246
     atom   30 type  2   force =     0.00372483    0.00539662   -0.01633565
     atom   31 type  1   force =    -0.00000733    0.00180252    0.04138719
     atom   32 type  1   force =     0.00011838   -0.01185035    0.09551477
     atom   33 type  2   force =     0.00001537   -0.00016271   -0.00000659
     atom   34 type  2   force =    -0.00105024    0.00153097   -0.07380728
     atom   35 type  2   force =    -0.00045432    0.00019155    0.00019641
     atom   36 type  2   force =     0.00116578    0.00044906    0.00026531
     atom   37 type  1   force =    -0.00030217    0.00056211   -0.00047876
     atom   38 type  1   force =     0.00020161   -0.00053512   -0.00029258
     atom   39 type  2   force =     0.00016772    0.00025779    0.00119061
     atom   40 type  2   force =    -0.00005037   -0.00050550   -0.00032649
     atom   41 type  2   force =     0.00079025    0.00002216   -0.00017303
     atom   42 type  2   force =    -0.00102499   -0.00019943    0.00012540
     atom   43 type  1   force =     0.00003413    0.00106318   -0.00045452
     atom   44 type  1   force =     0.00001534   -0.00042713    0.00011863
     atom   45 type  2   force =     0.00004007    0.00001782    0.09772720
     atom   46 type  2   force =    -0.08252415    0.00001173   -0.03290518
     atom   47 type  2   force =     0.08239838    0.00044281   -0.03295533
     atom   48 type  3   force =    -0.00079405    0.00152455   -0.02961465
     atom   49 type  4   force =     0.00034933   -0.00167907    0.02406986
     atom   50 type  5   force =    -0.00005615    0.00027990    0.00136041
     atom   51 type  5   force =    -0.00009376   -0.00047501    0.00141375
     atom   52 type  2   force =     0.00015475    0.00057061   -0.00021173
     atom   53 type  5   force =    -0.00106788    0.00030895   -0.00001633

     Total force =     0.416644     Total SCF correction =     0.000742
  @ DRIVER MODE: Message from server: STATUS
  @ DRIVER MODE: Message from server: GETFORCE
  @ DRIVER MODE: Returning v,forces,stress,ensemble

     Writing output data file ./calc.save/
  @ DRIVER MODE: Message from server: EXIT
  @ DRIVE MODE: Exiting

     General routines

     Parallel routines

   This run was terminated on:  18:27:19  22Sep2021

   JOB DONE.