     Program PWSCF v.6.7GPU starts on 23Aug2021 at 20:55:22

     R & G space division:  proc/nbgrp/npool/nimage =       6
     Reading input from /storage/home/hcoda1/3/ntian30/research/carbon/CH_vib/ads_slab/CHNNHHH_a/out_0015/pw.inp
Warning: card &CELL ignored
Warning: card   CELL_DYNAMICS='IPI', ignored
Warning: card / ignored

     Current dimensions of program PWSCF are:
     Max number of different atomic species (ntypx) = 10
     Max number of k-points (npk) =  40000
     Max angular momentum in pseudopotentials (lmaxx) =  3
     Presently no symmetry can be used with electric field

     Message from routine cell_base_init:
     DEPRECATED: use true lattice parameter, not A to a.u. conversion factor

     IMPORTANT: XC functional enforced from input :
     Exchange-correlation= BEEF-VDW
                           (   1   4  43  14   2   0   0)
     Any further DFT definition will be discarded
     Please, verify this is what you really want

  @ DRIVER MODE: Connecting to
 qe_1139763_2632795.sched-torque.pace.gatech.eduqvtrl3te_scratch
  using UNIX socket
  @ DRIVER MODE: Message from server: STATUS
  @ DRIVER MODE: Message from server: INIT
  @ DRIVER MODE: Receiving replica           0          -1
  @ DRIVER MODE: Receiving encoded integer          25
  @ DRIVER MODE:  SCF:  T  FORCE:  T  STRESS:  F  VC:  F  ENSEMBLE:  F
  @ DRIVER MODE:  SCF:  T  FORCE:  T  STRESS:  F  VC:  F  ENSEMBLE:  F

     Using Slab Decomposition

     bravais-lattice index     =            0
     lattice parameter (alat)  =       1.8897  a.u.
     unit-cell volume          =    6658.9804 (a.u.)^3
     number of atoms/cell      =           54
     number of atomic types    =            5
     number of electrons       =       396.00
     number of Kohn-Sham states=          208
     kinetic-energy cutoff     =      29.3995  Ry
     charge density cutoff     =     293.9946  Ry
     scf convergence threshold =      7.3E-08
     mixing beta               =       0.0500
     number of iterations used =            8  plain     mixing
     Exchange-correlation= BEEF-VDW
                           (   1   4  43  14   2   0   0)

     celldm(1)=   1.889726  celldm(2)=   0.000000  celldm(3)=   0.000000
     celldm(4)=   0.000000  celldm(5)=   0.000000  celldm(6)=   0.000000

     crystal axes: (cart. coord. in units of alat)
               a(1) = (   6.579727   0.000000   0.000000 )
               a(2) = (  -0.000775   5.961596   0.000000 )
               a(3) = (   0.000000   0.000000  25.155947 )

     reciprocal axes: (cart. coord. in units 2 pi/alat)
               b(1) = (  0.151982  0.000020  0.000000 )
               b(2) = (  0.000000  0.167740  0.000000 )
               b(3) = (  0.000000  0.000000  0.039752 )

     PseudoPot. # 1 for Ti read from file:
     /storage/coda1/p-amedford6/0/shared/rich_project_chbe-medford/medford-share/data/pseudos_module/espresso/nninc/pbe/van/Ti.UPF
     MD5 check sum: 8e4df49b7f0d34bbd5052bf3f5ea0213
     Pseudo is Ultrasoft, Zval = 12.0
     Generated by new atomic code, or converted to UPF format
     Using radial grid of  851 points,  6 beta functions with:
                l(1) =   0
                l(2) =   0
                l(3) =   1
                l(4) =   1
                l(5) =   2
                l(6) =   2
     Q(r) pseudized with  8 coefficients,  rinner =    1.000   1.000   1.000
                                                       1.000   1.000

     PseudoPot. # 2 for O  read from file:
     /storage/coda1/p-amedford6/0/shared/rich_project_chbe-medford/medford-share/data/pseudos_module/espresso/nninc/pbe/van/O.UPF
     MD5 check sum: 78c19812648e8988a0fe644b0f25305e
     Pseudo is Ultrasoft, Zval =  6.0
     Generated by new atomic code, or converted to UPF format
     Using radial grid of  737 points,  4 beta functions with:
                l(1) =   0
                l(2) =   0
                l(3) =   1
                l(4) =   1
     Q(r) pseudized with  8 coefficients,  rinner =    0.800   0.800   0.800

     PseudoPot. # 3 for N  read from file:
     /storage/coda1/p-amedford6/0/shared/rich_project_chbe-medford/medford-share/data/pseudos_module/espresso/nninc/pbe/van/N.UPF
     MD5 check sum: 90d10febe142ad51ac9d5be1deb811c4
     Pseudo is Ultrasoft, Zval =  5.0
     Generated by new atomic code, or converted to UPF format
     Using radial grid of  729 points,  4 beta functions with:
                l(1) =   0
                l(2) =   0
                l(3) =   1
                l(4) =   1
     Q(r) pseudized with  8 coefficients,  rinner =    0.800   0.800   0.800

     PseudoPot. # 4 for C  read from file:
     /storage/coda1/p-amedford6/0/shared/rich_project_chbe-medford/medford-share/data/pseudos_module/espresso/nninc/pbe/van/C.UPF
     MD5 check sum: 1a69bf6b8db32088f5b2163dbdb77a27
     Pseudo is Ultrasoft, Zval =  4.0
     Generated by new atomic code, or converted to UPF format
     Using radial grid of  721 points,  4 beta functions with:
                l(1) =   0
                l(2) =   0
                l(3) =   1
                l(4) =   1
     Q(r) pseudized with  8 coefficients,  rinner =    0.800   0.800   0.800

     PseudoPot. # 5 for H  read from file:
     /storage/coda1/p-amedford6/0/shared/rich_project_chbe-medford/medford-share/data/pseudos_module/espresso/nninc/pbe/van/H.UPF
     MD5 check sum: b5ee9d7bfd3a09ee7748110bda690ff7
     Pseudo is Ultrasoft, Zval =  1.0
     Generated by new atomic code, or converted to UPF format
     Using radial grid of  615 points,  1 beta functions with:
                l(1) =   0
     Q(r) pseudized with  8 coefficients,  rinner =    0.800

     atomic species   valence    mass     pseudopotential
        Ti1           12.00    47.86700     Ti( 1.00)
        O1             6.00    15.99900     O ( 1.00)
        N1             5.00    14.00700     N ( 1.00)
        C1             4.00    12.01100     C ( 1.00)
        H1             1.00     1.00800     H ( 1.00)

     No symmetry found

   Cartesian axes

     site n.     atom                  positions (alat units)
         1           Ti1 tau(   1) = (   0.0004258   2.9801865   6.0000000  )
         2           Ti1 tau(   2) = (   3.2906075   1.4906267   6.0002472  )
         3           O1  tau(   3) = (   0.0006271   0.0005054   7.9858123  )
         4           O1  tau(   4) = (   3.2906025   0.0005020   7.3038282  )
         5           O1  tau(   5) = (   4.5942328   1.4918067   9.2879030  )
         6           O1  tau(   6) = (   1.9868534   1.4903216   9.2879459  )
         7           Ti1 tau(   7) = (   3.2907910   2.8959150   9.1758416  )
         8           Ti1 tau(   8) = (   0.0015273   1.4827037   9.2680791  )
         9           O1  tau(   9) = (   3.3116888   5.9365513  11.3741315  )
        10           O1  tau(  10) = (   0.0116148   5.9584955  10.6183126  )
        11           O1  tau(  11) = (   1.3152863   1.4773744  12.6583839  )
        12           O1  tau(  12) = (   5.3185463   1.4781915  12.6604289  )
        13           Ti1 tau(  13) = (   0.0312267   2.9553392  12.5172039  )
        14           Ti1 tau(  14) = (   3.3247105   1.4628205  12.5237724  )
        15           O1  tau(  15) = (   0.0176705   0.0150782  14.7085838  )
        16           O1  tau(  16) = (   3.3263678   5.9469243  13.9928752  )
        17           O1  tau(  17) = (   4.5829619   1.4750097  16.2211409  )
        18           O1  tau(  18) = (   2.0801478   1.4636096  16.1819230  )
        19           Ti1 tau(  19) = (   3.3264833   2.9461821  15.7545810  )
        20           Ti1 tau(  20) = (   0.0064452   1.3478264  16.0581623  )
        21           O1  tau(  21) = (   3.2904802   0.0005063   4.7018136  )
        22           O1  tau(  22) = (   0.0393124   5.8647722  17.2449945  )
        23           O1  tau(  23) = (   1.3043587   1.4918075   6.0039043  )
        24           O1  tau(  24) = (   5.2767064   1.4903225   6.0039473  )
        25           Ti1 tau(  25) = (   0.0000382   5.9609847   6.0000000  )
        26           Ti1 tau(  26) = (   3.2902200   4.4714249   6.0002472  )
        27           O1  tau(  27) = (   0.0002396   2.9813036   7.9858123  )
        28           O1  tau(  28) = (   3.2902150   2.9813002   7.3038282  )
        29           O1  tau(  29) = (   4.5938453   4.4726049   9.2879030  )
        30           O1  tau(  30) = (   1.9864658   4.4711199   9.2879459  )
        31           Ti1 tau(  31) = (   3.2891106   5.8743827   9.1763621  )
        32           Ti1 tau(  32) = (   0.0006254   4.4649316   9.2693709  )
        33           O1  tau(  33) = (   3.3126387   2.9639063  11.3704323  )
        34           O1  tau(  34) = (   0.0092240   2.9805883  10.6323155  )
        35           O1  tau(  35) = (   1.3140505   4.4512041  12.6779488  )
        36           O1  tau(  36) = (   5.3186431   4.4503656  12.6784002  )
        37           Ti1 tau(  37) = (   0.0306983   5.9434578  12.5012515  )
        38           Ti1 tau(  38) = (   3.3249252   4.4426326  12.5284913  )
        39           O1  tau(  39) = (   0.0332616   2.9308952  14.9693926  )
        40           O1  tau(  40) = (   3.3269026   2.9510973  13.9662216  )
        41           O1  tau(  41) = (   4.5816979   4.4256876  16.1885362  )
        42           O1  tau(  42) = (   2.0739833   4.4348339  16.1471384  )
        43           Ti1 tau(  43) = (   3.3139036   5.9323143  15.7909994  )
        44           Ti1 tau(  44) = (   0.0257917   4.5791344  15.8913375  )
        45           O1  tau(  45) = (   3.2900926   2.9813045   4.7018136  )
        46           O1  tau(  46) = (   1.3039711   4.4726057   6.0039043  )
        47           O1  tau(  47) = (   5.2763189   4.4711207   6.0039473  )
        48           N1  tau(  48) = (   0.2611162   2.7486399  18.0384573  )
        49           C1  tau(  49) = (   1.0666652   3.1333113  18.7681872  )
        50           H1  tau(  50) = (   1.9496291   3.4574532  19.3170853  )
        51           N1  tau(  51) = (   3.9312863   3.7371558  19.5917579  )
        52           H1  tau(  52) = (   4.2637485   4.0673035  20.4913501  )
        53           H1  tau(  53) = (   4.3024207   4.3757745  18.8906580  )
        54           H1  tau(  54) = (   4.4024832   2.8518033  19.4177320  )

     number of k points=    10  Fermi-Dirac smearing, width (Ry)=  0.0073
                       cart. coord. in units 2pi/alat
        k(    1) = (   0.0000000   0.0000000   0.0000000), wk =   0.1250000
        k(    2) = (   0.0000000   0.0419351   0.0000000), wk =   0.2500000
        k(    3) = (   0.0000000  -0.0838702   0.0000000), wk =   0.1250000
        k(    4) = (   0.0379955   0.0000049   0.0000000), wk =   0.2500000
        k(    5) = (   0.0379955   0.0419400   0.0000000), wk =   0.2500000
        k(    6) = (   0.0379955  -0.0838652   0.0000000), wk =   0.2500000
        k(    7) = (   0.0379955  -0.0419301   0.0000000), wk =   0.2500000
        k(    8) = (  -0.0759910  -0.0000099   0.0000000), wk =   0.1250000
        k(    9) = (  -0.0759910   0.0419252   0.0000000), wk =   0.2500000
        k(   10) = (  -0.0759910  -0.0838800   0.0000000), wk =   0.1250000

     Initial potential from superposition of free atoms

     starting charge  379.99915, renormalised to  396.00000

     negative rho (up, down):  1.480E-02 0.000E+00

     %%%%%%%%%%%%%%%%%%%%%%%%%%%%%%%%%%%%%%%%%%%%%%%%%%%%%%%%%%%%%%%%%%%%%%%%
     %                                                                      %
     % You are using vdW-DF, which was implemented by the Thonhauser group. %
     % Please cite the following two papers that made this development      %
     % possible and the two reviews that describe the various versions:     %
     %                                                                      %
     %   T. Thonhauser et al., PRL 115, 136402 (2015).                      %
     %   T. Thonhauser et al., PRB 76, 125112 (2007).                       %
     %   K. Berland et al., Rep. Prog. Phys. 78, 066501 (2015).             %
     %   D.C. Langreth et al., J. Phys.: Condens. Matter 21, 084203 (2009). %
     %                                                                      %
     %                                                                      %
     % If you are calculating the stress with vdW-DF, please also cite:     %
     %                                                                      %
     %   R. Sabatini et al., J. Phys.: Condens. Matter 24, 424209 (2012).   %
     %                                                                      %
     %%%%%%%%%%%%%%%%%%%%%%%%%%%%%%%%%%%%%%%%%%%%%%%%%%%%%%%%%%%%%%%%%%%%%%%%

     Adding external electric field

     Computed dipole along edir(3) :
        Dipole              -10.3171 Ry au,        -26.2235 Debye
        Dipole field         -0.0195 Ry au,

        Potential amp.        1.8048 Ry
        Total length         46.3494 bohr

     Starting wfcs are  300 atomic wfcs
  @ DRIVER MODE: Message from server: STATUS
  @ DRIVER MODE: Message from server: POSDATA
  @ DRIVER MODE: Reading and sharing cell
  @ DRIVER MODE: Reading and sharing positions
  @ DRIVER MODE: Received positions

     Self-consistent Calculation

     iteration #  1     ecut=    29.40 Ry     beta= 0.05
     Davidson diagonalization with overlap
     c_bands:  1 eigenvalues not converged
     c_bands:  2 eigenvalues not converged
     c_bands:  2 eigenvalues not converged
     c_bands:  1 eigenvalues not converged
     c_bands:  3 eigenvalues not converged
     c_bands:  2 eigenvalues not converged
     c_bands:  3 eigenvalues not converged
     c_bands:  2 eigenvalues not converged
     c_bands:  2 eigenvalues not converged
     c_bands:  2 eigenvalues not converged
     ethr =  1.00E-05,  avg # of iterations = 20.0

[...]

     total energy              =   -2524.78564921 Ry
     estimated scf accuracy    <    4651.40454391 Ry

     iteration #  2     ecut=    29.40 Ry     beta= 0.05
     Davidson diagonalization with overlap
     ethr =  1.00E-02,  avg # of iterations = 25.0

[...]

     iteration # 59     ecut=    29.40 Ry     beta= 0.05
     Davidson diagonalization with overlap
     c_bands:  1 eigenvalues not converged
     ethr =  6.41E-08,  avg # of iterations = 13.8

[...]

     total energy              =   -2940.41308683 Ry
     estimated scf accuracy    <       0.00000010 Ry

     iteration # 74     ecut=    29.40 Ry     beta= 0.05
     Davidson diagonalization with overlap
     ethr =  2.41E-11,  avg # of iterations =  6.5

     negative rho (up, down):  1.579E-02 0.000E+00

     Adding external electric field

     Computed dipole along edir(3) :
        Dipole                1.4858 Ry au,          3.7765 Debye
        Dipole field          0.0028 Ry au,

        Potential amp.       -0.2599 Ry
        Total length         46.3494 bohr

     End of self-consistent calculation

          k = 0.0000 0.0000 0.0000 ( 18029 PWs)   bands (ev):

   -55.2563 -55.2204 -55.2075 -55.1734 -55.1333 -55.1251 -55.1010 -55.0981
   -55.0739 -55.0545 -55.0396 -55.0367 -55.0031 -54.9860 -54.2356 -54.2016
   -31.8248 -31.7042 -31.6998 -31.6211 -31.5655 -31.5635 -31.5548 -31.5420
   -31.4964 -31.4838 -31.4650 -31.4616 -31.4521 -31.4274 -31.4114 -31.4067
   -31.3926 -31.3808 -31.3718 -31.3707 -31.3600 -31.3477 -31.3212 -31.3188
   -31.3112 -31.3045 -31.2764 -31.2744 -31.2647 -31.2635 -31.2550 -31.2361
   -31.2351 -31.2268 -31.2232 -31.2215 -31.1878 -31.1875 -31.1698 -31.1646
   -31.1477 -31.0959 -30.6449 -30.5508 -30.5288 -30.4613 -30.3745 -30.2636
   -16.7757 -16.0810 -15.8113 -15.6688 -15.5628 -15.4516 -15.3367 -15.3164
   -15.1796 -15.1447 -15.0911 -14.9723 -14.9214 -14.9028 -14.8884 -14.8744
   -14.8679 -14.7970 -14.7917 -14.7683 -14.7480 -14.7354 -14.6924 -14.6906
   -14.6503 -14.6292 -14.5827 -14.4938 -14.4110 -14.3416 -14.0192 -12.7382
   -12.6207  -7.9976  -5.2429  -5.0368  -4.0152  -3.4200  -3.2696  -3.1736
    -3.1472  -3.1318  -3.0020  -2.8551  -2.8461  -2.7497  -2.6405  -2.5888
    -2.5066  -2.4579  -2.4456  -2.4272  -2.2441  -2.2272  -2.1741  -2.1261
    -2.0961  -2.0603  -2.0401  -2.0207  -2.0035  -1.9942  -1.9301  -1.8164
    -1.7806  -1.7286  -1.6772  -1.6519  -1.5980  -1.5773  -1.5413  -1.5352
    -1.5347  -1.4867  -1.4604  -1.4373  -1.3602  -1.2743  -1.1597  -1.1085
    -0.9533  -0.8913  -0.8349  -0.8225  -0.7586  -0.7392  -0.7089  -0.6329
    -0.6250  -0.5926  -0.4737  -0.3793  -0.3399  -0.3256  -0.2729  -0.2364
    -0.2090  -0.1619  -0.0659  -0.0338  -0.0170  -0.0125   0.1377   0.1513
     0.2206   0.2679   0.2896   0.2902   0.4034   0.4198   0.4921   0.5293
     0.5651   0.6384   0.6783   0.6942   0.6969   0.7306   0.7344   0.8253
     0.8476   0.8559   0.9281   1.0776   1.3044   1.3521   1.3598   1.6935
     1.6952   1.7872   1.9709   2.3631   2.4113   3.8424   3.9139   3.9881
     3.9947   4.0205   4.0805   4.3220   4.3322   4.3449   4.3482   4.3894

[...]

          k = 0.0380-0.0419 0.0000 ( 17876 PWs)   bands (ev):

[...]

          k =-0.0760-0.0000 0.0000 ( 17886 PWs)   bands (ev):

[...]

          k =-0.0760-0.0839 0.0000 ( 17948 PWs)   bands (ev):

   -55.2384 -55.2381 -55.1904 -55.1904 -55.1204 -55.1197 -55.1117 -55.0983
   -55.0588 -55.0578 -55.0553 -55.0202 -55.0197 -54.9889 -54.2185 -54.2185
   -31.6286 -31.6281 -31.6273 -31.5270 -31.5149 -31.5149 -31.5144 -31.4818
   -31.4816 -31.4635 -31.4563 -31.4506 -31.4462 -31.3954 -31.3908 -31.3886
   -31.3874 -31.3874 -31.3819 -31.3762 -31.3520 -31.3486 -31.3380 -31.3291
   -31.3282 -31.3219 -31.3133 -31.3101 -31.3101 -31.3038 -31.2909 -31.2882
   -31.2829 -31.2708 -31.2682 -31.2514 -31.2501 -31.2460 -31.2007 -31.2006
   -31.1946 -31.1881 -30.5414 -30.5414 -30.4574 -30.4573 -30.4179 -30.4179
   -16.7669 -15.6133 -15.4969 -15.4558 -15.2682 -15.2598 -15.2291 -15.2167
   -15.1510 -15.0656 -15.0389 -15.0286 -15.0154 -14.9637 -14.9576 -14.9521
   -14.9305 -14.8596 -14.8511 -14.8492 -14.8321 -14.7661 -14.7613 -14.7569
   -14.7461 -14.7030 -14.7001 -14.6059 -14.6039 -14.5095 -14.3859 -12.7222
   -12.7222  -7.9942  -5.2381  -5.0472  -4.0020  -2.8010  -2.7715  -2.7246
    -2.7154  -2.6988  -2.4797  -2.4569  -2.4199  -2.3698  -2.3084  -2.2572
    -2.2488  -2.2322  -2.1651  -2.1263  -2.1098  -2.0963  -2.0780  -2.0624
    -2.0480  -2.0223  -1.9800  -1.9725  -1.9512  -1.9308  -1.9010  -1.8926
    -1.8615  -1.8406  -1.8253  -1.8080  -1.6932  -1.6695  -1.6110  -1.5718
    -1.5305  -1.4583  -1.4531  -1.3559  -1.3484  -1.2941  -1.2824  -1.2561
    -1.1633  -1.0642  -1.0021  -0.9958  -0.9894  -0.8631  -0.8250  -0.8006
    -0.7639  -0.7356  -0.6761  -0.5982  -0.5767  -0.5421  -0.4579  -0.4497
    -0.3928  -0.3122  -0.2784  -0.2478  -0.2181  -0.2107  -0.2009  -0.1477
    -0.1413  -0.0700  -0.0201   0.0132   0.0244   0.0585   0.2633   0.2799
     0.3329   0.4311   0.5039   0.6241   0.6820   0.7032   0.7745   0.8146
     0.8584   0.9209   1.0235   1.0537   1.0566   1.1313   1.1630   1.2048
     1.2089   2.1442   2.1446   2.2312   2.2314   3.9862   4.0803   4.1024
     4.1506   4.2417   4.2773   4.3600   4.3781   4.4278   4.4299   4.4990

     the Fermi energy is     3.9054 ev

!    total energy              =   -2940.41311676 Ry
     estimated scf accuracy    <       0.00000005 Ry
     smearing contrib. (-TS)   =      -0.03731477 Ry
     internal energy E=F+TS    =   -2940.37580199 Ry

     The total energy is F=E-TS. E is the sum of the following terms:
     one-electron contribution =  -23553.17299149 Ry
     hartree contribution      =   11869.26196379 Ry
     xc contribution           =    -485.97026087 Ry
     ewald contribution        =    9229.50132059 Ry
     electric field correction =       0.00416599 Ry

     convergence has been achieved in  74 iterations

     Forces acting on atoms (cartesian axes, Ry/au):

     atom    1 type  1   force =    -0.00002862   -0.00017487    0.09330698
     atom    2 type  1   force =    -0.00014944   -0.00022085   -0.17811645
     atom    3 type  2   force =     0.00006431   -0.00020366   -0.02048731
     atom    4 type  2   force =     0.00000393   -0.00194785    0.05846960
     atom    5 type  2   force =    -0.01028613   -0.00134633    0.00735393
     atom    6 type  2   force =     0.01228617   -0.00075012    0.00784641
     atom    7 type  1   force =     0.00036144    0.00277905   -0.01407242
     atom    8 type  1   force =    -0.00056102    0.00104929   -0.00334428
     atom    9 type  2   force =     0.00004067    0.00049759   -0.00008240
     atom   10 type  2   force =    -0.00055182   -0.00102886   -0.00004053
     atom   11 type  2   force =     0.00006999    0.00011390    0.00004308
     atom   12 type  2   force =    -0.00023793    0.00016240   -0.00007128
     atom   13 type  1   force =    -0.00002207    0.00090208   -0.00028299
     atom   14 type  1   force =     0.00010388    0.00025312   -0.00017139
     atom   15 type  2   force =    -0.00013155    0.00011382    0.00096221
     atom   16 type  2   force =     0.00004607    0.00011121   -0.00004408
     atom   17 type  2   force =     0.00026171   -0.00031358    0.00000220
     atom   18 type  2   force =    -0.00022920   -0.00045265   -0.00046663
     atom   19 type  1   force =    -0.00061585   -0.00018854    0.00009733
     atom   20 type  1   force =    -0.00025305    0.00067801   -0.00000234
     atom   21 type  2   force =    -0.00002071    0.00000540    0.10389216
     atom   22 type  2   force =    -0.00028639   -0.00062586   -0.00104630
     atom   23 type  2   force =    -0.07044929   -0.00008692   -0.02689013
     atom   24 type  2   force =     0.07028630    0.00034908   -0.02694480
     atom   25 type  1   force =     0.00004349   -0.00005185    0.09293205
     atom   26 type  1   force =    -0.00017328   -0.00018425   -0.17815410
     atom   27 type  2   force =     0.00012317   -0.00033704   -0.01949635
     atom   28 type  2   force =     0.00003268   -0.00168231    0.05803564
     atom   29 type  2   force =    -0.01040061   -0.00124889    0.00692712
     atom   30 type  2   force =     0.01228697   -0.00092168    0.00743888
     atom   31 type  1   force =     0.00034522    0.00515904   -0.01509298
     atom   32 type  1   force =    -0.00047203   -0.00160084   -0.00357587
     atom   33 type  2   force =    -0.00019237   -0.00021685   -0.00019338
     atom   34 type  2   force =     0.00029226   -0.00052731    0.00104515
     atom   35 type  2   force =    -0.00041797    0.00005620    0.00023328
     atom   36 type  2   force =     0.00035130   -0.00002832    0.00029552
     atom   37 type  1   force =    -0.00012151   -0.00043527   -0.00004618
     atom   38 type  1   force =     0.00013618    0.00033465   -0.00029331
     atom   39 type  2   force =    -0.00034293   -0.00042997    0.00114785
     atom   40 type  2   force =     0.00006825    0.00007264   -0.00017586
     atom   41 type  2   force =    -0.00003061    0.00024816   -0.00035531
     atom   42 type  2   force =    -0.00013258    0.00000633   -0.00042617
     atom   43 type  1   force =    -0.00079818   -0.00018557    0.00013221
     atom   44 type  1   force =     0.00009663    0.00049595    0.00003582
     atom   45 type  2   force =    -0.00000951    0.00000540    0.10388620
     atom   46 type  2   force =    -0.07046569   -0.00004356   -0.02689344
     atom   47 type  2   force =     0.07029337    0.00039665   -0.02696450
     atom   48 type  3   force =     0.00000041   -0.00028483    0.00020425
     atom   49 type  4   force =    -0.00337096   -0.00186025   -0.00241305
     atom   50 type  5   force =     0.00267194    0.00203997    0.00255976
     atom   51 type  3   force =     0.00012229   -0.00132028   -0.00103681
     atom   52 type  5   force =     0.00071360    0.00085405    0.00088017
     atom   53 type  5   force =     0.00011348    0.00046941   -0.00048804
     atom   54 type  5   force =    -0.00046441    0.00154574   -0.00005910

     Total force =     0.366037     Total SCF correction =     0.000511
  @ DRIVER MODE: Message from server: STATUS
  @ DRIVER MODE: Message from server: GETFORCE
  @ DRIVER MODE: Returning v,forces,stress,ensemble

     Writing output data file ./calc.save/
  @ DRIVER MODE: Message from server: EXIT
  @ DRIVE MODE: Exiting

     General routines

     Parallel routines

   This run was terminated on:  21:28:54  23Aug2021

   JOB DONE.