     Program PWSCF v.6.7GPU starts on 10Sep2021 at  7:32:18

     R & G space division:  proc/nbgrp/npool/nimage =      10
     Reading input from /storage/home/hcoda1/3/ntian30/research/carbon/CxH_vib/CH3_calc/ads_slab/CH3N2OH_j/out_0032/pw.inp
Warning: card &CELL ignored
Warning: card   CELL_DYNAMICS='IPI', ignored
Warning: card / ignored

     Current dimensions of program PWSCF are:
     Max number of different atomic species (ntypx) = 10
     Max number of k-points (npk) =  40000
     Max angular momentum in pseudopotentials (lmaxx) =  3
     Presently no symmetry can be used with electric field

     Message from routine cell_base_init:
     DEPRECATED: use true lattice parameter, not A to a.u. conversion factor

     IMPORTANT: XC functional enforced from input :
     Exchange-correlation= BEEF-VDW
                           (   1   4  43  14   2   0   0)
     Any further DFT definition will be discarded
     Please, verify this is what you really want

  @ DRIVER MODE: Connecting to
 qe_1139763_2779713.sched-torque.pace.gatech.eduo6p9xhz0_scratch
  using UNIX socket
  @ DRIVER MODE: Message from server: STATUS
  @ DRIVER MODE: Message from server: INIT
  @ DRIVER MODE: Receiving replica           0          -1
  @ DRIVER MODE: Receiving encoded integer          25
  @ DRIVER MODE:  SCF:  T  FORCE:  T  STRESS:  F  VC:  F  ENSEMBLE:  F
  @ DRIVER MODE:  SCF:  T  FORCE:  T  STRESS:  F  VC:  F  ENSEMBLE:  F

     Using Slab Decomposition

     bravais-lattice index     =            0
     lattice parameter (alat)  =       1.8897  a.u.
     unit-cell volume          =    6658.9804 (a.u.)^3
     number of atoms/cell      =           55
     number of atomic types    =            5
     number of electrons       =       402.00
     number of Kohn-Sham states=          211
     kinetic-energy cutoff     =      29.3995  Ry
     charge density cutoff     =     293.9946  Ry
     scf convergence threshold =      7.3E-08
     mixing beta               =       0.0500
     number of iterations used =            8  plain     mixing
     Exchange-correlation= BEEF-VDW
                           (   1   4  43  14   2   0   0)

     celldm(1)=   1.889726  celldm(2)=   0.000000  celldm(3)=   0.000000
     celldm(4)=   0.000000  celldm(5)=   0.000000  celldm(6)=   0.000000

     crystal axes: (cart. coord. in units of alat)
               a(1) = (   6.579727   0.000000   0.000000 )
               a(2) = (  -0.000775   5.961596   0.000000 )
               a(3) = (   0.000000   0.000000  25.155947 )

     reciprocal axes: (cart. coord. in units 2 pi/alat)
               b(1) = (  0.151982  0.000020  0.000000 )
               b(2) = (  0.000000  0.167740  0.000000 )
               b(3) = (  0.000000  0.000000  0.039752 )

     PseudoPot. # 1 for Ti read from file:
     /storage/coda1/p-amedford6/0/shared/rich_project_chbe-medford/medford-share/data/pseudos_module/espresso/nninc/pbe/van/Ti.UPF
     MD5 check sum: 8e4df49b7f0d34bbd5052bf3f5ea0213
     Pseudo is Ultrasoft, Zval = 12.0
     Generated by new atomic code, or converted to UPF format
     Using radial grid of  851 points,  6 beta functions with:
                l(1) =   0
                l(2) =   0
                l(3) =   1
                l(4) =   1
                l(5) =   2
                l(6) =   2
     Q(r) pseudized with  8 coefficients,  rinner =    1.000   1.000   1.000
                                                       1.000   1.000

     PseudoPot. # 2 for O  read from file:
     /storage/coda1/p-amedford6/0/shared/rich_project_chbe-medford/medford-share/data/pseudos_module/espresso/nninc/pbe/van/O.UPF
     MD5 check sum: 78c19812648e8988a0fe644b0f25305e
     Pseudo is Ultrasoft, Zval =  6.0
     Generated by new atomic code, or converted to UPF format
     Using radial grid of  737 points,  4 beta functions with:
                l(1) =   0
                l(2) =   0
                l(3) =   1
                l(4) =   1
     Q(r) pseudized with  8 coefficients,  rinner =    0.800   0.800   0.800

     PseudoPot. # 3 for N  read from file:
     /storage/coda1/p-amedford6/0/shared/rich_project_chbe-medford/medford-share/data/pseudos_module/espresso/nninc/pbe/van/N.UPF
     MD5 check sum: 90d10febe142ad51ac9d5be1deb811c4
     Pseudo is Ultrasoft, Zval =  5.0
     Generated by new atomic code, or converted to UPF format
     Using radial grid of  729 points,  4 beta functions with:
                l(1) =   0
                l(2) =   0
                l(3) =   1
                l(4) =   1
     Q(r) pseudized with  8 coefficients,  rinner =    0.800   0.800   0.800

     PseudoPot. # 4 for C  read from file:
     /storage/coda1/p-amedford6/0/shared/rich_project_chbe-medford/medford-share/data/pseudos_module/espresso/nninc/pbe/van/C.UPF
     MD5 check sum: 1a69bf6b8db32088f5b2163dbdb77a27
     Pseudo is Ultrasoft, Zval =  4.0
     Generated by new atomic code, or converted to UPF format
     Using radial grid of  721 points,  4 beta functions with:
                l(1) =   0
                l(2) =   0
                l(3) =   1
                l(4) =   1
     Q(r) pseudized with  8 coefficients,  rinner =    0.800   0.800   0.800

     PseudoPot. # 5 for H  read from file:
     /storage/coda1/p-amedford6/0/shared/rich_project_chbe-medford/medford-share/data/pseudos_module/espresso/nninc/pbe/van/H.UPF
     MD5 check sum: b5ee9d7bfd3a09ee7748110bda690ff7
     Pseudo is Ultrasoft, Zval =  1.0
     Generated by new atomic code, or converted to UPF format
     Using radial grid of  615 points,  1 beta functions with:
                l(1) =   0
     Q(r) pseudized with  8 coefficients,  rinner =    0.800

     atomic species   valence    mass     pseudopotential
        Ti1           12.00    47.86700     Ti( 1.00)
        O1             6.00    15.99900     O ( 1.00)
        N1             5.00    14.00700     N ( 1.00)
        C1             4.00    12.01100     C ( 1.00)
        H1             1.00     1.00800     H ( 1.00)

     No symmetry found

   Cartesian axes

     site n.     atom                  positions (alat units)
         1           Ti1 tau(   1) = (   0.0004258   2.9801865   6.0000000  )
         2           Ti1 tau(   2) = (   3.2906075   1.4906267   6.0002472  )
         3           O1  tau(   3) = (   0.0006271   0.0005054   7.9858123  )
         4           O1  tau(   4) = (   3.2906025   0.0005020   7.3038282  )
         5           O1  tau(   5) = (   4.5942328   1.4918067   9.2879030  )
         6           O1  tau(   6) = (   1.9868534   1.4903216   9.2879459  )
         7           Ti1 tau(   7) = (   3.2907910   2.8959150   9.1758416  )
         8           Ti1 tau(   8) = (   0.0015273   1.4827037   9.2680791  )
         9           O1  tau(   9) = (   3.2817971   0.0424577  11.2706337  )
        10           O1  tau(  10) = (   0.0116148   5.9584955  10.6183126  )
        11           O1  tau(  11) = (   1.2813654   1.4951502  12.6332405  )
        12           O1  tau(  12) = (   5.2815101   1.4921423  12.6269808  )
        13           Ti1 tau(  13) = (   6.5662594   2.8603684  12.6843660  )
        14           Ti1 tau(  14) = (   3.2717346   1.4252475  12.4210995  )
        15           O1  tau(  15) = (   6.5710910   0.0045200  14.6317625  )
        16           O1  tau(  16) = (   3.2759495   0.0084639  13.8932321  )
        17           O1  tau(  17) = (   4.5517014   1.4983445  16.0008815  )
        18           O1  tau(  18) = (   2.0271237   1.5070609  16.0478782  )
        19           Ti1 tau(  19) = (   3.2345769   3.0092735  16.2435900  )
        20           Ti1 tau(  20) = (   6.4941389   1.4975806  15.8145731  )
        21           O1  tau(  21) = (   3.2904802   0.0005063   4.7018136  )
        22           O1  tau(  22) = (   6.5579512   0.0396517  17.1742205  )
        23           O1  tau(  23) = (   1.3043587   1.4918075   6.0039043  )
        24           O1  tau(  24) = (   5.2767064   1.4903225   6.0039473  )
        25           Ti1 tau(  25) = (   0.0000382   5.9609847   6.0000000  )
        26           Ti1 tau(  26) = (   3.2902200   4.4714249   6.0002472  )
        27           O1  tau(  27) = (   0.0002396   2.9813036   7.9858123  )
        28           O1  tau(  28) = (   3.2902150   2.9813002   7.3038282  )
        29           O1  tau(  29) = (   4.5938453   4.4726049   9.2879030  )
        30           O1  tau(  30) = (   1.9864658   4.4711199   9.2879459  )
        31           Ti1 tau(  31) = (   3.2891106   5.8743827   9.1763621  )
        32           Ti1 tau(  32) = (   0.0006254   4.4649316   9.2693709  )
        33           O1  tau(  33) = (   3.2800217   2.9666125  11.2981572  )
        34           O1  tau(  34) = (   0.0092240   2.9805883  10.6323155  )
        35           O1  tau(  35) = (   1.2755083   4.4823741  12.6262202  )
        36           O1  tau(  36) = (   5.2848398   4.4807727  12.6177486  )
        37           Ti1 tau(  37) = (   6.5672004   5.8338186  12.5551636  )
        38           Ti1 tau(  38) = (   3.2732152   4.2974050  12.6602233  )
        39           O1  tau(  39) = (   6.5693882   2.9786051  14.6782399  )
        40           O1  tau(  40) = (   3.2805734   3.0393479  13.9038923  )
        41           O1  tau(  41) = (   4.5335661   4.5240572  16.0872286  )
        42           O1  tau(  42) = (   2.0073973   4.5295938  16.0607137  )
        43           Ti1 tau(  43) = (   3.2598295   0.0330142  15.6732764  )
        44           Ti1 tau(  44) = (   6.5464637   4.6748829  16.0422594  )
        45           O1  tau(  45) = (   3.2900926   2.9813045   4.7018136  )
        46           O1  tau(  46) = (   1.3039711   4.4726057   6.0039043  )
        47           O1  tau(  47) = (   5.2763189   4.4711207   6.0039473  )
        48           N1  tau(  48) = (   0.1126456   2.6876119  18.6539570  )
        49           N1  tau(  49) = (   0.0165868   2.9082207  17.4746156  )
        50           C1  tau(  50) = (   0.2746321   3.7930379  19.6319179  )
        51           H1  tau(  51) = (   0.1055085   4.7742840  19.1878107  )
        52           H1  tau(  52) = (   6.1760284   3.5871646  20.4591619  )
        53           H1  tau(  53) = (   1.3082147   3.7051261  19.9977701  )
        54           O1  tau(  54) = (   3.2987527   2.9937385  18.0942264  )
        55           H1  tau(  55) = (   3.7476408   3.7324850  18.5320624  )

     number of k points=    10  Fermi-Dirac smearing, width (Ry)=  0.0073
                       cart. coord. in units 2pi/alat
        k(    1) = (   0.0000000   0.0000000   0.0000000), wk =   0.1250000
        k(    2) = (   0.0000000   0.0419351   0.0000000), wk =   0.2500000
        k(    3) = (   0.0000000  -0.0838702   0.0000000), wk =   0.1250000
        k(    4) = (   0.0379955   0.0000049   0.0000000), wk =   0.2500000
        k(    5) = (   0.0379955   0.0419400   0.0000000), wk =   0.2500000
        k(    6) = (   0.0379955  -0.0838652   0.0000000), wk =   0.2500000
        k(    7) = (   0.0379955  -0.0419301   0.0000000), wk =   0.2500000
        k(    8) = (  -0.0759910  -0.0000099   0.0000000), wk =   0.1250000
        k(    9) = (  -0.0759910   0.0419252   0.0000000), wk =   0.2500000
        k(   10) = (  -0.0759910  -0.0838800   0.0000000), wk =   0.1250000

     Initial potential from superposition of free atoms

     starting charge  385.99915, renormalised to  402.00000

     negative rho (up, down):  1.467E-02 0.000E+00

     %%%%%%%%%%%%%%%%%%%%%%%%%%%%%%%%%%%%%%%%%%%%%%%%%%%%%%%%%%%%%%%%%%%%%%%%
     %                                                                      %
     % You are using vdW-DF, which was implemented by the Thonhauser group. %
     % Please cite the following two papers that made this development      %
     % possible and the two reviews that describe the various versions:     %
     %                                                                      %
     %   T. Thonhauser et al., PRL 115, 136402 (2015).                      %
     %   T. Thonhauser et al., PRB 76, 125112 (2007).                       %
     %   K. Berland et al., Rep. Prog. Phys. 78, 066501 (2015).             %
     %   D.C. Langreth et al., J. Phys.: Condens. Matter 21, 084203 (2009). %
     %                                                                      %
     %                                                                      %
     % If you are calculating the stress with vdW-DF, please also cite:     %
     %                                                                      %
     %   R. Sabatini et al., J. Phys.: Condens. Matter 24, 424209 (2012).   %
     %                                                                      %
     %%%%%%%%%%%%%%%%%%%%%%%%%%%%%%%%%%%%%%%%%%%%%%%%%%%%%%%%%%%%%%%%%%%%%%%%

     Adding external electric field

     Computed dipole along edir(3) :
        Dipole              -11.9798 Ry au,        -30.4497 Debye
        Dipole field         -0.0226 Ry au,

        Potential amp.        2.0957 Ry
        Total length         46.3494 bohr

     Starting wfcs are  304 atomic wfcs
  @ DRIVER MODE: Message from server: STATUS
  @ DRIVER MODE: Message from server: POSDATA
  @ DRIVER MODE: Reading and sharing cell
  @ DRIVER MODE: Reading and sharing positions
  @ DRIVER MODE: Received positions

     Self-consistent Calculation

     iteration #  1     ecut=    29.40 Ry     beta= 0.05
     Davidson diagonalization with overlap
     c_bands:  4 eigenvalues not converged
     c_bands:  3 eigenvalues not converged
     c_bands:  5 eigenvalues not converged
     c_bands:  5 eigenvalues not converged
     c_bands:  3 eigenvalues not converged
     c_bands:  4 eigenvalues not converged
     c_bands:  2 eigenvalues not converged
     c_bands:  1 eigenvalues not converged
     ethr =  1.00E-05,  avg # of iterations = 25.4

[...]

     total energy              =   -2401.04242331 Ry
     estimated scf accuracy    <    6440.96579949 Ry

     iteration #  2     ecut=    29.40 Ry     beta= 0.05
     Davidson diagonalization with overlap
     ethr =  1.00E-02,  avg # of iterations = 22.6

[...]

     iteration # 46     ecut=    29.40 Ry     beta= 0.05
     Davidson diagonalization with overlap
     c_bands:  1 eigenvalues not converged
     c_bands:  1 eigenvalues not converged
     c_bands:  1 eigenvalues not converged
     ethr =  1.03E-06,  avg # of iterations = 12.9

[...]

     total energy              =   -2972.74448941 Ry
     estimated scf accuracy    <       0.00000008 Ry

     iteration # 73     ecut=    29.40 Ry     beta= 0.05
     Davidson diagonalization with overlap
     ethr =  2.06E-11,  avg # of iterations =  4.6

     negative rho (up, down):  1.547E-02 0.000E+00

     Adding external electric field

     Computed dipole along edir(3) :
        Dipole                0.6085 Ry au,          1.5466 Debye
        Dipole field          0.0011 Ry au,

        Potential amp.       -0.1064 Ry
        Total length         46.3494 bohr

     End of self-consistent calculation

          k = 0.0000 0.0000 0.0000 ( 18029 PWs)   bands (ev):

   -56.2388 -56.2050 -55.8239 -55.7903 -55.5914 -55.5318 -55.4810 -55.4055
   -55.3813 -55.3264 -55.2362 -55.1641 -55.0838 -55.0113 -54.9902 -54.9774
   -32.6892 -32.5313 -32.5044 -32.3973 -32.3134 -32.3047 -32.3030 -32.0714
   -32.0429 -32.0238 -31.9716 -31.9651 -31.9312 -31.8979 -31.8692 -31.8175
   -31.8081 -31.7927 -31.7547 -31.7351 -31.7281 -31.7071 -31.6942 -31.6927
   -31.6910 -31.6507 -31.6035 -31.5742 -31.5551 -31.5365 -31.5353 -31.4977
   -31.4880 -31.4278 -31.4181 -31.4081 -31.3682 -31.3444 -31.3395 -31.3208
   -31.3152 -31.2918 -31.2392 -31.2270 -31.2267 -31.2121 -31.1421 -31.0303
   -18.8591 -16.5330 -16.3538 -16.1979 -15.9869 -15.8187 -15.7267 -15.7186
   -15.6706 -15.5496 -15.5223 -15.4275 -15.3363 -15.2627 -15.2624 -15.2375
   -15.1410 -15.0846 -15.0586 -15.0182 -14.9982 -14.9914 -14.9783 -14.8799
   -14.8631 -14.8580 -14.7153 -14.6938 -14.6081 -14.3600 -14.2632 -13.5092
   -13.3969 -11.5140  -6.9282  -4.4134  -4.1574  -4.0423  -4.0132  -3.8279
    -3.7486  -3.5311  -3.4320  -3.3555  -3.2330  -3.1474  -2.9575  -2.9463
    -2.8924  -2.8228  -2.7482  -2.6890  -2.6371  -2.6264  -2.5531  -2.5140
    -2.4737  -2.4663  -2.4040  -2.3881  -2.3018  -2.2885  -2.2169  -2.1823
    -2.1516  -2.1214  -2.1022  -2.0416  -2.0340  -2.0007  -1.9714  -1.9196
    -1.8550  -1.8094  -1.7240  -1.6718  -1.6559  -1.5639  -1.5442  -1.5322
    -1.5159  -1.3216  -1.2478  -1.2262  -1.2150  -1.0673  -1.0247  -0.9999
    -0.9198  -0.8960  -0.8490  -0.8090  -0.7612  -0.7044  -0.6732  -0.6675
    -0.6427  -0.5912  -0.4039  -0.3708  -0.3222  -0.2923  -0.2546  -0.1982
    -0.1678  -0.1366  -0.0543  -0.0490  -0.0399  -0.0025   0.0475   0.1284
     0.1881   0.2086   0.3012   0.3074   0.3492   0.3839   0.4402   0.4675
     0.5515   0.5952   0.6107   0.6654   0.6855   0.8740   0.9110   0.9476
     0.9850   1.0131   1.0587   1.1732   1.2419   1.5433   1.5611   1.6006
     2.7526   2.9876   3.1164   3.2724   3.4198   3.5145   3.8248   3.8534
     3.8885   3.9468   4.0134

[...]

          k = 0.0380-0.0419 0.0000 ( 17876 PWs)   bands (ev):

[...]

          k =-0.0760-0.0000 0.0000 ( 17886 PWs)   bands (ev):

[...]

          k =-0.0760-0.0839 0.0000 ( 17948 PWs)   bands (ev):

   -56.2224 -56.2213 -55.8082 -55.8057 -55.5861 -55.5370 -55.4782 -55.4082
   -55.3753 -55.3322 -55.2343 -55.1624 -55.0855 -54.9947 -54.9939 -54.9917
   -32.5174 -32.5162 -32.5056 -32.5049 -32.3498 -32.3487 -32.1277 -32.1238
   -32.0025 -32.0004 -31.9971 -31.9954 -31.8916 -31.8529 -31.8166 -31.8095
   -31.8043 -31.7647 -31.7530 -31.7478 -31.7215 -31.7065 -31.6994 -31.6677
   -31.6622 -31.6261 -31.6212 -31.6022 -31.5948 -31.5649 -31.5586 -31.5450
   -31.4885 -31.4341 -31.4317 -31.4217 -31.3659 -31.3442 -31.3340 -31.3335
   -31.2963 -31.2958 -31.2458 -31.2287 -31.2233 -31.2223 -31.1849 -31.1842
   -18.8554 -16.3411 -15.9429 -15.9306 -15.8072 -15.8006 -15.6284 -15.6119
   -15.5909 -15.5339 -15.5127 -15.4650 -15.3249 -15.3154 -15.2555 -15.2226
   -15.1976 -15.1811 -15.1521 -15.1518 -15.1325 -15.0589 -15.0314 -15.0042
   -14.9552 -14.9511 -14.7855 -14.7196 -14.7056 -14.4920 -14.4600 -13.5000
   -13.4998 -11.5120  -6.9421  -4.3609  -4.0243  -3.9943  -3.9347  -3.1112
    -3.0565  -2.9463  -2.9195  -2.8454  -2.8232  -2.7156  -2.6919  -2.6508
    -2.6373  -2.6337  -2.5784  -2.5561  -2.5339  -2.4896  -2.4778  -2.4649
    -2.4402  -2.3920  -2.3805  -2.3632  -2.3477  -2.3315  -2.2376  -2.2305
    -2.2142  -2.1698  -2.1663  -2.1537  -2.0758  -2.0064  -1.9632  -1.9573
    -1.9251  -1.8682  -1.7903  -1.6787  -1.6576  -1.6064  -1.5783  -1.5025
    -1.4735  -1.4284  -1.3334  -1.3259  -1.2989  -1.2816  -1.2208  -1.2061
    -1.0635  -1.0305  -1.0248  -1.0175  -1.0153  -0.9180  -0.8570  -0.7968
    -0.7455  -0.6625  -0.6488  -0.6278  -0.6090  -0.5995  -0.5804  -0.5562
    -0.4947  -0.4534  -0.4029  -0.3858  -0.2818  -0.2026  -0.1681  -0.1020
    -0.0243   0.0646   0.1432   0.1567   0.1943   0.2487   0.3374   0.3790
     0.4214   0.4901   0.5322   0.6052   0.6668   0.7519   0.7757   0.8644
     0.9759   0.9925   1.0427   1.1303   1.4035   1.4102   1.4167   1.4176
     2.7584   3.5354   3.5392   3.5690   3.5773   3.7771   3.7891   3.9147
     3.9689   3.9942   4.0323

     the Fermi energy is     2.9243 ev

!    total energy              =   -2972.74450912 Ry
     estimated scf accuracy    <       0.00000002 Ry
     smearing contrib. (-TS)   =      -0.01283892 Ry
     internal energy E=F+TS    =   -2972.73167020 Ry

     The total energy is F=E-TS. E is the sum of the following terms:
     one-electron contribution =  -23700.60575700 Ry
     hartree contribution      =   11943.59641434 Ry
     xc contribution           =    -493.11837429 Ry
     ewald contribution        =    9277.39534805 Ry
     electric field correction =       0.00069869 Ry

     convergence has been achieved in  73 iterations

     Forces acting on atoms (cartesian axes, Ry/au):

     atom    1 type  1   force =     0.00008870   -0.00038378    0.10701331
     atom    2 type  1   force =    -0.00004042   -0.00169535   -0.16538621
     atom    3 type  2   force =     0.00003485   -0.00025845   -0.03867975
     atom    4 type  2   force =     0.00004474    0.00076187    0.03118188
     atom    5 type  2   force =    -0.00356102    0.00294702   -0.00839997
     atom    6 type  2   force =     0.00469690    0.00361599   -0.01016893
     atom    7 type  1   force =    -0.00073059    0.00048478    0.02122833
     atom    8 type  1   force =     0.00100772    0.01539315    0.06094739
     atom    9 type  2   force =     0.00011297   -0.00014369    0.00010010
     atom   10 type  2   force =    -0.00289401    0.00226546   -0.04713433
     atom   11 type  2   force =    -0.00003930   -0.00020525   -0.00002858
     atom   12 type  2   force =     0.00000255   -0.00002912    0.00019283
     atom   13 type  1   force =     0.00028368   -0.00013101    0.00009605
     atom   14 type  1   force =     0.00040040   -0.00015288    0.00023207
     atom   15 type  2   force =     0.00015935    0.00013614   -0.00030463
     atom   16 type  2   force =     0.00014578   -0.00015957    0.00002698
     atom   17 type  2   force =     0.00016143    0.00016323    0.00025958
     atom   18 type  2   force =     0.00013834    0.00026372    0.00008409
     atom   19 type  1   force =     0.00003464   -0.00014625   -0.00016026
     atom   20 type  1   force =    -0.00033193    0.00020546    0.00005969
     atom   21 type  2   force =     0.00010144    0.00000034    0.10029080
     atom   22 type  2   force =     0.00003348    0.00004622   -0.00016891
     atom   23 type  2   force =    -0.07669234   -0.00004625   -0.03007126
     atom   24 type  2   force =     0.07667773    0.00038575   -0.03009645
     atom   25 type  1   force =     0.00005871   -0.00043051    0.10696342
     atom   26 type  1   force =    -0.00010704    0.00062900   -0.16569062
     atom   27 type  2   force =     0.00012169   -0.00027251   -0.03749144
     atom   28 type  2   force =     0.00004419   -0.00043763    0.03535985
     atom   29 type  2   force =    -0.00569793   -0.00043525   -0.00598499
     atom   30 type  2   force =     0.00686096    0.00006274   -0.00767226
     atom   31 type  1   force =    -0.00056937   -0.00239206    0.03460597
     atom   32 type  1   force =     0.00111147   -0.01877465    0.06147018
     atom   33 type  2   force =     0.00022458   -0.00012119    0.00006152
     atom   34 type  2   force =    -0.00253797    0.00012879   -0.05384378
     atom   35 type  2   force =     0.00022595   -0.00024779   -0.00012109
     atom   36 type  2   force =     0.00017279   -0.00002265    0.00027488
     atom   37 type  1   force =     0.00035196   -0.00019321   -0.00014135
     atom   38 type  1   force =     0.00046817   -0.00021665    0.00027237
     atom   39 type  2   force =     0.00015899   -0.00044987    0.00024857
     atom   40 type  2   force =    -0.00019210   -0.00006000   -0.00010428
     atom   41 type  2   force =     0.00010418   -0.00038770    0.00011878
     atom   42 type  2   force =     0.00023118   -0.00041538    0.00012941
     atom   43 type  1   force =    -0.00024567    0.00005342   -0.00023562
     atom   44 type  1   force =    -0.00005674   -0.00030595    0.00026995
     atom   45 type  2   force =     0.00009564    0.00011096    0.10049489
     atom   46 type  2   force =    -0.07667105   -0.00005862   -0.03008344
     atom   47 type  2   force =     0.07666201    0.00036262   -0.03011218
     atom   48 type  3   force =     0.00026688   -0.00022023    0.00072987
     atom   49 type  3   force =     0.00019028    0.00014406   -0.00119177
     atom   50 type  4   force =     0.00928236    0.00061563    0.00263860
     atom   51 type  5   force =     0.00040029   -0.00095836    0.00070492
     atom   52 type  5   force =     0.00084157    0.00001966   -0.00033809
     atom   53 type  5   force =    -0.01126302    0.00067614   -0.00264382
     atom   54 type  2   force =     0.00045804    0.00121529    0.00070668
     atom   55 type  5   force =    -0.00082612   -0.00093560   -0.00050895

     Total force =     0.381640     Total SCF correction =     0.000330
  @ DRIVER MODE: Message from server: STATUS
  @ DRIVER MODE: Message from server: GETFORCE
  @ DRIVER MODE: Returning v,forces,stress,ensemble

     Writing output data file ./calc.save/
  @ DRIVER MODE: Message from server: EXIT
  @ DRIVE MODE: Exiting

     General routines

     Parallel routines

   This run was terminated on:   7:53: 7  10Sep2021

   JOB DONE.