     Program PWSCF v.6.7GPU starts on 12Oct2021 at 17:33:56

     R & G space division:  proc/nbgrp/npool/nimage =       8
     Reading input from /storage/home/hcoda1/3/ntian30/research/carbon/ACS_vib/ads_slab/N2H6/out_0022/pw.inp
Warning: card &CELL ignored
Warning: card   CELL_DYNAMICS='IPI', ignored
Warning: card / ignored

     Current dimensions of program PWSCF are:
     Max number of different atomic species (ntypx) = 10
     Max number of k-points (npk) =  40000
     Max angular momentum in pseudopotentials (lmaxx) =  3
     Presently no symmetry can be used with electric field

     Message from routine cell_base_init:
     DEPRECATED: use true lattice parameter, not A to a.u. conversion factor

     IMPORTANT: XC functional enforced from input :
     Exchange-correlation= BEEF-VDW
                           (   1   4  43  14   2   0   0)
     Any further DFT definition will be discarded
     Please, verify this is what you really want

  @ DRIVER MODE: Connecting to
 qe_1139763_3181315.sched-torque.pace.gatech.edu371kfvml_scratch
  using UNIX socket
  @ DRIVER MODE: Message from server: STATUS
  @ DRIVER MODE: Message from server: INIT
  @ DRIVER MODE: Receiving replica           0          -1
  @ DRIVER MODE: Receiving encoded integer          25
  @ DRIVER MODE:  SCF:  T  FORCE:  T  STRESS:  F  VC:  F  ENSEMBLE:  F
  @ DRIVER MODE:  SCF:  T  FORCE:  T  STRESS:  F  VC:  F  ENSEMBLE:  F

     Using Slab Decomposition

     bravais-lattice index     =            0
     lattice parameter (alat)  =       1.8897  a.u.
     unit-cell volume          =    6658.9804 (a.u.)^3
     number of atoms/cell      =           55
     number of atomic types    =            4
     number of electrons       =       394.00
     number of Kohn-Sham states=          207
     kinetic-energy cutoff     =      29.3995  Ry
     charge density cutoff     =     293.9946  Ry
     scf convergence threshold =      7.3E-08
     mixing beta               =       0.0500
     number of iterations used =            8  plain     mixing
     Exchange-correlation= BEEF-VDW
                           (   1   4  43  14   2   0   0)

     celldm(1)=   1.889726  celldm(2)=   0.000000  celldm(3)=   0.000000
     celldm(4)=   0.000000  celldm(5)=   0.000000  celldm(6)=   0.000000

     crystal axes: (cart. coord. in units of alat)
               a(1) = (   6.579727   0.000000   0.000000 )
               a(2) = (  -0.000775   5.961596   0.000000 )
               a(3) = (   0.000000   0.000000  25.155947 )

     reciprocal axes: (cart. coord. in units 2 pi/alat)
               b(1) = (  0.151982  0.000020  0.000000 )
               b(2) = (  0.000000  0.167740  0.000000 )
               b(3) = (  0.000000  0.000000  0.039752 )

     PseudoPot. # 1 for Ti read from file:
     /storage/coda1/p-amedford6/0/shared/rich_project_chbe-medford/medford-share/data/pseudos_module/espresso/nninc/pbe/van/Ti.UPF
     MD5 check sum: 8e4df49b7f0d34bbd5052bf3f5ea0213
     Pseudo is Ultrasoft, Zval = 12.0
     Generated by new atomic code, or converted to UPF format
     Using radial grid of  851 points,  6 beta functions with:
                l(1) =   0
                l(2) =   0
                l(3) =   1
                l(4) =   1
                l(5) =   2
                l(6) =   2
     Q(r) pseudized with  8 coefficients,  rinner =    1.000   1.000   1.000
                                                       1.000   1.000

     PseudoPot. # 2 for O  read from file:
     /storage/coda1/p-amedford6/0/shared/rich_project_chbe-medford/medford-share/data/pseudos_module/espresso/nninc/pbe/van/O.UPF
     MD5 check sum: 78c19812648e8988a0fe644b0f25305e
     Pseudo is Ultrasoft, Zval =  6.0
     Generated by new atomic code, or converted to UPF format
     Using radial grid of  737 points,  4 beta functions with:
                l(1) =   0
                l(2) =   0
                l(3) =   1
                l(4) =   1
     Q(r) pseudized with  8 coefficients,  rinner =    0.800   0.800   0.800

     PseudoPot. # 3 for N  read from file:
     /storage/coda1/p-amedford6/0/shared/rich_project_chbe-medford/medford-share/data/pseudos_module/espresso/nninc/pbe/van/N.UPF
     MD5 check sum: 90d10febe142ad51ac9d5be1deb811c4
     Pseudo is Ultrasoft, Zval =  5.0
     Generated by new atomic code, or converted to UPF format
     Using radial grid of  729 points,  4 beta functions with:
                l(1) =   0
                l(2) =   0
                l(3) =   1
                l(4) =   1
     Q(r) pseudized with  8 coefficients,  rinner =    0.800   0.800   0.800

     PseudoPot. # 4 for H  read from file:
     /storage/coda1/p-amedford6/0/shared/rich_project_chbe-medford/medford-share/data/pseudos_module/espresso/nninc/pbe/van/H.UPF
     MD5 check sum: b5ee9d7bfd3a09ee7748110bda690ff7
     Pseudo is Ultrasoft, Zval =  1.0
     Generated by new atomic code, or converted to UPF format
     Using radial grid of  615 points,  1 beta functions with:
                l(1) =   0
     Q(r) pseudized with  8 coefficients,  rinner =    0.800

     atomic species   valence    mass     pseudopotential
        Ti1           12.00    47.86700     Ti( 1.00)
        O1             6.00    15.99900     O ( 1.00)
        N1             5.00    14.00700     N ( 1.00)
        H1             1.00     1.00800     H ( 1.00)

     No symmetry found

   Cartesian axes

     site n.     atom                  positions (alat units)
         1           Ti1 tau(   1) = (   0.0004258   2.9801865   6.0000000  )
         2           Ti1 tau(   2) = (   3.2906075   1.4906267   6.0002472  )
         3           O1  tau(   3) = (   0.0006271   0.0005054   7.9858123  )
         4           O1  tau(   4) = (   3.2906025   0.0005020   7.3038282  )
         5           O1  tau(   5) = (   4.5942328   1.4918067   9.2879030  )
         6           O1  tau(   6) = (   1.9868534   1.4903216   9.2879459  )
         7           Ti1 tau(   7) = (   3.2905188   2.9817269   9.1608671  )
         8           Ti1 tau(   8) = (   0.0008727   1.4903491   9.2579811  )
         9           O1  tau(   9) = (   3.2897677   5.9391746  11.3820438  )
        10           O1  tau(  10) = (  -0.0000005   5.9544960  10.6146985  )
        11           O1  tau(  11) = (   1.2884133   1.4789655  12.6516217  )
        12           O1  tau(  12) = (   5.2921206   1.4788385  12.6515509  )
        13           Ti1 tau(  13) = (   0.0005720   2.9629092  12.4975245  )
        14           Ti1 tau(  14) = (   3.2903801   1.4745319  12.5205501  )
        15           O1  tau(  15) = (   0.0004407   0.0388239  14.7059933  )
        16           O1  tau(  16) = (   3.2897445   5.9465346  14.0037610  )
        17           O1  tau(  17) = (   4.5472543   1.4569283  16.2215039  )
        18           O1  tau(  18) = (   2.0329396   1.4568822  16.2213506  )
        19           Ti1 tau(  19) = (   3.2899346   2.9358424  15.7577366  )
        20           Ti1 tau(  20) = (   0.0004932   1.4309995  16.0137732  )
        21           O1  tau(  21) = (   3.2904802   0.0005063   4.7018136  )
        22           O1  tau(  22) = (  -0.0003511   5.7889056  17.2622344  )
        23           O1  tau(  23) = (   1.3043587   1.4918075   6.0039043  )
        24           O1  tau(  24) = (   5.2767064   1.4903225   6.0039473  )
        25           Ti1 tau(  25) = (   0.0000382   5.9609847   6.0000000  )
        26           Ti1 tau(  26) = (   3.2902200   4.4714249   6.0002472  )
        27           O1  tau(  27) = (   0.0002396   2.9813036   7.9858123  )
        28           O1  tau(  28) = (   3.2902150   2.9813002   7.3038282  )
        29           O1  tau(  29) = (   4.5938453   4.4726049   9.2879030  )
        30           O1  tau(  30) = (   1.9864658   4.4711199   9.2879459  )
        31           Ti1 tau(  31) = (   3.2908958   0.0009406   9.1591437  )
        32           Ti1 tau(  32) = (   0.0004876   4.4725358   9.2579169  )
        33           O1  tau(  33) = (   3.2901541   2.9707129  11.3740276  )
        34           O1  tau(  34) = (   0.0003862   2.9798045  10.6274311  )
        35           O1  tau(  35) = (   1.2860740   4.4511954  12.6821393  )
        36           O1  tau(  36) = (   5.2936768   4.4510845  12.6820400  )
        37           Ti1 tau(  37) = (   0.0001324   5.9497034  12.4914426  )
        38           Ti1 tau(  38) = (   3.2900283   4.4525324  12.5305491  )
        39           O1  tau(  39) = (   0.0000299   2.9046373  14.9484161  )
        40           O1  tau(  40) = (   3.2901113   2.9423191  13.9685580  )
        41           O1  tau(  41) = (   4.5465916   4.4073028  16.1601725  )
        42           O1  tau(  42) = (   2.0329218   4.4072560  16.1600144  )
        43           Ti1 tau(  43) = (   3.2897320   5.9176933  15.7983882  )
        44           Ti1 tau(  44) = (   0.0000796   4.6311109  15.9036278  )
        45           O1  tau(  45) = (   3.2900926   2.9813045   4.7018136  )
        46           O1  tau(  46) = (   1.3039711   4.4726057   6.0039043  )
        47           O1  tau(  47) = (   5.2763189   4.4711207   6.0039473  )
        48           N1  tau(  48) = (   6.5791966   2.5420708  18.0661808  )
        49           H1  tau(  49) = (   6.5785613   1.6509345  18.5577087  )
        50           H1  tau(  50) = (   0.8131443   3.0604954  18.3807411  )
        51           H1  tau(  51) = (   5.7641953   3.0702838  18.3787844  )
        52           N1  tau(  52) = (  -0.0000615   4.8677125  20.5088556  )
        53           H1  tau(  53) = (   6.5774456   5.1124690  21.4935560  )
        54           H1  tau(  54) = (   0.8078797   5.3121143  20.0844266  )
        55           H1  tau(  55) = (   5.7710899   5.3082688  20.0816402  )

     number of k points=    10  Fermi-Dirac smearing, width (Ry)=  0.0073
                       cart. coord. in units 2pi/alat
        k(    1) = (   0.0000000   0.0000000   0.0000000), wk =   0.1250000
        k(    2) = (   0.0000000   0.0419351   0.0000000), wk =   0.2500000
        k(    3) = (   0.0000000  -0.0838702   0.0000000), wk =   0.1250000
        k(    4) = (   0.0379955   0.0000049   0.0000000), wk =   0.2500000
        k(    5) = (   0.0379955   0.0419400   0.0000000), wk =   0.2500000
        k(    6) = (   0.0379955  -0.0838652   0.0000000), wk =   0.2500000
        k(    7) = (   0.0379955  -0.0419301   0.0000000), wk =   0.2500000
        k(    8) = (  -0.0759910  -0.0000099   0.0000000), wk =   0.1250000
        k(    9) = (  -0.0759910   0.0419252   0.0000000), wk =   0.2500000
        k(   10) = (  -0.0759910  -0.0838800   0.0000000), wk =   0.1250000

     Initial potential from superposition of free atoms

     starting charge  377.99918, renormalised to  394.00000

     negative rho (up, down):  1.302E-02 0.000E+00

     %%%%%%%%%%%%%%%%%%%%%%%%%%%%%%%%%%%%%%%%%%%%%%%%%%%%%%%%%%%%%%%%%%%%%%%%
     %                                                                      %
     % You are using vdW-DF, which was implemented by the Thonhauser group. %
     % Please cite the following two papers that made this development      %
     % possible and the two reviews that describe the various versions:     %
     %                                                                      %
     %   T. Thonhauser et al., PRL 115, 136402 (2015).                      %
     %   T. Thonhauser et al., PRB 76, 125112 (2007).                       %
     %   K. Berland et al., Rep. Prog. Phys. 78, 066501 (2015).             %
     %   D.C. Langreth et al., J. Phys.: Condens. Matter 21, 084203 (2009). %
     %                                                                      %
     %                                                                      %
     % If you are calculating the stress with vdW-DF, please also cite:     %
     %                                                                      %
     %   R. Sabatini et al., J. Phys.: Condens. Matter 24, 424209 (2012).   %
     %                                                                      %
     %%%%%%%%%%%%%%%%%%%%%%%%%%%%%%%%%%%%%%%%%%%%%%%%%%%%%%%%%%%%%%%%%%%%%%%%

     Adding external electric field

     Computed dipole along edir(3) :
        Dipole               -9.7176 Ry au,        -24.6996 Debye
        Dipole field         -0.0183 Ry au,

        Potential amp.        1.6999 Ry
        Total length         46.3494 bohr

     Starting wfcs are  298 atomic wfcs
  @ DRIVER MODE: Message from server: STATUS
  @ DRIVER MODE: Message from server: POSDATA
  @ DRIVER MODE: Reading and sharing cell
  @ DRIVER MODE: Reading and sharing positions
  @ DRIVER MODE: Received positions

     Self-consistent Calculation

     iteration #  1     ecut=    29.40 Ry     beta= 0.05
     Davidson diagonalization with overlap
     c_bands:  1 eigenvalues not converged
     c_bands:  1 eigenvalues not converged
     c_bands:  1 eigenvalues not converged
     c_bands:  1 eigenvalues not converged
     ethr =  1.00E-05,  avg # of iterations = 18.0

[...]

     total energy              =   -2597.73565994 Ry
     estimated scf accuracy    <    3724.98562588 Ry

     iteration #  2     ecut=    29.40 Ry     beta= 0.05
     Davidson diagonalization with overlap
     ethr =  1.00E-02,  avg # of iterations = 23.4

[...]

     iteration # 61     ecut=    29.40 Ry     beta= 0.05
     Davidson diagonalization with overlap
     c_bands:  1 eigenvalues not converged
     ethr =  4.41E-11,  avg # of iterations = 13.4

[...]

     total energy              =   -2931.48026807 Ry
     estimated scf accuracy    <       0.00000008 Ry

     iteration # 63     ecut=    29.40 Ry     beta= 0.05
     Davidson diagonalization with overlap
     ethr =  2.03E-11,  avg # of iterations = 10.9

     negative rho (up, down):  1.427E-02 0.000E+00

     Adding external electric field

     Computed dipole along edir(3) :
        Dipole                1.3625 Ry au,          3.4632 Debye
        Dipole field          0.0026 Ry au,

        Potential amp.       -0.2384 Ry
        Total length         46.3494 bohr

     End of self-consistent calculation

          k = 0.0000 0.0000 0.0000 ( 18029 PWs)   bands (ev):

   -55.2820 -55.2455 -55.2338 -55.2035 -55.1997 -55.1670 -55.1534 -55.1191
   -55.1120 -55.0830 -55.0777 -55.0606 -55.0264 -54.9516 -54.3245 -54.2904
   -31.8499 -31.7369 -31.7330 -31.6397 -31.5996 -31.5887 -31.5859 -31.5723
   -31.5261 -31.5241 -31.4886 -31.4886 -31.4789 -31.4742 -31.4547 -31.4400
   -31.4348 -31.4221 -31.4177 -31.3913 -31.3855 -31.3762 -31.3658 -31.3536
   -31.3508 -31.3376 -31.3327 -31.3201 -31.2898 -31.2846 -31.2680 -31.2635
   -31.2576 -31.2545 -31.2511 -31.2439 -31.2105 -31.2057 -31.1927 -31.1747
   -31.1545 -31.1537 -30.7364 -30.6348 -30.6133 -30.5526 -30.4661 -30.3551
   -16.1135 -15.8755 -15.7442 -15.5881 -15.4971 -15.4430 -15.3578 -15.3328
   -15.2243 -15.1487 -15.0157 -14.9818 -14.9402 -14.9329 -14.9252 -14.9056
   -14.8996 -14.8288 -14.8092 -14.7991 -14.7905 -14.7683 -14.7669 -14.7476
   -14.7183 -14.6650 -14.6449 -14.5157 -14.4344 -14.3765 -14.1274 -12.8259
   -12.7066  -5.6602  -5.4715  -4.9554  -4.8052  -3.4445  -3.2906  -3.2556
    -3.2051  -3.1938  -3.0405  -2.8798  -2.7305  -2.7112  -2.5615  -2.5326
    -2.4805  -2.4586  -2.3073  -2.2816  -2.2374  -2.2110  -2.1619  -2.1515
    -2.1438  -2.1324  -2.0536  -2.0422  -2.0268  -1.8910  -1.8711  -1.7598
    -1.7196  -1.6636  -1.6497  -1.6447  -1.6112  -1.5932  -1.5525  -1.5418
    -1.5251  -1.4991  -1.4898  -1.3253  -1.2981  -1.2004  -1.1392  -1.0490
    -1.0327  -0.8885  -0.8530  -0.7642  -0.7454  -0.7280  -0.7138  -0.6808
    -0.6324  -0.5246  -0.4348  -0.4136  -0.3528  -0.3286  -0.2900  -0.2021
    -0.0985  -0.0698  -0.0374  -0.0346   0.0818   0.1064   0.1515   0.2180
     0.2380   0.2396   0.2622   0.3523   0.3665   0.4647   0.4884   0.4953
     0.5442   0.6332   0.6373   0.6516   0.6616   0.6880   0.7587   0.7650
     0.8649   0.8879   1.0043   1.2151   1.2868   1.3129   1.5918   1.6521
     1.7009   1.8635   2.2839   2.3363   3.8162   3.8828   3.9159   3.9490
     3.9853   4.0261   4.3136   4.3214   4.3339   4.3384   4.3748

[...]

          k = 0.0380-0.0419 0.0000 ( 17876 PWs)   bands (ev):

[...]

          k =-0.0760-0.0000 0.0000 ( 17886 PWs)   bands (ev):

[...]

          k =-0.0760-0.0839 0.0000 ( 17948 PWs)   bands (ev):

   -55.2665 -55.2608 -55.2168 -55.2166 -55.2020 -55.1635 -55.1372 -55.1353
   -55.0960 -55.0933 -55.0865 -55.0458 -55.0413 -54.9528 -54.3075 -54.3073
   -31.6552 -31.6510 -31.6510 -31.5707 -31.5478 -31.5477 -31.5412 -31.5095
   -31.5093 -31.4831 -31.4829 -31.4793 -31.4756 -31.4571 -31.4366 -31.4172
   -31.4123 -31.4106 -31.4105 -31.4045 -31.4032 -31.4004 -31.3614 -31.3604
   -31.3569 -31.3537 -31.3511 -31.3504 -31.3481 -31.3353 -31.3351 -31.3305
   -31.3279 -31.2935 -31.2915 -31.2759 -31.2730 -31.2678 -31.2313 -31.2299
   -31.2257 -31.1583 -30.6259 -30.6258 -30.5490 -30.5489 -30.5094 -30.5093
   -15.6306 -15.5206 -15.4961 -15.4748 -15.3217 -15.3007 -15.2633 -15.2485
   -15.1298 -15.0943 -15.0748 -15.0589 -15.0262 -15.0224 -15.0152 -14.9783
   -14.8949 -14.8751 -14.8696 -14.8574 -14.8136 -14.7934 -14.7880 -14.7813
   -14.7804 -14.7453 -14.7418 -14.7000 -14.6966 -14.6913 -14.3766 -12.8077
   -12.8076  -5.6392  -5.4742  -4.9218  -4.8143  -2.7935  -2.7371  -2.7371
    -2.5465  -2.4755  -2.4579  -2.4414  -2.3584  -2.3188  -2.2893  -2.2660
    -2.2348  -2.1932  -2.1894  -2.1682  -2.1596  -2.1431  -2.0983  -2.0799
    -2.0543  -2.0005  -1.9760  -1.9678  -1.9557  -1.9469  -1.9423  -1.9189
    -1.9166  -1.8905  -1.8794  -1.8240  -1.6722  -1.6567  -1.5784  -1.5089
    -1.5050  -1.5033  -1.4200  -1.3998  -1.3452  -1.3361  -1.3299  -1.0870
    -1.0647  -1.0644  -1.0594  -1.0270  -0.9130  -0.9036  -0.8311  -0.8021
    -0.7830  -0.6767  -0.6653  -0.6057  -0.6017  -0.4946  -0.4928  -0.4343
    -0.3059  -0.2991  -0.2862  -0.2614  -0.2596  -0.2179  -0.2138  -0.1065
    -0.0704  -0.0196  -0.0082   0.0241   0.1831   0.2292   0.2468   0.2715
     0.4050   0.4252   0.5597   0.5674   0.6220   0.7317   0.7619   0.8008
     0.8289   0.9778   0.9888   1.0098   1.1016   1.1157   1.1535   1.1600
     2.0516   2.0531   2.1545   2.1548   3.9768   4.0584   4.0838   4.1234
     4.2286   4.3266   4.3415   4.3427   4.3767   4.3797   4.4760

     the Fermi energy is     3.8798 ev

!    total energy              =   -2931.48030362 Ry
     estimated scf accuracy    <       0.00000003 Ry
     smearing contrib. (-TS)   =      -0.03685002 Ry
     internal energy E=F+TS    =   -2931.44345360 Ry

     The total energy is F=E-TS. E is the sum of the following terms:
     one-electron contribution =  -23481.04106485 Ry
     hartree contribution      =   11831.20949416 Ry
     xc contribution           =    -484.16409811 Ry
     ewald contribution        =    9202.54871180 Ry
     electric field correction =       0.00350340 Ry

     convergence has been achieved in  63 iterations

     Forces acting on atoms (cartesian axes, Ry/au):

     atom    1 type  1   force =     0.00008591   -0.00009957    0.09072564
     atom    2 type  1   force =    -0.00005603    0.00053763   -0.18275553
     atom    3 type  2   force =     0.00005352   -0.00002642   -0.02344803
     atom    4 type  2   force =     0.00001825   -0.00006126    0.05280326
     atom    5 type  2   force =    -0.01301758   -0.00097012    0.00606125
     atom    6 type  2   force =     0.01296427   -0.00047755    0.00605067
     atom    7 type  1   force =    -0.00000302    0.00067371   -0.00329646
     atom    8 type  1   force =     0.00002259   -0.00014469    0.00138757
     atom    9 type  2   force =    -0.00003179   -0.00016110   -0.00048039
     atom   10 type  2   force =     0.00001782   -0.00005631   -0.00021871
     atom   11 type  2   force =     0.00015620    0.00017082    0.00016588
     atom   12 type  2   force =    -0.00007325    0.00016747    0.00014287
     atom   13 type  1   force =    -0.00019665   -0.00018964    0.00001909
     atom   14 type  1   force =     0.00015023    0.00046020   -0.00097853
     atom   15 type  2   force =     0.00002617   -0.00060938    0.00011244
     atom   16 type  2   force =    -0.00002793    0.00000378    0.00042588
     atom   17 type  2   force =     0.00041238   -0.00001671    0.00043774
     atom   18 type  2   force =    -0.00046333   -0.00001621    0.00048031
     atom   19 type  1   force =     0.00005839   -0.00001809    0.00038249
     atom   20 type  1   force =    -0.00008652   -0.00074133    0.00031787
     atom   21 type  2   force =     0.00005712    0.00012440    0.10488411
     atom   22 type  2   force =     0.00001307    0.00018723    0.00114840
     atom   23 type  2   force =    -0.06828196   -0.00022094   -0.02627252
     atom   24 type  2   force =     0.06819350    0.00021658   -0.02631723
     atom   25 type  1   force =     0.00009447    0.00005097    0.09036107
     atom   26 type  1   force =    -0.00006025   -0.00044858   -0.18292763
     atom   27 type  2   force =     0.00005030   -0.00093705   -0.02255893
     atom   28 type  2   force =     0.00001771   -0.00006699    0.05257852
     atom   29 type  2   force =    -0.01331400   -0.00073497    0.00528346
     atom   30 type  2   force =     0.01325123   -0.00024292    0.00526960
     atom   31 type  1   force =     0.00000848   -0.00072241   -0.00310200
     atom   32 type  1   force =     0.00001359   -0.00006903    0.00150616
     atom   33 type  2   force =    -0.00003017   -0.00015477    0.00019381
     atom   34 type  2   force =     0.00002004    0.00007744   -0.00047549
     atom   35 type  2   force =     0.00012814   -0.00013751    0.00023107
     atom   36 type  2   force =    -0.00005004   -0.00015120    0.00020875
     atom   37 type  1   force =    -0.00019435    0.00005669    0.00092236
     atom   38 type  1   force =     0.00014391   -0.00028289   -0.00097712
     atom   39 type  2   force =     0.00001339    0.00027252   -0.00013536
     atom   40 type  2   force =    -0.00003123   -0.00000945    0.00106479
     atom   41 type  2   force =     0.00060092   -0.00016531    0.00028588
     atom   42 type  2   force =    -0.00062403   -0.00015778    0.00026028
     atom   43 type  1   force =     0.00007329    0.00014036    0.00068010
     atom   44 type  1   force =     0.00000739    0.00098626   -0.00120992
     atom   45 type  2   force =     0.00005645    0.00014107    0.10485465
     atom   46 type  2   force =    -0.06828361   -0.00009572   -0.02631739
     atom   47 type  2   force =     0.06819047    0.00034236   -0.02636212
     atom   48 type  3   force =    -0.00597474    0.00562538    0.00153359
     atom   49 type  4   force =    -0.00109115    0.00050415    0.00130198
     atom   50 type  4   force =     0.00165651    0.00058058   -0.00016155
     atom   51 type  4   force =     0.00539049   -0.00514695   -0.00222544
     atom   52 type  3   force =    -0.00001100    0.00075010    0.00042555
     atom   53 type  4   force =    -0.00002400    0.00122248   -0.00146814
     atom   54 type  4   force =     0.00008746   -0.00000453   -0.00042462
     atom   55 type  4   force =    -0.00010703    0.00004520   -0.00039398

     Total force =     0.366419     Total SCF correction =     0.000352
  @ DRIVER MODE: Message from server: STATUS
  @ DRIVER MODE: Message from server: GETFORCE
  @ DRIVER MODE: Returning v,forces,stress,ensemble

     Writing output data file ./calc.save/
  @ DRIVER MODE: Message from server: EXIT
  @ DRIVE MODE: Exiting

     General routines

     Parallel routines

   This run was terminated on:  17:56:29  12Oct2021

   JOB DONE.