     Program PWSCF v.6.7GPU starts on 12Oct2021 at 23:47:58

     R & G space division:  proc/nbgrp/npool/nimage =       8
     Reading input from /storage/home/hcoda1/3/ntian30/research/carbon/ACS_vib/ads_slab/H2NNH2/out_0021/pw.inp
Warning: card &CELL ignored
Warning: card   CELL_DYNAMICS='IPI', ignored
Warning: card / ignored

     Current dimensions of program PWSCF are:
     Max number of different atomic species (ntypx) = 10
     Max number of k-points (npk) =  40000
     Max angular momentum in pseudopotentials (lmaxx) =  3
     Presently no symmetry can be used with electric field

     Message from routine cell_base_init:
     DEPRECATED: use true lattice parameter, not A to a.u. conversion factor

     IMPORTANT: XC functional enforced from input :
     Exchange-correlation= BEEF-VDW
                           (   1   4  43  14   2   0   0)
     Any further DFT definition will be discarded
     Please, verify this is what you really want

  @ DRIVER MODE: Connecting to
 qe_1139763_3181310.sched-torque.pace.gatech.edusx4npz9o_scratch
  using UNIX socket
  @ DRIVER MODE: Message from server: STATUS
  @ DRIVER MODE: Message from server: INIT
  @ DRIVER MODE: Receiving replica           0          -1
  @ DRIVER MODE: Receiving encoded integer          25
  @ DRIVER MODE:  SCF:  T  FORCE:  T  STRESS:  F  VC:  F  ENSEMBLE:  F
  @ DRIVER MODE:  SCF:  T  FORCE:  T  STRESS:  F  VC:  F  ENSEMBLE:  F

     Using Slab Decomposition

     bravais-lattice index     =            0
     lattice parameter (alat)  =       1.8897  a.u.
     unit-cell volume          =    6658.9804 (a.u.)^3
     number of atoms/cell      =           53
     number of atomic types    =            4
     number of electrons       =       392.00
     number of Kohn-Sham states=          206
     kinetic-energy cutoff     =      29.3995  Ry
     charge density cutoff     =     293.9946  Ry
     scf convergence threshold =      7.3E-08
     mixing beta               =       0.0500
     number of iterations used =            8  plain     mixing
     Exchange-correlation= BEEF-VDW
                           (   1   4  43  14   2   0   0)

     celldm(1)=   1.889726  celldm(2)=   0.000000  celldm(3)=   0.000000
     celldm(4)=   0.000000  celldm(5)=   0.000000  celldm(6)=   0.000000

     crystal axes: (cart. coord. in units of alat)
               a(1) = (   6.579727   0.000000   0.000000 )
               a(2) = (  -0.000775   5.961596   0.000000 )
               a(3) = (   0.000000   0.000000  25.155947 )

     reciprocal axes: (cart. coord. in units 2 pi/alat)
               b(1) = (  0.151982  0.000020  0.000000 )
               b(2) = (  0.000000  0.167740  0.000000 )
               b(3) = (  0.000000  0.000000  0.039752 )

     PseudoPot. # 1 for Ti read from file:
     /storage/coda1/p-amedford6/0/shared/rich_project_chbe-medford/medford-share/data/pseudos_module/espresso/nninc/pbe/van/Ti.UPF
     MD5 check sum: 8e4df49b7f0d34bbd5052bf3f5ea0213
     Pseudo is Ultrasoft, Zval = 12.0
     Generated by new atomic code, or converted to UPF format
     Using radial grid of  851 points,  6 beta functions with:
                l(1) =   0
                l(2) =   0
                l(3) =   1
                l(4) =   1
                l(5) =   2
                l(6) =   2
     Q(r) pseudized with  8 coefficients,  rinner =    1.000   1.000   1.000
                                                       1.000   1.000

     PseudoPot. # 2 for O  read from file:
     /storage/coda1/p-amedford6/0/shared/rich_project_chbe-medford/medford-share/data/pseudos_module/espresso/nninc/pbe/van/O.UPF
     MD5 check sum: 78c19812648e8988a0fe644b0f25305e
     Pseudo is Ultrasoft, Zval =  6.0
     Generated by new atomic code, or converted to UPF format
     Using radial grid of  737 points,  4 beta functions with:
                l(1) =   0
                l(2) =   0
                l(3) =   1
                l(4) =   1
     Q(r) pseudized with  8 coefficients,  rinner =    0.800   0.800   0.800

     PseudoPot. # 3 for H  read from file:
     /storage/coda1/p-amedford6/0/shared/rich_project_chbe-medford/medford-share/data/pseudos_module/espresso/nninc/pbe/van/H.UPF
     MD5 check sum: b5ee9d7bfd3a09ee7748110bda690ff7
     Pseudo is Ultrasoft, Zval =  1.0
     Generated by new atomic code, or converted to UPF format
     Using radial grid of  615 points,  1 beta functions with:
                l(1) =   0
     Q(r) pseudized with  8 coefficients,  rinner =    0.800

     PseudoPot. # 4 for N  read from file:
     /storage/coda1/p-amedford6/0/shared/rich_project_chbe-medford/medford-share/data/pseudos_module/espresso/nninc/pbe/van/N.UPF
     MD5 check sum: 90d10febe142ad51ac9d5be1deb811c4
     Pseudo is Ultrasoft, Zval =  5.0
     Generated by new atomic code, or converted to UPF format
     Using radial grid of  729 points,  4 beta functions with:
                l(1) =   0
                l(2) =   0
                l(3) =   1
                l(4) =   1
     Q(r) pseudized with  8 coefficients,  rinner =    0.800   0.800   0.800

     atomic species   valence    mass     pseudopotential
        Ti1           12.00    47.86700     Ti( 1.00)
        O1             6.00    15.99900     O ( 1.00)
        H1             1.00     1.00800     H ( 1.00)
        N1             5.00    14.00700     N ( 1.00)

     No symmetry found

   Cartesian axes

     site n.     atom                  positions (alat units)
         1           Ti1 tau(   1) = (   0.0004258   2.9801865   6.0000000  )
         2           Ti1 tau(   2) = (   3.2906075   1.4906267   6.0002472  )
         3           O1  tau(   3) = (   0.0006271   0.0005054   7.9858123  )
         4           O1  tau(   4) = (   3.2906025   0.0005020   7.3038282  )
         5           O1  tau(   5) = (   4.5942328   1.4918067   9.2879030  )
         6           O1  tau(   6) = (   1.9868534   1.4903216   9.2879459  )
         7           Ti1 tau(   7) = (   3.2907910   2.8959150   9.1758416  )
         8           Ti1 tau(   8) = (   0.0001184   1.4796821   9.2618995  )
         9           O1  tau(   9) = (   3.3033009   5.9571037  11.3689245  )
        10           O1  tau(  10) = (   0.0046093   5.9606512  10.6148452  )
        11           O1  tau(  11) = (   1.3031693   1.4924284  12.6635891  )
        12           O1  tau(  12) = (   5.3048943   1.4931164  12.6630676  )
        13           Ti1 tau(  13) = (   0.0220873   2.9701805  12.5026553  )
        14           Ti1 tau(  14) = (   3.3209497   1.4853901  12.5165241  )
        15           O1  tau(  15) = (   0.0111090   5.9548334  14.6950652  )
        16           O1  tau(  16) = (   3.3059555   5.9578033  13.9930857  )
        17           O1  tau(  17) = (   4.5400856   1.4977043  16.1996482  )
        18           O1  tau(  18) = (   2.0449602   1.5055634  16.1912035  )
        19           Ti1 tau(  19) = (   3.3033294   2.9754315  15.7369611  )
        20           Ti1 tau(  20) = (   0.0669189   1.3514287  15.9855452  )
        21           O1  tau(  21) = (   3.2904802   0.0005063   4.7018136  )
        22           O1  tau(  22) = (   0.0169155   5.9572437  17.2386537  )
        23           O1  tau(  23) = (   1.3043587   1.4918075   6.0039043  )
        24           O1  tau(  24) = (   5.2767064   1.4903225   6.0039473  )
        25           Ti1 tau(  25) = (   0.0000382   5.9609847   6.0000000  )
        26           Ti1 tau(  26) = (   3.2902200   4.4714249   6.0002472  )
        27           O1  tau(  27) = (   0.0002396   2.9813036   7.9858123  )
        28           O1  tau(  28) = (   3.2902150   2.9813002   7.3038282  )
        29           O1  tau(  29) = (   4.5938453   4.4726049   9.2879030  )
        30           O1  tau(  30) = (   1.9864658   4.4711199   9.2879459  )
        31           Ti1 tau(  31) = (   3.2891106   5.8743827   9.1763621  )
        32           Ti1 tau(  32) = (  -0.0005703   4.4645639   9.2621285  )
        33           O1  tau(  33) = (   3.3036452   2.9764387  11.3618117  )
        34           O1  tau(  34) = (   0.0064946   2.9800876  10.6274040  )
        35           O1  tau(  35) = (   1.3025983   4.4627906  12.6614389  )
        36           O1  tau(  36) = (   5.3044333   4.4622094  12.6652126  )
        37           Ti1 tau(  37) = (   0.0242538   5.9517307  12.5043500  )
        38           Ti1 tau(  38) = (   3.3173473   4.4639239  12.5158395  )
        39           O1  tau(  39) = (   0.0133908   2.9741471  14.9664594  )
        40           O1  tau(  40) = (   3.3068033   2.9766936  13.9537582  )
        41           O1  tau(  41) = (   4.5624531   4.4468677  16.1922021  )
        42           O1  tau(  42) = (   2.0658021   4.4533190  16.1937748  )
        43           Ti1 tau(  43) = (   3.3070936   5.9559909  15.7859554  )
        44           Ti1 tau(  44) = (   6.5464735   4.5686029  15.9538643  )
        45           O1  tau(  45) = (   3.2900926   2.9813045   4.7018136  )
        46           O1  tau(  46) = (   1.3039711   4.4726057   6.0039043  )
        47           O1  tau(  47) = (   5.2763189   4.4711207   6.0039473  )
        48           H1  tau(  48) = (   6.1991321   4.2482542  18.7414658  )
        49           H1  tau(  49) = (   1.1283133   3.8395711  18.1715982  )
        50           N1  tau(  50) = (   0.1317752   3.6792193  18.0720352  )
        51           N1  tau(  51) = (   6.4315599   2.2792659  18.0961467  )
        52           H1  tau(  52) = (   5.4285218   2.1347736  18.1483859  )
        53           H1  tau(  53) = (   0.3235236   1.7579878  18.8239140  )

     number of k points=    10  Fermi-Dirac smearing, width (Ry)=  0.0073
                       cart. coord. in units 2pi/alat
        k(    1) = (   0.0000000   0.0000000   0.0000000), wk =   0.1250000
        k(    2) = (   0.0000000   0.0419351   0.0000000), wk =   0.2500000
        k(    3) = (   0.0000000  -0.0838702   0.0000000), wk =   0.1250000
        k(    4) = (   0.0379955   0.0000049   0.0000000), wk =   0.2500000
        k(    5) = (   0.0379955   0.0419400   0.0000000), wk =   0.2500000
        k(    6) = (   0.0379955  -0.0838652   0.0000000), wk =   0.2500000
        k(    7) = (   0.0379955  -0.0419301   0.0000000), wk =   0.2500000
        k(    8) = (  -0.0759910  -0.0000099   0.0000000), wk =   0.1250000
        k(    9) = (  -0.0759910   0.0419252   0.0000000), wk =   0.2500000
        k(   10) = (  -0.0759910  -0.0838800   0.0000000), wk =   0.1250000

     Initial potential from superposition of free atoms

     starting charge  375.99919, renormalised to  392.00000

     negative rho (up, down):  1.864E-02 0.000E+00

     %%%%%%%%%%%%%%%%%%%%%%%%%%%%%%%%%%%%%%%%%%%%%%%%%%%%%%%%%%%%%%%%%%%%%%%%
     %                                                                      %
     % You are using vdW-DF, which was implemented by the Thonhauser group. %
     % Please cite the following two papers that made this development      %
     % possible and the two reviews that describe the various versions:     %
     %                                                                      %
     %   T. Thonhauser et al., PRL 115, 136402 (2015).                      %
     %   T. Thonhauser et al., PRB 76, 125112 (2007).                       %
     %   K. Berland et al., Rep. Prog. Phys. 78, 066501 (2015).             %
     %   D.C. Langreth et al., J. Phys.: Condens. Matter 21, 084203 (2009). %
     %                                                                      %
     %                                                                      %
     % If you are calculating the stress with vdW-DF, please also cite:     %
     %                                                                      %
     %   R. Sabatini et al., J. Phys.: Condens. Matter 24, 424209 (2012).   %
     %                                                                      %
     %%%%%%%%%%%%%%%%%%%%%%%%%%%%%%%%%%%%%%%%%%%%%%%%%%%%%%%%%%%%%%%%%%%%%%%%

     Adding external electric field

     Computed dipole along edir(3) :
        Dipole               -7.0277 Ry au,        -17.8625 Debye
        Dipole field         -0.0133 Ry au,

        Potential amp.        1.2294 Ry
        Total length         46.3494 bohr

     Starting wfcs are  296 atomic wfcs
  @ DRIVER MODE: Message from server: STATUS
  @ DRIVER MODE: Message from server: POSDATA
  @ DRIVER MODE: Reading and sharing cell
  @ DRIVER MODE: Reading and sharing positions
  @ DRIVER MODE: Received positions

     Self-consistent Calculation

     iteration #  1     ecut=    29.40 Ry     beta= 0.05
     Davidson diagonalization with overlap
     c_bands:  1 eigenvalues not converged
     c_bands:  1 eigenvalues not converged
     c_bands:  2 eigenvalues not converged
     c_bands:  1 eigenvalues not converged
     c_bands:  1 eigenvalues not converged
     c_bands:  1 eigenvalues not converged
     ethr =  1.00E-05,  avg # of iterations = 19.6

[...]

     total energy              =   -2685.33098058 Ry
     estimated scf accuracy    <    2687.92051472 Ry

[...]

     iteration #  3     ecut=    29.40 Ry     beta= 0.05
     Davidson diagonalization with overlap
     ethr =  1.00E-02,  avg # of iterations = 15.6

[...]

     iteration # 80     ecut=    29.40 Ry     beta= 0.05
     Davidson diagonalization with overlap
     ethr =  4.68E-11,  avg # of iterations =  4.9

[...]

     total energy              =   -2928.89040421 Ry
     estimated scf accuracy    <       0.00000009 Ry

     iteration # 81     ecut=    29.40 Ry     beta= 0.05
     Davidson diagonalization with overlap
     c_bands:  2 eigenvalues not converged
     ethr =  2.38E-11,  avg # of iterations = 13.3

     negative rho (up, down):  1.642E-02 0.000E+00

     Adding external electric field

     Computed dipole along edir(3) :
        Dipole                1.6278 Ry au,          4.1375 Debye
        Dipole field          0.0031 Ry au,

        Potential amp.       -0.2848 Ry
        Total length         46.3494 bohr

     End of self-consistent calculation

          k = 0.0000 0.0000 0.0000 ( 18029 PWs)   bands (ev):

   -55.3058 -55.2698 -55.2547 -55.2206 -55.1802 -55.1746 -55.1459 -55.1193
   -55.0982 -55.0877 -55.0847 -55.0798 -55.0539 -55.0253 -54.2841 -54.2501
   -31.8781 -31.7485 -31.6937 -31.6676 -31.6230 -31.6092 -31.6039 -31.5959
   -31.5461 -31.5451 -31.5163 -31.5145 -31.5006 -31.4786 -31.4628 -31.4496
   -31.4434 -31.4240 -31.4178 -31.4064 -31.3970 -31.3712 -31.3697 -31.3587
   -31.3507 -31.3223 -31.3111 -31.3108 -31.3036 -31.2973 -31.2928 -31.2885
   -31.2827 -31.2737 -31.2715 -31.2675 -31.2618 -31.2336 -31.2183 -31.2154
   -31.1997 -31.1296 -30.6934 -30.5997 -30.5776 -30.5098 -30.4230 -30.3121
   -18.5438 -16.1469 -15.8849 -15.7499 -15.5952 -15.5037 -15.3996 -15.3417
   -15.2358 -15.1540 -15.0670 -15.0542 -15.0296 -15.0031 -14.9641 -14.9307
   -14.8462 -14.8415 -14.8184 -14.7986 -14.7968 -14.7486 -14.7396 -14.7207
   -14.7008 -14.6800 -14.5455 -14.4604 -14.3924 -14.1303 -13.3562 -12.7870
   -12.6696  -7.5395  -6.9553  -5.5124  -3.4840  -3.3192  -3.2949  -3.2369
    -3.1986  -3.0582  -2.9444  -2.7248  -2.7028  -2.6208  -2.5855  -2.5378
    -2.5156  -2.4968  -2.3323  -2.3018  -2.2885  -2.2322  -2.1712  -2.1170
    -2.1021  -2.0979  -2.0865  -2.0676  -2.0633  -1.9464  -1.8689  -1.7950
    -1.7309  -1.6983  -1.6625  -1.6530  -1.6358  -1.5942  -1.5865  -1.5561
    -1.5415  -1.4957  -1.4698  -1.3379  -1.2857  -1.2152  -1.0284  -0.9404
    -0.8948  -0.8804  -0.8462  -0.8010  -0.7874  -0.6836  -0.6778  -0.6507
    -0.6014  -0.5396  -0.4830  -0.4322  -0.3626  -0.3036  -0.2947  -0.1898
    -0.0941  -0.0840  -0.0628   0.0342   0.0695   0.1172   0.1940   0.2129
     0.2247   0.3084   0.3537   0.3911   0.4287   0.4531   0.5766   0.6204
     0.6341   0.6486   0.6531   0.6780   0.7035   0.7697   0.8003   0.8697
     0.9952   1.0931   1.1683   1.2669   1.3095   1.6420   1.6454   1.7384
     1.9223   2.3130   2.3600   3.7950   3.8639   3.9379   3.9474   3.9570
     4.0293   4.1149   4.2683   4.2922   4.3003   4.3164

[...]

          k = 0.0380-0.0419 0.0000 ( 17876 PWs)   bands (ev):

[...]

          k =-0.0760-0.0000 0.0000 ( 17886 PWs)   bands (ev):

[...]

          k =-0.0760-0.0839 0.0000 ( 17948 PWs)   bands (ev):

   -55.2879 -55.2875 -55.2381 -55.2371 -55.1704 -55.1632 -55.1628 -55.1039
   -55.1021 -55.0996 -55.0728 -55.0723 -55.0696 -55.0323 -54.2671 -54.2670
   -31.6820 -31.6801 -31.6014 -31.5898 -31.5697 -31.5640 -31.5630 -31.5315
   -31.5295 -31.5094 -31.5068 -31.5049 -31.4986 -31.4435 -31.4405 -31.4374
   -31.4328 -31.4317 -31.4299 -31.4266 -31.3963 -31.3838 -31.3801 -31.3701
   -31.3567 -31.3563 -31.3555 -31.3553 -31.3420 -31.3378 -31.3332 -31.3251
   -31.3177 -31.3133 -31.3018 -31.2976 -31.2976 -31.2889 -31.2694 -31.2547
   -31.2528 -31.2348 -30.5903 -30.5902 -30.5060 -30.5058 -30.4664 -30.4664
   -18.5278 -15.5916 -15.5703 -15.5293 -15.3348 -15.3247 -15.3117 -15.3085
   -15.2059 -15.1914 -15.1192 -15.0949 -15.0468 -15.0277 -15.0121 -15.0105
   -14.9176 -14.8980 -14.8924 -14.8901 -14.8196 -14.8114 -14.8030 -14.7940
   -14.7639 -14.7570 -14.6551 -14.6524 -14.6227 -14.6075 -13.1816 -12.7711
   -12.7711  -7.5391  -6.9779  -5.5666  -3.0619  -2.8594  -2.7857  -2.7098
    -2.5524  -2.5318  -2.4916  -2.3811  -2.3423  -2.3281  -2.3212  -2.2895
    -2.2369  -2.2182  -2.2074  -2.1464  -2.1443  -2.1243  -2.1152  -2.0896
    -2.0787  -2.0344  -2.0256  -2.0067  -1.9695  -1.9527  -1.9286  -1.9037
    -1.8986  -1.8806  -1.8229  -1.7904  -1.6818  -1.6687  -1.6048  -1.5116
    -1.5043  -1.4229  -1.3949  -1.3602  -1.3383  -1.3360  -1.2161  -1.1346
    -1.0808  -1.0491  -1.0422  -0.9329  -0.8967  -0.8148  -0.8016  -0.7881
    -0.7316  -0.6471  -0.6267  -0.6152  -0.5240  -0.4677  -0.4555  -0.3590
    -0.3363  -0.2769  -0.2605  -0.2587  -0.2161  -0.1972  -0.1617  -0.1113
    -0.0758  -0.0387  -0.0157   0.0229   0.2194   0.2378   0.2642   0.3936
     0.5120   0.5336   0.5654   0.6049   0.7007   0.7627   0.8049   0.8512
     0.9020   0.9874   0.9966   1.0915   1.0978   1.1530   1.1595   2.0950
     2.0959   2.1808   2.1817   3.9647   4.0070   4.0674   4.0971   4.1799
     4.3085   4.3240   4.3779   4.3799   4.4461   4.4535

     the Fermi energy is     3.8580 ev

!    total energy              =   -2928.89040949 Ry
     estimated scf accuracy    <       0.00000005 Ry
     smearing contrib. (-TS)   =      -0.03700508 Ry
     internal energy E=F+TS    =   -2928.85340441 Ry

     The total energy is F=E-TS. E is the sum of the following terms:
     one-electron contribution =  -24386.87786256 Ry
     hartree contribution      =   12284.97657094 Ry
     xc contribution           =    -482.74160740 Ry
     ewald contribution        =    9655.78449417 Ry
     electric field correction =       0.00500044 Ry

     convergence has been achieved in  81 iterations

     Forces acting on atoms (cartesian axes, Ry/au):

     atom    1 type  1   force =     0.00007969   -0.00017874    0.09193971
     atom    2 type  1   force =    -0.00018220   -0.00021903   -0.17807503
     atom    3 type  2   force =     0.00000814   -0.00049728   -0.02212480
     atom    4 type  2   force =     0.00002890   -0.00184534    0.05827278
     atom    5 type  2   force =    -0.01042499   -0.00081238    0.00668524
     atom    6 type  2   force =     0.01172046   -0.00036488    0.00700955
     atom    7 type  1   force =    -0.00032007    0.00235783   -0.01478132
     atom    8 type  1   force =     0.00006265    0.00002275    0.00012850
     atom    9 type  2   force =    -0.00010592   -0.00011473   -0.00082065
     atom   10 type  2   force =     0.00012606   -0.00004133    0.00052087
     atom   11 type  2   force =     0.00011813   -0.00006516   -0.00027001
     atom   12 type  2   force =    -0.00032613   -0.00005504   -0.00018449
     atom   13 type  1   force =     0.00005846    0.00019202    0.00011991
     atom   14 type  1   force =    -0.00009233   -0.00010509   -0.00015277
     atom   15 type  2   force =     0.00022190    0.00008012    0.00073018
     atom   16 type  2   force =    -0.00009974    0.00007759   -0.00028512
     atom   17 type  2   force =    -0.00035635   -0.00005490    0.00024647
     atom   18 type  2   force =     0.00063342   -0.00013464    0.00037843
     atom   19 type  1   force =    -0.00003658   -0.00000025    0.00041446
     atom   20 type  1   force =    -0.00076840   -0.00051063    0.00046183
     atom   21 type  2   force =     0.00000568   -0.00002729    0.10386888
     atom   22 type  2   force =     0.00001438   -0.00107664   -0.00132558
     atom   23 type  2   force =    -0.07049015   -0.00020501   -0.02663217
     atom   24 type  2   force =     0.07033710    0.00022028   -0.02669016
     atom   25 type  1   force =     0.00003221   -0.00012783    0.09066237
     atom   26 type  1   force =    -0.00017629   -0.00036245   -0.17822633
     atom   27 type  2   force =     0.00000732   -0.00018643   -0.02112721
     atom   28 type  2   force =     0.00006250   -0.00153310    0.05748605
     atom   29 type  2   force =    -0.01050688   -0.00097181    0.00673669
     atom   30 type  2   force =     0.01167146   -0.00039538    0.00704405
     atom   31 type  1   force =    -0.00037070    0.00547978   -0.01570865
     atom   32 type  1   force =     0.00003606   -0.00000667    0.00005997
     atom   33 type  2   force =    -0.00010580   -0.00008989   -0.00052331
     atom   34 type  2   force =    -0.00002834   -0.00000116    0.00022158
     atom   35 type  2   force =     0.00015567   -0.00021305   -0.00014431
     atom   36 type  2   force =    -0.00036777   -0.00019028   -0.00014065
     atom   37 type  1   force =     0.00004349   -0.00007555    0.00074872
     atom   38 type  1   force =    -0.00016645   -0.00038058   -0.00010702
     atom   39 type  2   force =     0.00000487   -0.00003378   -0.00003340
     atom   40 type  2   force =    -0.00039255   -0.00005065   -0.00025730
     atom   41 type  2   force =    -0.00062023    0.00007426    0.00029008
     atom   42 type  2   force =     0.00041107    0.00010035    0.00056516
     atom   43 type  1   force =    -0.00015547   -0.00014609   -0.00018004
     atom   44 type  1   force =     0.00020133    0.00088583    0.00135060
     atom   45 type  2   force =     0.00000792   -0.00004250    0.10383837
     atom   46 type  2   force =    -0.07049612   -0.00002823   -0.02666615
     atom   47 type  2   force =     0.07034750    0.00043711   -0.02670221
     atom   48 type  3   force =     0.00026266   -0.00149788    0.00047679
     atom   49 type  3   force =     0.00109307   -0.00052053    0.00041567
     atom   50 type  4   force =    -0.00234925   -0.00886358   -0.00025401
     atom   51 type  4   force =    -0.00116828    0.01877826   -0.00529577
     atom   52 type  3   force =    -0.00050380   -0.00164429    0.00087145
     atom   53 type  3   force =     0.00285873   -0.00503610    0.00516413

     Total force =     0.365750     Total SCF correction =     0.000704
  @ DRIVER MODE: Message from server: STATUS
  @ DRIVER MODE: Message from server: GETFORCE
  @ DRIVER MODE: Returning v,forces,stress,ensemble

     Writing output data file ./calc.save/
  @ DRIVER MODE: Message from server: EXIT
  @ DRIVE MODE: Exiting

     General routines

     Parallel routines

   This run was terminated on:   0:21:45  13Oct2021

   JOB DONE.