     Program PWSCF v.6.7GPU starts on 16Sep2021 at 12:43:54

     R & G space division:  proc/nbgrp/npool/nimage =      10
     Reading input from /storage/home/hcoda1/3/ntian30/research/carbon/CxH_vib/H2O_calc/ads_slab/CH3NHNH2H2O_a/out_0060/pw.inp
Warning: card &CELL ignored
Warning: card   CELL_DYNAMICS='IPI', ignored
Warning: card / ignored

     Current dimensions of program PWSCF are:
     Max number of different atomic species (ntypx) = 10
     Max number of k-points (npk) =  40000
     Max angular momentum in pseudopotentials (lmaxx) =  3
     Presently no symmetry can be used with electric field

     Message from routine cell_base_init:
     DEPRECATED: use true lattice parameter, not A to a.u. conversion factor

     IMPORTANT: XC functional enforced from input :
     Exchange-correlation= BEEF-VDW
                           (   1   4  43  14   2   0   0)
     Any further DFT definition will be discarded
     Please, verify this is what you really want

  @ DRIVER MODE: Connecting to
 qe_1139763_2852619.sched-torque.pace.gatech.eduzo9cwpjs_scratch
  using UNIX socket
  @ DRIVER MODE: Message from server: STATUS
  @ DRIVER MODE: Message from server: INIT
  @ DRIVER MODE: Receiving replica           0          -1
  @ DRIVER MODE: Receiving encoded integer          25
  @ DRIVER MODE:  SCF:  T  FORCE:  T  STRESS:  F  VC:  F  ENSEMBLE:  F
  @ DRIVER MODE:  SCF:  T  FORCE:  T  STRESS:  F  VC:  F  ENSEMBLE:  F

     Using Slab Decomposition

     bravais-lattice index     =            0
     lattice parameter (alat)  =       1.8897  a.u.
     unit-cell volume          =    6658.9804 (a.u.)^3
     number of atoms/cell      =           59
     number of atomic types    =            5
     number of electrons       =       406.00
     number of Kohn-Sham states=          213
     kinetic-energy cutoff     =      29.3995  Ry
     charge density cutoff     =     293.9946  Ry
     scf convergence threshold =      7.3E-08
     mixing beta               =       0.0500
     number of iterations used =            8  plain     mixing
     Exchange-correlation= BEEF-VDW
                           (   1   4  43  14   2   0   0)

     celldm(1)=   1.889726  celldm(2)=   0.000000  celldm(3)=   0.000000
     celldm(4)=   0.000000  celldm(5)=   0.000000  celldm(6)=   0.000000

     crystal axes: (cart. coord. in units of alat)
               a(1) = (   6.579727   0.000000   0.000000 )
               a(2) = (  -0.000775   5.961596   0.000000 )
               a(3) = (   0.000000   0.000000  25.155947 )

     reciprocal axes: (cart. coord. in units 2 pi/alat)
               b(1) = (  0.151982  0.000020  0.000000 )
               b(2) = (  0.000000  0.167740  0.000000 )
               b(3) = (  0.000000  0.000000  0.039752 )

     PseudoPot. # 1 for Ti read from file:
     /storage/coda1/p-amedford6/0/shared/rich_project_chbe-medford/medford-share/data/pseudos_module/espresso/nninc/pbe/van/Ti.UPF
     MD5 check sum: 8e4df49b7f0d34bbd5052bf3f5ea0213
     Pseudo is Ultrasoft, Zval = 12.0
     Generated by new atomic code, or converted to UPF format
     Using radial grid of  851 points,  6 beta functions with:
                l(1) =   0
                l(2) =   0
                l(3) =   1
                l(4) =   1
                l(5) =   2
                l(6) =   2
     Q(r) pseudized with  8 coefficients,  rinner =    1.000   1.000   1.000
                                                       1.000   1.000

     PseudoPot. # 2 for O  read from file:
     /storage/coda1/p-amedford6/0/shared/rich_project_chbe-medford/medford-share/data/pseudos_module/espresso/nninc/pbe/van/O.UPF
     MD5 check sum: 78c19812648e8988a0fe644b0f25305e
     Pseudo is Ultrasoft, Zval =  6.0
     Generated by new atomic code, or converted to UPF format
     Using radial grid of  737 points,  4 beta functions with:
                l(1) =   0
                l(2) =   0
                l(3) =   1
                l(4) =   1
     Q(r) pseudized with  8 coefficients,  rinner =    0.800   0.800   0.800

     PseudoPot. # 3 for N  read from file:
     /storage/coda1/p-amedford6/0/shared/rich_project_chbe-medford/medford-share/data/pseudos_module/espresso/nninc/pbe/van/N.UPF
     MD5 check sum: 90d10febe142ad51ac9d5be1deb811c4
     Pseudo is Ultrasoft, Zval =  5.0
     Generated by new atomic code, or converted to UPF format
     Using radial grid of  729 points,  4 beta functions with:
                l(1) =   0
                l(2) =   0
                l(3) =   1
                l(4) =   1
     Q(r) pseudized with  8 coefficients,  rinner =    0.800   0.800   0.800

     PseudoPot. # 4 for C  read from file:
     /storage/coda1/p-amedford6/0/shared/rich_project_chbe-medford/medford-share/data/pseudos_module/espresso/nninc/pbe/van/C.UPF
     MD5 check sum: 1a69bf6b8db32088f5b2163dbdb77a27
     Pseudo is Ultrasoft, Zval =  4.0
     Generated by new atomic code, or converted to UPF format
     Using radial grid of  721 points,  4 beta functions with:
                l(1) =   0
                l(2) =   0
                l(3) =   1
                l(4) =   1
     Q(r) pseudized with  8 coefficients,  rinner =    0.800   0.800   0.800

     PseudoPot. # 5 for H  read from file:
     /storage/coda1/p-amedford6/0/shared/rich_project_chbe-medford/medford-share/data/pseudos_module/espresso/nninc/pbe/van/H.UPF
     MD5 check sum: b5ee9d7bfd3a09ee7748110bda690ff7
     Pseudo is Ultrasoft, Zval =  1.0
     Generated by new atomic code, or converted to UPF format
     Using radial grid of  615 points,  1 beta functions with:
                l(1) =   0
     Q(r) pseudized with  8 coefficients,  rinner =    0.800

     atomic species   valence    mass     pseudopotential
        Ti1           12.00    47.86700     Ti( 1.00)
        O1             6.00    15.99900     O ( 1.00)
        N1             5.00    14.00700     N ( 1.00)
        C1             4.00    12.01100     C ( 1.00)
        H1             1.00     1.00800     H ( 1.00)

     No symmetry found

   Cartesian axes

     site n.     atom                  positions (alat units)
         1           Ti1 tau(   1) = (   0.0004258   2.9801865   6.0000000  )
         2           Ti1 tau(   2) = (   3.2906075   1.4906267   6.0002472  )
         3           O1  tau(   3) = (   0.0006271   0.0005054   7.9858123  )
         4           O1  tau(   4) = (   3.2906025   0.0005020   7.3038282  )
         5           O1  tau(   5) = (   4.5942328   1.4918067   9.2879030  )
         6           O1  tau(   6) = (   1.9868534   1.4903216   9.2879459  )
         7           Ti1 tau(   7) = (   3.2907910   2.8959150   9.1758416  )
         8           Ti1 tau(   8) = (   0.0015273   1.4827037   9.2680791  )
         9           O1  tau(   9) = (   3.2683845   0.0132936  11.3796717  )
        10           O1  tau(  10) = (   0.0116148   5.9584955  10.6183126  )
        11           O1  tau(  11) = (   1.2681313   1.5011218  12.7194972  )
        12           O1  tau(  12) = (   5.2787963   1.4993765  12.6897032  )
        13           Ti1 tau(  13) = (   6.5560253   2.9823375  12.4990790  )
        14           Ti1 tau(  14) = (   3.2673924   1.4925278  12.5394213  )
        15           O1  tau(  15) = (   6.5345332   5.8735037  14.6996474  )
        16           O1  tau(  16) = (   3.2898196   5.9462848  13.9939205  )
        17           O1  tau(  17) = (   4.4957945   1.5291507  16.1605787  )
        18           O1  tau(  18) = (   1.9883785   1.5110281  16.0762771  )
        19           Ti1 tau(  19) = (   3.2526948   3.0056396  15.7740191  )
        20           Ti1 tau(  20) = (   0.0000763   1.3299063  15.8143521  )
        21           O1  tau(  21) = (   3.2904802   0.0005063   4.7018136  )
        22           O1  tau(  22) = (   6.5205728   0.2065101  17.2442985  )
        23           O1  tau(  23) = (   1.3043587   1.4918075   6.0039043  )
        24           O1  tau(  24) = (   5.2767064   1.4903225   6.0039473  )
        25           Ti1 tau(  25) = (   0.0000382   5.9609847   6.0000000  )
        26           Ti1 tau(  26) = (   3.2902200   4.4714249   6.0002472  )
        27           O1  tau(  27) = (   0.0002396   2.9813036   7.9858123  )
        28           O1  tau(  28) = (   3.2902150   2.9813002   7.3038282  )
        29           O1  tau(  29) = (   4.5938453   4.4726049   9.2879030  )
        30           O1  tau(  30) = (   1.9864658   4.4711199   9.2879459  )
        31           Ti1 tau(  31) = (   3.2891106   5.8743827   9.1763621  )
        32           Ti1 tau(  32) = (   0.0006254   4.4649316   9.2693709  )
        33           O1  tau(  33) = (   3.2688559   2.9716192  11.3757022  )
        34           O1  tau(  34) = (   0.0092240   2.9805883  10.6323155  )
        35           O1  tau(  35) = (   1.2711362   4.4646907  12.6658965  )
        36           O1  tau(  36) = (   5.2748280   4.4660984  12.6332574  )
        37           Ti1 tau(  37) = (   6.5627654   5.9477838  12.5072267  )
        38           Ti1 tau(  38) = (   3.2667511   4.4702655  12.5260729  )
        39           O1  tau(  39) = (   6.5087961   3.0586107  15.0099536  )
        40           O1  tau(  40) = (   3.2849776   3.0149387  13.9815115  )
        41           O1  tau(  41) = (   4.4906635   4.4862850  16.2792570  )
        42           O1  tau(  42) = (   1.9756856   4.4939852  16.2100911  )
        43           Ti1 tau(  43) = (   3.2747729   0.0241646  15.7895078  )
        44           Ti1 tau(  44) = (   6.5697470   4.5456975  16.1185117  )
        45           O1  tau(  45) = (   3.2900926   2.9813045   4.7018136  )
        46           O1  tau(  46) = (   1.3039711   4.4726057   6.0039043  )
        47           O1  tau(  47) = (   5.2763189   4.4711207   6.0039473  )
        48           N1  tau(  48) = (   0.9980056   3.0961469  19.0053282  )
        49           N1  tau(  49) = (   6.4063515   3.4839273  18.2229180  )
        50           C1  tau(  50) = (   1.6570833   4.2684698  19.5811903  )
        51           H1  tau(  51) = (   0.9936588   4.8902639  20.1979557  )
        52           H1  tau(  52) = (   2.4789334   3.9063689  20.1993048  )
        53           H1  tau(  53) = (   2.0598354   4.8861676  18.7819781  )
        54           H1  tau(  54) = (   0.6510520   2.5058952  19.7602174  )
        55           H1  tau(  55) = (   5.8507131   4.1735594  18.7414995  )
        56           H1  tau(  56) = (   5.8147758   2.6545292  18.1916272  )
        57           O1  tau(  57) = (   5.1718451   0.7889162  19.5781371  )
        58           H1  tau(  58) = (   5.5516362   0.5215711  18.6954158  )
        59           H1  tau(  59) = (   4.2099197   0.7512590  19.4668632  )

     number of k points=    10  Fermi-Dirac smearing, width (Ry)=  0.0073
                       cart. coord. in units 2pi/alat
        k(    1) = (   0.0000000   0.0000000   0.0000000), wk =   0.1250000
        k(    2) = (   0.0000000   0.0419351   0.0000000), wk =   0.2500000
        k(    3) = (   0.0000000  -0.0838702   0.0000000), wk =   0.1250000
        k(    4) = (   0.0379955   0.0000049   0.0000000), wk =   0.2500000
        k(    5) = (   0.0379955   0.0419400   0.0000000), wk =   0.2500000
        k(    6) = (   0.0379955  -0.0838652   0.0000000), wk =   0.2500000
        k(    7) = (   0.0379955  -0.0419301   0.0000000), wk =   0.2500000
        k(    8) = (  -0.0759910  -0.0000099   0.0000000), wk =   0.1250000
        k(    9) = (  -0.0759910   0.0419252   0.0000000), wk =   0.2500000
        k(   10) = (  -0.0759910  -0.0838800   0.0000000), wk =   0.1250000

     Initial potential from superposition of free atoms

     starting charge  389.99912, renormalised to  406.00000

     negative rho (up, down):  1.389E-02 0.000E+00

     %%%%%%%%%%%%%%%%%%%%%%%%%%%%%%%%%%%%%%%%%%%%%%%%%%%%%%%%%%%%%%%%%%%%%%%%
     %                                                                      %
     % You are using vdW-DF, which was implemented by the Thonhauser group. %
     % Please cite the following two papers that made this development      %
     % possible and the two reviews that describe the various versions:     %
     %                                                                      %
     %   T. Thonhauser et al., PRL 115, 136402 (2015).                      %
     %   T. Thonhauser et al., PRB 76, 125112 (2007).                       %
     %   K. Berland et al., Rep. Prog. Phys. 78, 066501 (2015).             %
     %   D.C. Langreth et al., J. Phys.: Condens. Matter 21, 084203 (2009). %
     %                                                                      %
     %                                                                      %
     % If you are calculating the stress with vdW-DF, please also cite:     %
     %                                                                      %
     %   R. Sabatini et al., J. Phys.: Condens. Matter 24, 424209 (2012).   %
     %                                                                      %
     %%%%%%%%%%%%%%%%%%%%%%%%%%%%%%%%%%%%%%%%%%%%%%%%%%%%%%%%%%%%%%%%%%%%%%%%

     Adding external electric field

     Computed dipole along edir(3) :
        Dipole              -16.7223 Ry au,        -42.5038 Debye
        Dipole field         -0.0316 Ry au,

        Potential amp.        2.9253 Ry
        Total length         46.3494 bohr

     Starting wfcs are  308 atomic wfcs
  @ DRIVER MODE: Message from server: STATUS
  @ DRIVER MODE: Message from server: POSDATA
  @ DRIVER MODE: Reading and sharing cell
  @ DRIVER MODE: Reading and sharing positions
  @ DRIVER MODE: Received positions

     Self-consistent Calculation

     iteration #  1     ecut=    29.40 Ry     beta= 0.05
     Davidson diagonalization with overlap
     c_bands:  2 eigenvalues not converged
     c_bands:  3 eigenvalues not converged
     c_bands:  2 eigenvalues not converged
     c_bands:  4 eigenvalues not converged
     c_bands:  1 eigenvalues not converged
     c_bands:  4 eigenvalues not converged
     c_bands:  3 eigenvalues not converged
     c_bands:  5 eigenvalues not converged
     c_bands:  3 eigenvalues not converged
     ethr =  1.00E-05,  avg # of iterations = 24.8

[...]

     total energy              =   -2136.68115893 Ry
     estimated scf accuracy    <    9693.08026723 Ry

     iteration #  2     ecut=    29.40 Ry     beta= 0.05
     Davidson diagonalization with overlap
     ethr =  1.00E-02,  avg # of iterations = 32.5

[...]

     iteration # 53     ecut=    29.40 Ry     beta= 0.05
     Davidson diagonalization with overlap
     c_bands:  1 eigenvalues not converged
     ethr =  5.81E-09,  avg # of iterations = 11.2

[...]

     total energy              =   -2977.68367005 Ry
     estimated scf accuracy    <       0.00000021 Ry

     iteration # 63     ecut=    29.40 Ry     beta= 0.05
     Davidson diagonalization with overlap
     ethr =  5.15E-11,  avg # of iterations =  6.4

     negative rho (up, down):  1.438E-02 0.000E+00

     Adding external electric field

     Computed dipole along edir(3) :
        Dipole                1.0110 Ry au,          2.5698 Debye
        Dipole field          0.0019 Ry au,

        Potential amp.       -0.1769 Ry
        Total length         46.3494 bohr

     End of self-consistent calculation

          k = 0.0000 0.0000 0.0000 ( 18029 PWs)   bands (ev):

   -55.3651 -55.3278 -55.3158 -55.2984 -55.2817 -55.2459 -55.2443 -55.2095
   -55.1883 -55.1870 -55.1539 -55.1481 -55.1144 -55.0240 -54.3479 -54.3138
   -31.9314 -31.8141 -31.8088 -31.7329 -31.6814 -31.6775 -31.6774 -31.6545
   -31.6045 -31.6003 -31.5773 -31.5747 -31.5606 -31.5445 -31.5356 -31.5320
   -31.5195 -31.5125 -31.5020 -31.4845 -31.4695 -31.4684 -31.4405 -31.4301
   -31.4226 -31.4188 -31.3985 -31.3908 -31.3745 -31.3730 -31.3682 -31.3593
   -31.3472 -31.3461 -31.3374 -31.3348 -31.3018 -31.2987 -31.2764 -31.2592
   -31.2361 -31.2340 -30.7573 -30.6628 -30.6407 -30.5737 -30.4869 -30.3760
   -17.9540 -17.6314 -16.1987 -15.9380 -15.7926 -15.6641 -15.5666 -15.4383
   -15.4189 -15.2971 -15.2269 -15.1236 -15.0719 -15.0531 -15.0176 -15.0074
   -14.9842 -14.9137 -14.9076 -14.8935 -14.8697 -14.8609 -14.8148 -14.8070
   -14.7657 -14.7414 -14.7166 -14.6181 -14.5282 -14.4534 -14.3472 -13.1506
   -12.8505 -12.7330  -9.4043  -6.3098  -5.8086  -5.7200  -4.2474  -3.5372
    -3.3885  -3.3192  -3.2834  -3.2582  -3.1247  -2.9667  -2.9205  -2.8104
    -2.7936  -2.6875  -2.6497  -2.5786  -2.5614  -2.5468  -2.4006  -2.3792
    -2.3537  -2.2860  -2.2604  -2.1925  -2.1707  -2.1614  -2.1509  -2.1273
    -2.0993  -2.0594  -1.9980  -1.9387  -1.8453  -1.8194  -1.7694  -1.7392
    -1.7191  -1.7021  -1.6565  -1.6454  -1.6057  -1.5914  -1.5711  -1.5572
    -1.3937  -1.3702  -1.2697  -1.2078  -1.1087  -1.0053  -0.9695  -0.9550
    -0.8582  -0.8394  -0.7858  -0.7451  -0.7433  -0.7086  -0.5969  -0.5343
    -0.4819  -0.4184  -0.3954  -0.3556  -0.2875  -0.2039  -0.1483  -0.1344
    -0.1144  -0.0835   0.0083   0.0203   0.0723   0.1469   0.1565   0.1625
     0.2366   0.2927   0.3631   0.3877   0.4059   0.5107   0.5263   0.5586
     0.5643   0.5942   0.6150   0.6400   0.7001   0.7304   0.8137   0.9354
     1.1268   1.2165   1.2438   1.3647   1.5669   1.5793   1.6750   1.8582
     2.2512   2.2996   3.7319   3.8030   3.8776   3.8817   3.9043   3.9681
     4.2050   4.2223   4.2367   4.2404   4.2645

[...]

          k = 0.0380-0.0419 0.0000 ( 17876 PWs)   bands (ev):

[...]

          k =-0.0760-0.0000 0.0000 ( 17886 PWs)   bands (ev):

[...]

          k =-0.0760-0.0839 0.0000 ( 17948 PWs)   bands (ev):

   -55.3515 -55.3413 -55.2990 -55.2983 -55.2971 -55.2387 -55.2337 -55.2217
   -55.1925 -55.1723 -55.1694 -55.1316 -55.1310 -55.0251 -54.3309 -54.3306
   -31.7395 -31.7315 -31.7297 -31.6450 -31.6254 -31.6241 -31.6235 -31.5900
   -31.5895 -31.5785 -31.5645 -31.5633 -31.5565 -31.5368 -31.5250 -31.5117
   -31.5052 -31.5019 -31.5004 -31.4988 -31.4920 -31.4847 -31.4525 -31.4450
   -31.4419 -31.4415 -31.4274 -31.4231 -31.4187 -31.4181 -31.4127 -31.4050
   -31.4026 -31.3854 -31.3822 -31.3801 -31.3654 -31.3622 -31.3125 -31.3121
   -31.3064 -31.2399 -30.6535 -30.6532 -30.5699 -30.5697 -30.5304 -30.5302
   -17.9405 -17.6419 -15.6795 -15.5942 -15.5732 -15.4183 -15.3667 -15.3401
   -15.3291 -15.2138 -15.1711 -15.1518 -15.1377 -15.1157 -15.0775 -15.0680
   -15.0610 -14.9979 -14.9776 -14.9687 -14.9428 -14.8890 -14.8815 -14.8734
   -14.8657 -14.8158 -14.8119 -14.7723 -14.7212 -14.7177 -14.6438 -13.1568
   -12.8345 -12.8344  -9.4092  -6.3266  -5.8627  -5.6171  -4.2253  -2.9315
    -2.8521  -2.8411  -2.8350  -2.6952  -2.6316  -2.5560  -2.5339  -2.5129
    -2.4293  -2.4146  -2.3841  -2.3586  -2.3295  -2.2899  -2.2535  -2.2457
    -2.2102  -2.2014  -2.1854  -2.1687  -2.1467  -2.1315  -2.0980  -2.0873
    -2.0734  -2.0295  -2.0037  -1.9899  -1.9683  -1.9480  -1.9408  -1.9218
    -1.8464  -1.7561  -1.7321  -1.6467  -1.5764  -1.5758  -1.5690  -1.5079
    -1.4645  -1.4258  -1.4011  -1.3838  -1.2444  -1.1732  -1.1292  -1.1150
    -1.1004  -0.9695  -0.9628  -0.8869  -0.8647  -0.8582  -0.7624  -0.7198
    -0.6815  -0.6746  -0.5880  -0.5756  -0.4998  -0.4016  -0.3794  -0.3657
    -0.3207  -0.3189  -0.2813  -0.2686  -0.1721  -0.1363  -0.1031  -0.0993
    -0.0790  -0.0444   0.1063   0.1556   0.1622   0.2949   0.3267   0.4656
     0.4952   0.5594   0.6393   0.6883   0.7403   0.7732   0.8589   0.9345
     0.9376   1.0011   1.0167   1.0827   1.0949   1.3703   2.0312   2.0317
     2.1194   2.1198   3.8799   3.9948   3.9985   4.0277   4.1493   4.1732
     4.2495   4.2771   4.3167   4.3198   4.3776

     the Fermi energy is     3.7959 ev

!    total energy              =   -2977.68374382 Ry
     estimated scf accuracy    <       0.00000006 Ry
     smearing contrib. (-TS)   =      -0.03717883 Ry
     internal energy E=F+TS    =   -2977.64656499 Ry

     The total energy is F=E-TS. E is the sum of the following terms:
     one-electron contribution =  -22679.17684601 Ry
     hartree contribution      =   11436.90258528 Ry
     xc contribution           =    -496.60655524 Ry
     ewald contribution        =    8761.23232198 Ry
     electric field correction =       0.00192900 Ry

     convergence has been achieved in  63 iterations

     Forces acting on atoms (cartesian axes, Ry/au):

     atom    1 type  1   force =     0.00024910   -0.00038039    0.09327274
     atom    2 type  1   force =     0.00002556   -0.00038416   -0.17814141
     atom    3 type  2   force =     0.00004932   -0.00041318   -0.02000294
     atom    4 type  2   force =     0.00000977   -0.00189974    0.05909120
     atom    5 type  2   force =    -0.01035802   -0.00059550    0.00861632
     atom    6 type  2   force =     0.01130545    0.00009475    0.00628182
     atom    7 type  1   force =    -0.00096134    0.00198768   -0.01427988
     atom    8 type  1   force =     0.00098469   -0.00256285   -0.00599591
     atom    9 type  2   force =     0.00016717   -0.00001640    0.00011435
     atom   10 type  2   force =    -0.00231095    0.00309388    0.00261802
     atom   11 type  2   force =     0.00043008   -0.00043672   -0.00056669
     atom   12 type  2   force =     0.00002817   -0.00041713   -0.00057250
     atom   13 type  1   force =     0.00035060   -0.00028702   -0.00023329
     atom   14 type  1   force =     0.00004089   -0.00009436   -0.00006391
     atom   15 type  2   force =     0.00000675    0.00063959   -0.00001996
     atom   16 type  2   force =     0.00030786    0.00027894   -0.00014329
     atom   17 type  2   force =     0.00041685    0.00022160    0.00039000
     atom   18 type  2   force =    -0.00053573    0.00017642   -0.00014708
     atom   19 type  1   force =    -0.00015945    0.00010112    0.00042412
     atom   20 type  1   force =    -0.00003797    0.00003822    0.00047935
     atom   21 type  2   force =     0.00011993   -0.00011095    0.10400728
     atom   22 type  2   force =    -0.00033344   -0.00011463    0.00124090
     atom   23 type  2   force =    -0.07029189   -0.00018940   -0.02686187
     atom   24 type  2   force =     0.07027164    0.00025338   -0.02686149
     atom   25 type  1   force =     0.00017514   -0.00031194    0.09243315
     atom   26 type  1   force =     0.00005606   -0.00053979   -0.17847044
     atom   27 type  2   force =     0.00008364   -0.00020788   -0.01907108
     atom   28 type  2   force =     0.00006071   -0.00173007    0.05850993
     atom   29 type  2   force =    -0.01102609   -0.00113761    0.00944939
     atom   30 type  2   force =     0.01188154   -0.00069257    0.00723406
     atom   31 type  1   force =    -0.00087978    0.00647440   -0.01493736
     atom   32 type  1   force =     0.00101993    0.00219773   -0.00639444
     atom   33 type  2   force =     0.00026105    0.00009663    0.00004058
     atom   34 type  2   force =    -0.00214667   -0.00243598   -0.00032171
     atom   35 type  2   force =     0.00028996    0.00013757   -0.00000846
     atom   36 type  2   force =     0.00024722    0.00004523    0.00051110
     atom   37 type  1   force =    -0.00009502    0.00003365   -0.00005950
     atom   38 type  1   force =     0.00014958   -0.00006237   -0.00001056
     atom   39 type  2   force =    -0.00012485   -0.00025105    0.00043887
     atom   40 type  2   force =    -0.00014134    0.00008044    0.00004180
     atom   41 type  2   force =    -0.00042197    0.00016591    0.00021052
     atom   42 type  2   force =     0.00023125   -0.00007808   -0.00022612
     atom   43 type  1   force =     0.00036433    0.00026564   -0.00003615
     atom   44 type  1   force =    -0.00000059   -0.00035275    0.00003471
     atom   45 type  2   force =     0.00012185   -0.00011126    0.10394115
     atom   46 type  2   force =    -0.07025873   -0.00013289   -0.02680251
     atom   47 type  2   force =     0.07024910    0.00027256   -0.02686855
     atom   48 type  3   force =    -0.00022615   -0.00007644   -0.00036959
     atom   49 type  3   force =     0.00024901    0.00004030   -0.00079509
     atom   50 type  4   force =    -0.00030576   -0.00005584   -0.00022831
     atom   51 type  5   force =    -0.00068583    0.00033314    0.00037519
     atom   52 type  5   force =     0.00040567   -0.00002339    0.00035688
     atom   53 type  5   force =    -0.00000960    0.00020351   -0.00045733
     atom   54 type  5   force =     0.00006248   -0.00014639   -0.00001695
     atom   55 type  5   force =     0.00030361    0.00036298   -0.00023429
     atom   56 type  5   force =    -0.00033980   -0.00077380    0.00058483
     atom   57 type  2   force =     0.00165885   -0.00493251   -0.01369828
     atom   58 type  5   force =    -0.00312582    0.00333993    0.01198720
     atom   59 type  5   force =     0.00214199    0.00101979    0.00021143

     Total force =     0.366769     Total SCF correction =     0.000609
  @ DRIVER MODE: Message from server: STATUS
  @ DRIVER MODE: Message from server: GETFORCE
  @ DRIVER MODE: Returning v,forces,stress,ensemble

     Writing output data file ./calc.save/
  @ DRIVER MODE: Message from server: EXIT
  @ DRIVE MODE: Exiting

     General routines

     Parallel routines

   This run was terminated on:  13: 3: 1  16Sep2021

   JOB DONE.