     Program PWSCF v.6.7GPU starts on 23Sep2021 at  2: 8: 4

     R & G space division:  proc/nbgrp/npool/nimage =       8
     Reading input from /storage/home/hcoda1/3/ntian30/research/carbon/CxH_vib/H2O_calc/ads_slab/CH2NHHO_a/out_0010/pw.inp
Warning: card &CELL ignored
Warning: card   CELL_DYNAMICS='IPI', ignored
Warning: card / ignored

     Current dimensions of program PWSCF are:
     Max number of different atomic species (ntypx) = 10
     Max number of k-points (npk) =  40000
     Max angular momentum in pseudopotentials (lmaxx) =  3
     Presently no symmetry can be used with electric field

     Message from routine cell_base_init:
     DEPRECATED: use true lattice parameter, not A to a.u. conversion factor

     IMPORTANT: XC functional enforced from input :
     Exchange-correlation= BEEF-VDW
                           (   1   4  43  14   2   0   0)
     Any further DFT definition will be discarded
     Please, verify this is what you really want

  @ DRIVER MODE: Connecting to
 qe_1139763_2941012.sched-torque.pace.gatech.edukasadb5v_scratch
  using UNIX socket
  @ DRIVER MODE: Message from server: STATUS
  @ DRIVER MODE: Message from server: INIT
  @ DRIVER MODE: Receiving replica           0          -1
  @ DRIVER MODE: Receiving encoded integer          25
  @ DRIVER MODE:  SCF:  T  FORCE:  T  STRESS:  F  VC:  F  ENSEMBLE:  F
  @ DRIVER MODE:  SCF:  T  FORCE:  T  STRESS:  F  VC:  F  ENSEMBLE:  F

     Using Slab Decomposition

     bravais-lattice index     =            0
     lattice parameter (alat)  =       1.8897  a.u.
     unit-cell volume          =    6658.9804 (a.u.)^3
     number of atoms/cell      =           54
     number of atomic types    =            5
     number of electrons       =       397.00
     number of Kohn-Sham states=          208
     kinetic-energy cutoff     =      29.3995  Ry
     charge density cutoff     =     293.9946  Ry
     scf convergence threshold =      7.3E-08
     mixing beta               =       0.0500
     number of iterations used =            8  plain     mixing
     Exchange-correlation= BEEF-VDW
                           (   1   4  43  14   2   0   0)

     celldm(1)=   1.889726  celldm(2)=   0.000000  celldm(3)=   0.000000
     celldm(4)=   0.000000  celldm(5)=   0.000000  celldm(6)=   0.000000

     crystal axes: (cart. coord. in units of alat)
               a(1) = (   6.579727   0.000000   0.000000 )
               a(2) = (  -0.000775   5.961596   0.000000 )
               a(3) = (   0.000000   0.000000  25.155947 )

     reciprocal axes: (cart. coord. in units 2 pi/alat)
               b(1) = (  0.151982  0.000020  0.000000 )
               b(2) = (  0.000000  0.167740  0.000000 )
               b(3) = (  0.000000  0.000000  0.039752 )

     PseudoPot. # 1 for Ti read from file:
     /storage/coda1/p-amedford6/0/shared/rich_project_chbe-medford/medford-share/data/pseudos_module/espresso/nninc/pbe/van/Ti.UPF
     MD5 check sum: 8e4df49b7f0d34bbd5052bf3f5ea0213
     Pseudo is Ultrasoft, Zval = 12.0
     Generated by new atomic code, or converted to UPF format
     Using radial grid of  851 points,  6 beta functions with:
                l(1) =   0
                l(2) =   0
                l(3) =   1
                l(4) =   1
                l(5) =   2
                l(6) =   2
     Q(r) pseudized with  8 coefficients,  rinner =    1.000   1.000   1.000
                                                       1.000   1.000

     PseudoPot. # 2 for O  read from file:
     /storage/coda1/p-amedford6/0/shared/rich_project_chbe-medford/medford-share/data/pseudos_module/espresso/nninc/pbe/van/O.UPF
     MD5 check sum: 78c19812648e8988a0fe644b0f25305e
     Pseudo is Ultrasoft, Zval =  6.0
     Generated by new atomic code, or converted to UPF format
     Using radial grid of  737 points,  4 beta functions with:
                l(1) =   0
                l(2) =   0
                l(3) =   1
                l(4) =   1
     Q(r) pseudized with  8 coefficients,  rinner =    0.800   0.800   0.800

     PseudoPot. # 3 for N  read from file:
     /storage/coda1/p-amedford6/0/shared/rich_project_chbe-medford/medford-share/data/pseudos_module/espresso/nninc/pbe/van/N.UPF
     MD5 check sum: 90d10febe142ad51ac9d5be1deb811c4
     Pseudo is Ultrasoft, Zval =  5.0
     Generated by new atomic code, or converted to UPF format
     Using radial grid of  729 points,  4 beta functions with:
                l(1) =   0
                l(2) =   0
                l(3) =   1
                l(4) =   1
     Q(r) pseudized with  8 coefficients,  rinner =    0.800   0.800   0.800

     PseudoPot. # 4 for C  read from file:
     /storage/coda1/p-amedford6/0/shared/rich_project_chbe-medford/medford-share/data/pseudos_module/espresso/nninc/pbe/van/C.UPF
     MD5 check sum: 1a69bf6b8db32088f5b2163dbdb77a27
     Pseudo is Ultrasoft, Zval =  4.0
     Generated by new atomic code, or converted to UPF format
     Using radial grid of  721 points,  4 beta functions with:
                l(1) =   0
                l(2) =   0
                l(3) =   1
                l(4) =   1
     Q(r) pseudized with  8 coefficients,  rinner =    0.800   0.800   0.800

     PseudoPot. # 5 for H  read from file:
     /storage/coda1/p-amedford6/0/shared/rich_project_chbe-medford/medford-share/data/pseudos_module/espresso/nninc/pbe/van/H.UPF
     MD5 check sum: b5ee9d7bfd3a09ee7748110bda690ff7
     Pseudo is Ultrasoft, Zval =  1.0
     Generated by new atomic code, or converted to UPF format
     Using radial grid of  615 points,  1 beta functions with:
                l(1) =   0
     Q(r) pseudized with  8 coefficients,  rinner =    0.800

     atomic species   valence    mass     pseudopotential
        Ti1           12.00    47.86700     Ti( 1.00)
        O1             6.00    15.99900     O ( 1.00)
        N1             5.00    14.00700     N ( 1.00)
        C1             4.00    12.01100     C ( 1.00)
        H1             1.00     1.00800     H ( 1.00)

     No symmetry found

   Cartesian axes

     site n.     atom                  positions (alat units)
         1           Ti1 tau(   1) = (   0.0004258   2.9801865   6.0000000  )
         2           Ti1 tau(   2) = (   3.2906075   1.4906267   6.0002472  )
         3           O1  tau(   3) = (   0.0006271   0.0005054   7.9858123  )
         4           O1  tau(   4) = (   3.2906025   0.0005020   7.3038282  )
         5           O1  tau(   5) = (   4.5942328   1.4918067   9.2879030  )
         6           O1  tau(   6) = (   1.9868534   1.4903216   9.2879459  )
         7           Ti1 tau(   7) = (   3.2907910   2.8959150   9.1758416  )
         8           Ti1 tau(   8) = (   0.0015273   1.4827037   9.2680791  )
         9           O1  tau(   9) = (   3.2872377   5.9372537  11.3619719  )
        10           O1  tau(  10) = (   0.0116148   5.9584955  10.6183126  )
        11           O1  tau(  11) = (   1.2678424   1.4880610  12.6451974  )
        12           O1  tau(  12) = (   5.2928823   1.5036634  12.6399001  )
        13           Ti1 tau(  13) = (   6.5521701   2.9315368  12.5404127  )
        14           Ti1 tau(  14) = (   3.2895327   1.2997526  12.7137971  )
        15           O1  tau(  15) = (   6.5477037   0.0845492  14.6505624  )
        16           O1  tau(  16) = (   3.2827468   0.0880329  14.0175491  )
        17           O1  tau(  17) = (   4.5427558   1.5765460  16.1196870  )
        18           O1  tau(  18) = (   1.9971221   1.5491956  16.2097298  )
        19           Ti1 tau(  19) = (   3.2670693   3.0250103  15.6873951  )
        20           Ti1 tau(  20) = (   6.4806419   1.4532933  16.0069425  )
        21           O1  tau(  21) = (   3.2904802   0.0005063   4.7018136  )
        22           O1  tau(  22) = (   6.5100566   5.8635464  17.1664964  )
        23           O1  tau(  23) = (   1.3043587   1.4918075   6.0039043  )
        24           O1  tau(  24) = (   5.2767064   1.4903225   6.0039473  )
        25           Ti1 tau(  25) = (   0.0000382   5.9609847   6.0000000  )
        26           Ti1 tau(  26) = (   3.2902200   4.4714249   6.0002472  )
        27           O1  tau(  27) = (   0.0002396   2.9813036   7.9858123  )
        28           O1  tau(  28) = (   3.2902150   2.9813002   7.3038282  )
        29           O1  tau(  29) = (   4.5938453   4.4726049   9.2879030  )
        30           O1  tau(  30) = (   1.9864658   4.4711199   9.2879459  )
        31           Ti1 tau(  31) = (   3.2891106   5.8743827   9.1763621  )
        32           Ti1 tau(  32) = (   0.0006254   4.4649316   9.2693709  )
        33           O1  tau(  33) = (   3.2826969   3.0075535  11.3127327  )
        34           O1  tau(  34) = (   0.0092240   2.9805883  10.6323155  )
        35           O1  tau(  35) = (   1.2713698   4.4757098  12.6731835  )
        36           O1  tau(  36) = (   5.2977781   4.4601507  12.6712348  )
        37           Ti1 tau(  37) = (   0.0330522   5.9225719  12.5042524  )
        38           Ti1 tau(  38) = (   3.2990360   4.3766664  12.4405836  )
        39           O1  tau(  39) = (   0.0150134   2.9421642  14.8567636  )
        40           O1  tau(  40) = (   3.2596324   2.9836344  13.9148061  )
        41           O1  tau(  41) = (   4.5490916   4.3969069  16.0525170  )
        42           O1  tau(  42) = (   1.9960638   4.4622821  16.0939853  )
        43           Ti1 tau(  43) = (   3.1777156   0.0378257  16.2738330  )
        44           Ti1 tau(  44) = (   6.5243348   4.6462111  15.7996153  )
        45           O1  tau(  45) = (   3.2900926   2.9813045   4.7018136  )
        46           O1  tau(  46) = (   1.3039711   4.4726057   6.0039043  )
        47           O1  tau(  47) = (   5.2763189   4.4711207   6.0039473  )
        48           N1  tau(  48) = (   6.4646383   2.7559932  17.9272311  )
        49           C1  tau(  49) = (   0.7552072   2.7264238  18.8602713  )
        50           H1  tau(  50) = (   0.5916026   3.1878006  19.8266510  )
        51           H1  tau(  51) = (   1.6887153   2.1901376  18.6919226  )
        52           H1  tau(  52) = (   5.6107037   3.2511282  18.1874541  )
        53           O1  tau(  53) = (   3.4589997   5.9358250  18.1144358  )
        54           H1  tau(  54) = (   4.3999295   5.9567086  18.3589960  )

     number of k points=    10  Fermi-Dirac smearing, width (Ry)=  0.0073
                       cart. coord. in units 2pi/alat
        k(    1) = (   0.0000000   0.0000000   0.0000000), wk =   0.1250000
        k(    2) = (   0.0000000   0.0419351   0.0000000), wk =   0.2500000
        k(    3) = (   0.0000000  -0.0838702   0.0000000), wk =   0.1250000
        k(    4) = (   0.0379955   0.0000049   0.0000000), wk =   0.2500000
        k(    5) = (   0.0379955   0.0419400   0.0000000), wk =   0.2500000
        k(    6) = (   0.0379955  -0.0838652   0.0000000), wk =   0.2500000
        k(    7) = (   0.0379955  -0.0419301   0.0000000), wk =   0.2500000
        k(    8) = (  -0.0759910  -0.0000099   0.0000000), wk =   0.1250000
        k(    9) = (  -0.0759910   0.0419252   0.0000000), wk =   0.2500000
        k(   10) = (  -0.0759910  -0.0838800   0.0000000), wk =   0.1250000

     Initial potential from superposition of free atoms

     starting charge  380.99916, renormalised to  397.00000

     negative rho (up, down):  1.654E-02 0.000E+00

     %%%%%%%%%%%%%%%%%%%%%%%%%%%%%%%%%%%%%%%%%%%%%%%%%%%%%%%%%%%%%%%%%%%%%%%%
     %                                                                      %
     % You are using vdW-DF, which was implemented by the Thonhauser group. %
     % Please cite the following two papers that made this development      %
     % possible and the two reviews that describe the various versions:     %
     %                                                                      %
     %   T. Thonhauser et al., PRL 115, 136402 (2015).                      %
     %   T. Thonhauser et al., PRB 76, 125112 (2007).                       %
     %   K. Berland et al., Rep. Prog. Phys. 78, 066501 (2015).             %
     %   D.C. Langreth et al., J. Phys.: Condens. Matter 21, 084203 (2009). %
     %                                                                      %
     %                                                                      %
     % If you are calculating the stress with vdW-DF, please also cite:     %
     %                                                                      %
     %   R. Sabatini et al., J. Phys.: Condens. Matter 24, 424209 (2012).   %
     %                                                                      %
     %%%%%%%%%%%%%%%%%%%%%%%%%%%%%%%%%%%%%%%%%%%%%%%%%%%%%%%%%%%%%%%%%%%%%%%%

     Adding external electric field

     Computed dipole along edir(3) :
        Dipole               -9.2998 Ry au,        -23.6378 Debye
        Dipole field         -0.0175 Ry au,

        Potential amp.        1.6269 Ry
        Total length         46.3494 bohr

     Starting wfcs are  300 atomic wfcs
  @ DRIVER MODE: Message from server: STATUS
  @ DRIVER MODE: Message from server: POSDATA
  @ DRIVER MODE: Reading and sharing cell
  @ DRIVER MODE: Reading and sharing positions
  @ DRIVER MODE: Received positions

     Self-consistent Calculation

     iteration #  1     ecut=    29.40 Ry     beta= 0.05
     Davidson diagonalization with overlap
     c_bands:  1 eigenvalues not converged
     c_bands:  1 eigenvalues not converged
     c_bands:  2 eigenvalues not converged
     c_bands:  1 eigenvalues not converged
     c_bands:  1 eigenvalues not converged
     c_bands:  2 eigenvalues not converged
     c_bands:  1 eigenvalues not converged
     c_bands:  1 eigenvalues not converged
     c_bands:  3 eigenvalues not converged
     ethr =  1.00E-05,  avg # of iterations = 19.6

[...]

     total energy              =   -2534.83313843 Ry
     estimated scf accuracy    <    4639.00125828 Ry

     iteration #  2     ecut=    29.40 Ry     beta= 0.05
     Davidson diagonalization with overlap
     ethr =  1.00E-02,  avg # of iterations = 24.6

[...]

     iteration # 33     ecut=    29.40 Ry     beta= 0.05
     Davidson diagonalization with overlap
     c_bands:  2 eigenvalues not converged
     c_bands:  1 eigenvalues not converged
     ethr =  1.58E-06,  avg # of iterations = 15.0

[...]

     total energy              =   -2952.74682498 Ry
     estimated scf accuracy    <       0.00000008 Ry

     iteration # 55     ecut=    29.40 Ry     beta= 0.05
     Davidson diagonalization with overlap
     ethr =  2.05E-11,  avg # of iterations =  2.4

     negative rho (up, down):  1.672E-02 0.000E+00

     Adding external electric field

     Computed dipole along edir(3) :
        Dipole                1.0869 Ry au,          2.7627 Debye
        Dipole field          0.0021 Ry au,

        Potential amp.       -0.1901 Ry
        Total length         46.3494 bohr

     End of self-consistent calculation

          k = 0.0000 0.0000 0.0000 ( 18029 PWs)   bands (ev):

   -55.6614 -55.6393 -55.6052 -55.4682 -55.4608 -55.4348 -55.4330 -55.4273
   -55.4107 -55.3993 -55.3500 -55.2419 -55.2258 -55.1740 -54.6049 -54.5709
   -32.1229 -31.9898 -31.9640 -31.9568 -31.9530 -31.9306 -31.9305 -31.8845
   -31.8829 -31.8669 -31.8344 -31.7917 -31.7541 -31.7449 -31.7356 -31.7332
   -31.7149 -31.6968 -31.6779 -31.6666 -31.6632 -31.6561 -31.6354 -31.6244
   -31.6170 -31.6095 -31.6004 -31.5906 -31.5895 -31.5783 -31.5754 -31.5704
   -31.5656 -31.5461 -31.5208 -31.5056 -31.4389 -31.4299 -31.4166 -31.3868
   -31.3803 -31.3796 -31.0104 -30.9252 -30.9027 -30.8281 -30.7418 -30.6299
   -16.7224 -16.4367 -16.2556 -16.0819 -15.8682 -15.7939 -15.7567 -15.5597
   -15.4735 -15.4089 -15.1770 -15.1715 -15.1606 -15.1383 -15.1115 -15.1016
   -15.0914 -15.0564 -15.0544 -15.0322 -15.0064 -14.9730 -14.9644 -14.9169
   -14.8677 -14.8507 -14.7699 -14.6969 -14.6502 -14.4486 -14.3235 -13.1031
   -12.9869  -9.3215  -6.3648  -4.7074  -3.9544  -3.6244  -3.5386  -3.5042
    -3.4286  -3.3788  -3.1431  -3.0070  -2.9593  -2.8751  -2.7620  -2.7373
    -2.6758  -2.6200  -2.5519  -2.5290  -2.4863  -2.4306  -2.4077  -2.3775
    -2.3685  -2.3362  -2.2852  -2.2224  -2.1612  -2.1359  -2.0778  -2.0012
    -1.9528  -1.9490  -1.9416  -1.9207  -1.8965  -1.8743  -1.8513  -1.8402
    -1.7369  -1.6835  -1.6647  -1.6114  -1.5666  -1.3119  -1.2334  -1.2240
    -1.1525  -1.1025  -1.0704  -1.0522  -1.0234  -0.9785  -0.9260  -0.8935
    -0.8120  -0.7576  -0.6982  -0.6855  -0.6393  -0.5630  -0.4799  -0.4223
    -0.4054  -0.3478  -0.3393  -0.3138  -0.1915  -0.1534  -0.1439  -0.0887
    -0.0620   0.0409   0.0849   0.1238   0.1551   0.2440   0.2657   0.3071
     0.3120   0.3429   0.3493   0.4393   0.4487   0.4748   0.5370   0.5634
     0.6412   0.7125   0.7200   0.8754   0.9231   1.0134   1.0462   1.1356
     1.3725   1.4218   1.4795   1.6155   1.9881   2.0330   3.4541   3.5993
     3.6166   3.7080   3.7136   3.8194   3.9288   3.9837   4.0205   4.1314

[...]

          k = 0.0380-0.0419 0.0000 ( 17876 PWs)   bands (ev):

[...]

          k =-0.0760-0.0000 0.0000 ( 17886 PWs)   bands (ev):

[...]

          k =-0.0760-0.0839 0.0000 ( 17948 PWs)   bands (ev):

   -55.6606 -55.6224 -55.6220 -55.4521 -55.4490 -55.4442 -55.4435 -55.4332
   -55.4114 -55.3926 -55.3567 -55.2377 -55.2272 -55.1781 -54.5883 -54.5874
   -31.9383 -31.9381 -31.9253 -31.9168 -31.9161 -31.9158 -31.8758 -31.8678
   -31.8048 -31.7760 -31.7752 -31.7659 -31.7606 -31.7423 -31.7418 -31.7357
   -31.7181 -31.7147 -31.7015 -31.6809 -31.6687 -31.6574 -31.6535 -31.6461
   -31.6433 -31.6401 -31.6357 -31.6202 -31.6158 -31.6122 -31.6101 -31.6097
   -31.5974 -31.5794 -31.5768 -31.5209 -31.5049 -31.4606 -31.4423 -31.4335
   -31.4252 -31.3839 -30.9157 -30.9151 -30.8240 -30.8228 -30.7854 -30.7847
   -16.7022 -16.4173 -15.8226 -15.7136 -15.5926 -15.5840 -15.4713 -15.3987
   -15.3641 -15.3348 -15.3172 -15.3069 -15.2833 -15.2439 -15.1961 -15.1755
   -15.1433 -15.1251 -15.1130 -15.0718 -15.0566 -15.0471 -15.0281 -14.9837
   -14.9699 -14.9403 -14.9274 -14.7963 -14.7425 -14.6360 -14.5647 -13.0891
   -13.0885  -9.3265  -6.3612  -4.6918  -3.9361  -3.0264  -2.9305  -2.8002
    -2.7058  -2.6697  -2.6311  -2.6059  -2.5819  -2.5410  -2.5237  -2.4747
    -2.4305  -2.4133  -2.4019  -2.3722  -2.3680  -2.3592  -2.3274  -2.3069
    -2.2997  -2.2869  -2.2632  -2.2524  -2.2352  -2.2108  -2.1979  -2.1717
    -2.1512  -2.1052  -1.9947  -1.9428  -1.9134  -1.7842  -1.7710  -1.7501
    -1.7348  -1.7208  -1.6997  -1.6811  -1.6142  -1.5957  -1.5685  -1.3923
    -1.3734  -1.2851  -1.2514  -1.2060  -1.1414  -1.1278  -1.0778  -1.0501
    -0.9962  -0.9704  -0.8797  -0.8243  -0.7954  -0.7581  -0.6336  -0.5819
    -0.5761  -0.5665  -0.5367  -0.5163  -0.4720  -0.4512  -0.4214  -0.3558
    -0.3263  -0.3092  -0.2636  -0.2519  -0.1275  -0.0098   0.0745   0.1180
     0.1794   0.2001   0.2393   0.3437   0.4195   0.5003   0.5428   0.5610
     0.5922   0.6834   0.6990   0.8416   0.8713   0.8763   0.9127   0.9443
     0.9732   1.0179   1.7850   1.7931   1.8532   1.8535   3.7016   3.8309
     3.9614   3.9815   3.9937   4.0261   4.0301   4.0539   4.1033   4.1375

     the Fermi energy is     3.4855 ev

!    total energy              =   -2952.74689451 Ry
     estimated scf accuracy    <       0.00000006 Ry
     smearing contrib. (-TS)   =      -0.02004047 Ry
     internal energy E=F+TS    =   -2952.72685403 Ry

     The total energy is F=E-TS. E is the sum of the following terms:
     one-electron contribution =  -23991.55516902 Ry
     hartree contribution      =   12087.28447211 Ry
     xc contribution           =    -488.02975019 Ry
     ewald contribution        =    9439.57136358 Ry
     electric field correction =       0.00222948 Ry

     convergence has been achieved in  55 iterations

     Forces acting on atoms (cartesian axes, Ry/au):

     atom    1 type  1   force =     0.00016169   -0.00027835    0.09476853
     atom    2 type  1   force =    -0.00000416    0.00040246   -0.17489068
     atom    3 type  2   force =    -0.00001409   -0.00013393   -0.02197124
     atom    4 type  2   force =     0.00006367   -0.00191800    0.05340157
     atom    5 type  2   force =    -0.00733616   -0.00240186    0.00310348
     atom    6 type  2   force =     0.00860070   -0.00197913    0.00181744
     atom    7 type  1   force =    -0.00059424   -0.00346955    0.00957425
     atom    8 type  1   force =     0.00060617    0.00468527    0.00860737
     atom    9 type  2   force =     0.00009246    0.00016030   -0.00015966
     atom   10 type  2   force =    -0.00268974   -0.00030778   -0.01304618
     atom   11 type  2   force =    -0.00040483   -0.00035901   -0.00011401
     atom   12 type  2   force =     0.00018144   -0.00017480    0.00030083
     atom   13 type  1   force =     0.00040233    0.00020173   -0.00070043
     atom   14 type  1   force =    -0.00013916    0.00009574   -0.00002958
     atom   15 type  2   force =     0.00024643   -0.00022596   -0.00038211
     atom   16 type  2   force =     0.00039881    0.00011546   -0.00005620
     atom   17 type  2   force =    -0.00013515   -0.00001041    0.00032095
     atom   18 type  2   force =     0.00006961   -0.00092667   -0.00025929
     atom   19 type  1   force =     0.00028380    0.00044251    0.00024379
     atom   20 type  1   force =     0.00008199   -0.00017183    0.00013911
     atom   21 type  2   force =     0.00009675    0.00007566    0.10311439
     atom   22 type  2   force =     0.00007058   -0.00039532    0.00001442
     atom   23 type  2   force =    -0.07214649   -0.00014269   -0.02738834
     atom   24 type  2   force =     0.07209851    0.00026420   -0.02741430
     atom   25 type  1   force =     0.00002798   -0.00008482    0.09453222
     atom   26 type  1   force =    -0.00007274   -0.00132536   -0.17508170
     atom   27 type  2   force =     0.00015008   -0.00020370   -0.02073863
     atom   28 type  2   force =     0.00002357   -0.00019008    0.04899238
     atom   29 type  2   force =    -0.00616109    0.00259238    0.00154454
     atom   30 type  2   force =     0.00738305    0.00321510    0.00010576
     atom   31 type  1   force =    -0.00054820    0.00717079   -0.00091041
     atom   32 type  1   force =     0.00056075   -0.00651238    0.00785942
     atom   33 type  2   force =     0.00025522   -0.00025087   -0.00033571
     atom   34 type  2   force =    -0.00212720    0.00146494   -0.01185670
     atom   35 type  2   force =    -0.00009648    0.00000136    0.00017659
     atom   36 type  2   force =    -0.00022265    0.00010946    0.00030114
     atom   37 type  1   force =     0.00053779   -0.00010995   -0.00028171
     atom   38 type  1   force =    -0.00018987   -0.00015346    0.00032778
     atom   39 type  2   force =     0.00012190    0.00038503   -0.00035444
     atom   40 type  2   force =    -0.00014770    0.00028237   -0.00047635
     atom   41 type  2   force =     0.00015967    0.00039066   -0.00024295
     atom   42 type  2   force =    -0.00012926    0.00040941    0.00024453
     atom   43 type  1   force =    -0.00007311   -0.00092081   -0.00031353
     atom   44 type  1   force =     0.00013216    0.00076098    0.00028430
     atom   45 type  2   force =     0.00009850   -0.00009293    0.10292633
     atom   46 type  2   force =    -0.07216275   -0.00005583   -0.02741374
     atom   47 type  2   force =     0.07216521    0.00039699   -0.02744893
     atom   48 type  3   force =    -0.00085570    0.00221861    0.00052630
     atom   49 type  4   force =     0.00748089   -0.01097390   -0.00573691
     atom   50 type  5   force =    -0.00137592    0.00379378    0.00392833
     atom   51 type  5   force =    -0.00387269    0.00435524    0.00085026
     atom   52 type  5   force =    -0.00068488   -0.00023308   -0.00071076
     atom   53 type  2   force =    -0.00001631    0.00005953    0.00159592
     atom   54 type  5   force =    -0.00035118   -0.00004750   -0.00128745

     Total force =     0.362793     Total SCF correction =     0.000745
  @ DRIVER MODE: Message from server: STATUS
  @ DRIVER MODE: Message from server: GETFORCE
  @ DRIVER MODE: Returning v,forces,stress,ensemble

     Writing output data file ./calc.save/
  @ DRIVER MODE: Message from server: EXIT
  @ DRIVE MODE: Exiting

     General routines

     Parallel routines

   This run was terminated on:   2:27:57  23Sep2021

   JOB DONE.