     Program PWSCF v.6.7GPU starts on 23Aug2021 at 17:36:55

     R & G space division:  proc/nbgrp/npool/nimage =       6
     Reading input from /storage/home/hcoda1/3/ntian30/research/carbon/CH2_vib/ads_slab/CH2N2H_a/out_0009/pw.inp
Warning: card &CELL ignored
Warning: card   CELL_DYNAMICS='IPI', ignored
Warning: card / ignored

     Current dimensions of program PWSCF are:
     Max number of different atomic species (ntypx) = 10
     Max number of k-points (npk) =  40000
     Max angular momentum in pseudopotentials (lmaxx) =  3
     Presently no symmetry can be used with electric field

     Message from routine cell_base_init:
     DEPRECATED: use true lattice parameter, not A to a.u. conversion factor

     IMPORTANT: XC functional enforced from input :
     Exchange-correlation= BEEF-VDW
                           (   1   4  43  14   2   0   0)
     Any further DFT definition will be discarded
     Please, verify this is what you really want

  @ DRIVER MODE: Connecting to
 qe_1139763_2632802.sched-torque.pace.gatech.eduyotmterp_scratch
  using UNIX socket
  @ DRIVER MODE: Message from server: STATUS
  @ DRIVER MODE: Message from server: INIT
  @ DRIVER MODE: Receiving replica           0          -1
  @ DRIVER MODE: Receiving encoded integer          25
  @ DRIVER MODE:  SCF:  T  FORCE:  T  STRESS:  F  VC:  F  ENSEMBLE:  F
  @ DRIVER MODE:  SCF:  T  FORCE:  T  STRESS:  F  VC:  F  ENSEMBLE:  F

     Using Slab Decomposition

     bravais-lattice index     =            0
     lattice parameter (alat)  =       1.8897  a.u.
     unit-cell volume          =    6658.9804 (a.u.)^3
     number of atoms/cell      =           53
     number of atomic types    =            5
     number of electrons       =       395.00
     number of Kohn-Sham states=          207
     kinetic-energy cutoff     =      29.3995  Ry
     charge density cutoff     =     293.9946  Ry
     scf convergence threshold =      7.3E-08
     mixing beta               =       0.0500
     number of iterations used =            8  plain     mixing
     Exchange-correlation= BEEF-VDW
                           (   1   4  43  14   2   0   0)

     celldm(1)=   1.889726  celldm(2)=   0.000000  celldm(3)=   0.000000
     celldm(4)=   0.000000  celldm(5)=   0.000000  celldm(6)=   0.000000

     crystal axes: (cart. coord. in units of alat)
               a(1) = (   6.579727   0.000000   0.000000 )
               a(2) = (  -0.000775   5.961596   0.000000 )
               a(3) = (   0.000000   0.000000  25.155947 )

     reciprocal axes: (cart. coord. in units 2 pi/alat)
               b(1) = (  0.151982  0.000020  0.000000 )
               b(2) = (  0.000000  0.167740  0.000000 )
               b(3) = (  0.000000  0.000000  0.039752 )

     PseudoPot. # 1 for Ti read from file:
     /storage/coda1/p-amedford6/0/shared/rich_project_chbe-medford/medford-share/data/pseudos_module/espresso/nninc/pbe/van/Ti.UPF
     MD5 check sum: 8e4df49b7f0d34bbd5052bf3f5ea0213
     Pseudo is Ultrasoft, Zval = 12.0
     Generated by new atomic code, or converted to UPF format
     Using radial grid of  851 points,  6 beta functions with:
                l(1) =   0
                l(2) =   0
                l(3) =   1
                l(4) =   1
                l(5) =   2
                l(6) =   2
     Q(r) pseudized with  8 coefficients,  rinner =    1.000   1.000   1.000
                                                       1.000   1.000

     PseudoPot. # 2 for O  read from file:
     /storage/coda1/p-amedford6/0/shared/rich_project_chbe-medford/medford-share/data/pseudos_module/espresso/nninc/pbe/van/O.UPF
     MD5 check sum: 78c19812648e8988a0fe644b0f25305e
     Pseudo is Ultrasoft, Zval =  6.0
     Generated by new atomic code, or converted to UPF format
     Using radial grid of  737 points,  4 beta functions with:
                l(1) =   0
                l(2) =   0
                l(3) =   1
                l(4) =   1
     Q(r) pseudized with  8 coefficients,  rinner =    0.800   0.800   0.800

     PseudoPot. # 3 for N  read from file:
     /storage/coda1/p-amedford6/0/shared/rich_project_chbe-medford/medford-share/data/pseudos_module/espresso/nninc/pbe/van/N.UPF
     MD5 check sum: 90d10febe142ad51ac9d5be1deb811c4
     Pseudo is Ultrasoft, Zval =  5.0
     Generated by new atomic code, or converted to UPF format
     Using radial grid of  729 points,  4 beta functions with:
                l(1) =   0
                l(2) =   0
                l(3) =   1
                l(4) =   1
     Q(r) pseudized with  8 coefficients,  rinner =    0.800   0.800   0.800

     PseudoPot. # 4 for C  read from file:
     /storage/coda1/p-amedford6/0/shared/rich_project_chbe-medford/medford-share/data/pseudos_module/espresso/nninc/pbe/van/C.UPF
     MD5 check sum: 1a69bf6b8db32088f5b2163dbdb77a27
     Pseudo is Ultrasoft, Zval =  4.0
     Generated by new atomic code, or converted to UPF format
     Using radial grid of  721 points,  4 beta functions with:
                l(1) =   0
                l(2) =   0
                l(3) =   1
                l(4) =   1
     Q(r) pseudized with  8 coefficients,  rinner =    0.800   0.800   0.800

     PseudoPot. # 5 for H  read from file:
     /storage/coda1/p-amedford6/0/shared/rich_project_chbe-medford/medford-share/data/pseudos_module/espresso/nninc/pbe/van/H.UPF
     MD5 check sum: b5ee9d7bfd3a09ee7748110bda690ff7
     Pseudo is Ultrasoft, Zval =  1.0
     Generated by new atomic code, or converted to UPF format
     Using radial grid of  615 points,  1 beta functions with:
                l(1) =   0
     Q(r) pseudized with  8 coefficients,  rinner =    0.800

     atomic species   valence    mass     pseudopotential
        Ti1           12.00    47.86700     Ti( 1.00)
        O1             6.00    15.99900     O ( 1.00)
        N1             5.00    14.00700     N ( 1.00)
        C1             4.00    12.01100     C ( 1.00)
        H1             1.00     1.00800     H ( 1.00)

     No symmetry found

   Cartesian axes

     site n.     atom                  positions (alat units)
         1           Ti1 tau(   1) = (   0.0004258   2.9801865   6.0000000  )
         2           Ti1 tau(   2) = (   3.2906075   1.4906267   6.0002472  )
         3           O1  tau(   3) = (   0.0006271   0.0005054   7.9858123  )
         4           O1  tau(   4) = (   3.2906025   0.0005020   7.3038282  )
         5           O1  tau(   5) = (   4.5942328   1.4918067   9.2879030  )
         6           O1  tau(   6) = (   1.9868534   1.4903216   9.2879459  )
         7           Ti1 tau(   7) = (   3.2907910   2.8959150   9.1758416  )
         8           Ti1 tau(   8) = (   0.0015273   1.4827037   9.2680791  )
         9           O1  tau(   9) = (   3.3007851   0.0027079  11.3193151  )
        10           O1  tau(  10) = (   0.0116148   5.9584955  10.6183126  )
        11           O1  tau(  11) = (   1.3147357   1.5019762  12.6210215  )
        12           O1  tau(  12) = (   5.3120411   1.4917641  12.6342566  )
        13           Ti1 tau(  13) = (   6.5359925   2.9538565  12.6086018  )
        14           Ti1 tau(  14) = (   3.2189980   1.4905645  12.4770757  )
        15           O1  tau(  15) = (   0.0426301   5.9606301  14.6312846  )
        16           O1  tau(  16) = (   3.3149351   0.0098317  13.8848037  )
        17           O1  tau(  17) = (   4.5523768   1.5206755  16.0744300  )
        18           O1  tau(  18) = (   2.0715852   1.4807026  15.9918588  )
        19           Ti1 tau(  19) = (   3.2935730   2.9941335  15.6827836  )
        20           Ti1 tau(  20) = (   0.0200723   1.3023755  15.9747514  )
        21           O1  tau(  21) = (   3.2904802   0.0005063   4.7018136  )
        22           O1  tau(  22) = (   6.5179923   0.0002674  17.1556216  )
        23           O1  tau(  23) = (   1.3043587   1.4918075   6.0039043  )
        24           O1  tau(  24) = (   5.2767064   1.4903225   6.0039473  )
        25           Ti1 tau(  25) = (   0.0000382   5.9609847   6.0000000  )
        26           Ti1 tau(  26) = (   3.2902200   4.4714249   6.0002472  )
        27           O1  tau(  27) = (   0.0002396   2.9813036   7.9858123  )
        28           O1  tau(  28) = (   3.2902150   2.9813002   7.3038282  )
        29           O1  tau(  29) = (   4.5938453   4.4726049   9.2879030  )
        30           O1  tau(  30) = (   1.9864658   4.4711199   9.2879459  )
        31           Ti1 tau(  31) = (   3.2891106   5.8743827   9.1763621  )
        32           Ti1 tau(  32) = (   0.0006254   4.4649316   9.2693709  )
        33           O1  tau(  33) = (   3.3053585   2.9833221  11.3185053  )
        34           O1  tau(  34) = (   0.0092240   2.9805883  10.6323155  )
        35           O1  tau(  35) = (   1.3157767   4.4721532  12.6203727  )
        36           O1  tau(  36) = (   5.3104355   4.4689601  12.6331991  )
        37           Ti1 tau(  37) = (   6.5385524   5.9338372  12.5465384  )
        38           Ti1 tau(  38) = (   3.2200853   4.4710709  12.4725482  )
        39           O1  tau(  39) = (   0.0068575   2.9964749  14.7765288  )
        40           O1  tau(  40) = (   3.3021705   2.9848394  13.8818356  )
        41           O1  tau(  41) = (   4.5334443   4.4765196  15.9883447  )
        42           O1  tau(  42) = (   2.0816803   4.4801587  16.0471567  )
        43           Ti1 tau(  43) = (   3.3155128   0.0116264  15.6901768  )
        44           Ti1 tau(  44) = (   6.5575601   4.4671909  15.9479714  )
        45           O1  tau(  45) = (   3.2900926   2.9813045   4.7018136  )
        46           O1  tau(  46) = (   1.3039711   4.4726057   6.0039043  )
        47           O1  tau(  47) = (   5.2763189   4.4711207   6.0039473  )
        48           N1  tau(  48) = (   0.4270260   2.3853988  17.9668900  )
        49           C1  tau(  49) = (   0.9469377   1.9240014  19.0583692  )
        50           H1  tau(  50) = (   1.0789317   2.5769861  19.9249762  )
        51           H1  tau(  51) = (   1.2326487   0.8959138  19.0941702  )
        52           N1  tau(  52) = (   0.0025679   3.6232397  17.7996529  )
        53           H1  tau(  53) = (   0.1020252   4.2324666  18.6151602  )

     number of k points=    10  Fermi-Dirac smearing, width (Ry)=  0.0073
                       cart. coord. in units 2pi/alat
        k(    1) = (   0.0000000   0.0000000   0.0000000), wk =   0.1250000
        k(    2) = (   0.0000000   0.0419351   0.0000000), wk =   0.2500000
        k(    3) = (   0.0000000  -0.0838702   0.0000000), wk =   0.1250000
        k(    4) = (   0.0379955   0.0000049   0.0000000), wk =   0.2500000
        k(    5) = (   0.0379955   0.0419400   0.0000000), wk =   0.2500000
        k(    6) = (   0.0379955  -0.0838652   0.0000000), wk =   0.2500000
        k(    7) = (   0.0379955  -0.0419301   0.0000000), wk =   0.2500000
        k(    8) = (  -0.0759910  -0.0000099   0.0000000), wk =   0.1250000
        k(    9) = (  -0.0759910   0.0419252   0.0000000), wk =   0.2500000
        k(   10) = (  -0.0759910  -0.0838800   0.0000000), wk =   0.1250000

     Initial potential from superposition of free atoms

     starting charge  378.99916, renormalised to  395.00000

     negative rho (up, down):  1.649E-02 0.000E+00

     %%%%%%%%%%%%%%%%%%%%%%%%%%%%%%%%%%%%%%%%%%%%%%%%%%%%%%%%%%%%%%%%%%%%%%%%
     %                                                                      %
     % You are using vdW-DF, which was implemented by the Thonhauser group. %
     % Please cite the following two papers that made this development      %
     % possible and the two reviews that describe the various versions:     %
     %                                                                      %
     %   T. Thonhauser et al., PRL 115, 136402 (2015).                      %
     %   T. Thonhauser et al., PRB 76, 125112 (2007).                       %
     %   K. Berland et al., Rep. Prog. Phys. 78, 066501 (2015).             %
     %   D.C. Langreth et al., J. Phys.: Condens. Matter 21, 084203 (2009). %
     %                                                                      %
     %                                                                      %
     % If you are calculating the stress with vdW-DF, please also cite:     %
     %                                                                      %
     %   R. Sabatini et al., J. Phys.: Condens. Matter 24, 424209 (2012).   %
     %                                                                      %
     %%%%%%%%%%%%%%%%%%%%%%%%%%%%%%%%%%%%%%%%%%%%%%%%%%%%%%%%%%%%%%%%%%%%%%%%

     Adding external electric field

     Computed dipole along edir(3) :
        Dipole               -8.3970 Ry au,        -21.3430 Debye
        Dipole field         -0.0158 Ry au,

        Potential amp.        1.4689 Ry
        Total length         46.3494 bohr

     Starting wfcs are  299 atomic wfcs
  @ DRIVER MODE: Message from server: STATUS
  @ DRIVER MODE: Message from server: POSDATA
  @ DRIVER MODE: Reading and sharing cell
  @ DRIVER MODE: Reading and sharing positions
  @ DRIVER MODE: Received positions

     Self-consistent Calculation

     iteration #  1     ecut=    29.40 Ry     beta= 0.05
     Davidson diagonalization with overlap
     c_bands:  2 eigenvalues not converged
     c_bands:  1 eigenvalues not converged
     c_bands:  2 eigenvalues not converged
     c_bands:  3 eigenvalues not converged
     c_bands:  3 eigenvalues not converged
     c_bands:  2 eigenvalues not converged
     c_bands:  1 eigenvalues not converged
     ethr =  1.00E-05,  avg # of iterations = 19.3

[...]

     total energy              =   -2613.94504300 Ry
     estimated scf accuracy    <    3601.32817583 Ry

[...]

     iteration #  3     ecut=    29.40 Ry     beta= 0.05
     Davidson diagonalization with overlap
     ethr =  1.00E-02,  avg # of iterations = 14.6

[...]

     iteration # 64     ecut=    29.40 Ry     beta= 0.05
     Davidson diagonalization with overlap
     c_bands:  1 eigenvalues not converged
     ethr =  7.05E-11,  avg # of iterations = 14.2

[...]

     total energy              =   -2939.13516795 Ry
     estimated scf accuracy    <       0.00000014 Ry

     iteration # 69     ecut=    29.40 Ry     beta= 0.05
     Davidson diagonalization with overlap
     ethr =  3.62E-11,  avg # of iterations =  5.1

     negative rho (up, down):  1.680E-02 0.000E+00

     Adding external electric field

     Computed dipole along edir(3) :
        Dipole                0.7843 Ry au,          1.9934 Debye
        Dipole field          0.0015 Ry au,

        Potential amp.       -0.1372 Ry
        Total length         46.3494 bohr

     End of self-consistent calculation

          k = 0.0000 0.0000 0.0000 ( 18029 PWs)   bands (ev):

   -55.8545 -55.8535 -55.8205 -55.8175 -55.7478 -55.7048 -55.6671 -55.6653
   -55.6321 -55.6313 -55.6265 -55.5928 -55.1925 -55.1463 -54.8302 -54.7962
   -32.4077 -32.3375 -32.2435 -32.1652 -32.1513 -32.1467 -32.1331 -32.1183
   -32.0976 -32.0845 -32.0317 -32.0138 -32.0069 -32.0053 -31.9953 -31.9917
   -31.9594 -31.9475 -31.9416 -31.9389 -31.9119 -31.9096 -31.8938 -31.8916
   -31.8608 -31.8566 -31.8544 -31.8532 -31.8281 -31.8132 -31.8055 -31.7953
   -31.7833 -31.7810 -31.7735 -31.7400 -31.7336 -31.4558 -31.4203 -31.3916
   -31.3407 -31.3047 -31.2370 -31.1494 -31.1270 -31.0541 -30.9676 -30.8562
   -17.8922 -16.6139 -16.3338 -16.0783 -16.0031 -15.9993 -15.8658 -15.7028
   -15.5901 -15.5232 -15.4430 -15.4131 -15.3911 -15.3554 -15.3491 -15.3116
   -15.3026 -15.2772 -15.2737 -15.2114 -15.2080 -15.2006 -15.1907 -15.1066
   -15.0490 -14.9974 -14.9898 -14.9163 -14.8824 -14.3545 -13.3321 -13.2158
   -12.1568  -7.8756  -5.3546  -4.5463  -3.9907  -3.8314  -3.7616  -3.7272
    -3.6515  -3.4908  -3.4121  -3.1289  -3.0801  -3.0257  -3.0163  -2.9799
    -2.9305  -2.7826  -2.7053  -2.6790  -2.6633  -2.6410  -2.6260  -2.6139
    -2.5970  -2.5785  -2.4976  -2.4165  -2.3726  -2.2954  -2.2819  -2.2464
    -2.1669  -2.1665  -2.1272  -2.1061  -2.0876  -2.0717  -2.0633  -2.0481
    -1.9095  -1.8532  -1.8366  -1.6598  -1.6464  -1.5903  -1.4656  -1.4578
    -1.3406  -1.3255  -1.2851  -1.2474  -1.1749  -1.1530  -1.0414  -1.0002
    -0.9382  -0.8923  -0.8769  -0.8006  -0.7357  -0.6966  -0.6831  -0.6192
    -0.6124  -0.5994  -0.4632  -0.3874  -0.3349  -0.2788  -0.2564  -0.2007
    -0.1610  -0.1178  -0.0299  -0.0033   0.0084   0.0672   0.0883   0.1138
     0.1255   0.1452   0.1742   0.2296   0.3477   0.3794   0.4557   0.4700
     0.5310   0.6645   0.8026   0.8699   0.9223   1.0264   1.1231   1.1926
     1.2658   1.3849   1.7627   1.8082   2.1363   3.2652   3.3671   3.3999
     3.4109   3.5140   3.6627   3.7243   3.7394   3.7808   3.8146

[...]

          k = 0.0380-0.0419 0.0000 ( 17876 PWs)   bands (ev):

[...]

          k =-0.0760-0.0000 0.0000 ( 17886 PWs)   bands (ev):

[...]

          k =-0.0760-0.0839 0.0000 ( 17948 PWs)   bands (ev):

   -55.8377 -55.8372 -55.8360 -55.8348 -55.7393 -55.7133 -55.6503 -55.6487
   -55.6486 -55.6476 -55.6104 -55.6091 -55.1847 -55.1540 -54.8133 -54.8130
   -32.2098 -32.2082 -32.1529 -32.1526 -32.1323 -32.1319 -32.0984 -32.0954
   -32.0863 -32.0696 -32.0041 -32.0013 -31.9958 -31.9940 -31.9720 -31.9644
   -31.9574 -31.9569 -31.9518 -31.9506 -31.9487 -31.9371 -31.9314 -31.9246
   -31.9124 -31.9075 -31.8626 -31.8525 -31.8505 -31.8497 -31.8413 -31.8405
   -31.8274 -31.8267 -31.8261 -31.8249 -31.6859 -31.4514 -31.4184 -31.4146
   -31.3948 -31.3420 -31.1397 -31.1396 -31.0499 -31.0497 -31.0110 -31.0108
   -17.8784 -16.0291 -16.0263 -15.8185 -15.7796 -15.7605 -15.7546 -15.6648
   -15.5792 -15.5456 -15.5426 -15.4561 -15.4294 -15.4133 -15.3973 -15.3918
   -15.3829 -15.3533 -15.3182 -15.3107 -15.2966 -15.2910 -15.2790 -15.2221
   -15.1708 -15.1666 -15.1441 -15.0720 -14.8334 -14.6947 -13.3177 -13.3175
   -12.1174  -7.8154  -5.4016  -4.6067  -3.3236  -3.3141  -3.0675  -3.0247
    -3.0193  -2.9885  -2.9523  -2.7918  -2.7792  -2.7601  -2.7520  -2.7073
    -2.6838  -2.6634  -2.6439  -2.6388  -2.6096  -2.5836  -2.5685  -2.5315
    -2.5247  -2.5156  -2.4841  -2.4735  -2.4282  -2.4215  -2.4008  -2.3732
    -2.3643  -2.3320  -2.1794  -2.1092  -2.0810  -1.9963  -1.9894  -1.9517
    -1.9295  -1.9078  -1.9044  -1.8706  -1.8333  -1.6964  -1.6137  -1.5523
    -1.5436  -1.4592  -1.4317  -1.3696  -1.2801  -1.2547  -1.2337  -1.1620
    -1.0858  -1.0482  -0.9974  -0.9837  -0.9163  -0.9067  -0.8501  -0.8130
    -0.8111  -0.7339  -0.7029  -0.6572  -0.6201  -0.6032  -0.5799  -0.5532
    -0.5377  -0.5146  -0.4408  -0.3548  -0.3032  -0.2418  -0.1493  -0.0187
     0.1001   0.2130   0.2348   0.2786   0.3325   0.3669   0.4593   0.4631
     0.5266   0.5497   0.5913   0.6693   0.6800   0.7045   0.8155   0.8529
     1.5571   1.5575   1.6280   1.6282   2.0769   3.5880   3.6168   3.6360
     3.6676   3.7971   3.8031   3.8136   3.8144   3.9503   3.9562

     the Fermi energy is     3.2750 ev

!    total energy              =   -2939.13519078 Ry
     estimated scf accuracy    <       0.00000003 Ry
     smearing contrib. (-TS)   =      -0.02099065 Ry
     internal energy E=F+TS    =   -2939.11420013 Ry

     The total energy is F=E-TS. E is the sum of the following terms:
     one-electron contribution =  -24492.24347605 Ry
     hartree contribution      =   12334.05845150 Ry
     xc contribution           =    -485.36835117 Ry
     ewald contribution        =    9704.43801485 Ry
     electric field correction =       0.00116073 Ry

     convergence has been achieved in  69 iterations

     Forces acting on atoms (cartesian axes, Ry/au):

     atom    1 type  1   force =     0.00007909   -0.00024015    0.09636417
     atom    2 type  1   force =     0.00005516   -0.00056686   -0.17514949
     atom    3 type  2   force =     0.00014958   -0.00013087   -0.02409280
     atom    4 type  2   force =    -0.00000459   -0.00124858    0.05222525
     atom    5 type  2   force =    -0.01056378   -0.00047586    0.00251247
     atom    6 type  2   force =     0.01238096    0.00022377    0.00288520
     atom    7 type  1   force =     0.00098252    0.00026738   -0.01174071
     atom    8 type  1   force =    -0.00013626    0.00775128    0.02263661
     atom    9 type  2   force =    -0.00019817   -0.00015428   -0.00027983
     atom   10 type  2   force =    -0.00262230    0.00114938   -0.01267594
     atom   11 type  2   force =     0.00006275   -0.00012515    0.00005552
     atom   12 type  2   force =     0.00010001    0.00018318   -0.00038535
     atom   13 type  1   force =     0.00044250   -0.00034905    0.00022149
     atom   14 type  1   force =     0.00015588    0.00032165   -0.00014839
     atom   15 type  2   force =    -0.00020963   -0.00008429   -0.00003985
     atom   16 type  2   force =     0.00011618   -0.00022141    0.00036339
     atom   17 type  2   force =     0.00046296   -0.00002323    0.00034388
     atom   18 type  2   force =     0.00075370   -0.00020741    0.00020794
     atom   19 type  1   force =    -0.00122085   -0.00014288    0.00021570
     atom   20 type  1   force =     0.00028081   -0.00001870   -0.00029905
     atom   21 type  2   force =     0.00004818    0.00000542    0.10309106
     atom   22 type  2   force =     0.00013053   -0.00052044   -0.00006313
     atom   23 type  2   force =    -0.07161852   -0.00014970   -0.02764675
     atom   24 type  2   force =     0.07155934    0.00034740   -0.02771139
     atom   25 type  1   force =     0.00015539   -0.00023435    0.09588973
     atom   26 type  1   force =     0.00009749   -0.00041283   -0.17541371
     atom   27 type  2   force =     0.00017621   -0.00021564   -0.02292529
     atom   28 type  2   force =     0.00006280   -0.00101502    0.05218379
     atom   29 type  2   force =    -0.01086410    0.00048285    0.00243320
     atom   30 type  2   force =     0.01255887    0.00064343    0.00277958
     atom   31 type  1   force =     0.00086982    0.00348181   -0.01292509
     atom   32 type  1   force =     0.00003441   -0.00925471    0.02306744
     atom   33 type  2   force =    -0.00048290    0.00013443    0.00022173
     atom   34 type  2   force =    -0.00302764    0.00022790   -0.01289339
     atom   35 type  2   force =     0.00009172    0.00008557   -0.00008539
     atom   36 type  2   force =     0.00010457    0.00033312   -0.00039823
     atom   37 type  1   force =     0.00033914    0.00036174    0.00008943
     atom   38 type  1   force =     0.00002099   -0.00043325    0.00014931
     atom   39 type  2   force =     0.00014366    0.00048281    0.00052960
     atom   40 type  2   force =     0.00035722    0.00013997   -0.00036950
     atom   41 type  2   force =     0.00053977    0.00000177    0.00033656
     atom   42 type  2   force =     0.00086975    0.00003721    0.00052752
     atom   43 type  1   force =    -0.00158584   -0.00026002   -0.00037166
     atom   44 type  1   force =     0.00072435   -0.00008223   -0.00120371
     atom   45 type  2   force =     0.00005929   -0.00004306    0.10307128
     atom   46 type  2   force =    -0.07164536   -0.00007214   -0.02766245
     atom   47 type  2   force =     0.07158471    0.00032545   -0.02773117
     atom   48 type  3   force =     0.00129723   -0.00631293    0.00230393
     atom   49 type  4   force =    -0.00690788    0.02520816   -0.00049756
     atom   50 type  5   force =    -0.00128831   -0.00510681   -0.00384599
     atom   51 type  5   force =     0.00342459   -0.01293409   -0.00008537
     atom   52 type  3   force =     0.00124919   -0.00126272    0.00091754
     atom   53 type  5   force =    -0.00014520    0.00010298    0.00101788

     Total force =     0.367023     Total SCF correction =     0.000514
  @ DRIVER MODE: Message from server: STATUS
  @ DRIVER MODE: Message from server: GETFORCE
  @ DRIVER MODE: Returning v,forces,stress,ensemble

     Writing output data file ./calc.save/
  @ DRIVER MODE: Message from server: EXIT
  @ DRIVE MODE: Exiting

     General routines

     Parallel routines

   This run was terminated on:  18: 8:50  23Aug2021

   JOB DONE.