     Program PWSCF v.6.7GPU starts on 15Sep2021 at 21:21:38

     R & G space division:  proc/nbgrp/npool/nimage =      10
     Reading input from /storage/home/hcoda1/3/ntian30/research/carbon/CxH_vib/H2O_calc/ads_slab/CHNHH2O_a/out_0017/pw.inp
Warning: card &CELL ignored
Warning: card   CELL_DYNAMICS='IPI', ignored
Warning: card / ignored

     Current dimensions of program PWSCF are:
     Max number of different atomic species (ntypx) = 10
     Max number of k-points (npk) =  40000
     Max angular momentum in pseudopotentials (lmaxx) =  3
     Presently no symmetry can be used with electric field

     Message from routine cell_base_init:
     DEPRECATED: use true lattice parameter, not A to a.u. conversion factor

     IMPORTANT: XC functional enforced from input :
     Exchange-correlation= BEEF-VDW
                           (   1   4  43  14   2   0   0)
     Any further DFT definition will be discarded
     Please, verify this is what you really want

  @ DRIVER MODE: Connecting to
 qe_1139763_2852628.sched-torque.pace.gatech.eduzwqacjkz_scratch
  using UNIX socket
  @ DRIVER MODE: Message from server: STATUS
  @ DRIVER MODE: Message from server: INIT
  @ DRIVER MODE: Receiving replica           0          -1
  @ DRIVER MODE: Receiving encoded integer          25
  @ DRIVER MODE:  SCF:  T  FORCE:  T  STRESS:  F  VC:  F  ENSEMBLE:  F
  @ DRIVER MODE:  SCF:  T  FORCE:  T  STRESS:  F  VC:  F  ENSEMBLE:  F

     Using Slab Decomposition

     bravais-lattice index     =            0
     lattice parameter (alat)  =       1.8897  a.u.
     unit-cell volume          =    6658.9804 (a.u.)^3
     number of atoms/cell      =           54
     number of atomic types    =            5
     number of electrons       =       397.00
     number of Kohn-Sham states=          208
     kinetic-energy cutoff     =      29.3995  Ry
     charge density cutoff     =     293.9946  Ry
     scf convergence threshold =      7.3E-08
     mixing beta               =       0.0500
     number of iterations used =            8  plain     mixing
     Exchange-correlation= BEEF-VDW
                           (   1   4  43  14   2   0   0)

     celldm(1)=   1.889726  celldm(2)=   0.000000  celldm(3)=   0.000000
     celldm(4)=   0.000000  celldm(5)=   0.000000  celldm(6)=   0.000000

     crystal axes: (cart. coord. in units of alat)
               a(1) = (   6.579727   0.000000   0.000000 )
               a(2) = (  -0.000775   5.961596   0.000000 )
               a(3) = (   0.000000   0.000000  25.155947 )

     reciprocal axes: (cart. coord. in units 2 pi/alat)
               b(1) = (  0.151982  0.000020  0.000000 )
               b(2) = (  0.000000  0.167740  0.000000 )
               b(3) = (  0.000000  0.000000  0.039752 )

     PseudoPot. # 1 for Ti read from file:
     /storage/coda1/p-amedford6/0/shared/rich_project_chbe-medford/medford-share/data/pseudos_module/espresso/nninc/pbe/van/Ti.UPF
     MD5 check sum: 8e4df49b7f0d34bbd5052bf3f5ea0213
     Pseudo is Ultrasoft, Zval = 12.0
     Generated by new atomic code, or converted to UPF format
     Using radial grid of  851 points,  6 beta functions with:
                l(1) =   0
                l(2) =   0
                l(3) =   1
                l(4) =   1
                l(5) =   2
                l(6) =   2
     Q(r) pseudized with  8 coefficients,  rinner =    1.000   1.000   1.000
                                                       1.000   1.000

     PseudoPot. # 2 for O  read from file:
     /storage/coda1/p-amedford6/0/shared/rich_project_chbe-medford/medford-share/data/pseudos_module/espresso/nninc/pbe/van/O.UPF
     MD5 check sum: 78c19812648e8988a0fe644b0f25305e
     Pseudo is Ultrasoft, Zval =  6.0
     Generated by new atomic code, or converted to UPF format
     Using radial grid of  737 points,  4 beta functions with:
                l(1) =   0
                l(2) =   0
                l(3) =   1
                l(4) =   1
     Q(r) pseudized with  8 coefficients,  rinner =    0.800   0.800   0.800

     PseudoPot. # 3 for N  read from file:
     /storage/coda1/p-amedford6/0/shared/rich_project_chbe-medford/medford-share/data/pseudos_module/espresso/nninc/pbe/van/N.UPF
     MD5 check sum: 90d10febe142ad51ac9d5be1deb811c4
     Pseudo is Ultrasoft, Zval =  5.0
     Generated by new atomic code, or converted to UPF format
     Using radial grid of  729 points,  4 beta functions with:
                l(1) =   0
                l(2) =   0
                l(3) =   1
                l(4) =   1
     Q(r) pseudized with  8 coefficients,  rinner =    0.800   0.800   0.800

     PseudoPot. # 4 for C  read from file:
     /storage/coda1/p-amedford6/0/shared/rich_project_chbe-medford/medford-share/data/pseudos_module/espresso/nninc/pbe/van/C.UPF
     MD5 check sum: 1a69bf6b8db32088f5b2163dbdb77a27
     Pseudo is Ultrasoft, Zval =  4.0
     Generated by new atomic code, or converted to UPF format
     Using radial grid of  721 points,  4 beta functions with:
                l(1) =   0
                l(2) =   0
                l(3) =   1
                l(4) =   1
     Q(r) pseudized with  8 coefficients,  rinner =    0.800   0.800   0.800

     PseudoPot. # 5 for H  read from file:
     /storage/coda1/p-amedford6/0/shared/rich_project_chbe-medford/medford-share/data/pseudos_module/espresso/nninc/pbe/van/H.UPF
     MD5 check sum: b5ee9d7bfd3a09ee7748110bda690ff7
     Pseudo is Ultrasoft, Zval =  1.0
     Generated by new atomic code, or converted to UPF format
     Using radial grid of  615 points,  1 beta functions with:
                l(1) =   0
     Q(r) pseudized with  8 coefficients,  rinner =    0.800

     atomic species   valence    mass     pseudopotential
        Ti1           12.00    47.86700     Ti( 1.00)
        O1             6.00    15.99900     O ( 1.00)
        N1             5.00    14.00700     N ( 1.00)
        C1             4.00    12.01100     C ( 1.00)
        H1             1.00     1.00800     H ( 1.00)

     No symmetry found

   Cartesian axes

     site n.     atom                  positions (alat units)
         1           Ti1 tau(   1) = (   0.0004258   2.9801865   6.0000000  )
         2           Ti1 tau(   2) = (   3.2906075   1.4906267   6.0002472  )
         3           O1  tau(   3) = (   0.0006271   0.0005054   7.9858123  )
         4           O1  tau(   4) = (   3.2906025   0.0005020   7.3038282  )
         5           O1  tau(   5) = (   4.5942328   1.4918067   9.2879030  )
         6           O1  tau(   6) = (   1.9868534   1.4903216   9.2879459  )
         7           Ti1 tau(   7) = (   3.2907910   2.8959150   9.1758416  )
         8           Ti1 tau(   8) = (   0.0015273   1.4827037   9.2680791  )
         9           O1  tau(   9) = (   3.2914171   5.9475995  11.3455371  )
        10           O1  tau(  10) = (   0.0116148   5.9584955  10.6183126  )
        11           O1  tau(  11) = (   1.3057669   1.4807986  12.6390077  )
        12           O1  tau(  12) = (   5.3035249   1.4749620  12.6227664  )
        13           Ti1 tau(  13) = (   6.5294082   2.9362577  12.6231083  )
        14           Ti1 tau(  14) = (   3.2175537   1.4615748  12.5070279  )
        15           O1  tau(  15) = (   6.5585639   5.9474800  14.6380151  )
        16           O1  tau(  16) = (   3.3125803   5.9531145  13.9695519  )
        17           O1  tau(  17) = (   4.5393379   1.5011389  16.1071157  )
        18           O1  tau(  18) = (   2.0094023   1.5044898  16.0307267  )
        19           Ti1 tau(  19) = (   3.2760958   2.9523363  15.6877793  )
        20           Ti1 tau(  20) = (   0.0277933   1.3451898  16.0452527  )
        21           O1  tau(  21) = (   3.2904802   0.0005063   4.7018136  )
        22           O1  tau(  22) = (   0.0198929   5.9263875  17.1601691  )
        23           O1  tau(  23) = (   1.3043587   1.4918075   6.0039043  )
        24           O1  tau(  24) = (   5.2767064   1.4903225   6.0039473  )
        25           Ti1 tau(  25) = (   0.0000382   5.9609847   6.0000000  )
        26           Ti1 tau(  26) = (   3.2902200   4.4714249   6.0002472  )
        27           O1  tau(  27) = (   0.0002396   2.9813036   7.9858123  )
        28           O1  tau(  28) = (   3.2902150   2.9813002   7.3038282  )
        29           O1  tau(  29) = (   4.5938453   4.4726049   9.2879030  )
        30           O1  tau(  30) = (   1.9864658   4.4711199   9.2879459  )
        31           Ti1 tau(  31) = (   3.2891106   5.8743827   9.1763621  )
        32           Ti1 tau(  32) = (   0.0006254   4.4649316   9.2693709  )
        33           O1  tau(  33) = (   3.2862706   2.9662616  11.3468726  )
        34           O1  tau(  34) = (   0.0092240   2.9805883  10.6323155  )
        35           O1  tau(  35) = (   1.3102706   4.4726941  12.6361575  )
        36           O1  tau(  36) = (   5.3014905   4.4644878  12.6181669  )
        37           Ti1 tau(  37) = (   6.5311680   5.9227251  12.5202533  )
        38           Ti1 tau(  38) = (   3.2191334   4.4553394  12.5017427  )
        39           O1  tau(  39) = (   6.5614274   2.9920157  14.6796082  )
        40           O1  tau(  40) = (   3.3146075   2.9603188  13.8993185  )
        41           O1  tau(  41) = (   4.5484517   4.4144432  16.0509510  )
        42           O1  tau(  42) = (   2.0146171   4.4214036  15.9967612  )
        43           Ti1 tau(  43) = (   3.3303817   5.9274347  15.8100502  )
        44           Ti1 tau(  44) = (   0.0273359   4.4939047  15.8144843  )
        45           O1  tau(  45) = (   3.2900926   2.9813045   4.7018136  )
        46           O1  tau(  46) = (   1.3039711   4.4726057   6.0039043  )
        47           O1  tau(  47) = (   5.2763189   4.4711207   6.0039473  )
        48           N1  tau(  48) = (   6.5134970   2.9613368  17.6459670  )
        49           C1  tau(  49) = (   0.7931072   3.0267964  18.6255283  )
        50           H1  tau(  50) = (   1.8307262   2.9311331  18.2295185  )
        51           H1  tau(  51) = (   5.5494773   3.0666896  17.9713127  )
        52           O1  tau(  52) = (   3.1855344   5.8058271  18.1612476  )
        53           H1  tau(  53) = (   3.8461454   0.3022996  18.7034462  )
        54           H1  tau(  54) = (   2.3120581   0.0053998  18.5533318  )

     number of k points=    10  Fermi-Dirac smearing, width (Ry)=  0.0073
                       cart. coord. in units 2pi/alat
        k(    1) = (   0.0000000   0.0000000   0.0000000), wk =   0.1250000
        k(    2) = (   0.0000000   0.0419351   0.0000000), wk =   0.2500000
        k(    3) = (   0.0000000  -0.0838702   0.0000000), wk =   0.1250000
        k(    4) = (   0.0379955   0.0000049   0.0000000), wk =   0.2500000
        k(    5) = (   0.0379955   0.0419400   0.0000000), wk =   0.2500000
        k(    6) = (   0.0379955  -0.0838652   0.0000000), wk =   0.2500000
        k(    7) = (   0.0379955  -0.0419301   0.0000000), wk =   0.2500000
        k(    8) = (  -0.0759910  -0.0000099   0.0000000), wk =   0.1250000
        k(    9) = (  -0.0759910   0.0419252   0.0000000), wk =   0.2500000
        k(   10) = (  -0.0759910  -0.0838800   0.0000000), wk =   0.1250000

     Initial potential from superposition of free atoms

     starting charge  380.99916, renormalised to  397.00000

     negative rho (up, down):  1.755E-02 0.000E+00

     %%%%%%%%%%%%%%%%%%%%%%%%%%%%%%%%%%%%%%%%%%%%%%%%%%%%%%%%%%%%%%%%%%%%%%%%
     %                                                                      %
     % You are using vdW-DF, which was implemented by the Thonhauser group. %
     % Please cite the following two papers that made this development      %
     % possible and the two reviews that describe the various versions:     %
     %                                                                      %
     %   T. Thonhauser et al., PRL 115, 136402 (2015).                      %
     %   T. Thonhauser et al., PRB 76, 125112 (2007).                       %
     %   K. Berland et al., Rep. Prog. Phys. 78, 066501 (2015).             %
     %   D.C. Langreth et al., J. Phys.: Condens. Matter 21, 084203 (2009). %
     %                                                                      %
     %                                                                      %
     % If you are calculating the stress with vdW-DF, please also cite:     %
     %                                                                      %
     %   R. Sabatini et al., J. Phys.: Condens. Matter 24, 424209 (2012).   %
     %                                                                      %
     %%%%%%%%%%%%%%%%%%%%%%%%%%%%%%%%%%%%%%%%%%%%%%%%%%%%%%%%%%%%%%%%%%%%%%%%

     Adding external electric field

     Computed dipole along edir(3) :
        Dipole               -9.1659 Ry au,        -23.2973 Debye
        Dipole field         -0.0173 Ry au,

        Potential amp.        1.6034 Ry
        Total length         46.3494 bohr

     Starting wfcs are  300 atomic wfcs
  @ DRIVER MODE: Message from server: STATUS
  @ DRIVER MODE: Message from server: POSDATA
  @ DRIVER MODE: Reading and sharing cell
  @ DRIVER MODE: Reading and sharing positions
  @ DRIVER MODE: Received positions

     Self-consistent Calculation

     iteration #  1     ecut=    29.40 Ry     beta= 0.05
     Davidson diagonalization with overlap
     c_bands:  1 eigenvalues not converged
     c_bands:  1 eigenvalues not converged
     c_bands:  1 eigenvalues not converged
     c_bands:  1 eigenvalues not converged
     c_bands:  1 eigenvalues not converged
     c_bands:  1 eigenvalues not converged
     c_bands:  1 eigenvalues not converged
     c_bands:  1 eigenvalues not converged
     c_bands:  1 eigenvalues not converged
     ethr =  1.00E-05,  avg # of iterations = 19.9

[...]

     total energy              =   -2547.27778232 Ry
     estimated scf accuracy    <    4504.84715129 Ry

     iteration #  2     ecut=    29.40 Ry     beta= 0.05
     Davidson diagonalization with overlap
     ethr =  1.00E-02,  avg # of iterations = 25.3

[...]

     iteration # 70     ecut=    29.40 Ry     beta= 0.05
     Davidson diagonalization with overlap
     c_bands:  1 eigenvalues not converged
     ethr =  3.25E-11,  avg # of iterations = 13.3

[...]

     total energy              =   -2952.61570588 Ry
     estimated scf accuracy    <       0.00000011 Ry

     iteration # 73     ecut=    29.40 Ry     beta= 0.05
     Davidson diagonalization with overlap
     ethr =  2.71E-11,  avg # of iterations =  7.4

     negative rho (up, down):  1.617E-02 0.000E+00

     Adding external electric field

     Computed dipole along edir(3) :
        Dipole                0.4020 Ry au,          1.0218 Debye
        Dipole field          0.0008 Ry au,

        Potential amp.       -0.0703 Ry
        Total length         46.3494 bohr

     End of self-consistent calculation

          k = 0.0000 0.0000 0.0000 ( 18029 PWs)   bands (ev):

   -56.0273 -56.0028 -55.9955 -55.9931 -55.9666 -55.8731 -55.8406 -55.8318
   -55.8275 -55.8149 -55.8064 -55.7814 -55.7506 -55.5811 -55.0128 -54.9788
   -32.5486 -32.5111 -32.4038 -32.3725 -32.3396 -32.3194 -32.3100 -32.3049
   -32.2707 -32.2395 -32.2281 -32.2212 -32.2111 -32.1988 -32.1818 -32.1797
   -32.1551 -32.1329 -32.1317 -32.1286 -32.0957 -32.0845 -32.0758 -32.0434
   -32.0327 -32.0308 -32.0266 -32.0231 -32.0200 -32.0148 -31.9994 -31.9884
   -31.9871 -31.9856 -31.9736 -31.9677 -31.9629 -31.9454 -31.9260 -31.8418
   -31.8247 -31.7380 -31.4202 -31.3310 -31.3086 -31.2369 -31.1503 -31.0393
   -19.2275 -16.7595 -16.5193 -16.3435 -16.2044 -16.1736 -15.9569 -15.8552
   -15.7842 -15.7294 -15.6608 -15.6082 -15.5751 -15.5661 -15.5494 -15.5244
   -15.5047 -15.4834 -15.4602 -15.4474 -15.4413 -15.3951 -15.3917 -15.3764
   -15.3575 -15.2500 -15.1876 -15.1634 -15.1181 -15.0951 -14.7400 -13.5150
   -13.3984  -7.8554  -7.0796  -4.1567  -4.0603  -3.9882  -3.9459  -3.9318
    -3.7729  -3.6977  -3.5394  -3.5212  -3.3102  -3.2581  -3.2219  -3.1983
    -3.1361  -3.0740  -2.9786  -2.9342  -2.8577  -2.8430  -2.8308  -2.8075
    -2.7852  -2.7700  -2.7300  -2.6673  -2.5967  -2.5610  -2.4481  -2.4239
    -2.4166  -2.3492  -2.3428  -2.3297  -2.3165  -2.2862  -2.2643  -2.2613
    -2.1893  -2.1568  -2.0870  -2.0352  -1.9722  -1.8558  -1.7038  -1.6429
    -1.5909  -1.5293  -1.5065  -1.4711  -1.4483  -1.4249  -1.3612  -1.3076
    -1.2425  -1.2306  -1.1602  -1.0681  -0.9963  -0.9568  -0.8868  -0.8263
    -0.8049  -0.7770  -0.7685  -0.7599  -0.7095  -0.5383  -0.4818  -0.4685
    -0.4282  -0.3462  -0.3140  -0.3060  -0.2567  -0.2483  -0.2085  -0.1201
    -0.1012  -0.0660  -0.0482  -0.0344  -0.0015   0.0183   0.1732   0.1939
     0.2358   0.2574   0.3611   0.4669   0.5333   0.6203   0.7152   0.9336
     1.0096   1.0868   1.2006   1.5817   1.6277   2.7748   3.1009   3.1896
     3.2279   3.2340   3.2682   3.3384   3.5550   3.5861   3.6034   3.6591

[...]

          k = 0.0380-0.0419 0.0000 ( 17876 PWs)   bands (ev):

[...]

          k =-0.0760-0.0000 0.0000 ( 17886 PWs)   bands (ev):

[...]

          k =-0.0760-0.0839 0.0000 ( 17948 PWs)   bands (ev):

   -56.0109 -56.0093 -55.9941 -55.9867 -55.9821 -55.8638 -55.8411 -55.8291
   -55.8241 -55.8222 -55.7989 -55.7978 -55.7490 -55.5826 -54.9958 -54.9956
   -32.3625 -32.3465 -32.3269 -32.3258 -32.3055 -32.3041 -32.2828 -32.2748
   -32.2555 -32.2230 -32.2081 -32.2033 -32.1989 -32.1772 -32.1499 -32.1449
   -32.1397 -32.1381 -32.1366 -32.1345 -32.1341 -32.1309 -32.1305 -32.1288
   -32.0819 -32.0628 -32.0542 -32.0422 -32.0305 -32.0282 -32.0269 -32.0250
   -32.0238 -32.0138 -32.0120 -32.0013 -31.9953 -31.9804 -31.9744 -31.8456
   -31.8298 -31.8249 -31.3214 -31.3212 -31.2330 -31.2328 -31.1937 -31.1936
   -19.2266 -16.2182 -16.0990 -16.0442 -15.9515 -15.9256 -15.9113 -15.8370
   -15.7837 -15.7312 -15.7219 -15.6976 -15.6833 -15.6749 -15.6170 -15.5887
   -15.5650 -15.5540 -15.5100 -15.4976 -15.4897 -15.4761 -15.4741 -15.4679
   -15.4243 -15.3865 -15.3559 -15.3520 -15.2123 -15.1032 -15.0117 -13.5003
   -13.5000  -7.8645  -7.0814  -3.9108  -3.6378  -3.4962  -3.3194  -3.2678
    -3.1699  -3.1353  -3.1269  -3.1043  -2.9970  -2.9374  -2.9242  -2.9032
    -2.8627  -2.8530  -2.8462  -2.8409  -2.8064  -2.8049  -2.7680  -2.7488
    -2.7177  -2.7048  -2.6979  -2.6922  -2.6677  -2.6481  -2.6061  -2.5938
    -2.5774  -2.5471  -2.5096  -2.3738  -2.3076  -2.2302  -2.2215  -2.1828
    -2.1702  -2.1497  -2.1070  -2.0895  -2.0616  -1.9794  -1.9045  -1.7509
    -1.7328  -1.7089  -1.6770  -1.6167  -1.5241  -1.4992  -1.4714  -1.4262
    -1.4079  -1.3493  -1.3288  -1.2992  -1.2434  -1.1811  -1.1441  -1.1162
    -1.0713  -1.0065  -0.9865  -0.9645  -0.9515  -0.8896  -0.7824  -0.7757
    -0.7700  -0.7203  -0.7050  -0.6753  -0.6532  -0.5625  -0.4831  -0.4227
    -0.3261  -0.1618  -0.0802   0.0159   0.0528   0.0980   0.1421   0.1847
     0.2806   0.2826   0.3565   0.3861   0.4042   0.4851   0.4961   0.5193
     0.6797   1.3722   1.3734   1.4472   1.4478   2.8094   3.3593   3.4050
     3.4393   3.4856   3.5884   3.6084   3.6371   3.6389   3.7179   3.7672

     the Fermi energy is     3.1040 ev

!    total energy              =   -2952.61572247 Ry
     estimated scf accuracy    <       0.00000003 Ry
     smearing contrib. (-TS)   =      -0.02576386 Ry
     internal energy E=F+TS    =   -2952.58995862 Ry

     The total energy is F=E-TS. E is the sum of the following terms:
     one-electron contribution =  -24509.95256393 Ry
     hartree contribution      =   12342.13795125 Ry
     xc contribution           =    -487.96051531 Ry
     ewald contribution        =    9703.18486442 Ry
     electric field correction =       0.00030495 Ry

     convergence has been achieved in  73 iterations

     Forces acting on atoms (cartesian axes, Ry/au):

     atom    1 type  1   force =    -0.00003304   -0.00030462    0.09590901
     atom    2 type  1   force =     0.00005643   -0.00049066   -0.17609788
     atom    3 type  2   force =     0.00010373   -0.00009714   -0.02431055
     atom    4 type  2   force =     0.00000989   -0.00163291    0.05391009
     atom    5 type  2   force =    -0.01178890   -0.00141337    0.00392955
     atom    6 type  2   force =     0.01321548   -0.00102362    0.00317164
     atom    7 type  1   force =     0.00034316    0.00069047   -0.00765878
     atom    8 type  1   force =     0.00026775    0.01496314    0.02333138
     atom    9 type  2   force =    -0.00004857    0.00018885    0.00010505
     atom   10 type  2   force =    -0.00219149    0.00050182   -0.01744197
     atom   11 type  2   force =     0.00047241   -0.00026588   -0.00022313
     atom   12 type  2   force =    -0.00083569   -0.00017644   -0.00000638
     atom   13 type  1   force =     0.00046011    0.00044433    0.00010955
     atom   14 type  1   force =    -0.00018794    0.00004472    0.00092194
     atom   15 type  2   force =    -0.00012033   -0.00000429   -0.00077897
     atom   16 type  2   force =     0.00000798    0.00051871   -0.00031968
     atom   17 type  2   force =    -0.00053588    0.00024756   -0.00002055
     atom   18 type  2   force =     0.00025965    0.00011167   -0.00036403
     atom   19 type  1   force =     0.00072762    0.00059680   -0.00018371
     atom   20 type  1   force =    -0.00060853    0.00036177    0.00016587
     atom   21 type  2   force =     0.00006476   -0.00000426    0.10334998
     atom   22 type  2   force =    -0.00026845   -0.00015759    0.00050616
     atom   23 type  2   force =    -0.07135934   -0.00010329   -0.02764035
     atom   24 type  2   force =     0.07127799    0.00034228   -0.02771172
     atom   25 type  1   force =     0.00024127   -0.00029092    0.09574325
     atom   26 type  1   force =     0.00011315   -0.00029374   -0.17603335
     atom   27 type  2   force =     0.00014039   -0.00029107   -0.02321012
     atom   28 type  2   force =     0.00000121   -0.00132626    0.05366895
     atom   29 type  2   force =    -0.01213683    0.00039834    0.00377541
     atom   30 type  2   force =     0.01352235    0.00101268    0.00301780
     atom   31 type  1   force =     0.00024522    0.00375636   -0.01144915
     atom   32 type  1   force =     0.00044417   -0.01662101    0.02314758
     atom   33 type  2   force =     0.00018033    0.00009623   -0.00033728
     atom   34 type  2   force =    -0.00191418   -0.00010552   -0.02072056
     atom   35 type  2   force =     0.00046312    0.00005981    0.00006454
     atom   36 type  2   force =    -0.00088197   -0.00000254    0.00031984
     atom   37 type  1   force =     0.00080776    0.00004654   -0.00024747
     atom   38 type  1   force =     0.00000227    0.00012682    0.00042948
     atom   39 type  2   force =    -0.00025661    0.00043299   -0.00060364
     atom   40 type  2   force =    -0.00039774   -0.00007751   -0.00027955
     atom   41 type  2   force =    -0.00064054    0.00034651    0.00014619
     atom   42 type  2   force =     0.00005449    0.00026927   -0.00000907
     atom   43 type  1   force =     0.00037864   -0.00013665    0.00061489
     atom   44 type  1   force =    -0.00008393   -0.00035291    0.00060620
     atom   45 type  2   force =     0.00006847   -0.00000162    0.10331572
     atom   46 type  2   force =    -0.07134920   -0.00005160   -0.02761994
     atom   47 type  2   force =     0.07127079    0.00037723   -0.02769387
     atom   48 type  3   force =    -0.00010213    0.00115635    0.00015875
     atom   49 type  4   force =     0.00387390   -0.00061534   -0.00286972
     atom   50 type  5   force =    -0.00248305   -0.00028627    0.00273930
     atom   51 type  5   force =     0.00002753   -0.00066445    0.00010166
     atom   52 type  2   force =    -0.00016074   -0.00016483    0.00127171
     atom   53 type  5   force =    -0.00084536   -0.00024093   -0.00021542
     atom   54 type  5   force =     0.00012843    0.00010597   -0.00048465

     Total force =     0.367861     Total SCF correction =     0.000488
  @ DRIVER MODE: Message from server: STATUS
  @ DRIVER MODE: Message from server: GETFORCE
  @ DRIVER MODE: Returning v,forces,stress,ensemble

     Writing output data file ./calc.save/
  @ DRIVER MODE: Message from server: EXIT
  @ DRIVE MODE: Exiting

     General routines

     Parallel routines

   This run was terminated on:  21:41: 1  15Sep2021

   JOB DONE.