     Program PWSCF v.6.7GPU starts on  9Sep2021 at  0:29:20

     R & G space division:  proc/nbgrp/npool/nimage =      10
     Reading input from /storage/home/hcoda1/3/ntian30/research/carbon/CxH_vib/CH_calc/ads_slab/CHNH_a/out_0010/pw.inp
Warning: card &CELL ignored
Warning: card   CELL_DYNAMICS='IPI', ignored
Warning: card / ignored

     Current dimensions of program PWSCF are:
     Max number of different atomic species (ntypx) = 10
     Max number of k-points (npk) =  40000
     Max angular momentum in pseudopotentials (lmaxx) =  3
     Presently no symmetry can be used with electric field

     Message from routine cell_base_init:
     DEPRECATED: use true lattice parameter, not A to a.u. conversion factor

     IMPORTANT: XC functional enforced from input :
     Exchange-correlation= BEEF-VDW
                           (   1   4  43  14   2   0   0)
     Any further DFT definition will be discarded
     Please, verify this is what you really want

  @ DRIVER MODE: Connecting to
 qe_1139763_2767380.sched-torque.pace.gatech.eduyjs7y0uo_scratch
  using UNIX socket
  @ DRIVER MODE: Message from server: STATUS
  @ DRIVER MODE: Message from server: INIT
  @ DRIVER MODE: Receiving replica           0          -1
  @ DRIVER MODE: Receiving encoded integer          25
  @ DRIVER MODE:  SCF:  T  FORCE:  T  STRESS:  F  VC:  F  ENSEMBLE:  F
  @ DRIVER MODE:  SCF:  T  FORCE:  T  STRESS:  F  VC:  F  ENSEMBLE:  F

     Using Slab Decomposition

     bravais-lattice index     =            0
     lattice parameter (alat)  =       1.8897  a.u.
     unit-cell volume          =    6658.9804 (a.u.)^3
     number of atoms/cell      =           51
     number of atomic types    =            5
     number of electrons       =       389.00
     number of Kohn-Sham states=          204
     kinetic-energy cutoff     =      29.3995  Ry
     charge density cutoff     =     293.9946  Ry
     scf convergence threshold =      7.3E-08
     mixing beta               =       0.0500
     number of iterations used =            8  plain     mixing
     Exchange-correlation= BEEF-VDW
                           (   1   4  43  14   2   0   0)

     celldm(1)=   1.889726  celldm(2)=   0.000000  celldm(3)=   0.000000
     celldm(4)=   0.000000  celldm(5)=   0.000000  celldm(6)=   0.000000

     crystal axes: (cart. coord. in units of alat)
               a(1) = (   6.579727   0.000000   0.000000 )
               a(2) = (  -0.000775   5.961596   0.000000 )
               a(3) = (   0.000000   0.000000  25.155947 )

     reciprocal axes: (cart. coord. in units 2 pi/alat)
               b(1) = (  0.151982  0.000020  0.000000 )
               b(2) = (  0.000000  0.167740  0.000000 )
               b(3) = (  0.000000  0.000000  0.039752 )

     PseudoPot. # 1 for Ti read from file:
     /storage/coda1/p-amedford6/0/shared/rich_project_chbe-medford/medford-share/data/pseudos_module/espresso/nninc/pbe/van/Ti.UPF
     MD5 check sum: 8e4df49b7f0d34bbd5052bf3f5ea0213
     Pseudo is Ultrasoft, Zval = 12.0
     Generated by new atomic code, or converted to UPF format
     Using radial grid of  851 points,  6 beta functions with:
                l(1) =   0
                l(2) =   0
                l(3) =   1
                l(4) =   1
                l(5) =   2
                l(6) =   2
     Q(r) pseudized with  8 coefficients,  rinner =    1.000   1.000   1.000
                                                       1.000   1.000

     PseudoPot. # 2 for O  read from file:
     /storage/coda1/p-amedford6/0/shared/rich_project_chbe-medford/medford-share/data/pseudos_module/espresso/nninc/pbe/van/O.UPF
     MD5 check sum: 78c19812648e8988a0fe644b0f25305e
     Pseudo is Ultrasoft, Zval =  6.0
     Generated by new atomic code, or converted to UPF format
     Using radial grid of  737 points,  4 beta functions with:
                l(1) =   0
                l(2) =   0
                l(3) =   1
                l(4) =   1
     Q(r) pseudized with  8 coefficients,  rinner =    0.800   0.800   0.800

     PseudoPot. # 3 for N  read from file:
     /storage/coda1/p-amedford6/0/shared/rich_project_chbe-medford/medford-share/data/pseudos_module/espresso/nninc/pbe/van/N.UPF
     MD5 check sum: 90d10febe142ad51ac9d5be1deb811c4
     Pseudo is Ultrasoft, Zval =  5.0
     Generated by new atomic code, or converted to UPF format
     Using radial grid of  729 points,  4 beta functions with:
                l(1) =   0
                l(2) =   0
                l(3) =   1
                l(4) =   1
     Q(r) pseudized with  8 coefficients,  rinner =    0.800   0.800   0.800

     PseudoPot. # 4 for C  read from file:
     /storage/coda1/p-amedford6/0/shared/rich_project_chbe-medford/medford-share/data/pseudos_module/espresso/nninc/pbe/van/C.UPF
     MD5 check sum: 1a69bf6b8db32088f5b2163dbdb77a27
     Pseudo is Ultrasoft, Zval =  4.0
     Generated by new atomic code, or converted to UPF format
     Using radial grid of  721 points,  4 beta functions with:
                l(1) =   0
                l(2) =   0
                l(3) =   1
                l(4) =   1
     Q(r) pseudized with  8 coefficients,  rinner =    0.800   0.800   0.800

     PseudoPot. # 5 for H  read from file:
     /storage/coda1/p-amedford6/0/shared/rich_project_chbe-medford/medford-share/data/pseudos_module/espresso/nninc/pbe/van/H.UPF
     MD5 check sum: b5ee9d7bfd3a09ee7748110bda690ff7
     Pseudo is Ultrasoft, Zval =  1.0
     Generated by new atomic code, or converted to UPF format
     Using radial grid of  615 points,  1 beta functions with:
                l(1) =   0
     Q(r) pseudized with  8 coefficients,  rinner =    0.800

     atomic species   valence    mass     pseudopotential
        Ti1           12.00    47.86700     Ti( 1.00)
        O1             6.00    15.99900     O ( 1.00)
        N1             5.00    14.00700     N ( 1.00)
        C1             4.00    12.01100     C ( 1.00)
        H1             1.00     1.00800     H ( 1.00)

     No symmetry found

   Cartesian axes

     site n.     atom                  positions (alat units)
         1           Ti1 tau(   1) = (   0.0004258   2.9801865   6.0000000  )
         2           Ti1 tau(   2) = (   3.2906075   1.4906267   6.0002472  )
         3           O1  tau(   3) = (   0.0006271   0.0005054   7.9858123  )
         4           O1  tau(   4) = (   3.2906025   0.0005020   7.3038282  )
         5           O1  tau(   5) = (   4.5942328   1.4918067   9.2879030  )
         6           O1  tau(   6) = (   1.9868534   1.4903216   9.2879459  )
         7           Ti1 tau(   7) = (   3.2907910   2.8959150   9.1758416  )
         8           Ti1 tau(   8) = (   0.0015273   1.4827037   9.2680791  )
         9           O1  tau(   9) = (   3.3107583   5.9394213  11.3440837  )
        10           O1  tau(  10) = (   0.0116148   5.9584955  10.6183126  )
        11           O1  tau(  11) = (   1.3209705   1.4681434  12.6387851  )
        12           O1  tau(  12) = (   5.3117763   1.4689694  12.6372993  )
        13           Ti1 tau(  13) = (   6.5586693   2.9297660  12.6634068  )
        14           Ti1 tau(  14) = (   3.2703198   1.4638114  12.4955107  )
        15           O1  tau(  15) = (   0.0083729   5.9498784  14.6531507  )
        16           O1  tau(  16) = (   3.3267446   5.9373244  13.9471573  )
        17           O1  tau(  17) = (   4.5400383   1.4607670  16.1300196  )
        18           O1  tau(  18) = (   2.0562451   1.4605895  16.0859588  )
        19           Ti1 tau(  19) = (   3.3219294   2.9366742  15.7081325  )
        20           Ti1 tau(  20) = (   0.0794022   1.3719971  16.1804440  )
        21           O1  tau(  21) = (   3.2904802   0.0005063   4.7018136  )
        22           O1  tau(  22) = (   0.0048811   5.8540159  17.1722642  )
        23           O1  tau(  23) = (   1.3043587   1.4918075   6.0039043  )
        24           O1  tau(  24) = (   5.2767064   1.4903225   6.0039473  )
        25           Ti1 tau(  25) = (   0.0000382   5.9609847   6.0000000  )
        26           Ti1 tau(  26) = (   3.2902200   4.4714249   6.0002472  )
        27           O1  tau(  27) = (   0.0002396   2.9813036   7.9858123  )
        28           O1  tau(  28) = (   3.2902150   2.9813002   7.3038282  )
        29           O1  tau(  29) = (   4.5938453   4.4726049   9.2879030  )
        30           O1  tau(  30) = (   1.9864658   4.4711199   9.2879459  )
        31           Ti1 tau(  31) = (   3.2891106   5.8743827   9.1763621  )
        32           Ti1 tau(  32) = (   0.0006254   4.4649316   9.2693709  )
        33           O1  tau(  33) = (   3.3036409   2.9595551  11.3414423  )
        34           O1  tau(  34) = (   0.0092240   2.9805883  10.6323155  )
        35           O1  tau(  35) = (   1.3251634   4.4629088  12.6456700  )
        36           O1  tau(  36) = (   5.3099897   4.4533368  12.6426351  )
        37           Ti1 tau(  37) = (   0.0071655   5.9203210  12.5194715  )
        38           Ti1 tau(  38) = (   3.2774562   4.4456010  12.4944480  )
        39           O1  tau(  39) = (   0.0172281   2.9510719  14.7337574  )
        40           O1  tau(  40) = (   3.3230371   2.9488945  13.9167408  )
        41           O1  tau(  41) = (   4.5572773   4.4147185  16.0816828  )
        42           O1  tau(  42) = (   2.0601761   4.4202290  16.0727324  )
        43           Ti1 tau(  43) = (   3.3574729   5.9210026  15.7440268  )
        44           Ti1 tau(  44) = (   0.0706454   4.5402764  15.7844247  )
        45           O1  tau(  45) = (   3.2900926   2.9813045   4.7018136  )
        46           O1  tau(  46) = (   1.3039711   4.4726057   6.0039043  )
        47           O1  tau(  47) = (   5.2763189   4.4711207   6.0039473  )
        48           N1  tau(  48) = (   6.3928749   2.8496863  17.7411295  )
        49           C1  tau(  49) = (   0.6235525   2.6889418  18.7295412  )
        50           H1  tau(  50) = (   1.5351458   2.1120716  18.4733693  )
        51           H1  tau(  51) = (   5.5197072   3.3230476  17.9821812  )

     number of k points=    10  Fermi-Dirac smearing, width (Ry)=  0.0073
                       cart. coord. in units 2pi/alat
        k(    1) = (   0.0000000   0.0000000   0.0000000), wk =   0.1250000
        k(    2) = (   0.0000000   0.0419351   0.0000000), wk =   0.2500000
        k(    3) = (   0.0000000  -0.0838702   0.0000000), wk =   0.1250000
        k(    4) = (   0.0379955   0.0000049   0.0000000), wk =   0.2500000
        k(    5) = (   0.0379955   0.0419400   0.0000000), wk =   0.2500000
        k(    6) = (   0.0379955  -0.0838652   0.0000000), wk =   0.2500000
        k(    7) = (   0.0379955  -0.0419301   0.0000000), wk =   0.2500000
        k(    8) = (  -0.0759910  -0.0000099   0.0000000), wk =   0.1250000
        k(    9) = (  -0.0759910   0.0419252   0.0000000), wk =   0.2500000
        k(   10) = (  -0.0759910  -0.0838800   0.0000000), wk =   0.1250000

     Initial potential from superposition of free atoms

     starting charge  372.99918, renormalised to  389.00000

     negative rho (up, down):  1.910E-02 0.000E+00

     %%%%%%%%%%%%%%%%%%%%%%%%%%%%%%%%%%%%%%%%%%%%%%%%%%%%%%%%%%%%%%%%%%%%%%%%
     %                                                                      %
     % You are using vdW-DF, which was implemented by the Thonhauser group. %
     % Please cite the following two papers that made this development      %
     % possible and the two reviews that describe the various versions:     %
     %                                                                      %
     %   T. Thonhauser et al., PRL 115, 136402 (2015).                      %
     %   T. Thonhauser et al., PRB 76, 125112 (2007).                       %
     %   K. Berland et al., Rep. Prog. Phys. 78, 066501 (2015).             %
     %   D.C. Langreth et al., J. Phys.: Condens. Matter 21, 084203 (2009). %
     %                                                                      %
     %                                                                      %
     % If you are calculating the stress with vdW-DF, please also cite:     %
     %                                                                      %
     %   R. Sabatini et al., J. Phys.: Condens. Matter 24, 424209 (2012).   %
     %                                                                      %
     %%%%%%%%%%%%%%%%%%%%%%%%%%%%%%%%%%%%%%%%%%%%%%%%%%%%%%%%%%%%%%%%%%%%%%%%

     Adding external electric field

     Computed dipole along edir(3) :
        Dipole               -4.7381 Ry au,        -12.0430 Debye
        Dipole field         -0.0089 Ry au,

        Potential amp.        0.8289 Ry
        Total length         46.3494 bohr

     Starting wfcs are  294 atomic wfcs
  @ DRIVER MODE: Message from server: STATUS
  @ DRIVER MODE: Message from server: POSDATA
  @ DRIVER MODE: Reading and sharing cell
  @ DRIVER MODE: Reading and sharing positions
  @ DRIVER MODE: Received positions

     Self-consistent Calculation

     iteration #  1     ecut=    29.40 Ry     beta= 0.05
     Davidson diagonalization with overlap
     c_bands:  4 eigenvalues not converged
     c_bands:  2 eigenvalues not converged
     c_bands:  1 eigenvalues not converged
     c_bands:  3 eigenvalues not converged
     c_bands:  2 eigenvalues not converged
     c_bands:  1 eigenvalues not converged
     c_bands:  2 eigenvalues not converged
     c_bands:  2 eigenvalues not converged
     c_bands:  1 eigenvalues not converged
     c_bands:  1 eigenvalues not converged
     ethr =  1.00E-05,  avg # of iterations = 20.0

[...]

     total energy              =   -2847.37375689 Ry
     estimated scf accuracy    <     789.44469020 Ry

     iteration #  2     ecut=    29.40 Ry     beta= 0.05
     Davidson diagonalization with overlap
     ethr =  1.00E-02,  avg # of iterations = 15.4

[...]

     iteration # 39     ecut=    29.40 Ry     beta= 0.05
     Davidson diagonalization with overlap
     c_bands:  1 eigenvalues not converged
     ethr =  2.16E-08,  avg # of iterations = 13.6

[...]

     total energy              =   -2917.76271859 Ry
     estimated scf accuracy    <       0.00000011 Ry

     iteration # 53     ecut=    29.40 Ry     beta= 0.05
     Davidson diagonalization with overlap
     ethr =  2.89E-11,  avg # of iterations =  9.7

     negative rho (up, down):  1.797E-02 0.000E+00

     Adding external electric field

     Computed dipole along edir(3) :
        Dipole                0.1164 Ry au,          0.2958 Debye
        Dipole field          0.0002 Ry au,

        Potential amp.       -0.0204 Ry
        Total length         46.3494 bohr

     End of self-consistent calculation

          k = 0.0000 0.0000 0.0000 ( 18029 PWs)   bands (ev):

   -56.3265 -56.3209 -56.2901 -56.2868 -56.2208 -56.1872 -56.1609 -56.1463
   -56.1285 -56.1090 -56.0941 -56.0755 -55.9253 -55.7655 -55.3058 -55.2717
   -32.8884 -32.8044 -32.6731 -32.6687 -32.6408 -32.6290 -32.6131 -32.5992
   -32.5632 -32.5562 -32.5349 -32.5316 -32.5048 -32.4733 -32.4722 -32.4618
   -32.4573 -32.4266 -32.4262 -32.4190 -32.3938 -32.3826 -32.3781 -32.3463
   -32.3403 -32.3276 -32.3269 -32.3200 -32.3159 -32.3117 -32.2931 -32.2778
   -32.2774 -32.2651 -32.2609 -32.2311 -32.2254 -32.2179 -32.1382 -32.0492
   -31.9996 -31.8976 -31.7134 -31.6239 -31.6016 -31.5300 -31.4434 -31.3325
   -17.0861 -16.8193 -16.6531 -16.5000 -16.4653 -16.3540 -16.1884 -16.0648
   -16.0221 -16.0041 -15.9204 -15.8972 -15.8689 -15.8662 -15.8593 -15.8360
   -15.8333 -15.7775 -15.7551 -15.7384 -15.7127 -15.6931 -15.6697 -15.6354
   -15.5363 -15.4811 -15.4569 -15.3891 -15.3205 -14.9897 -13.8086 -13.6920
    -8.2620  -4.4519  -4.3594  -4.2755  -4.2309  -4.1881  -3.9727  -3.8968
    -3.8812  -3.6935  -3.5660  -3.5179  -3.5025  -3.4612  -3.4600  -3.2466
    -3.2077  -3.1442  -3.1397  -3.1220  -3.1178  -3.0906  -3.0814  -3.0609
    -3.0129  -2.9326  -2.8715  -2.7693  -2.7379  -2.6848  -2.6610  -2.6360
    -2.5995  -2.5893  -2.5809  -2.5622  -2.5474  -2.5331  -2.4449  -2.3993
    -2.2946  -2.1623  -2.1454  -2.1243  -1.9402  -1.8862  -1.8097  -1.7899
    -1.7597  -1.7460  -1.7183  -1.6334  -1.5557  -1.5229  -1.4532  -1.4492
    -1.3610  -1.3184  -1.2297  -1.2015  -1.1672  -1.0892  -1.0799  -1.0732
    -1.0219  -0.8285  -0.8031  -0.7961  -0.7749  -0.7115  -0.6554  -0.6186
    -0.5600  -0.5323  -0.4913  -0.4067  -0.3994  -0.3641  -0.3427  -0.3281
    -0.2994  -0.2943  -0.1049  -0.1003  -0.0559  -0.0434   0.0427   0.1968
     0.2896   0.3271   0.4006   0.6376   0.7160   0.7931   0.9068   1.2885
     1.3345   2.5429   2.8106   2.8829   2.8987   2.9401   3.0352   3.0462
     3.2622   3.2723   3.2986   3.3184

[...]

          k = 0.0380-0.0419 0.0000 ( 17876 PWs)   bands (ev):

[...]

          k =-0.0760-0.0000 0.0000 ( 17886 PWs)   bands (ev):

[...]

          k =-0.0760-0.0839 0.0000 ( 17948 PWs)   bands (ev):

   -56.3110 -56.3054 -56.3047 -56.3028 -56.2153 -56.1783 -56.1662 -56.1552
   -56.1126 -56.1092 -56.0940 -56.0909 -55.9238 -55.7669 -55.2888 -55.2885
   -32.6948 -32.6880 -32.6202 -32.6190 -32.6015 -32.5993 -32.5978 -32.5880
   -32.5295 -32.5245 -32.5238 -32.5124 -32.4864 -32.4573 -32.4517 -32.4417
   -32.4352 -32.4304 -32.4268 -32.4252 -32.4243 -32.4232 -32.4222 -32.3924
   -32.3882 -32.3703 -32.3581 -32.3465 -32.3356 -32.3258 -32.3242 -32.3162
   -32.3145 -32.3072 -32.3057 -32.2882 -32.2842 -32.2143 -32.1407 -32.0710
   -32.0035 -31.9485 -31.6144 -31.6142 -31.5262 -31.5260 -31.4868 -31.4867
   -16.5324 -16.4919 -16.3222 -16.2593 -16.2480 -16.2363 -16.1934 -16.0846
   -16.0493 -16.0309 -16.0096 -15.9975 -15.9750 -15.9647 -15.8712 -15.8592
   -15.8559 -15.8335 -15.7946 -15.7928 -15.7895 -15.7770 -15.7612 -15.7591
   -15.7243 -15.6499 -15.6457 -15.4266 -15.3345 -15.2673 -13.7939 -13.7936
    -8.2653  -4.0512  -3.8217  -3.7710  -3.6446  -3.5531  -3.4942  -3.4741
    -3.3990  -3.2793  -3.2206  -3.2133  -3.2032  -3.1721  -3.1663  -3.1453
    -3.1351  -3.1220  -3.0792  -3.0584  -3.0426  -3.0323  -3.0066  -2.9927
    -2.9711  -2.9612  -2.9485  -2.9238  -2.8885  -2.8866  -2.8580  -2.8501
    -2.6268  -2.6117  -2.5483  -2.4988  -2.4759  -2.4650  -2.4614  -2.4037
    -2.3830  -2.3616  -2.2644  -2.1983  -2.0451  -2.0281  -2.0202  -1.9813
    -1.9485  -1.8164  -1.7576  -1.7383  -1.7067  -1.6564  -1.6469  -1.5854
    -1.5682  -1.5302  -1.4613  -1.4245  -1.3780  -1.3590  -1.2845  -1.2780
    -1.2454  -1.1918  -1.1126  -1.0916  -1.0741  -1.0620  -1.0074  -0.9676
    -0.9232  -0.8698  -0.7987  -0.7036  -0.6236  -0.4734  -0.4115  -0.3109
    -0.2502  -0.2121  -0.1584  -0.1291  -0.0430  -0.0115  -0.0092   0.0524
     0.0879   0.1879   0.1931   0.2108   0.4387   1.0784   1.0796   1.1538
     1.1546   2.5473   3.0767   3.0909   3.1028   3.1501   3.3083   3.3143
     3.3415   3.3442   3.4343   3.4675

     the Fermi energy is     2.8119 ev

!    total energy              =   -2917.76279435 Ry
     estimated scf accuracy    <       0.00000007 Ry
     smearing contrib. (-TS)   =      -0.02761368 Ry
     internal energy E=F+TS    =   -2917.73518067 Ry

     The total energy is F=E-TS. E is the sum of the following terms:
     one-electron contribution =  -24683.87915949 Ry
     hartree contribution      =   12421.72482335 Ry
     xc contribution           =    -479.08242928 Ry
     ewald contribution        =    9823.50155919 Ry
     electric field correction =       0.00002555 Ry

     convergence has been achieved in  53 iterations

     Forces acting on atoms (cartesian axes, Ry/au):

     atom    1 type  1   force =     0.00012552   -0.00025704    0.09637089
     atom    2 type  1   force =    -0.00005773   -0.00048277   -0.17576888
     atom    3 type  2   force =     0.00009070   -0.00007958   -0.02479243
     atom    4 type  2   force =     0.00006461   -0.00165858    0.05385523
     atom    5 type  2   force =    -0.01230554   -0.00181306    0.00351404
     atom    6 type  2   force =     0.01428093   -0.00152967    0.00391739
     atom    7 type  1   force =     0.00061148    0.00062947   -0.01170565
     atom    8 type  1   force =    -0.00020135    0.02054404    0.02639050
     atom    9 type  2   force =    -0.00055056    0.00047730   -0.00020185
     atom   10 type  2   force =    -0.00145585   -0.00067185   -0.01375069
     atom   11 type  2   force =     0.00038813    0.00026404   -0.00018122
     atom   12 type  2   force =    -0.00052117    0.00053745   -0.00040987
     atom   13 type  1   force =     0.00051858   -0.00032539   -0.00087578
     atom   14 type  1   force =    -0.00116735    0.00108629   -0.00110778
     atom   15 type  2   force =    -0.00001416   -0.00026981    0.00076342
     atom   16 type  2   force =     0.00022507    0.00067622   -0.00038020
     atom   17 type  2   force =    -0.00072146    0.00042820   -0.00092611
     atom   18 type  2   force =     0.00119901    0.00073626    0.00034036
     atom   19 type  1   force =    -0.00028962    0.00063448   -0.00095912
     atom   20 type  1   force =    -0.00022092    0.00014566    0.00005524
     atom   21 type  2   force =     0.00005113    0.00002199    0.10336424
     atom   22 type  2   force =     0.00044388   -0.00053101    0.00045565
     atom   23 type  2   force =    -0.07127924   -0.00004977   -0.02762896
     atom   24 type  2   force =     0.07124419    0.00034103   -0.02773474
     atom   25 type  1   force =     0.00019377   -0.00035603    0.09607331
     atom   26 type  1   force =     0.00000529   -0.00025892   -0.17593193
     atom   27 type  2   force =     0.00021734   -0.00037310   -0.02358815
     atom   28 type  2   force =     0.00006521   -0.00138292    0.05391620
     atom   29 type  2   force =    -0.01262934    0.00047926    0.00327792
     atom   30 type  2   force =     0.01457602    0.00113206    0.00366057
     atom   31 type  1   force =     0.00072161    0.00352265   -0.01313358
     atom   32 type  1   force =    -0.00000078   -0.02244019    0.02629608
     atom   33 type  2   force =     0.00005851   -0.00002193    0.00099049
     atom   34 type  2   force =    -0.00088778   -0.00054183   -0.01871689
     atom   35 type  2   force =    -0.00026815   -0.00022571    0.00018452
     atom   36 type  2   force =     0.00011973   -0.00033591   -0.00004160
     atom   37 type  1   force =     0.00038882    0.00060694   -0.00050363
     atom   38 type  1   force =    -0.00130949   -0.00094917   -0.00047633
     atom   39 type  2   force =     0.00001801    0.00107589   -0.00040113
     atom   40 type  2   force =    -0.00013772   -0.00011203   -0.00033276
     atom   41 type  2   force =     0.00051347    0.00029203    0.00005939
     atom   42 type  2   force =    -0.00082087    0.00004519   -0.00035156
     atom   43 type  1   force =    -0.00040711   -0.00017313   -0.00059344
     atom   44 type  1   force =    -0.00024331    0.00087030   -0.00076744
     atom   45 type  2   force =     0.00006438   -0.00001055    0.10334878
     atom   46 type  2   force =    -0.07126593   -0.00006231   -0.02763714
     atom   47 type  2   force =     0.07123768    0.00042718   -0.02770097
     atom   48 type  3   force =    -0.00459016    0.00132029   -0.00195490
     atom   49 type  4   force =     0.00725713   -0.00457672    0.00080578
     atom   50 type  5   force =    -0.00422502    0.00339870    0.00144953
     atom   51 type  5   force =     0.00089039   -0.00020396   -0.00053477

     Total force =     0.369066     Total SCF correction =     0.000689
  @ DRIVER MODE: Message from server: STATUS
  @ DRIVER MODE: Message from server: GETFORCE
  @ DRIVER MODE: Returning v,forces,stress,ensemble

     Writing output data file ./calc.save/
  @ DRIVER MODE: Message from server: EXIT
  @ DRIVE MODE: Exiting

     General routines

     Parallel routines

   This run was terminated on:   0:42:43   9Sep2021

   JOB DONE.