     Program PWSCF v.6.7GPU starts on 15Sep2021 at 16:51:35

     R & G space division:  proc/nbgrp/npool/nimage =      10
     Reading input from /storage/home/hcoda1/3/ntian30/research/carbon/CxH_vib/H2O_calc/ads_slab/CH3N2H2O_c/out_0004/pw.inp
Warning: card &CELL ignored
Warning: card   CELL_DYNAMICS='IPI', ignored
Warning: card / ignored

     Current dimensions of program PWSCF are:
     Max number of different atomic species (ntypx) = 10
     Max number of k-points (npk) =  40000
     Max angular momentum in pseudopotentials (lmaxx) =  3
     Presently no symmetry can be used with electric field

     Message from routine cell_base_init:
     DEPRECATED: use true lattice parameter, not A to a.u. conversion factor

     IMPORTANT: XC functional enforced from input :
     Exchange-correlation= BEEF-VDW
                           (   1   4  43  14   2   0   0)
     Any further DFT definition will be discarded
     Please, verify this is what you really want

  @ DRIVER MODE: Connecting to
 qe_1139763_2852616.sched-torque.pace.gatech.eduu7rfhe1t_scratch
  using UNIX socket
  @ DRIVER MODE: Message from server: STATUS
  @ DRIVER MODE: Message from server: INIT
  @ DRIVER MODE: Receiving replica           0          -1
  @ DRIVER MODE: Receiving encoded integer          25
  @ DRIVER MODE:  SCF:  T  FORCE:  T  STRESS:  F  VC:  F  ENSEMBLE:  F
  @ DRIVER MODE:  SCF:  T  FORCE:  T  STRESS:  F  VC:  F  ENSEMBLE:  F

     Using Slab Decomposition

     bravais-lattice index     =            0
     lattice parameter (alat)  =       1.8897  a.u.
     unit-cell volume          =    6658.9804 (a.u.)^3
     number of atoms/cell      =           56
     number of atomic types    =            5
     number of electrons       =       403.00
     number of Kohn-Sham states=          211
     kinetic-energy cutoff     =      29.3995  Ry
     charge density cutoff     =     293.9946  Ry
     scf convergence threshold =      7.3E-08
     mixing beta               =       0.0500
     number of iterations used =            8  plain     mixing
     Exchange-correlation= BEEF-VDW
                           (   1   4  43  14   2   0   0)

     celldm(1)=   1.889726  celldm(2)=   0.000000  celldm(3)=   0.000000
     celldm(4)=   0.000000  celldm(5)=   0.000000  celldm(6)=   0.000000

     crystal axes: (cart. coord. in units of alat)
               a(1) = (   6.579727   0.000000   0.000000 )
               a(2) = (  -0.000775   5.961596   0.000000 )
               a(3) = (   0.000000   0.000000  25.155947 )

     reciprocal axes: (cart. coord. in units 2 pi/alat)
               b(1) = (  0.151982  0.000020  0.000000 )
               b(2) = (  0.000000  0.167740  0.000000 )
               b(3) = (  0.000000  0.000000  0.039752 )

     PseudoPot. # 1 for Ti read from file:
     /storage/coda1/p-amedford6/0/shared/rich_project_chbe-medford/medford-share/data/pseudos_module/espresso/nninc/pbe/van/Ti.UPF
     MD5 check sum: 8e4df49b7f0d34bbd5052bf3f5ea0213
     Pseudo is Ultrasoft, Zval = 12.0
     Generated by new atomic code, or converted to UPF format
     Using radial grid of  851 points,  6 beta functions with:
                l(1) =   0
                l(2) =   0
                l(3) =   1
                l(4) =   1
                l(5) =   2
                l(6) =   2
     Q(r) pseudized with  8 coefficients,  rinner =    1.000   1.000   1.000
                                                       1.000   1.000

     PseudoPot. # 2 for O  read from file:
     /storage/coda1/p-amedford6/0/shared/rich_project_chbe-medford/medford-share/data/pseudos_module/espresso/nninc/pbe/van/O.UPF
     MD5 check sum: 78c19812648e8988a0fe644b0f25305e
     Pseudo is Ultrasoft, Zval =  6.0
     Generated by new atomic code, or converted to UPF format
     Using radial grid of  737 points,  4 beta functions with:
                l(1) =   0
                l(2) =   0
                l(3) =   1
                l(4) =   1
     Q(r) pseudized with  8 coefficients,  rinner =    0.800   0.800   0.800

     PseudoPot. # 3 for N  read from file:
     /storage/coda1/p-amedford6/0/shared/rich_project_chbe-medford/medford-share/data/pseudos_module/espresso/nninc/pbe/van/N.UPF
     MD5 check sum: 90d10febe142ad51ac9d5be1deb811c4
     Pseudo is Ultrasoft, Zval =  5.0
     Generated by new atomic code, or converted to UPF format
     Using radial grid of  729 points,  4 beta functions with:
                l(1) =   0
                l(2) =   0
                l(3) =   1
                l(4) =   1
     Q(r) pseudized with  8 coefficients,  rinner =    0.800   0.800   0.800

     PseudoPot. # 4 for C  read from file:
     /storage/coda1/p-amedford6/0/shared/rich_project_chbe-medford/medford-share/data/pseudos_module/espresso/nninc/pbe/van/C.UPF
     MD5 check sum: 1a69bf6b8db32088f5b2163dbdb77a27
     Pseudo is Ultrasoft, Zval =  4.0
     Generated by new atomic code, or converted to UPF format
     Using radial grid of  721 points,  4 beta functions with:
                l(1) =   0
                l(2) =   0
                l(3) =   1
                l(4) =   1
     Q(r) pseudized with  8 coefficients,  rinner =    0.800   0.800   0.800

     PseudoPot. # 5 for H  read from file:
     /storage/coda1/p-amedford6/0/shared/rich_project_chbe-medford/medford-share/data/pseudos_module/espresso/nninc/pbe/van/H.UPF
     MD5 check sum: b5ee9d7bfd3a09ee7748110bda690ff7
     Pseudo is Ultrasoft, Zval =  1.0
     Generated by new atomic code, or converted to UPF format
     Using radial grid of  615 points,  1 beta functions with:
                l(1) =   0
     Q(r) pseudized with  8 coefficients,  rinner =    0.800

     atomic species   valence    mass     pseudopotential
        Ti1           12.00    47.86700     Ti( 1.00)
        O1             6.00    15.99900     O ( 1.00)
        N1             5.00    14.00700     N ( 1.00)
        C1             4.00    12.01100     C ( 1.00)
        H1             1.00     1.00800     H ( 1.00)

     No symmetry found

   Cartesian axes

     site n.     atom                  positions (alat units)
         1           Ti1 tau(   1) = (   0.0004258   2.9801865   6.0000000  )
         2           Ti1 tau(   2) = (   3.2906075   1.4906267   6.0002472  )
         3           O1  tau(   3) = (   0.0006271   0.0005054   7.9858123  )
         4           O1  tau(   4) = (   3.2906025   0.0005020   7.3038282  )
         5           O1  tau(   5) = (   4.5942328   1.4918067   9.2879030  )
         6           O1  tau(   6) = (   1.9868534   1.4903216   9.2879459  )
         7           Ti1 tau(   7) = (   3.2907910   2.8959150   9.1758416  )
         8           Ti1 tau(   8) = (   0.0015273   1.4827037   9.2680791  )
         9           O1  tau(   9) = (   3.2828550   5.9398922  11.3444325  )
        10           O1  tau(  10) = (   0.0116148   5.9584955  10.6183126  )
        11           O1  tau(  11) = (   1.2785533   1.4626539  12.6279770  )
        12           O1  tau(  12) = (   5.2704455   1.4657548  12.6160130  )
        13           Ti1 tau(  13) = (   0.0600808   2.9393476  12.6134163  )
        14           Ti1 tau(  14) = (   3.3737088   1.4602624  12.5010433  )
        15           O1  tau(  15) = (   6.5684750   5.9323085  14.6353932  )
        16           O1  tau(  16) = (   3.2849856   5.9366180  13.9618146  )
        17           O1  tau(  17) = (   4.5362432   1.5114280  16.0576559  )
        18           O1  tau(  18) = (   2.0240554   1.5008084  16.0383298  )
        19           Ti1 tau(  19) = (   3.2703657   2.9522362  15.6888820  )
        20           Ti1 tau(  20) = (   6.5391562   1.4934284  15.8005638  )
        21           O1  tau(  21) = (   3.2904802   0.0005063   4.7018136  )
        22           O1  tau(  22) = (   6.5583345   5.9570231  17.1947061  )
        23           O1  tau(  23) = (   1.3043587   1.4918075   6.0039043  )
        24           O1  tau(  24) = (   5.2767064   1.4903225   6.0039473  )
        25           Ti1 tau(  25) = (   0.0000382   5.9609847   6.0000000  )
        26           Ti1 tau(  26) = (   3.2902200   4.4714249   6.0002472  )
        27           O1  tau(  27) = (   0.0002396   2.9813036   7.9858123  )
        28           O1  tau(  28) = (   3.2902150   2.9813002   7.3038282  )
        29           O1  tau(  29) = (   4.5938453   4.4726049   9.2879030  )
        30           O1  tau(  30) = (   1.9864658   4.4711199   9.2879459  )
        31           Ti1 tau(  31) = (   3.2891106   5.8743827   9.1763621  )
        32           Ti1 tau(  32) = (   0.0006254   4.4649316   9.2693709  )
        33           O1  tau(  33) = (   3.2888364   2.9620848  11.3424199  )
        34           O1  tau(  34) = (   0.0092240   2.9805883  10.6323155  )
        35           O1  tau(  35) = (   1.2785924   4.4508711  12.6313046  )
        36           O1  tau(  36) = (   5.2742027   4.4576360  12.6186982  )
        37           Ti1 tau(  37) = (   0.0560446   5.9134488  12.5469576  )
        38           Ti1 tau(  38) = (   3.3742563   4.4530221  12.5021653  )
        39           O1  tau(  39) = (   6.5655761   2.9369947  14.6516633  )
        40           O1  tau(  40) = (   3.2805149   2.9594171  13.8967751  )
        41           O1  tau(  41) = (   4.5308665   4.4203993  16.0704334  )
        42           O1  tau(  42) = (   2.0169005   4.4237906  16.0574931  )
        43           Ti1 tau(  43) = (   3.2493829   5.9208236  15.8028744  )
        44           Ti1 tau(  44) = (   6.5423592   4.6318136  16.0678394  )
        45           O1  tau(  45) = (   3.2900926   2.9813045   4.7018136  )
        46           O1  tau(  46) = (   1.3039711   4.4726057   6.0039043  )
        47           O1  tau(  47) = (   5.2763189   4.4711207   6.0039473  )
        48           N1  tau(  48) = (   0.1516996   2.6468831  18.6397825  )
        49           N1  tau(  49) = (   0.0343947   2.8734663  17.4441277  )
        50           C1  tau(  50) = (   0.1908864   3.7705318  19.5986308  )
        51           H1  tau(  51) = (   6.5333492   4.7333814  19.1494580  )
        52           H1  tau(  52) = (   6.0816938   3.5230213  20.4074400  )
        53           H1  tau(  53) = (   1.1988782   3.7880179  20.0220438  )
        54           O1  tau(  54) = (   3.2442500   5.9498283  18.2024067  )
        55           H1  tau(  55) = (   4.0366425   0.4867780  18.4672138  )
        56           H1  tau(  56) = (   2.4709518   0.5160301  18.4623371  )

     number of k points=    10  Fermi-Dirac smearing, width (Ry)=  0.0073
                       cart. coord. in units 2pi/alat
        k(    1) = (   0.0000000   0.0000000   0.0000000), wk =   0.1250000
        k(    2) = (   0.0000000   0.0419351   0.0000000), wk =   0.2500000
        k(    3) = (   0.0000000  -0.0838702   0.0000000), wk =   0.1250000
        k(    4) = (   0.0379955   0.0000049   0.0000000), wk =   0.2500000
        k(    5) = (   0.0379955   0.0419400   0.0000000), wk =   0.2500000
        k(    6) = (   0.0379955  -0.0838652   0.0000000), wk =   0.2500000
        k(    7) = (   0.0379955  -0.0419301   0.0000000), wk =   0.2500000
        k(    8) = (  -0.0759910  -0.0000099   0.0000000), wk =   0.1250000
        k(    9) = (  -0.0759910   0.0419252   0.0000000), wk =   0.2500000
        k(   10) = (  -0.0759910  -0.0838800   0.0000000), wk =   0.1250000

     Initial potential from superposition of free atoms

     starting charge  386.99914, renormalised to  403.00000

     negative rho (up, down):  1.445E-02 0.000E+00

     %%%%%%%%%%%%%%%%%%%%%%%%%%%%%%%%%%%%%%%%%%%%%%%%%%%%%%%%%%%%%%%%%%%%%%%%
     %                                                                      %
     % You are using vdW-DF, which was implemented by the Thonhauser group. %
     % Please cite the following two papers that made this development      %
     % possible and the two reviews that describe the various versions:     %
     %                                                                      %
     %   T. Thonhauser et al., PRL 115, 136402 (2015).                      %
     %   T. Thonhauser et al., PRB 76, 125112 (2007).                       %
     %   K. Berland et al., Rep. Prog. Phys. 78, 066501 (2015).             %
     %   D.C. Langreth et al., J. Phys.: Condens. Matter 21, 084203 (2009). %
     %                                                                      %
     %                                                                      %
     % If you are calculating the stress with vdW-DF, please also cite:     %
     %                                                                      %
     %   R. Sabatini et al., J. Phys.: Condens. Matter 24, 424209 (2012).   %
     %                                                                      %
     %%%%%%%%%%%%%%%%%%%%%%%%%%%%%%%%%%%%%%%%%%%%%%%%%%%%%%%%%%%%%%%%%%%%%%%%

     Adding external electric field

     Computed dipole along edir(3) :
        Dipole              -13.2286 Ry au,        -33.6236 Debye
        Dipole field         -0.0250 Ry au,

        Potential amp.        2.3141 Ry
        Total length         46.3494 bohr

     Starting wfcs are  305 atomic wfcs
  @ DRIVER MODE: Message from server: STATUS
  @ DRIVER MODE: Message from server: POSDATA
  @ DRIVER MODE: Reading and sharing cell
  @ DRIVER MODE: Reading and sharing positions
  @ DRIVER MODE: Received positions

     Self-consistent Calculation

     iteration #  1     ecut=    29.40 Ry     beta= 0.05
     Davidson diagonalization with overlap
     c_bands:  4 eigenvalues not converged
     c_bands:  2 eigenvalues not converged
     c_bands:  4 eigenvalues not converged
     c_bands:  5 eigenvalues not converged
     c_bands:  1 eigenvalues not converged
     c_bands:  1 eigenvalues not converged
     c_bands:  4 eigenvalues not converged
     c_bands:  1 eigenvalues not converged
     c_bands:  1 eigenvalues not converged
     ethr =  1.00E-05,  avg # of iterations = 27.8

[...]

     total energy              =   -2367.61977843 Ry
     estimated scf accuracy    <    6915.33259920 Ry

     iteration #  2     ecut=    29.40 Ry     beta= 0.05
     Davidson diagonalization with overlap
     ethr =  1.00E-02,  avg # of iterations = 23.8

[...]

     iteration # 70     ecut=    29.40 Ry     beta= 0.05
     Davidson diagonalization with overlap
     c_bands:  1 eigenvalues not converged
     ethr =  4.30E-11,  avg # of iterations = 10.2

[...]

     total energy              =   -2974.00299376 Ry
     estimated scf accuracy    <       0.00000010 Ry

     iteration # 72     ecut=    29.40 Ry     beta= 0.05
     Davidson diagonalization with overlap
     ethr =  2.38E-11,  avg # of iterations =  5.8

     negative rho (up, down):  1.457E-02 0.000E+00

     Adding external electric field

     Computed dipole along edir(3) :
        Dipole                0.9318 Ry au,          2.3684 Debye
        Dipole field          0.0018 Ry au,

        Potential amp.       -0.1630 Ry
        Total length         46.3494 bohr

     End of self-consistent calculation

          k = 0.0000 0.0000 0.0000 ( 18029 PWs)   bands (ev):

   -55.5960 -55.5619 -55.5554 -55.5485 -55.5193 -55.4289 -55.4061 -55.3887
   -55.3722 -55.3712 -55.3439 -55.3374 -54.9950 -54.8642 -54.5748 -54.5407
   -32.0976 -32.0785 -31.9477 -31.9290 -31.9049 -31.8888 -31.8609 -31.8588
   -31.8389 -31.7921 -31.7848 -31.7709 -31.7482 -31.7339 -31.7185 -31.7122
   -31.7004 -31.6877 -31.6825 -31.6531 -31.6462 -31.6335 -31.5987 -31.5946
   -31.5836 -31.5812 -31.5779 -31.5702 -31.5463 -31.5434 -31.5407 -31.5360
   -31.5239 -31.5233 -31.5130 -31.5037 -31.4830 -31.2649 -31.1933 -31.1221
   -31.1020 -31.0711 -30.9819 -30.8934 -30.8710 -30.7986 -30.7121 -30.6011
   -18.9029 -18.3418 -16.2954 -16.0623 -15.8377 -15.7453 -15.7039 -15.4976
   -15.3970 -15.3211 -15.2034 -15.1392 -15.1309 -15.1119 -15.1005 -15.0970
   -15.0368 -15.0333 -15.0319 -15.0173 -14.9920 -14.9442 -14.9294 -14.9253
   -14.8302 -14.7582 -14.7337 -14.7167 -14.6737 -14.6485 -14.1980 -13.0769
   -12.9605 -11.3827  -6.8670  -6.6935  -4.2315  -3.8941  -3.8594  -3.6699
    -3.5405  -3.5005  -3.4304  -3.3601  -3.2306  -3.2032  -3.0309  -2.8300
    -2.7699  -2.7414  -2.6954  -2.6243  -2.5094  -2.4538  -2.4029  -2.4003
    -2.3812  -2.3745  -2.3503  -2.3317  -2.2354  -2.2143  -2.1467  -2.1294
    -2.0816  -1.9793  -1.9502  -1.9083  -1.8995  -1.8724  -1.8589  -1.8448
    -1.8212  -1.7970  -1.7568  -1.6913  -1.6163  -1.5773  -1.5038  -1.4469
    -1.4037  -1.3432  -1.2063  -1.1308  -1.0846  -1.0518  -1.0412  -1.0227
    -0.9885  -0.9715  -0.8603  -0.7482  -0.7324  -0.6680  -0.6050  -0.5221
    -0.4908  -0.4280  -0.3634  -0.3454  -0.3403  -0.3045  -0.2648  -0.2177
    -0.0783  -0.0236   0.0102   0.0180   0.0793   0.1211   0.1527   0.2345
     0.2491   0.2896   0.3329   0.3640   0.3752   0.3853   0.4061   0.4370
     0.4417   0.6310   0.6742   0.7180   0.7536   0.7912   0.9376   0.9559
     1.0635   1.1685   1.3743   1.4476   1.5467   1.6396   2.0190   2.0648
     2.7774   3.5383   3.6258   3.6707   3.7083   3.7843   3.7945   3.9933
     4.0086   4.0476   4.1231

[...]

          k = 0.0380-0.0419 0.0000 ( 17876 PWs)   bands (ev):

[...]

          k =-0.0760-0.0000 0.0000 ( 17886 PWs)   bands (ev):

[...]

          k =-0.0760-0.0839 0.0000 ( 17948 PWs)   bands (ev):

   -55.5794 -55.5784 -55.5474 -55.5384 -55.5356 -55.4191 -55.3986 -55.3896
   -55.3880 -55.3563 -55.3525 -55.3453 -54.9929 -54.8661 -54.5578 -54.5576
   -31.9113 -31.8949 -31.8941 -31.8934 -31.8747 -31.8737 -31.8346 -31.8259
   -31.7985 -31.7771 -31.7655 -31.7580 -31.7527 -31.7088 -31.7057 -31.7026
   -31.7002 -31.6989 -31.6979 -31.6935 -31.6911 -31.6903 -31.6509 -31.6378
   -31.6170 -31.6109 -31.6038 -31.5895 -31.5888 -31.5861 -31.5799 -31.5711
   -31.5671 -31.5576 -31.5572 -31.5488 -31.4146 -31.2669 -31.2116 -31.1557
   -31.1239 -31.0982 -30.8838 -30.8836 -30.7948 -30.7945 -30.7554 -30.7553
   -18.9018 -18.3381 -15.7497 -15.6452 -15.5482 -15.5127 -15.4564 -15.3968
   -15.3823 -15.3006 -15.2772 -15.2736 -15.2135 -15.1911 -15.1563 -15.1436
   -15.1220 -15.1089 -15.1048 -15.0487 -15.0424 -15.0329 -15.0261 -15.0227
   -14.9561 -14.9135 -14.9099 -14.9054 -14.7807 -14.6551 -14.3781 -13.0624
   -13.0621 -11.3802  -6.8928  -6.6744  -4.1598  -3.9179  -3.8304  -3.2612
    -3.0325  -2.8309  -2.8015  -2.7070  -2.6917  -2.6618  -2.5294  -2.4895
    -2.4499  -2.4355  -2.4125  -2.4112  -2.3983  -2.3922  -2.3764  -2.3529
    -2.3238  -2.2979  -2.2680  -2.2596  -2.2475  -2.2295  -2.2167  -2.1988
    -2.1963  -2.1518  -2.1310  -2.1216  -2.0393  -1.9852  -1.8216  -1.7791
    -1.7345  -1.7249  -1.7002  -1.6957  -1.6621  -1.6484  -1.6014  -1.5852
    -1.4781  -1.3574  -1.3180  -1.2968  -1.2839  -1.2651  -1.1937  -1.0927
    -1.0682  -0.9934  -0.9890  -0.8860  -0.8721  -0.7921  -0.7811  -0.7574
    -0.7003  -0.6645  -0.6448  -0.5606  -0.5550  -0.5345  -0.4911  -0.4608
    -0.4029  -0.3465  -0.3170  -0.3081  -0.2703  -0.2457  -0.2048  -0.1565
    -0.0922  -0.0540   0.0414   0.1441   0.2266   0.3643   0.4745   0.5020
     0.5763   0.6134   0.6870   0.7174   0.7244   0.7852   0.7984   0.8864
     0.9450   0.9578   0.9937   1.1126   1.8109   1.8123   1.8843   1.8846
     2.8059   3.7628   3.8725   3.9153   3.9364   4.0116   4.0526   4.0725
     4.0750   4.1110   4.2141

     the Fermi energy is     3.5376 ev

!    total energy              =   -2974.00301193 Ry
     estimated scf accuracy    <       0.00000007 Ry
     smearing contrib. (-TS)   =      -0.02182823 Ry
     internal energy E=F+TS    =   -2973.98118370 Ry

     The total energy is F=E-TS. E is the sum of the following terms:
     one-electron contribution =  -23852.00567000 Ry
     hartree contribution      =   12020.63728472 Ry
     xc contribution           =    -494.04615695 Ry
     ewald contribution        =    9351.43172008 Ry
     electric field correction =       0.00163845 Ry

     convergence has been achieved in  72 iterations

     Forces acting on atoms (cartesian axes, Ry/au):

     atom    1 type  1   force =     0.00016881   -0.00021408    0.09634090
     atom    2 type  1   force =    -0.00018335   -0.00044611   -0.17541467
     atom    3 type  2   force =     0.00001815   -0.00014664   -0.02470675
     atom    4 type  2   force =     0.00005398   -0.00162121    0.05343641
     atom    5 type  2   force =    -0.01197952   -0.00148059    0.00369267
     atom    6 type  2   force =     0.01343348   -0.00064082    0.00222749
     atom    7 type  1   force =    -0.00108220    0.00055986   -0.00698535
     atom    8 type  1   force =     0.00064160    0.00918514    0.02677646
     atom    9 type  2   force =     0.00017623    0.00020102   -0.00046402
     atom   10 type  2   force =    -0.00157738   -0.00030137   -0.01792605
     atom   11 type  2   force =     0.00091466    0.00089937    0.00000312
     atom   12 type  2   force =    -0.00062344    0.00060196   -0.00002861
     atom   13 type  1   force =    -0.00026257    0.00023439   -0.00031640
     atom   14 type  1   force =     0.00027177    0.00026721    0.00001838
     atom   15 type  2   force =     0.00007718    0.00046399   -0.00040893
     atom   16 type  2   force =     0.00000732    0.00021156    0.00089900
     atom   17 type  2   force =     0.00106505    0.00004534    0.00021428
     atom   18 type  2   force =    -0.00142063   -0.00001813    0.00003877
     atom   19 type  1   force =    -0.00006039    0.00135036   -0.00024609
     atom   20 type  1   force =    -0.00022380   -0.00019453   -0.00002185
     atom   21 type  2   force =     0.00009817    0.00001441    0.10325308
     atom   22 type  2   force =    -0.00009879    0.00033576    0.00091779
     atom   23 type  2   force =    -0.07146061   -0.00008944   -0.02777982
     atom   24 type  2   force =     0.07144837    0.00035545   -0.02777400
     atom   25 type  1   force =     0.00001296   -0.00032995    0.09607827
     atom   26 type  1   force =    -0.00030461   -0.00044417   -0.17577066
     atom   27 type  2   force =     0.00008862   -0.00025242   -0.02369809
     atom   28 type  2   force =     0.00011902   -0.00130047    0.05283819
     atom   29 type  2   force =    -0.01224986    0.00021558    0.00356883
     atom   30 type  2   force =     0.01358830    0.00042818    0.00206983
     atom   31 type  1   force =    -0.00117357    0.00349793   -0.01018210
     atom   32 type  1   force =     0.00082350   -0.01099183    0.02707627
     atom   33 type  2   force =     0.00010148    0.00000118    0.00058414
     atom   34 type  2   force =    -0.00116275   -0.00122912   -0.02348848
     atom   35 type  2   force =     0.00082843   -0.00051819   -0.00010067
     atom   36 type  2   force =    -0.00059477   -0.00018238   -0.00013096
     atom   37 type  1   force =    -0.00056284    0.00020692   -0.00038953
     atom   38 type  1   force =     0.00028348   -0.00024912    0.00007676
     atom   39 type  2   force =     0.00012692    0.00052380   -0.00003813
     atom   40 type  2   force =     0.00019769    0.00014601   -0.00048210
     atom   41 type  2   force =     0.00075859    0.00070182    0.00039767
     atom   42 type  2   force =    -0.00086239    0.00067732    0.00027155
     atom   43 type  1   force =     0.00000385   -0.00098302   -0.00104031
     atom   44 type  1   force =    -0.00030892    0.00112159    0.00006435
     atom   45 type  2   force =     0.00008698   -0.00002621    0.10324781
     atom   46 type  2   force =    -0.07146599   -0.00001846   -0.02778876
     atom   47 type  2   force =     0.07145208    0.00039583   -0.02778716
     atom   48 type  3   force =     0.00079001   -0.01163830    0.00188716
     atom   49 type  3   force =    -0.00039061    0.00329346   -0.00342702
     atom   50 type  4   force =    -0.00001934    0.00650622    0.00103766
     atom   51 type  5   force =     0.00016095    0.00050073   -0.00006554
     atom   52 type  5   force =     0.00026817   -0.00024316   -0.00040008
     atom   53 type  5   force =     0.00005817   -0.00014458   -0.00033902
     atom   54 type  2   force =     0.00162748    0.00005143   -0.00011269
     atom   55 type  5   force =    -0.00059803   -0.00006574   -0.00017235
     atom   56 type  5   force =    -0.00108512    0.00077622    0.00046936

     Total force =     0.368058     Total SCF correction =     0.000830
  @ DRIVER MODE: Message from server: STATUS
  @ DRIVER MODE: Message from server: GETFORCE
  @ DRIVER MODE: Returning v,forces,stress,ensemble

     Writing output data file ./calc.save/
  @ DRIVER MODE: Message from server: EXIT
  @ DRIVE MODE: Exiting

     General routines

     Parallel routines

   This run was terminated on:  17:11:30  15Sep2021

   JOB DONE.