     Program PWSCF v.6.7GPU starts on  2Aug2021 at 14:43:33

     R & G space division:  proc/nbgrp/npool/nimage =      16
     Reading input from /storage/home/hcoda1/3/ntian30/research/carbon/02Aug_vib_paired/ads_slab/CH3NHH_a/out_0004/pw.inp
Warning: card &CELL ignored
Warning: card   CELL_DYNAMICS='IPI', ignored
Warning: card / ignored

     Current dimensions of program PWSCF are:
     Max number of different atomic species (ntypx) = 10
     Max number of k-points (npk) =  40000
     Max angular momentum in pseudopotentials (lmaxx) =  3
     Presently no symmetry can be used with electric field

     Message from routine cell_base_init:
     DEPRECATED: use true lattice parameter, not A to a.u. conversion factor

     IMPORTANT: XC functional enforced from input :
     Exchange-correlation= BEEF-VDW
                           (   1   4  43  14   2   0   0)
     Any further DFT definition will be discarded
     Please, verify this is what you really want

  @ DRIVER MODE: Connecting to
 qe_1139763_2482538.sched-torque.pace.gatech.eduh30g9aqq_scratch
  using UNIX socket
  @ DRIVER MODE: Message from server: STATUS
  @ DRIVER MODE: Message from server: INIT
  @ DRIVER MODE: Receiving replica           0          -1
  @ DRIVER MODE: Receiving encoded integer          25
  @ DRIVER MODE:  SCF:  T  FORCE:  T  STRESS:  F  VC:  F  ENSEMBLE:  F
  @ DRIVER MODE:  SCF:  T  FORCE:  T  STRESS:  F  VC:  F  ENSEMBLE:  F

     Using Slab Decomposition

     bravais-lattice index     =            0
     lattice parameter (alat)  =       1.8897  a.u.
     unit-cell volume          =    6658.9804 (a.u.)^3
     number of atoms/cell      =           54
     number of atomic types    =            5
     number of electrons       =       392.00
     number of Kohn-Sham states=          206
     kinetic-energy cutoff     =      29.3995  Ry
     charge density cutoff     =     293.9946  Ry
     scf convergence threshold =      7.3E-08
     mixing beta               =       0.0500
     number of iterations used =            8  plain     mixing
     Exchange-correlation= BEEF-VDW
                           (   1   4  43  14   2   0   0)

     celldm(1)=   1.889726  celldm(2)=   0.000000  celldm(3)=   0.000000
     celldm(4)=   0.000000  celldm(5)=   0.000000  celldm(6)=   0.000000

     crystal axes: (cart. coord. in units of alat)
               a(1) = (   6.579727   0.000000   0.000000 )
               a(2) = (  -0.000775   5.961596   0.000000 )
               a(3) = (   0.000000   0.000000  25.155947 )

     reciprocal axes: (cart. coord. in units 2 pi/alat)
               b(1) = (  0.151982  0.000020  0.000000 )
               b(2) = (  0.000000  0.167740  0.000000 )
               b(3) = (  0.000000  0.000000  0.039752 )

     PseudoPot. # 1 for Ti read from file:
     /storage/coda1/p-amedford6/0/shared/rich_project_chbe-medford/medford-share/data/pseudos_module/espresso/nninc/pbe/van/Ti.UPF
     MD5 check sum: 8e4df49b7f0d34bbd5052bf3f5ea0213
     Pseudo is Ultrasoft, Zval = 12.0
     Generated by new atomic code, or converted to UPF format
     Using radial grid of  851 points,  6 beta functions with:
                l(1) =   0
                l(2) =   0
                l(3) =   1
                l(4) =   1
                l(5) =   2
                l(6) =   2
     Q(r) pseudized with  8 coefficients,  rinner =    1.000   1.000   1.000
                                                       1.000   1.000

     PseudoPot. # 2 for O  read from file:
     /storage/coda1/p-amedford6/0/shared/rich_project_chbe-medford/medford-share/data/pseudos_module/espresso/nninc/pbe/van/O.UPF
     MD5 check sum: 78c19812648e8988a0fe644b0f25305e
     Pseudo is Ultrasoft, Zval =  6.0
     Generated by new atomic code, or converted to UPF format
     Using radial grid of  737 points,  4 beta functions with:
                l(1) =   0
                l(2) =   0
                l(3) =   1
                l(4) =   1
     Q(r) pseudized with  8 coefficients,  rinner =    0.800   0.800   0.800

     PseudoPot. # 3 for N  read from file:
     /storage/coda1/p-amedford6/0/shared/rich_project_chbe-medford/medford-share/data/pseudos_module/espresso/nninc/pbe/van/N.UPF
     MD5 check sum: 90d10febe142ad51ac9d5be1deb811c4
     Pseudo is Ultrasoft, Zval =  5.0
     Generated by new atomic code, or converted to UPF format
     Using radial grid of  729 points,  4 beta functions with:
                l(1) =   0
                l(2) =   0
                l(3) =   1
                l(4) =   1
     Q(r) pseudized with  8 coefficients,  rinner =    0.800   0.800   0.800

     PseudoPot. # 4 for C  read from file:
     /storage/coda1/p-amedford6/0/shared/rich_project_chbe-medford/medford-share/data/pseudos_module/espresso/nninc/pbe/van/C.UPF
     MD5 check sum: 1a69bf6b8db32088f5b2163dbdb77a27
     Pseudo is Ultrasoft, Zval =  4.0
     Generated by new atomic code, or converted to UPF format
     Using radial grid of  721 points,  4 beta functions with:
                l(1) =   0
                l(2) =   0
                l(3) =   1
                l(4) =   1
     Q(r) pseudized with  8 coefficients,  rinner =    0.800   0.800   0.800

     PseudoPot. # 5 for H  read from file:
     /storage/coda1/p-amedford6/0/shared/rich_project_chbe-medford/medford-share/data/pseudos_module/espresso/nninc/pbe/van/H.UPF
     MD5 check sum: b5ee9d7bfd3a09ee7748110bda690ff7
     Pseudo is Ultrasoft, Zval =  1.0
     Generated by new atomic code, or converted to UPF format
     Using radial grid of  615 points,  1 beta functions with:
                l(1) =   0
     Q(r) pseudized with  8 coefficients,  rinner =    0.800

     atomic species   valence    mass     pseudopotential
        Ti1           12.00    47.86700     Ti( 1.00)
        O1             6.00    15.99900     O ( 1.00)
        N1             5.00    14.00700     N ( 1.00)
        C1             4.00    12.01100     C ( 1.00)
        H1             1.00     1.00800     H ( 1.00)

     No symmetry found

   Cartesian axes

     site n.     atom                  positions (alat units)
         1           Ti1 tau(   1) = (   0.0004258   2.9801865   6.0000000  )
         2           Ti1 tau(   2) = (   3.2906075   1.4906267   6.0002472  )
         3           O1  tau(   3) = (   0.0006271   0.0005054   7.9858123  )
         4           O1  tau(   4) = (   3.2906025   0.0005020   7.3038282  )
         5           O1  tau(   5) = (   4.5942328   1.4918067   9.2879030  )
         6           O1  tau(   6) = (   1.9868534   1.4903216   9.2879459  )
         7           Ti1 tau(   7) = (   3.2907910   2.8959150   9.1758416  )
         8           Ti1 tau(   8) = (   0.0015273   1.4827037   9.2680791  )
         9           O1  tau(   9) = (   3.2893523   5.9576907  11.3759447  )
        10           O1  tau(  10) = (   0.0116148   5.9584955  10.6183126  )
        11           O1  tau(  11) = (   1.2892553   1.4862333  12.6941169  )
        12           O1  tau(  12) = (   5.2958346   1.4833122  12.6807028  )
        13           Ti1 tau(  13) = (   0.0095698   2.9692159  12.5083673  )
        14           Ti1 tau(  14) = (   3.3108451   1.4743585  12.5306019  )
        15           O1  tau(  15) = (   6.5736105   5.8801748  14.6991865  )
        16           O1  tau(  16) = (   3.2979610   5.9450902  14.0010558  )
        17           O1  tau(  17) = (   4.5273680   1.5185660  16.1654609  )
        18           O1  tau(  18) = (   2.0122787   1.5163527  16.1384539  )
        19           Ti1 tau(  19) = (   3.2802752   2.9921964  15.7561315  )
        20           Ti1 tau(  20) = (   0.0093588   1.3049760  15.8672178  )
        21           O1  tau(  21) = (   3.2904802   0.0005063   4.7018136  )
        22           O1  tau(  22) = (   6.5538635   0.1342075  17.2452287  )
        23           O1  tau(  23) = (   1.3043587   1.4918075   6.0039043  )
        24           O1  tau(  24) = (   5.2767064   1.4903225   6.0039473  )
        25           Ti1 tau(  25) = (   0.0000382   5.9609847   6.0000000  )
        26           Ti1 tau(  26) = (   3.2902200   4.4714249   6.0002472  )
        27           O1  tau(  27) = (   0.0002396   2.9813036   7.9858123  )
        28           O1  tau(  28) = (   3.2902150   2.9813002   7.3038282  )
        29           O1  tau(  29) = (   4.5938453   4.4726049   9.2879030  )
        30           O1  tau(  30) = (   1.9864658   4.4711199   9.2879459  )
        31           Ti1 tau(  31) = (   3.2891106   5.8743827   9.1763621  )
        32           Ti1 tau(  32) = (   0.0006254   4.4649316   9.2693709  )
        33           O1  tau(  33) = (   3.2933707   2.9638296  11.3700534  )
        34           O1  tau(  34) = (   0.0092240   2.9805883  10.6323155  )
        35           O1  tau(  35) = (   1.2923283   4.4540072  12.6594629  )
        36           O1  tau(  36) = (   5.2938616   4.4568750  12.6477176  )
        37           Ti1 tau(  37) = (   0.0202681   5.9396231  12.5027719  )
        38           Ti1 tau(  38) = (   3.3116628   4.4527548  12.5215617  )
        39           O1  tau(  39) = (   6.5466975   3.0260875  14.9671898  )
        40           O1  tau(  40) = (   3.2966604   2.9917109  13.9679302  )
        41           O1  tau(  41) = (   4.5116687   4.4737236  16.2360857  )
        42           O1  tau(  42) = (   2.0028912   4.4646324  16.2202640  )
        43           Ti1 tau(  43) = (   3.2937213   0.0113368  15.7972781  )
        44           Ti1 tau(  44) = (   0.0208052   4.5175143  16.0574476  )
        45           O1  tau(  45) = (   3.2900926   2.9813045   4.7018136  )
        46           O1  tau(  46) = (   1.3039711   4.4726057   6.0039043  )
        47           O1  tau(  47) = (   5.2763189   4.4711207   6.0039473  )
        48           N1  tau(  48) = (   6.3337458   3.3724127  18.1270434  )
        49           C1  tau(  49) = (   0.8795605   3.2639204  19.0799812  )
        50           H1  tau(  50) = (   1.4196110   4.2071110  19.0760701  )
        51           H1  tau(  51) = (   0.5395241   3.0459488  20.0957609  )
        52           H1  tau(  52) = (   1.5475163   2.4696122  18.7548312  )
        53           H1  tau(  53) = (   5.6940081   4.0973896  18.4182617  )
        54           H1  tau(  54) = (   5.7906660   2.4998151  18.1411682  )

     number of k points=    10  Fermi-Dirac smearing, width (Ry)=  0.0073
                       cart. coord. in units 2pi/alat
        k(    1) = (   0.0000000   0.0000000   0.0000000), wk =   0.1250000
        k(    2) = (   0.0000000   0.0419351   0.0000000), wk =   0.2500000
        k(    3) = (   0.0000000  -0.0838702   0.0000000), wk =   0.1250000
        k(    4) = (   0.0379955   0.0000049   0.0000000), wk =   0.2500000
        k(    5) = (   0.0379955   0.0419400   0.0000000), wk =   0.2500000
        k(    6) = (   0.0379955  -0.0838652   0.0000000), wk =   0.2500000
        k(    7) = (   0.0379955  -0.0419301   0.0000000), wk =   0.2500000
        k(    8) = (  -0.0759910  -0.0000099   0.0000000), wk =   0.1250000
        k(    9) = (  -0.0759910   0.0419252   0.0000000), wk =   0.2500000
        k(   10) = (  -0.0759910  -0.0838800   0.0000000), wk =   0.1250000

[...]
     Using radial grid of  729 points,  4 beta functions with:
                l(1) =   0
                l(2) =   0
                l(3) =   1
                l(4) =   1
     Q(r) pseudized with  8 coefficients,  rinner =    0.800   0.800   0.800

     PseudoPot. # 4 for C  read from file:
     /storage/coda1/p-amedford6/0/shared/rich_project_chbe-medford/medford-share/data/pseudos_module/espresso/nninc/pbe/van/C.UPF
     MD5 check sum: 1a69bf6b8db32088f5b2163dbdb77a27
     Pseudo is Ultrasoft, Zval =  4.0
     Generated by new atomic code, or converted to UPF format
     Using radial grid of  721 points,  4 beta functions with:
                l(1) =   0
                l(2) =   0
                l(3) =   1
                l(4) =   1
     Q(r) pseudized with  8 coefficients,  rinner =    0.800   0.800   0.800

     PseudoPot. # 5 for H  read from file:
     /storage/coda1/p-amedford6/0/shared/rich_project_chbe-medford/medford-share/data/pseudos_module/espresso/nninc/pbe/van/H.UPF
     MD5 check sum: b5ee9d7bfd3a09ee7748110bda690ff7
     Pseudo is Ultrasoft, Zval =  1.0
     Generated by new atomic code, or converted to UPF format
     Using radial grid of  615 points,  1 beta functions with:
                l(1) =   0
     Q(r) pseudized with  8 coefficients,  rinner =    0.800

     atomic species   valence    mass     pseudopotential
        Ti1           12.00    47.86700     Ti( 1.00)
        O1             6.00    15.99900     O ( 1.00)
        N1             5.00    14.00700     N ( 1.00)
        C1             4.00    12.01100     C ( 1.00)
        H1             1.00     1.00800     H ( 1.00)

     No symmetry found

   Cartesian axes

     site n.     atom                  positions (alat units)
         1           Ti1 tau(   1) = (   0.0004258   2.9801865   6.0000000  )
         2           Ti1 tau(   2) = (   3.2906075   1.4906267   6.0002472  )
         3           O1  tau(   3) = (   0.0006271   0.0005054   7.9858123  )
         4           O1  tau(   4) = (   3.2906025   0.0005020   7.3038282  )
         5           O1  tau(   5) = (   4.5942328   1.4918067   9.2879030  )
         6           O1  tau(   6) = (   1.9868534   1.4903216   9.2879459  )
         7           Ti1 tau(   7) = (   3.2907910   2.8959150   9.1758416  )
         8           Ti1 tau(   8) = (   0.0015273   1.4827037   9.2680791  )
         9           O1  tau(   9) = (   3.2893523   5.9576907  11.3759447  )
        10           O1  tau(  10) = (   0.0116148   5.9584955  10.6183126  )
        11           O1  tau(  11) = (   1.2892553   1.4862333  12.6941169  )
        12           O1  tau(  12) = (   5.2958346   1.4833122  12.6807028  )
        13           Ti1 tau(  13) = (   0.0095698   2.9692159  12.5083673  )
        14           Ti1 tau(  14) = (   3.3108451   1.4743585  12.5306019  )
        15           O1  tau(  15) = (   6.5736105   5.8801748  14.6991865  )
        16           O1  tau(  16) = (   3.2979610   5.9450902  14.0010558  )
        17           O1  tau(  17) = (   4.5273680   1.5185660  16.1654609  )
        18           O1  tau(  18) = (   2.0122787   1.5163527  16.1384539  )
        19           Ti1 tau(  19) = (   3.2802752   2.9921964  15.7561315  )
        20           Ti1 tau(  20) = (   0.0093588   1.3049760  15.8672178  )
        21           O1  tau(  21) = (   3.2904802   0.0005063   4.7018136  )
        22           O1  tau(  22) = (   6.5538635   0.1342075  17.2452287  )
        23           O1  tau(  23) = (   1.3043587   1.4918075   6.0039043  )
        24           O1  tau(  24) = (   5.2767064   1.4903225   6.0039473  )
        25           Ti1 tau(  25) = (   0.0000382   5.9609847   6.0000000  )
        26           Ti1 tau(  26) = (   3.2902200   4.4714249   6.0002472  )
        27           O1  tau(  27) = (   0.0002396   2.9813036   7.9858123  )
        28           O1  tau(  28) = (   3.2902150   2.9813002   7.3038282  )
        29           O1  tau(  29) = (   4.5938453   4.4726049   9.2879030  )
        30           O1  tau(  30) = (   1.9864658   4.4711199   9.2879459  )
        31           Ti1 tau(  31) = (   3.2891106   5.8743827   9.1763621  )
        32           Ti1 tau(  32) = (   0.0006254   4.4649316   9.2693709  )
        33           O1  tau(  33) = (   3.2933707   2.9638296  11.3700534  )
        34           O1  tau(  34) = (   0.0092240   2.9805883  10.6323155  )
        35           O1  tau(  35) = (   1.2923283   4.4540072  12.6594629  )
        36           O1  tau(  36) = (   5.2938616   4.4568750  12.6477176  )
        37           Ti1 tau(  37) = (   0.0202681   5.9396231  12.5027719  )
        38           Ti1 tau(  38) = (   3.3116628   4.4527548  12.5215617  )
        39           O1  tau(  39) = (   6.5466975   3.0260875  14.9671898  )
        40           O1  tau(  40) = (   3.2966604   2.9917109  13.9679302  )
        41           O1  tau(  41) = (   4.5116687   4.4737236  16.2360857  )
        42           O1  tau(  42) = (   2.0028912   4.4646324  16.2202640  )
        43           Ti1 tau(  43) = (   3.2937213   0.0113368  15.7972781  )
        44           Ti1 tau(  44) = (   0.0208052   4.5175143  16.0574476  )
        45           O1  tau(  45) = (   3.2900926   2.9813045   4.7018136  )
        46           O1  tau(  46) = (   1.3039711   4.4726057   6.0039043  )
        47           O1  tau(  47) = (   5.2763189   4.4711207   6.0039473  )
        48           N1  tau(  48) = (   6.3337458   3.3624127  18.1270434  )
        49           C1  tau(  49) = (   0.8795605   3.2639204  19.0799812  )
        50           H1  tau(  50) = (   1.4196110   4.2071110  19.0760701  )
        51           H1  tau(  51) = (   0.5395241   3.0459488  20.0957609  )
        52           H1  tau(  52) = (   1.5475163   2.4696122  18.7548312  )
        53           H1  tau(  53) = (   5.6940081   4.1073896  18.4182617  )
        54           H1  tau(  54) = (   5.7906660   2.4998151  18.1411682  )

     number of k points=    10  Fermi-Dirac smearing, width (Ry)=  0.0073
                       cart. coord. in units 2pi/alat
        k(    1) = (   0.0000000   0.0000000   0.0000000), wk =   0.1250000
        k(    2) = (   0.0000000   0.0419351   0.0000000), wk =   0.2500000
        k(    3) = (   0.0000000  -0.0838702   0.0000000), wk =   0.1250000
        k(    4) = (   0.0379955   0.0000049   0.0000000), wk =   0.2500000
        k(    5) = (   0.0379955   0.0419400   0.0000000), wk =   0.2500000
        k(    6) = (   0.0379955  -0.0838652   0.0000000), wk =   0.2500000
        k(    7) = (   0.0379955  -0.0419301   0.0000000), wk =   0.2500000
        k(    8) = (  -0.0759910  -0.0000099   0.0000000), wk =   0.1250000
        k(    9) = (  -0.0759910   0.0419252   0.0000000), wk =   0.2500000
        k(   10) = (  -0.0759910  -0.0838800   0.0000000), wk =   0.1250000

     Initial potential from superposition of free atoms

     starting charge  375.99915, renormalised to  392.00000

[...]

     %%%%%%%%%%%%%%%%%%%%%%%%%%%%%%%%%%%%%%%%%%%%%%%%%%%%%%%%%%%%%%%%%%%%%%%%
     %                                                                      %
     % You are using vdW-DF, which was implemented by the Thonhauser group. %
     % Please cite the following two papers that made this development      %
     % possible and the two reviews that describe the various versions:     %
     %                                                                      %
     %   T. Thonhauser et al., PRL 115, 136402 (2015).                      %
     %   T. Thonhauser et al., PRB 76, 125112 (2007).                       %
     %   K. Berland et al., Rep. Prog. Phys. 78, 066501 (2015).             %
     %   D.C. Langreth et al., J. Phys.: Condens. Matter 21, 084203 (2009). %
     %                                                                      %
     %                                                                      %
     % If you are calculating the stress with vdW-DF, please also cite:     %
     %                                                                      %
     %   R. Sabatini et al., J. Phys.: Condens. Matter 24, 424209 (2012).   %
     %                                                                      %
     %%%%%%%%%%%%%%%%%%%%%%%%%%%%%%%%%%%%%%%%%%%%%%%%%%%%%%%%%%%%%%%%%%%%%%%%

[...]

     Starting wfcs are  297 atomic wfcs
  @ DRIVER MODE: Message from server: STATUS
  @ DRIVER MODE: Message from server: POSDATA
  @ DRIVER MODE: Reading and sharing cell
  @ DRIVER MODE: Reading and sharing positions
  @ DRIVER MODE: Received positions

     Self-consistent Calculation

[...]

     iteration # 69     ecut=    29.40 Ry     beta= 0.05
     Davidson diagonalization with overlap
     ethr =  3.94E-11,  avg # of iterations =  9.9

[...]

     total energy              =   -2921.63267985 Ry
     estimated scf accuracy    <       0.00000008 Ry

     iteration # 71     ecut=    29.40 Ry     beta= 0.05
     Davidson diagonalization with overlap
     c_bands:  1 eigenvalues not converged
     c_bands:  1 eigenvalues not converged
     ethr =  2.07E-11,  avg # of iterations = 17.6

     negative rho (up, down):  1.710E-02 0.000E+00

     Adding external electric field

     Computed dipole along edir(3) :
        Dipole                1.2963 Ry au,          3.2948 Debye
        Dipole field          0.0024 Ry au,

        Potential amp.       -0.2268 Ry
        Total length         46.3494 bohr

     End of self-consistent calculation

[...]

          k = 0.0380-0.0419 0.0000 ( 17876 PWs)   bands (ev):

[...]

          k =-0.0760-0.0839 0.0000 ( 17948 PWs)   bands (ev):

   -55.4196 -55.4134 -55.3683 -55.3679 -55.3564 -55.3140 -55.2978 -55.2943
   -55.2423 -55.2387 -55.2351 -55.1997 -55.1989 -55.1187 -54.3980 -54.3977
   -31.8100 -31.8075 -31.8054 -31.7203 -31.6954 -31.6931 -31.6929 -31.6595
   -31.6594 -31.6444 -31.6370 -31.6341 -31.6287 -31.6009 -31.5928 -31.5743
   -31.5717 -31.5676 -31.5660 -31.5635 -31.5610 -31.5569 -31.5186 -31.5146
   -31.5096 -31.5085 -31.5070 -31.4909 -31.4881 -31.4877 -31.4865 -31.4720
   -31.4683 -31.4518 -31.4482 -31.4323 -31.4317 -31.4294 -31.3821 -31.3805
   -31.3780 -31.3289 -30.7209 -30.7206 -30.6370 -30.6367 -30.5974 -30.5973
   -16.1092 -15.7801 -15.6886 -15.6412 -15.4677 -15.4386 -15.4221 -15.4069
   -15.2743 -15.2563 -15.2324 -15.2044 -15.1822 -15.1476 -15.1383 -15.1355
   -15.0560 -15.0419 -15.0349 -15.0190 -14.9530 -14.9432 -14.9409 -14.9335
   -14.8833 -14.8797 -14.8166 -14.7871 -14.7840 -14.5738 -12.9016 -12.9016
   -10.2201  -6.2456  -4.8198  -3.9214  -2.9589  -2.9318  -2.8951  -2.8912
    -2.6832  -2.6419  -2.6066  -2.5809  -2.4910  -2.4514  -2.4362  -2.4282
    -2.3567  -2.3397  -2.3220  -2.2770  -2.2709  -2.2573  -2.2352  -2.2049
    -2.1830  -2.1637  -2.1543  -2.1354  -2.0892  -2.0782  -2.0536  -2.0385
    -2.0355  -2.0168  -1.9893  -1.9429  -1.8161  -1.8080  -1.7406  -1.6414
    -1.6366  -1.5601  -1.5468  -1.5110  -1.4863  -1.4672  -1.4243  -1.2513
    -1.2077  -1.1811  -1.1716  -1.1129  -1.0494  -1.0266  -0.9564  -0.9407
    -0.9222  -0.8182  -0.7738  -0.7590  -0.6688  -0.6568  -0.5785  -0.5113
    -0.4688  -0.4429  -0.3941  -0.3906  -0.3886  -0.3408  -0.3333  -0.2522
    -0.2052  -0.1688  -0.1547  -0.1248   0.0721   0.0830   0.1092   0.2495
     0.2782   0.4017   0.4358   0.4878   0.5630   0.5956   0.6771   0.7125
     0.8418   0.8713   0.8729   0.9453   0.9566   1.0186   1.0281   1.9643
     1.9650   2.0521   2.0523   3.8195   3.8982   3.9247   3.9666   4.0786
     4.1528   4.1788   4.1995   4.2484   4.2510   4.3134

     the Fermi energy is     3.7269 ev

!    total energy              =   -2921.63269650 Ry
     estimated scf accuracy    <       0.00000004 Ry
     smearing contrib. (-TS)   =      -0.03708863 Ry
     internal energy E=F+TS    =   -2921.59560787 Ry

     The total energy is F=E-TS. E is the sum of the following terms:
     one-electron contribution =  -24028.51214491 Ry
     hartree contribution      =   12103.32764838 Ry
     xc contribution           =    -481.74334970 Ry
     ewald contribution        =    9485.32906736 Ry
     electric field correction =       0.00317100 Ry

     convergence has been achieved in  71 iterations

     Forces acting on atoms (cartesian axes, Ry/au):

     atom    1 type  1   force =     0.00002915   -0.00023009    0.09325858
     atom    2 type  1   force =    -0.00018552   -0.00034635   -0.17829086
     atom    3 type  2   force =     0.00002819   -0.00039739   -0.02023018
     atom    4 type  2   force =    -0.00002697   -0.00194757    0.05875620
     atom    5 type  2   force =    -0.01019076   -0.00111685    0.00776591
     atom    6 type  2   force =     0.01166296   -0.00039887    0.00693140
     atom    7 type  1   force =    -0.00049228    0.00211247   -0.01458235
     atom    8 type  1   force =     0.00025333   -0.00051363   -0.00480930
     atom    9 type  2   force =     0.00015094    0.00011576   -0.00007004
     atom   10 type  2   force =    -0.00113684    0.00137743    0.00052057
     atom   11 type  2   force =    -0.00011000    0.00015849    0.00005452
     atom   12 type  2   force =    -0.00002679    0.00036130    0.00022824
     atom   13 type  1   force =    -0.00006338   -0.00018181   -0.00013328
     atom   14 type  1   force =    -0.00015628    0.00009512    0.00027556
     atom   15 type  2   force =    -0.00020422   -0.00029423    0.00008876
     atom   16 type  2   force =    -0.00022509    0.00019749    0.00015869
     atom   17 type  2   force =     0.00013219   -0.00012953    0.00006645
     atom   18 type  2   force =    -0.00003241   -0.00021558    0.00015934
     atom   19 type  1   force =    -0.00028097    0.00029065    0.00050435
     atom   20 type  1   force =     0.00000166    0.00004821   -0.00037514
     atom   21 type  2   force =     0.00002880   -0.00006266    0.10391831
     atom   22 type  2   force =     0.00022887    0.00037200    0.00016011
     atom   23 type  2   force =    -0.07044134   -0.00015798   -0.02693437
     atom   24 type  2   force =     0.07028306    0.00027642   -0.02698356
     atom   25 type  1   force =    -0.00002231   -0.00013904    0.09276030
     atom   26 type  1   force =    -0.00021158   -0.00048735   -0.17831084
     atom   27 type  2   force =     0.00008494   -0.00026637   -0.01929922
     atom   28 type  2   force =     0.00004354   -0.00171570    0.05810184
     atom   29 type  2   force =    -0.01070988   -0.00111899    0.00832471
     atom   30 type  2   force =     0.01205405   -0.00084374    0.00744690
     atom   31 type  1   force =    -0.00039418    0.00597260   -0.01540265
     atom   32 type  1   force =     0.00022723   -0.00001026   -0.00519724
     atom   33 type  2   force =    -0.00007961    0.00001288    0.00007721
     atom   34 type  2   force =    -0.00101458   -0.00248127   -0.00002738
     atom   35 type  2   force =    -0.00006000    0.00023827   -0.00006522
     atom   36 type  2   force =    -0.00012284    0.00009701   -0.00000187
     atom   37 type  1   force =    -0.00003114    0.00008110   -0.00017545
     atom   38 type  1   force =    -0.00008885    0.00000009    0.00010832
     atom   39 type  2   force =     0.00021036   -0.00005904    0.00014811
     atom   40 type  2   force =    -0.00030280    0.00023752   -0.00004992
     atom   41 type  2   force =     0.00015267    0.00049758    0.00004783
     atom   42 type  2   force =    -0.00004742    0.00014890    0.00033162
     atom   43 type  1   force =    -0.00032123    0.00026949    0.00019854
     atom   44 type  1   force =     0.00002907   -0.00039536   -0.00000523
     atom   45 type  2   force =     0.00001707   -0.00007758    0.10389304
     atom   46 type  2   force =    -0.07040787   -0.00009457   -0.02687689
     atom   47 type  2   force =     0.07025670    0.00032903   -0.02692998
     atom   48 type  3   force =    -0.00551228    0.00730645    0.00236562
     atom   49 type  4   force =    -0.00031320   -0.00039566   -0.00019224
     atom   50 type  5   force =     0.00070737    0.00097524   -0.00007786
     atom   51 type  5   force =     0.00023704    0.00025605   -0.00049152
     atom   52 type  5   force =     0.00021938   -0.00045576    0.00003937
     atom   53 type  5   force =     0.00631205   -0.00857596   -0.00158565
     atom   54 type  5   force =    -0.00013798    0.00128170    0.00040783

     Total force =     0.366457     Total SCF correction =     0.000651
  @ DRIVER MODE: Message from server: STATUS
  @ DRIVER MODE: Message from server: GETFORCE
  @ DRIVER MODE: Returning v,forces,stress,ensemble

     Writing output data file ./calc.save/
  @ DRIVER MODE: Message from server: EXIT
  @ DRIVE MODE: Exiting

     General routines

     Parallel routines

   This run was terminated on:  11:27:13   3Aug2021

   JOB DONE.