     Program PWSCF v.6.7GPU starts on  2Aug2021 at 12:55:28

     R & G space division:  proc/nbgrp/npool/nimage =      16
     Reading input from /storage/home/hcoda1/3/ntian30/research/carbon/02Aug_vib_paired/ads_slab/CH3NNHHH_a/out_0003/pw.inp
Warning: card &CELL ignored
Warning: card   CELL_DYNAMICS='IPI', ignored
Warning: card / ignored

     Current dimensions of program PWSCF are:
     Max number of different atomic species (ntypx) = 10
     Max number of k-points (npk) =  40000
     Max angular momentum in pseudopotentials (lmaxx) =  3
     Presently no symmetry can be used with electric field

     Message from routine cell_base_init:
     DEPRECATED: use true lattice parameter, not A to a.u. conversion factor

     IMPORTANT: XC functional enforced from input :
     Exchange-correlation= BEEF-VDW
                           (   1   4  43  14   2   0   0)
     Any further DFT definition will be discarded
     Please, verify this is what you really want

  @ DRIVER MODE: Connecting to
 qe_1139763_2482545.sched-torque.pace.gatech.edu__x3wust_scratch
  using UNIX socket
  @ DRIVER MODE: Message from server: STATUS
  @ DRIVER MODE: Message from server: INIT
  @ DRIVER MODE: Receiving replica           0          -1
  @ DRIVER MODE: Receiving encoded integer          25
  @ DRIVER MODE:  SCF:  T  FORCE:  T  STRESS:  F  VC:  F  ENSEMBLE:  F
  @ DRIVER MODE:  SCF:  T  FORCE:  T  STRESS:  F  VC:  F  ENSEMBLE:  F

     Using Slab Decomposition

     bravais-lattice index     =            0
     lattice parameter (alat)  =       1.8897  a.u.
     unit-cell volume          =    6658.9804 (a.u.)^3
     number of atoms/cell      =           56
     number of atomic types    =            5
     number of electrons       =       398.00
     number of Kohn-Sham states=          209
     kinetic-energy cutoff     =      29.3995  Ry
     charge density cutoff     =     293.9946  Ry
     scf convergence threshold =      7.3E-08
     mixing beta               =       0.0500
     number of iterations used =            8  plain     mixing
     Exchange-correlation= BEEF-VDW
                           (   1   4  43  14   2   0   0)

     celldm(1)=   1.889726  celldm(2)=   0.000000  celldm(3)=   0.000000
     celldm(4)=   0.000000  celldm(5)=   0.000000  celldm(6)=   0.000000

     crystal axes: (cart. coord. in units of alat)
               a(1) = (   6.579727   0.000000   0.000000 )
               a(2) = (  -0.000775   5.961596   0.000000 )
               a(3) = (   0.000000   0.000000  25.155947 )

     reciprocal axes: (cart. coord. in units 2 pi/alat)
               b(1) = (  0.151982  0.000020  0.000000 )
               b(2) = (  0.000000  0.167740  0.000000 )
               b(3) = (  0.000000  0.000000  0.039752 )

     PseudoPot. # 1 for Ti read from file:
     /storage/coda1/p-amedford6/0/shared/rich_project_chbe-medford/medford-share/data/pseudos_module/espresso/nninc/pbe/van/Ti.UPF
     MD5 check sum: 8e4df49b7f0d34bbd5052bf3f5ea0213
     Pseudo is Ultrasoft, Zval = 12.0
     Generated by new atomic code, or converted to UPF format
     Using radial grid of  851 points,  6 beta functions with:
                l(1) =   0
                l(2) =   0
                l(3) =   1
                l(4) =   1
                l(5) =   2
                l(6) =   2
     Q(r) pseudized with  8 coefficients,  rinner =    1.000   1.000   1.000
                                                       1.000   1.000

     PseudoPot. # 2 for O  read from file:
     /storage/coda1/p-amedford6/0/shared/rich_project_chbe-medford/medford-share/data/pseudos_module/espresso/nninc/pbe/van/O.UPF
     MD5 check sum: 78c19812648e8988a0fe644b0f25305e
     Pseudo is Ultrasoft, Zval =  6.0
     Generated by new atomic code, or converted to UPF format
     Using radial grid of  737 points,  4 beta functions with:
                l(1) =   0
                l(2) =   0
                l(3) =   1
                l(4) =   1
     Q(r) pseudized with  8 coefficients,  rinner =    0.800   0.800   0.800

     PseudoPot. # 3 for N  read from file:
     /storage/coda1/p-amedford6/0/shared/rich_project_chbe-medford/medford-share/data/pseudos_module/espresso/nninc/pbe/van/N.UPF
     MD5 check sum: 90d10febe142ad51ac9d5be1deb811c4
     Pseudo is Ultrasoft, Zval =  5.0
     Generated by new atomic code, or converted to UPF format
     Using radial grid of  729 points,  4 beta functions with:
                l(1) =   0
                l(2) =   0
                l(3) =   1
                l(4) =   1
     Q(r) pseudized with  8 coefficients,  rinner =    0.800   0.800   0.800

     PseudoPot. # 4 for C  read from file:
     /storage/coda1/p-amedford6/0/shared/rich_project_chbe-medford/medford-share/data/pseudos_module/espresso/nninc/pbe/van/C.UPF
     MD5 check sum: 1a69bf6b8db32088f5b2163dbdb77a27
     Pseudo is Ultrasoft, Zval =  4.0
     Generated by new atomic code, or converted to UPF format
     Using radial grid of  721 points,  4 beta functions with:
                l(1) =   0
                l(2) =   0
                l(3) =   1
                l(4) =   1
     Q(r) pseudized with  8 coefficients,  rinner =    0.800   0.800   0.800

     PseudoPot. # 5 for H  read from file:
     /storage/coda1/p-amedford6/0/shared/rich_project_chbe-medford/medford-share/data/pseudos_module/espresso/nninc/pbe/van/H.UPF
     MD5 check sum: b5ee9d7bfd3a09ee7748110bda690ff7
     Pseudo is Ultrasoft, Zval =  1.0
     Generated by new atomic code, or converted to UPF format
     Using radial grid of  615 points,  1 beta functions with:
                l(1) =   0
     Q(r) pseudized with  8 coefficients,  rinner =    0.800

     atomic species   valence    mass     pseudopotential
        Ti1           12.00    47.86700     Ti( 1.00)
        O1             6.00    15.99900     O ( 1.00)
        N1             5.00    14.00700     N ( 1.00)
        C1             4.00    12.01100     C ( 1.00)
        H1             1.00     1.00800     H ( 1.00)

     No symmetry found

   Cartesian axes

     site n.     atom                  positions (alat units)
         1           Ti1 tau(   1) = (   0.0004258   2.9801865   6.0000000  )
         2           Ti1 tau(   2) = (   3.2906075   1.4906267   6.0002472  )
         3           O1  tau(   3) = (   0.0006271   0.0005054   7.9858123  )
         4           O1  tau(   4) = (   3.2906025   0.0005020   7.3038282  )
         5           O1  tau(   5) = (   4.5942328   1.4918067   9.2879030  )
         6           O1  tau(   6) = (   1.9868534   1.4903216   9.2879459  )
         7           Ti1 tau(   7) = (   3.2907910   2.8959150   9.1758416  )
         8           Ti1 tau(   8) = (   0.0015273   1.4827037   9.2680791  )
         9           O1  tau(   9) = (   3.2969863   5.9453513  11.3493076  )
        10           O1  tau(  10) = (   0.0116148   5.9584955  10.6183126  )
        11           O1  tau(  11) = (   1.3059050   1.4736943  12.6642453  )
        12           O1  tau(  12) = (   5.3003793   1.4775083  12.6459419  )
        13           Ti1 tau(  13) = (   0.0167275   2.9625105  12.5508078  )
        14           Ti1 tau(  14) = (   3.3131340   1.4712512  12.4909780  )
        15           O1  tau(  15) = (   6.5517612   5.9325698  14.7566896  )
        16           O1  tau(  16) = (   3.3302114   5.9429442  13.9823395  )
        17           O1  tau(  17) = (   4.5243935   1.5056208  16.2316672  )
        18           O1  tau(  18) = (   2.0170937   1.4633510  16.1378485  )
        19           Ti1 tau(  19) = (   3.2500237   2.9242626  15.6920970  )
        20           Ti1 tau(  20) = (   6.5441017   1.2779805  16.1516014  )
        21           O1  tau(  21) = (   3.2904802   0.0005063   4.7018136  )
        22           O1  tau(  22) = (   6.5540411   5.9581837  17.3465722  )
        23           O1  tau(  23) = (   1.3043587   1.4918075   6.0039043  )
        24           O1  tau(  24) = (   5.2767064   1.4903225   6.0039473  )
        25           Ti1 tau(  25) = (   0.0000382   5.9609847   6.0000000  )
        26           Ti1 tau(  26) = (   3.2902200   4.4714249   6.0002472  )
        27           O1  tau(  27) = (   0.0002396   2.9813036   7.9858123  )
        28           O1  tau(  28) = (   3.2902150   2.9813002   7.3038282  )
        29           O1  tau(  29) = (   4.5938453   4.4726049   9.2879030  )
        30           O1  tau(  30) = (   1.9864658   4.4711199   9.2879459  )
        31           Ti1 tau(  31) = (   3.2891106   5.8743827   9.1763621  )
        32           Ti1 tau(  32) = (   0.0006254   4.4649316   9.2693709  )
        33           O1  tau(  33) = (   3.2962403   2.9651072  11.3429128  )
        34           O1  tau(  34) = (   0.0092240   2.9805883  10.6323155  )
        35           O1  tau(  35) = (   1.3076126   4.4641214  12.6643835  )
        36           O1  tau(  36) = (   5.2981430   4.4591552  12.6429889  )
        37           Ti1 tau(  37) = (   0.0194730   5.9489450  12.5196332  )
        38           Ti1 tau(  38) = (   3.3150505   4.4522436  12.4946186  )
        39           O1  tau(  39) = (   6.5702761   2.9869041  14.8038460  )
        40           O1  tau(  40) = (   3.3119818   2.9576719  13.9204832  )
        41           O1  tau(  41) = (   4.5223198   4.3950437  16.2490866  )
        42           O1  tau(  42) = (   2.0356696   4.4339808  16.1311045  )
        43           Ti1 tau(  43) = (   3.3057863   5.9493229  15.7677403  )
        44           Ti1 tau(  44) = (   0.0958844   4.4293496  15.8701971  )
        45           O1  tau(  45) = (   3.2900926   2.9813045   4.7018136  )
        46           O1  tau(  46) = (   1.3039711   4.4726057   6.0039043  )
        47           O1  tau(  47) = (   5.2763189   4.4711207   6.0039473  )
        48           N1  tau(  48) = (   0.0620580   3.0275546  17.6897758  )
        49           C1  tau(  49) = (   1.1116374   2.9693208  18.6984743  )
        50           H1  tau(  50) = (   1.2951007   3.9532040  19.1583453  )
        51           H1  tau(  51) = (   0.8627774   2.2426413  19.4871689  )
        52           H1  tau(  52) = (   2.0263963   2.6228967  18.2308865  )
        53           N1  tau(  53) = (   5.4279256   3.3744730  18.4033390  )
        54           H1  tau(  54) = (   5.6103604   4.1199394  19.0852601  )
        55           H1  tau(  55) = (   4.7934260   3.8076565  17.6395878  )
        56           H1  tau(  56) = (   5.0090149   2.5598412  18.8678436  )

     number of k points=    10  Fermi-Dirac smearing, width (Ry)=  0.0073
                       cart. coord. in units 2pi/alat
        k(    1) = (   0.0000000   0.0000000   0.0000000), wk =   0.1250000
        k(    2) = (   0.0000000   0.0419351   0.0000000), wk =   0.2500000
        k(    3) = (   0.0000000  -0.0838702   0.0000000), wk =   0.1250000
        k(    4) = (   0.0379955   0.0000049   0.0000000), wk =   0.2500000
        k(    5) = (   0.0379955   0.0419400   0.0000000), wk =   0.2500000
        k(    6) = (   0.0379955  -0.0838652   0.0000000), wk =   0.2500000
        k(    7) = (   0.0379955  -0.0419301   0.0000000), wk =   0.2500000
        k(    8) = (  -0.0759910  -0.0000099   0.0000000), wk =   0.1250000
        k(    9) = (  -0.0759910   0.0419252   0.0000000), wk =   0.2500000
        k(   10) = (  -0.0759910  -0.0838800   0.0000000), wk =   0.1250000

     Initial potential from superposition of free atoms

     starting charge  381.99914, renormalised to  398.00000

     negative rho (up, down):  1.616E-02 0.000E+00

     %%%%%%%%%%%%%%%%%%%%%%%%%%%%%%%%%%%%%%%%%%%%%%%%%%%%%%%%%%%%%%%%%%%%%%%%
     %                                                                      %
     % You are using vdW-DF, which was implemented by the Thonhauser group. %
     % Please cite the following two papers that made this development      %
     % possible and the two reviews that describe the various versions:     %
     %                                                                      %
     %   T. Thonhauser et al., PRL 115, 136402 (2015).                      %
     %   T. Thonhauser et al., PRB 76, 125112 (2007).                       %
     %   K. Berland et al., Rep. Prog. Phys. 78, 066501 (2015).             %
     %   D.C. Langreth et al., J. Phys.: Condens. Matter 21, 084203 (2009). %
     %                                                                      %
     %                                                                      %
     % If you are calculating the stress with vdW-DF, please also cite:     %
     %                                                                      %
     %   R. Sabatini et al., J. Phys.: Condens. Matter 24, 424209 (2012).   %
     %                                                                      %
     %%%%%%%%%%%%%%%%%%%%%%%%%%%%%%%%%%%%%%%%%%%%%%%%%%%%%%%%%%%%%%%%%%%%%%%%

     Adding external electric field

     Computed dipole along edir(3) :
        Dipole              -10.5729 Ry au,        -26.8736 Debye
        Dipole field         -0.0200 Ry au,

        Potential amp.        1.8496 Ry
        Total length         46.3494 bohr

     Starting wfcs are  302 atomic wfcs
  @ DRIVER MODE: Message from server: STATUS
  @ DRIVER MODE: Message from server: POSDATA
  @ DRIVER MODE: Reading and sharing cell
  @ DRIVER MODE: Reading and sharing positions
  @ DRIVER MODE: Received positions

     Self-consistent Calculation

     iteration #  1     ecut=    29.40 Ry     beta= 0.05
     Davidson diagonalization with overlap
     c_bands:  3 eigenvalues not converged
     c_bands:  3 eigenvalues not converged
     c_bands:  1 eigenvalues not converged
     c_bands:  5 eigenvalues not converged
     c_bands:  5 eigenvalues not converged
     c_bands:  5 eigenvalues not converged
     c_bands:  1 eigenvalues not converged
     c_bands:  4 eigenvalues not converged
     c_bands:  3 eigenvalues not converged
     ethr =  1.00E-05,  avg # of iterations = 20.0

[...]

     total energy              =   -2442.74692838 Ry
     estimated scf accuracy    <    5591.58656745 Ry

     iteration #  2     ecut=    29.40 Ry     beta= 0.05
     Davidson diagonalization with overlap
     ethr =  1.00E-02,  avg # of iterations = 24.4

[...]

     iteration # 73     ecut=    29.40 Ry     beta= 0.05
     Davidson diagonalization with overlap
     c_bands:  1 eigenvalues not converged
     ethr =  3.03E-11,  avg # of iterations =  8.5

[...]

     total energy              =   -2942.82506567 Ry
     estimated scf accuracy    <       0.00000008 Ry

     iteration # 74     ecut=    29.40 Ry     beta= 0.05
     Davidson diagonalization with overlap
     ethr =  2.05E-11,  avg # of iterations =  3.8

     negative rho (up, down):  1.413E-02 0.000E+00

     Adding external electric field

     Computed dipole along edir(3) :
        Dipole                1.6018 Ry au,          4.0713 Debye
        Dipole field          0.0030 Ry au,

        Potential amp.       -0.2802 Ry
        Total length         46.3494 bohr

     End of self-consistent calculation

          k = 0.0000 0.0000 0.0000 ( 18029 PWs)   bands (ev):

   -55.1450 -55.1084 -55.1061 -55.0720 -55.0273 -55.0121 -54.9891 -54.9463
   -54.9339 -54.9256 -54.9112 -54.9010 -54.8663 -54.7926 -54.1182 -54.0842
   -31.7248 -31.5958 -31.5135 -31.4818 -31.4372 -31.4363 -31.4340 -31.4036
   -31.3996 -31.3960 -31.3695 -31.3546 -31.3510 -31.3226 -31.3048 -31.2796
   -31.2628 -31.2589 -31.2487 -31.2437 -31.2173 -31.2113 -31.2045 -31.1777
   -31.1630 -31.1565 -31.1494 -31.1423 -31.1418 -31.1305 -31.1287 -31.1225
   -31.1053 -31.0965 -31.0911 -31.0644 -31.0617 -31.0495 -31.0427 -31.0357
   -31.0244 -30.9833 -30.5268 -30.4347 -30.4126 -30.3433 -30.2566 -30.1456
   -18.9179 -16.0086 -15.7533 -15.6185 -15.3840 -15.3321 -15.2756 -15.0681
   -15.0666 -14.9941 -14.9791 -14.9311 -14.9118 -14.8446 -14.7600 -14.7386
   -14.6715 -14.6698 -14.6398 -14.6286 -14.6279 -14.5653 -14.5553 -14.5260
   -14.5130 -14.4877 -14.3696 -14.2852 -14.2268 -13.9736 -13.6000 -12.6209
   -12.5038  -9.7363  -7.7141  -7.2066  -5.4552  -3.8139  -3.3461  -3.2719
    -3.1699  -3.1424  -3.0653  -3.0361  -2.8513  -2.8296  -2.4888  -2.4523
    -2.4024  -2.3846  -2.3630  -2.3457  -2.1769  -2.1519  -2.0788  -2.0449
    -2.0262  -1.9865  -1.9704  -1.9601  -1.9264  -1.9207  -1.9117  -1.7045
    -1.6480  -1.5528  -1.5306  -1.5040  -1.4714  -1.4338  -1.4268  -1.4239
    -1.4180  -1.4042  -1.3910  -1.3115  -1.2526  -1.1724  -1.1626  -1.1291
    -1.0236  -0.9762  -0.7754  -0.7618  -0.7163  -0.6742  -0.6114  -0.5895
    -0.5236  -0.4929  -0.4727  -0.3515  -0.3230  -0.2826  -0.2547  -0.1878
    -0.1560  -0.1124  -0.0269   0.0432   0.0785   0.0968   0.1571   0.2866
     0.2979   0.3269   0.3882   0.4515   0.4927   0.5130   0.5315   0.5674
     0.6174   0.7429   0.7879   0.8074   0.8117   0.8459   0.8699   0.9197
     0.9449   1.0044   1.0099   1.1291   1.1984   1.4295   1.4639   1.4844
     1.8166   1.8401   1.9043   2.0903   2.4783   2.5256   3.9596   4.0202
     4.0772   4.0938   4.1128   4.2014   4.2197   4.4224   4.4497   4.4536
     4.4565

[...]

          k = 0.0380-0.0419 0.0000 ( 17876 PWs)   bands (ev):

[...]

          k =-0.0760-0.0000 0.0000 ( 17886 PWs)   bands (ev):

[...]

          k =-0.0760-0.0839 0.0000 ( 17948 PWs)   bands (ev):

   -55.1294 -55.1237 -55.0890 -55.0889 -55.0166 -55.0086 -54.9997 -54.9302
   -54.9290 -54.9262 -54.9186 -54.9171 -54.8627 -54.7962 -54.1012 -54.1010
   -31.5285 -31.5257 -31.4486 -31.4268 -31.4109 -31.4109 -31.3815 -31.3813
   -31.3558 -31.3502 -31.3473 -31.3466 -31.3118 -31.2778 -31.2712 -31.2668
   -31.2655 -31.2615 -31.2594 -31.2532 -31.2222 -31.2184 -31.2159 -31.2131
   -31.2084 -31.2083 -31.1947 -31.1924 -31.1649 -31.1602 -31.1448 -31.1408
   -31.1384 -31.1378 -31.1361 -31.1285 -31.1038 -31.0996 -31.0969 -31.0739
   -31.0470 -31.0296 -30.4253 -30.4252 -30.3394 -30.3392 -30.3000 -30.3000
   -18.9130 -15.5155 -15.4057 -15.2973 -15.2315 -15.1897 -15.1381 -15.1208
   -15.1106 -15.0644 -15.0348 -14.9658 -14.9022 -14.8494 -14.8484 -14.8131
   -14.7353 -14.7214 -14.7144 -14.7037 -14.6473 -14.6406 -14.6091 -14.5882
   -14.5851 -14.5553 -14.4815 -14.4791 -14.3919 -14.1815 -13.6357 -12.6055
   -12.6053  -9.7059  -7.7105  -7.1524  -5.4581  -3.8357  -3.4257  -2.7644
    -2.6534  -2.4423  -2.4167  -2.3569  -2.3371  -2.2521  -2.1904  -2.1689
    -2.1456  -2.1117  -2.1087  -2.0844  -2.0630  -2.0096  -1.9796  -1.9692
    -1.9632  -1.9483  -1.9358  -1.9151  -1.8594  -1.8492  -1.8418  -1.7992
    -1.7883  -1.7565  -1.7503  -1.7115  -1.6943  -1.6187  -1.5258  -1.5012
    -1.4418  -1.3403  -1.3273  -1.3216  -1.2281  -1.2198  -1.1904  -1.1596
    -1.1045  -1.0044  -0.9495  -0.8745  -0.8712  -0.8419  -0.7536  -0.6899
    -0.6565  -0.6464  -0.6048  -0.5500  -0.5275  -0.4939  -0.4104  -0.3695
    -0.3416  -0.3081  -0.2132  -0.1520  -0.1279  -0.0977  -0.0942  -0.0050
     0.0283   0.0650   0.0856   0.1239   0.1505   0.2181   0.2380   0.3480
     0.4175   0.4491   0.5672   0.5912   0.6560   0.7872   0.8588   0.9007
     0.9539   1.0105   1.0371   1.1675   1.1747   1.1999   1.2934   1.3336
     1.3405   1.3536   2.2630   2.2641   2.3456   2.3458   4.0917   4.1785
     4.2216   4.2591   4.3667   4.4760   4.4949   4.5375   4.5383   4.6136
     4.6193

     the Fermi energy is     4.0119 ev

!    total energy              =   -2942.82508257 Ry
     estimated scf accuracy    <       0.00000007 Ry
     smearing contrib. (-TS)   =      -0.03687114 Ry
     internal energy E=F+TS    =   -2942.78821143 Ry

     The total energy is F=E-TS. E is the sum of the following terms:
     one-electron contribution =  -23972.01742417 Ry
     hartree contribution      =   12081.48723138 Ry
     xc contribution           =    -487.76924230 Ry
     ewald contribution        =    9435.50638185 Ry
     electric field correction =       0.00484181 Ry

     convergence has been achieved in  74 iterations

     Forces acting on atoms (cartesian axes, Ry/au):

     atom    1 type  1   force =     0.00014878   -0.00024163    0.09428703
     atom    2 type  1   force =    -0.00009230   -0.00033048   -0.17740739
     atom    3 type  2   force =     0.00005673   -0.00016664   -0.02135028
     atom    4 type  2   force =    -0.00001563   -0.00172468    0.05656753
     atom    5 type  2   force =    -0.01054825   -0.00127315    0.00623465
     atom    6 type  2   force =     0.01221161   -0.00074016    0.00570689
     atom    7 type  1   force =    -0.00033757    0.00171897   -0.01622134
     atom    8 type  1   force =    -0.00010210    0.00438531    0.00559620
     atom    9 type  2   force =     0.00000677   -0.00003940   -0.00005236
     atom   10 type  2   force =    -0.00074436   -0.00021948   -0.00047301
     atom   11 type  2   force =     0.00034203    0.00012799   -0.00020929
     atom   12 type  2   force =    -0.00052193    0.00000624   -0.00014196
     atom   13 type  1   force =     0.00002749   -0.00033043    0.00018232
     atom   14 type  1   force =     0.00056547    0.00010569   -0.00028480
     atom   15 type  2   force =    -0.00036979   -0.00015563   -0.00038263
     atom   16 type  2   force =    -0.00033778    0.00019608   -0.00008392
     atom   17 type  2   force =    -0.00038306    0.00003626    0.00021168
     atom   18 type  2   force =     0.00025342    0.00029446   -0.00023002
     atom   19 type  1   force =     0.00018532    0.00004795    0.00020260
     atom   20 type  1   force =    -0.00001517    0.00040842    0.00015088
     atom   21 type  2   force =     0.00003598    0.00004091    0.10362064
     atom   22 type  2   force =     0.00001421   -0.00186383   -0.00066572
     atom   23 type  2   force =    -0.07082123   -0.00010118   -0.02718296
     atom   24 type  2   force =     0.07068634    0.00033688   -0.02721628
     atom   25 type  1   force =    -0.00009391   -0.00020914    0.09376985
     atom   26 type  1   force =    -0.00012690   -0.00031814   -0.17731442
     atom   27 type  2   force =     0.00008921   -0.00035439   -0.02046069
     atom   28 type  2   force =     0.00003146   -0.00143989    0.05587945
     atom   29 type  2   force =    -0.01090963   -0.00073429    0.00608396
     atom   30 type  2   force =     0.01246146   -0.00029276    0.00556241
     atom   31 type  1   force =    -0.00016123    0.00465229   -0.01719694
     atom   32 type  1   force =    -0.00003088   -0.00483127    0.00559651
     atom   33 type  2   force =     0.00005892    0.00012032    0.00026610
     atom   34 type  2   force =     0.00005665   -0.00085007   -0.00298222
     atom   35 type  2   force =     0.00023103    0.00002388    0.00005192
     atom   36 type  2   force =    -0.00043010    0.00014705   -0.00008747
     atom   37 type  1   force =    -0.00012657   -0.00012813   -0.00005123
     atom   38 type  1   force =     0.00044991   -0.00027526    0.00042034
     atom   39 type  2   force =    -0.00046077    0.00016035    0.00071071
     atom   40 type  2   force =    -0.00012300    0.00019018   -0.00023678
     atom   41 type  2   force =    -0.00001658    0.00036500   -0.00002310
     atom   42 type  2   force =    -0.00006023    0.00024302   -0.00008610
     atom   43 type  1   force =    -0.00038054    0.00059109    0.00012043
     atom   44 type  1   force =    -0.00022708    0.00028604   -0.00020668
     atom   45 type  2   force =     0.00002501    0.00000572    0.10362586
     atom   46 type  2   force =    -0.07082630   -0.00003939   -0.02718943
     atom   47 type  2   force =     0.07069097    0.00037729   -0.02719217
     atom   48 type  3   force =    -0.00090392    0.00529482    0.00078970
     atom   49 type  4   force =    -0.00003173   -0.00213994   -0.00029732
     atom   50 type  5   force =    -0.00066355    0.00018027   -0.00076214
     atom   51 type  5   force =     0.00040328   -0.00020510    0.00064893
     atom   52 type  5   force =    -0.00008663   -0.00006100    0.00039392
     atom   53 type  3   force =     0.00037894   -0.00182988    0.00060334
     atom   54 type  5   force =     0.00105552   -0.00014371   -0.00070999
     atom   55 type  5   force =     0.00039011   -0.00004896   -0.00070475
     atom   56 type  5   force =    -0.00090786    0.00074549    0.00011957

     Total force =     0.365633     Total SCF correction =     0.000440
  @ DRIVER MODE: Message from server: STATUS
  @ DRIVER MODE: Message from server: GETFORCE
  @ DRIVER MODE: Returning v,forces,stress,ensemble

     Writing output data file ./calc.save/
  @ DRIVER MODE: Message from server: EXIT
  @ DRIVE MODE: Exiting

     General routines

     Parallel routines

   This run was terminated on:  13:11:49   2Aug2021

   JOB DONE.