     Program PWSCF v.6.7GPU starts on 21Jul2021 at 21:56:13

     R & G space division:  proc/nbgrp/npool/nimage =      16
     Reading input from /storage/home/hcoda1/3/ntian30/research/carbon/21Jul_spin_polarized/ads_slab/CH3N_a/21Jul_spin_polarized.log/pw.inp
Warning: card &CELL ignored
Warning: card   CELL_DYNAMICS='IPI', ignored
Warning: card / ignored

     Current dimensions of program PWSCF are:
     Max number of different atomic species (ntypx) = 10
     Max number of k-points (npk) =  40000
     Max angular momentum in pseudopotentials (lmaxx) =  3
     Presently no symmetry can be used with electric field

     Message from routine cell_base_init:
     DEPRECATED: use true lattice parameter, not A to a.u. conversion factor

     IMPORTANT: XC functional enforced from input :
     Exchange-correlation= BEEF-VDW
                           (   1   4  43  14   2   0   0)
     Any further DFT definition will be discarded
     Please, verify this is what you really want

  @ DRIVER MODE: Connecting to
 qe_1139763_2395923.sched-torque.pace.gatech.edu7lhbjzgw_scratch
  using UNIX socket
  @ DRIVER MODE: Message from server: STATUS
  @ DRIVER MODE: Message from server: INIT
  @ DRIVER MODE: Receiving replica           0          -1
  @ DRIVER MODE: Receiving encoded integer          25
  @ DRIVER MODE:  SCF:  T  FORCE:  T  STRESS:  F  VC:  F  ENSEMBLE:  F
  @ DRIVER MODE:  SCF:  T  FORCE:  T  STRESS:  F  VC:  F  ENSEMBLE:  F

     Using Slab Decomposition

     bravais-lattice index     =            0
     lattice parameter (alat)  =       1.8897  a.u.
     unit-cell volume          =    6658.9804 (a.u.)^3
     number of atoms/cell      =           52
     number of atomic types    =            5
     number of electrons       =       390.00
     number of Kohn-Sham states=          205
     kinetic-energy cutoff     =      29.3995  Ry
     charge density cutoff     =     293.9946  Ry
     scf convergence threshold =      7.3E-08
     mixing beta               =       0.0500
     number of iterations used =            8  plain     mixing
     Exchange-correlation= BEEF-VDW
                           (   1   4  43  14   2   0   0)

     celldm(1)=   1.889726  celldm(2)=   0.000000  celldm(3)=   0.000000
     celldm(4)=   0.000000  celldm(5)=   0.000000  celldm(6)=   0.000000

     crystal axes: (cart. coord. in units of alat)
               a(1) = (   6.579727   0.000000   0.000000 )
               a(2) = (  -0.000775   5.961596   0.000000 )
               a(3) = (   0.000000   0.000000  25.155947 )

     reciprocal axes: (cart. coord. in units 2 pi/alat)
               b(1) = (  0.151982  0.000020  0.000000 )
               b(2) = (  0.000000  0.167740  0.000000 )
               b(3) = (  0.000000  0.000000  0.039752 )

     PseudoPot. # 1 for Ti read from file:
     /storage/coda1/p-amedford6/0/shared/rich_project_chbe-medford/medford-share/data/pseudos_module/espresso/nninc/pbe/van/Ti.UPF
     MD5 check sum: 8e4df49b7f0d34bbd5052bf3f5ea0213
     Pseudo is Ultrasoft, Zval = 12.0
     Generated by new atomic code, or converted to UPF format
     Using radial grid of  851 points,  6 beta functions with:
                l(1) =   0
                l(2) =   0
                l(3) =   1
                l(4) =   1
                l(5) =   2
                l(6) =   2
     Q(r) pseudized with  8 coefficients,  rinner =    1.000   1.000   1.000
                                                       1.000   1.000

     PseudoPot. # 2 for O  read from file:
     /storage/coda1/p-amedford6/0/shared/rich_project_chbe-medford/medford-share/data/pseudos_module/espresso/nninc/pbe/van/O.UPF
     MD5 check sum: 78c19812648e8988a0fe644b0f25305e
     Pseudo is Ultrasoft, Zval =  6.0
     Generated by new atomic code, or converted to UPF format
     Using radial grid of  737 points,  4 beta functions with:
                l(1) =   0
                l(2) =   0
                l(3) =   1
                l(4) =   1
     Q(r) pseudized with  8 coefficients,  rinner =    0.800   0.800   0.800

     PseudoPot. # 3 for N  read from file:
     /storage/coda1/p-amedford6/0/shared/rich_project_chbe-medford/medford-share/data/pseudos_module/espresso/nninc/pbe/van/N.UPF
     MD5 check sum: 90d10febe142ad51ac9d5be1deb811c4
     Pseudo is Ultrasoft, Zval =  5.0
     Generated by new atomic code, or converted to UPF format
     Using radial grid of  729 points,  4 beta functions with:
                l(1) =   0
                l(2) =   0
                l(3) =   1
                l(4) =   1
     Q(r) pseudized with  8 coefficients,  rinner =    0.800   0.800   0.800

     PseudoPot. # 4 for C  read from file:
     /storage/coda1/p-amedford6/0/shared/rich_project_chbe-medford/medford-share/data/pseudos_module/espresso/nninc/pbe/van/C.UPF
     MD5 check sum: 1a69bf6b8db32088f5b2163dbdb77a27
     Pseudo is Ultrasoft, Zval =  4.0
     Generated by new atomic code, or converted to UPF format
     Using radial grid of  721 points,  4 beta functions with:
                l(1) =   0
                l(2) =   0
                l(3) =   1
                l(4) =   1
     Q(r) pseudized with  8 coefficients,  rinner =    0.800   0.800   0.800

     PseudoPot. # 5 for H  read from file:
     /storage/coda1/p-amedford6/0/shared/rich_project_chbe-medford/medford-share/data/pseudos_module/espresso/nninc/pbe/van/H.UPF
     MD5 check sum: b5ee9d7bfd3a09ee7748110bda690ff7
     Pseudo is Ultrasoft, Zval =  1.0
     Generated by new atomic code, or converted to UPF format
     Using radial grid of  615 points,  1 beta functions with:
                l(1) =   0
     Q(r) pseudized with  8 coefficients,  rinner =    0.800

     atomic species   valence    mass     pseudopotential
        Ti1           12.00    47.86700     Ti( 1.00)
        O1             6.00    15.99900     O ( 1.00)
        N1             5.00    14.00700     N ( 1.00)
        C1             4.00    12.01100     C ( 1.00)
        H1             1.00     1.00800     H ( 1.00)

     Starting magnetic structure
     atomic species   magnetization
        Ti1          0.000
        O1           0.000
        N1           0.040
        C1           0.046
        H1           0.000

     No symmetry found

   Cartesian axes

     site n.     atom                  positions (alat units)
         1           Ti1 tau(   1) = (   0.0004258   2.9801865   6.0000000  )
         2           Ti1 tau(   2) = (   3.2906075   1.4906267   6.0002472  )
         3           O1  tau(   3) = (   0.0006271   0.0005054   7.9858123  )
         4           O1  tau(   4) = (   3.2906025   0.0005020   7.3038282  )
         5           O1  tau(   5) = (   4.5942328   1.4918067   9.2879030  )
         6           O1  tau(   6) = (   1.9868534   1.4903216   9.2879459  )
         7           Ti1 tau(   7) = (   3.2907910   2.8959150   9.1758416  )
         8           Ti1 tau(   8) = (   0.0015273   1.4827037   9.2680791  )
         9           O1  tau(   9) = (   3.2848820   0.0184509  11.2968037  )
        10           O1  tau(  10) = (   0.0116148   5.9584955  10.6183126  )
        11           O1  tau(  11) = (   1.3164307   1.5202202  12.6152053  )
        12           O1  tau(  12) = (   5.2938533   1.5248534  12.6363518  )
        13           Ti1 tau(  13) = (   6.4693392   3.0155455  12.7604093  )
        14           Ti1 tau(  14) = (   3.1621140   1.5165027  12.4659144  )
        15           O1  tau(  15) = (   0.0250032   0.0426882  14.5925537  )
        16           O1  tau(  16) = (   3.2896737   0.0171256  13.8799622  )
        17           O1  tau(  17) = (   4.5365032   1.4993634  16.0438468  )
        18           O1  tau(  18) = (   2.0814567   1.5015292  16.0591106  )
        19           Ti1 tau(  19) = (   3.3082904   2.9956922  15.6854367  )
        20           Ti1 tau(  20) = (   0.0032501   1.4479889  16.1249605  )
        21           O1  tau(  21) = (   3.2904802   0.0005063   4.7018136  )
        22           O1  tau(  22) = (   0.0161699   0.0004382  17.1970091  )
        23           O1  tau(  23) = (   1.3043587   1.4918075   6.0039043  )
        24           O1  tau(  24) = (   5.2767064   1.4903225   6.0039473  )
        25           Ti1 tau(  25) = (   0.0000382   5.9609847   6.0000000  )
        26           Ti1 tau(  26) = (   3.2902200   4.4714249   6.0002472  )
        27           O1  tau(  27) = (   0.0002396   2.9813036   7.9858123  )
        28           O1  tau(  28) = (   3.2902150   2.9813002   7.3038282  )
        29           O1  tau(  29) = (   4.5938453   4.4726049   9.2879030  )
        30           O1  tau(  30) = (   1.9864658   4.4711199   9.2879459  )
        31           Ti1 tau(  31) = (   3.2891106   5.8743827   9.1763621  )
        32           Ti1 tau(  32) = (   0.0006254   4.4649316   9.2693709  )
        33           O1  tau(  33) = (   3.2855107   2.9994495  11.2959752  )
        34           O1  tau(  34) = (   0.0092240   2.9805883  10.6323155  )
        35           O1  tau(  35) = (   1.3179678   4.4860142  12.6155112  )
        36           O1  tau(  36) = (   5.2920789   4.4901865  12.6316709  )
        37           Ti1 tau(  37) = (   6.5050993   0.0355131  12.7707974  )
        38           Ti1 tau(  38) = (   3.1594757   4.4963870  12.4672366  )
        39           O1  tau(  39) = (   6.5726527   3.0227966  14.6583025  )
        40           O1  tau(  40) = (   3.2932321   2.9979836  13.8792693  )
        41           O1  tau(  41) = (   4.5322310   4.4839795  16.0418810  )
        42           O1  tau(  42) = (   2.0800586   4.4799519  16.0553745  )
        43           Ti1 tau(  43) = (   3.2910362   0.0127607  15.6894215  )
        44           Ti1 tau(  44) = (   0.0049462   4.4269923  16.0943486  )
        45           O1  tau(  45) = (   3.2900926   2.9813045   4.7018136  )
        46           O1  tau(  46) = (   1.3039711   4.4726057   6.0039043  )
        47           O1  tau(  47) = (   5.2763189   4.4711207   6.0039473  )
        48           N1  tau(  48) = (   0.0596666   2.9942962  17.3216073  )
        49           C1  tau(  49) = (   0.3918855   2.9774893  18.7266025  )
        50           H1  tau(  50) = (   0.0017595   3.8652167  19.2343835  )
        51           H1  tau(  51) = (   0.0043965   2.0815098  19.2200810  )
        52           H1  tau(  52) = (   1.4843755   2.9788857  18.8581259  )

     number of k points=    10  Fermi-Dirac smearing, width (Ry)=  0.0073
                       cart. coord. in units 2pi/alat
        k(    1) = (   0.0000000   0.0000000   0.0000000), wk =   0.0625000
        k(    2) = (   0.0000000   0.0419351   0.0000000), wk =   0.1250000
        k(    3) = (   0.0000000  -0.0838702   0.0000000), wk =   0.0625000
        k(    4) = (   0.0379955   0.0000049   0.0000000), wk =   0.1250000
        k(    5) = (   0.0379955   0.0419400   0.0000000), wk =   0.1250000
        k(    6) = (   0.0379955  -0.0838652   0.0000000), wk =   0.1250000
        k(    7) = (   0.0379955  -0.0419301   0.0000000), wk =   0.1250000
        k(    8) = (  -0.0759910  -0.0000099   0.0000000), wk =   0.0625000
        k(    9) = (  -0.0759910   0.0419252   0.0000000), wk =   0.1250000
[...]
     atom  14 (R=0.743)  charge=  8.0663  magn=  0.0000
     atom  15 (R=0.743)  charge=  5.0445  magn=  0.0001
     atom  16 (R=0.743)  charge=  5.0715  magn=  0.0000
     atom  17 (R=0.743)  charge=  5.0432  magn=  0.0000
     atom  18 (R=0.743)  charge=  5.0420  magn=  0.0000
     atom  19 (R=0.743)  charge=  8.0874  magn= -0.0000
     atom  20 (R=0.743)  charge=  8.0865  magn= -0.0001
     atom  21 (R=0.743)  charge=  4.9345  magn=  0.0000
     atom  22 (R=0.743)  charge=  5.0263  magn=  0.0001
     atom  23 (R=0.743)  charge=  5.0425  magn= -0.0000
     atom  24 (R=0.743)  charge=  5.0426  magn= -0.0001
     atom  25 (R=0.743)  charge=  8.0712  magn=  0.0001
     atom  26 (R=0.743)  charge=  8.0673  magn=  0.0000
     atom  27 (R=0.743)  charge=  5.0507  magn= -0.0000
     atom  28 (R=0.743)  charge=  5.0899  magn= -0.0000
     atom  29 (R=0.743)  charge=  5.0534  magn= -0.0000
     atom  30 (R=0.743)  charge=  5.0547  magn= -0.0000
     atom  31 (R=0.743)  charge=  8.0608  magn=  0.0000
     atom  32 (R=0.743)  charge=  8.0482  magn=  0.0000
     atom  33 (R=0.743)  charge=  5.0679  magn= -0.0000
     atom  34 (R=0.743)  charge=  4.9963  magn= -0.0000
     atom  35 (R=0.743)  charge=  5.0558  magn=  0.0000
     atom  36 (R=0.743)  charge=  5.0580  magn=  0.0000
     atom  37 (R=0.743)  charge=  8.0669  magn= -0.0000
     atom  38 (R=0.743)  charge=  8.0667  magn= -0.0000
     atom  39 (R=0.743)  charge=  5.0387  magn=  0.0000
     atom  40 (R=0.743)  charge=  5.0730  magn=  0.0000
     atom  41 (R=0.743)  charge=  5.0440  magn=  0.0000
     atom  42 (R=0.743)  charge=  5.0430  magn=  0.0000
     atom  43 (R=0.743)  charge=  8.0878  magn= -0.0000
     atom  44 (R=0.743)  charge=  8.0856  magn= -0.0001
     atom  45 (R=0.743)  charge=  4.9345  magn= -0.0001
     atom  46 (R=0.743)  charge=  5.0425  magn= -0.0001
     atom  47 (R=0.743)  charge=  5.0426  magn= -0.0000
     atom  48 (R=0.596)  charge=  2.7578  magn=  0.0001
     atom  49 (R=0.451)  charge=  0.8549  magn= -0.0001
     atom  50 (R=0.451)  charge=  0.5106  magn=  0.0000
     atom  51 (R=0.451)  charge=  0.5113  magn=  0.0000
     atom  52 (R=0.451)  charge=  0.5057  magn=  0.0000

     End of self-consistent calculation

 ------ SPIN UP ------------

          k = 0.0000 0.0000 0.0000 ( 18029 PWs)   bands (ev):

   -56.8988 -56.8652 -56.0114 -56.0021 -55.9763 -55.9696 -55.8617 -55.8259
   -55.6441 -55.6089 -55.5605 -55.5382 -55.5266 -55.4405 -54.9950 -54.9422
   -33.3261 -33.1729 -33.1447 -33.0751 -32.9841 -32.9521 -32.4848 -32.4755
   -32.4044 -32.2972 -32.2516 -32.2248 -32.2097 -32.1858 -32.1529 -32.1498
   -32.1423 -32.1402 -32.1160 -32.1082 -32.1016 -32.0699 -32.0438 -32.0287
   -32.0149 -31.9978 -31.9891 -31.9655 -31.9524 -31.8990 -31.8756 -31.8748
   -31.7829 -31.7819 -31.7711 -31.7136 -31.7102 -31.6877 -31.6682 -31.6466
   -31.6224 -31.5768 -31.5173 -31.2381 -31.2194 -31.1917 -31.1634 -31.0450
   -17.0603 -16.6206 -16.3897 -16.2595 -16.1880 -16.1376 -16.0899 -15.9629
   -15.8919 -15.8885 -15.8514 -15.8120 -15.7440 -15.6046 -15.5072 -15.4476
   -15.4044 -15.2847 -15.2275 -15.1908 -15.1830 -15.1523 -15.1321 -14.9344
   -14.9120 -14.8162 -14.7991 -14.6754 -14.4483 -14.0588 -13.9488 -13.0881
    -7.8051  -4.6267  -4.1168  -3.8740  -3.7916  -3.6811  -3.6738  -3.5918
    -3.4778  -3.4268  -3.3812  -3.2656  -3.2613  -3.1159  -3.1000  -3.0731
    -3.0665  -3.0281  -2.9959  -2.9505  -2.8982  -2.8913  -2.8882  -2.7371
    -2.6373  -2.5674  -2.5448  -2.5277  -2.4999  -2.4073  -2.4026  -2.3879
    -2.3843  -2.2889  -2.1395  -2.1297  -2.0953  -2.0591  -2.0553  -2.0116
    -2.0015  -1.8451  -1.8013  -1.6848  -1.6728  -1.6381  -1.5719  -1.5683
    -1.4524  -1.3968  -1.3509  -1.3057  -1.1987  -1.1538  -1.1248  -1.0360
    -0.9754  -0.9385  -0.9195  -0.9003  -0.7930  -0.7857  -0.7696  -0.6784
    -0.6726  -0.6221  -0.5327  -0.5100  -0.5080  -0.4173  -0.4093  -0.3106
    -0.2765  -0.2239  -0.1937  -0.1137  -0.0832   0.0210   0.0597   0.0752
     0.2051   0.2204   0.2784   0.3454   0.4019   0.4455   0.4614   0.4960
     0.5050   0.5981   0.7059   0.7080   0.8196   0.8570   1.0142   1.0531
     1.3508   1.3607   2.0239   2.3766   2.5374   2.8355   3.0306   3.1432
     3.3534   3.3672   3.3729   3.5537   3.6015

[...]

          k =-0.0760-0.0000 0.0000 ( 17886 PWs)   bands (ev):

[...]

 ------ SPIN DOWN ----------

[...]

          k = 0.0380-0.0419 0.0000 ( 17876 PWs)   bands (ev):

[...]

          k =-0.0760-0.0839 0.0000 ( 17948 PWs)   bands (ev):

   -56.8816 -56.8813 -55.9952 -55.9908 -55.9867 -55.9863 -55.8467 -55.8407
   -55.6292 -55.6239 -55.5435 -55.5434 -55.5351 -55.4437 -54.9885 -54.9493
   -33.1582 -33.1580 -33.1426 -33.1425 -33.0276 -33.0274 -32.3144 -32.3120
   -32.2993 -32.2940 -32.2415 -32.2401 -32.1975 -32.1969 -32.1965 -32.1927
   -32.1849 -32.1824 -32.1813 -32.1793 -32.0984 -32.0933 -32.0471 -32.0434
   -31.9808 -31.9729 -31.9114 -31.9056 -31.8878 -31.8877 -31.8660 -31.8278
   -31.8265 -31.7925 -31.7687 -31.7686 -31.7597 -31.7295 -31.7295 -31.7085
   -31.6854 -31.6488 -31.3830 -31.3024 -31.2165 -31.1849 -31.1704 -31.1295
   -16.4084 -16.4064 -16.3747 -16.3744 -16.1034 -16.0998 -16.0505 -16.0483
   -15.8765 -15.8687 -15.6643 -15.6550 -15.6487 -15.6450 -15.5173 -15.5103
   -15.4464 -15.4335 -15.3450 -15.3382 -15.2773 -15.2710 -15.2345 -15.2130
   -14.8959 -14.8901 -14.7677 -14.7546 -14.6033 -14.0525 -14.0523 -13.1048
    -7.7961  -3.5074  -3.5066  -3.4403  -3.4393  -3.3144  -3.3076  -3.2389
    -3.2383  -3.1319  -3.1281  -3.0719  -3.0022  -2.9906  -2.9873  -2.9762
    -2.9679  -2.8349  -2.8323  -2.8197  -2.8047  -2.7534  -2.7509  -2.7347
    -2.6560  -2.6402  -2.6090  -2.5649  -2.4645  -2.4482  -2.4318  -2.4048
    -2.3475  -2.3357  -2.3217  -2.2761  -2.2562  -2.1536  -2.1063  -2.0627
    -1.9430  -1.9404  -1.9306  -1.9134  -1.7659  -1.7288  -1.6978  -1.6911
    -1.6822  -1.6327  -1.5411  -1.5329  -1.3983  -1.3935  -1.3216  -1.2385
    -1.2199  -1.1911  -1.0589  -1.0115  -0.9791  -0.9727  -0.9529  -0.9236
    -0.8955  -0.8683  -0.7235  -0.7046  -0.6801  -0.6425  -0.6299  -0.5762
    -0.5271  -0.4470  -0.3675  -0.3666  -0.2856  -0.2416  -0.1778  -0.0951
    -0.0835  -0.0772   0.2030   0.2806   0.3731   0.4578   0.5208   0.5841
     0.6077   0.6731   0.7053   0.8424   0.8456   0.8620   0.8621   0.9296
     0.9343   1.3326   1.9181   2.9508   2.9512   3.0186   3.0191   3.3428
     3.3481   3.4578   3.4671   3.5829   3.5849

     the Fermi energy is     2.2115 ev

!    total energy              =   -2919.13340689 Ry
     estimated scf accuracy    <       0.00000004 Ry
     smearing contrib. (-TS)   =      -0.00465011 Ry
     internal energy E=F+TS    =   -2919.12875678 Ry

     The total energy is F=E-TS. E is the sum of the following terms:
     one-electron contribution =  -24579.12440470 Ry
     hartree contribution      =   12373.75705912 Ry
     xc contribution           =    -479.90076814 Ry
     ewald contribution        =    9766.13923766 Ry
     electric field correction =       0.00011928 Ry

     total magnetization       =     0.00 Bohr mag/cell
     absolute magnetization    =     0.00 Bohr mag/cell

     convergence has been achieved in  55 iterations

     Forces acting on atoms (cartesian axes, Ry/au):

     atom    1 type  1   force =    -0.00002644   -0.00046573    0.12460860
     atom    2 type  1   force =    -0.00012317   -0.00052577   -0.16053379
     atom    3 type  2   force =     0.00016066   -0.00014353   -0.06867324
     atom    4 type  2   force =    -0.00004448   -0.00017634    0.02744409
     atom    5 type  2   force =    -0.01664115    0.00229384   -0.00876570
     atom    6 type  2   force =     0.01810026    0.00296131   -0.00971531
     atom    7 type  1   force =     0.00056556   -0.00363968    0.02219558
     atom    8 type  1   force =    -0.00015521   -0.00290974    0.11212424
     atom    9 type  2   force =     0.00047991   -0.00002782   -0.00026329
     atom   10 type  2   force =    -0.00266136    0.00369015   -0.07363156
     atom   11 type  2   force =     0.00131032   -0.00058433   -0.00042456
     atom   12 type  2   force =    -0.00057202   -0.00105627   -0.00077874
     atom   13 type  1   force =     0.00032124   -0.00065745    0.00066955
     atom   14 type  1   force =    -0.00083315   -0.00054959    0.00004556
     atom   15 type  2   force =    -0.00029363   -0.00010794    0.00000844
     atom   16 type  2   force =     0.00028658    0.00011973   -0.00053644
     atom   17 type  2   force =     0.00021693   -0.00019900   -0.00016124
     atom   18 type  2   force =    -0.00042131   -0.00035887   -0.00047857
     atom   19 type  1   force =     0.00062367   -0.00037085   -0.00011693
     atom   20 type  1   force =    -0.00009992   -0.00024747   -0.00016911
     atom   21 type  2   force =     0.00005468   -0.00006464    0.09970795
     atom   22 type  2   force =     0.00007577   -0.00033822    0.00055791
     atom   23 type  2   force =    -0.07927635   -0.00009220   -0.03248390
     atom   24 type  2   force =     0.07914945    0.00035711   -0.03250658
     atom   25 type  1   force =     0.00000695   -0.00050174    0.12410666
     atom   26 type  1   force =    -0.00015502   -0.00044355   -0.16060908
     atom   27 type  2   force =     0.00029551   -0.00031733   -0.06768694
     atom   28 type  2   force =    -0.00002384   -0.00001597    0.02721185
     atom   29 type  2   force =    -0.01710343    0.00187290   -0.00887375
     atom   30 type  2   force =     0.01844056    0.00226038   -0.00976916
     atom   31 type  1   force =     0.00058306   -0.00093336    0.02173601
     atom   32 type  1   force =    -0.00011523    0.00053339    0.11257608
     atom   33 type  2   force =     0.00026451   -0.00064111   -0.00045112
     atom   34 type  2   force =    -0.00273026    0.00315688   -0.07279863
     atom   35 type  2   force =    -0.00109401    0.00023367    0.00017177
     atom   36 type  2   force =     0.00083621    0.00008598    0.00028459
     atom   37 type  1   force =    -0.00008578   -0.00003220   -0.00017234
     atom   38 type  1   force =     0.00087973   -0.00026921   -0.00014141
     atom   39 type  2   force =    -0.00008855   -0.00052082    0.00007655
     atom   40 type  2   force =     0.00007573   -0.00012431   -0.00011764
     atom   41 type  2   force =     0.00019342   -0.00045228   -0.00010025
     atom   42 type  2   force =    -0.00000154   -0.00012566   -0.00058974
     atom   43 type  1   force =     0.00015555    0.00069318    0.00068130
     atom   44 type  1   force =    -0.00058139   -0.00053502   -0.00028728
     atom   45 type  2   force =     0.00004509   -0.00006843    0.09971808
     atom   46 type  2   force =    -0.07928452   -0.00004323   -0.03247773
     atom   47 type  2   force =     0.07915843    0.00039968   -0.03249751
     atom   48 type  3   force =     0.00069433   -0.00051921    0.00092876
     atom   49 type  4   force =    -0.00010914    0.00019463    0.00032314
     atom   50 type  5   force =     0.00024445   -0.00008860   -0.00005565
     atom   51 type  5   force =     0.00009837   -0.00041762    0.00037411
     atom   52 type  5   force =    -0.00079605   -0.00028776    0.00031635

     Total force =     0.425576     Total SCF correction =     0.000338
  @ DRIVER MODE: Message from server: STATUS
  @ DRIVER MODE: Message from server: GETFORCE
  @ DRIVER MODE: Returning v,forces,stress,ensemble

     Writing output data file ./calc.save/
  @ DRIVER MODE: Message from server: STATUS
  @ DRIVER MODE: Message from server: INIT
  @ DRIVER MODE: Receiving replica           0           0
  @ DRIVER MODE: Receiving encoded integer           2
  @ DRIVER MODE:  SCF:  T  FORCE:  T  STRESS:  F  VC:  F  ENSEMBLE:  F
  @ DRIVER MODE:  SCF:  F  FORCE:  F  STRESS:  F  VC:  F  ENSEMBLE:  T
  @ DRIVER MODE: Message from server: STATUS
  @ DRIVER MODE: Message from server: POSDATA
  @ DRIVER MODE: Reading and sharing positions
  @ DRIVER MODE: Received positions
     NEW-OLD atomic charge density approx. for the potential

[...]

     Adding external electric field

     Computed dipole along edir(3) :
        Dipole                0.2514 Ry au,          0.6390 Debye
        Dipole field          0.0005 Ry au,

        Potential amp.       -0.0440 Ry
        Total length         46.3494 bohr

     Generating pointlists ...
  @ DRIVER MODE: BEEF-vdw

[...]

     negative rho (up, down):  8.888E-03 8.888E-03

     negative rho (up, down):  8.888E-03 8.888E-03
 BEEFens 2000 ensemble energies
             -0.344502198133671E+02
             -0.201432792340691E+01
             -0.709382253189539E+01
              0.239082683551376E+02
             -0.118341474339523E+02
             -0.915172061686746E+01
             -0.238827850380091E+02
             -0.499671722875497E+02
             -0.213143951360296E+02
             -0.224557954834581E+02
             -0.208849306080398E+02
              0.423216988004377E+01
              0.198770331387765E+01
             -0.105646325311798E+01
              0.170854682718982E+01
              0.263367925772063E+02
             -0.101317607772847E+02
             -0.715739793043676E+01
              0.116939139734923E+02
             -0.615112717460292E+02
              0.308528485079806E+02
             -0.132483439686081E+02
             -0.238309381703884E+01
             -0.554933356364400E+01
             -0.978850281860844E+00
             -0.210124200536447E+01
              0.476956956471620E+02
             -0.149523162910773E+02
             -0.397026302010664E+01
             -0.301929214709766E+02
              0.389983295352409E+02
             -0.430639369376863E+01
             -0.212243928959209E+02
              0.111433486463164E+02
             -0.203817150535244E+01
              0.129568025884200E+02
             -0.537935491689467E+00
              0.270375755158669E+01
              0.188401141381600E+02
             -0.542714451011150E+02
              0.302381467652256E+02
              0.807817698274901E+01
             -0.622111079858090E+01
             -0.173540471821135E+02
              0.685581048411160E+01
             -0.108723098710699E+02
              0.247398447715018E+02
              0.197613773408559E+02
             -0.127331593239286E+02
             -0.162783817802651E+02
             -0.172181773685509E+02
             -0.206576170738642E+02
              0.104971133349915E+02
             -0.268978058024805E+02
              0.823473838006919E+01
              0.343846967886309E+02
              0.396511800747305E+02
              0.184597075854631E+02
              0.822560279943829E+01
              0.172257750298091E+02
[...]
             -0.405446180480802E+02
              0.276464933167733E+01
             -0.146309151690087E+01
             -0.564709562192542E+01
              0.584719643057952E-01
             -0.360942009471656E+02
             -0.696181934895331E+01
              0.488502221616315E+01
              0.737219746633200E+01
              0.270505533784980E+02
             -0.236540373802120E+02
              0.308278369756214E+02
             -0.220808020630028E+02
              0.141967335493239E+02
              0.223536191636254E+02

 BEEF-vdW xc energy contributions
           1 :   -406.650054025684
           2 :    354.367197309814
           3 :   -269.917325510027
           4 :    181.653056815191
           5 :   -112.263612480613
           6 :    70.8080851253475
           7 :   -53.5926485470009
           8 :    50.5754340689209
           9 :   -52.3202094673412
          10 :    53.5962385388959
          11 :   -53.1936938211669
          12 :    51.6642240409660
          13 :   -49.4317640918520
          14 :    46.2573654760781
          15 :   -41.8242222495863
          16 :    36.3758741930367
          17 :   -30.8445208201196
          18 :    26.3789923473563
          19 :   -23.7672298636501
          20 :    23.0936474016692
          21 :   -23.8498402696933
          22 :    25.2730806480446
          23 :   -26.6889658603160
          24 :    27.6238775363427
          25 :   -27.7799196706471
          26 :    26.9752118969911
          27 :   -25.1838010893771
          28 :    22.6038093936828
          29 :   -19.6984162636736
          30 :    17.0831800644933
          31 :   -47.7707865164189
          32 :   -32.4500772758440
  @ DRIVER MODE: Message from server: STATUS
  @ DRIVER MODE: Message from server: GETFORCE
  @ DRIVER MODE: Returning v,forces,stress,ensemble
  @ DRIVE MODE: Returning Ensemble Energies

     Writing output data file ./calc.save/
  @ DRIVER MODE: Message from server: EXIT
  @ DRIVE MODE: Exiting

     General routines

     Parallel routines

   This run was terminated on:  22:21:16  21Jul2021

   JOB DONE.