     Program PWSCF v.6.7GPU starts on 15Jul2021 at 20:44:24

     R & G space division:  proc/nbgrp/npool/nimage =      16
     Reading input from /storage/home/hcoda1/3/ntian30/research/carbon/15Jul_vib/ads_slab/CH3NNH3_a/out_0008/pw.inp
Warning: card &CELL ignored
Warning: card   CELL_DYNAMICS='IPI', ignored
Warning: card / ignored

     Current dimensions of program PWSCF are:
     Max number of different atomic species (ntypx) = 10
     Max number of k-points (npk) =  40000
     Max angular momentum in pseudopotentials (lmaxx) =  3
     Presently no symmetry can be used with electric field

     Message from routine cell_base_init:
     DEPRECATED: use true lattice parameter, not A to a.u. conversion factor

     IMPORTANT: XC functional enforced from input :
     Exchange-correlation= BEEF-VDW
                           (   1   4  43  14   2   0   0)
     Any further DFT definition will be discarded
     Please, verify this is what you really want

  @ DRIVER MODE: Connecting to
 qe_1139763_2351650.sched-torque.pace.gatech.edu3f_u0pcp_scratch
  using UNIX socket
  @ DRIVER MODE: Message from server: STATUS
  @ DRIVER MODE: Message from server: INIT
  @ DRIVER MODE: Receiving replica           0          -1
  @ DRIVER MODE: Receiving encoded integer          25
  @ DRIVER MODE:  SCF:  T  FORCE:  T  STRESS:  F  VC:  F  ENSEMBLE:  F
  @ DRIVER MODE:  SCF:  T  FORCE:  T  STRESS:  F  VC:  F  ENSEMBLE:  F

     Using Slab Decomposition

     bravais-lattice index     =            0
     lattice parameter (alat)  =       1.8897  a.u.
     unit-cell volume          =    6658.9804 (a.u.)^3
     number of atoms/cell      =           56
     number of atomic types    =            5
     number of electrons       =       398.00
     number of Kohn-Sham states=          209
     kinetic-energy cutoff     =      29.3995  Ry
     charge density cutoff     =     293.9946  Ry
     scf convergence threshold =      7.3E-08
     mixing beta               =       0.0500
     number of iterations used =            8  plain     mixing
     Exchange-correlation= BEEF-VDW
                           (   1   4  43  14   2   0   0)

     celldm(1)=   1.889726  celldm(2)=   0.000000  celldm(3)=   0.000000
     celldm(4)=   0.000000  celldm(5)=   0.000000  celldm(6)=   0.000000

     crystal axes: (cart. coord. in units of alat)
               a(1) = (   6.579727   0.000000   0.000000 )
               a(2) = (  -0.000775   5.961596   0.000000 )
               a(3) = (   0.000000   0.000000  25.155947 )

     reciprocal axes: (cart. coord. in units 2 pi/alat)
               b(1) = (  0.151982  0.000020  0.000000 )
               b(2) = (  0.000000  0.167740  0.000000 )
               b(3) = (  0.000000  0.000000  0.039752 )

     PseudoPot. # 1 for Ti read from file:
     /storage/coda1/p-amedford6/0/shared/rich_project_chbe-medford/medford-share/data/pseudos_module/espresso/nninc/pbe/van/Ti.UPF
     MD5 check sum: 8e4df49b7f0d34bbd5052bf3f5ea0213
     Pseudo is Ultrasoft, Zval = 12.0
     Generated by new atomic code, or converted to UPF format
     Using radial grid of  851 points,  6 beta functions with:
                l(1) =   0
                l(2) =   0
                l(3) =   1
                l(4) =   1
                l(5) =   2
                l(6) =   2
     Q(r) pseudized with  8 coefficients,  rinner =    1.000   1.000   1.000
                                                       1.000   1.000

     PseudoPot. # 2 for O  read from file:
     /storage/coda1/p-amedford6/0/shared/rich_project_chbe-medford/medford-share/data/pseudos_module/espresso/nninc/pbe/van/O.UPF
     MD5 check sum: 78c19812648e8988a0fe644b0f25305e
     Pseudo is Ultrasoft, Zval =  6.0
     Generated by new atomic code, or converted to UPF format
     Using radial grid of  737 points,  4 beta functions with:
                l(1) =   0
                l(2) =   0
                l(3) =   1
                l(4) =   1
     Q(r) pseudized with  8 coefficients,  rinner =    0.800   0.800   0.800

     PseudoPot. # 3 for N  read from file:
     /storage/coda1/p-amedford6/0/shared/rich_project_chbe-medford/medford-share/data/pseudos_module/espresso/nninc/pbe/van/N.UPF
     MD5 check sum: 90d10febe142ad51ac9d5be1deb811c4
     Pseudo is Ultrasoft, Zval =  5.0
     Generated by new atomic code, or converted to UPF format
     Using radial grid of  729 points,  4 beta functions with:
                l(1) =   0
                l(2) =   0
                l(3) =   1
                l(4) =   1
     Q(r) pseudized with  8 coefficients,  rinner =    0.800   0.800   0.800

     PseudoPot. # 4 for C  read from file:
     /storage/coda1/p-amedford6/0/shared/rich_project_chbe-medford/medford-share/data/pseudos_module/espresso/nninc/pbe/van/C.UPF
     MD5 check sum: 1a69bf6b8db32088f5b2163dbdb77a27
     Pseudo is Ultrasoft, Zval =  4.0
     Generated by new atomic code, or converted to UPF format
     Using radial grid of  721 points,  4 beta functions with:
                l(1) =   0
                l(2) =   0
                l(3) =   1
                l(4) =   1
     Q(r) pseudized with  8 coefficients,  rinner =    0.800   0.800   0.800

     PseudoPot. # 5 for H  read from file:
     /storage/coda1/p-amedford6/0/shared/rich_project_chbe-medford/medford-share/data/pseudos_module/espresso/nninc/pbe/van/H.UPF
     MD5 check sum: b5ee9d7bfd3a09ee7748110bda690ff7
     Pseudo is Ultrasoft, Zval =  1.0
     Generated by new atomic code, or converted to UPF format
     Using radial grid of  615 points,  1 beta functions with:
                l(1) =   0
     Q(r) pseudized with  8 coefficients,  rinner =    0.800

     atomic species   valence    mass     pseudopotential
        Ti1           12.00    47.86700     Ti( 1.00)
        O1             6.00    15.99900     O ( 1.00)
        N1             5.00    14.00700     N ( 1.00)
        C1             4.00    12.01100     C ( 1.00)
        H1             1.00     1.00800     H ( 1.00)

     Starting magnetic structure
     atomic species   magnetization
        Ti1          0.000
        O1           0.000
        N1           0.000
        C1           0.025
        H1           0.000

     No symmetry found

   Cartesian axes

     site n.     atom                  positions (alat units)
         1           Ti1 tau(   1) = (   0.0004258   2.9801865   6.0000000  )
         2           Ti1 tau(   2) = (   3.2906075   1.4906267   6.0002472  )
         3           O1  tau(   3) = (   0.0006271   0.0005054   7.9858123  )
         4           O1  tau(   4) = (   3.2906025   0.0005020   7.3038282  )
         5           O1  tau(   5) = (   4.5942328   1.4918067   9.2879030  )
         6           O1  tau(   6) = (   1.9868534   1.4903216   9.2879459  )
         7           Ti1 tau(   7) = (   3.2907910   2.8959150   9.1758416  )
         8           Ti1 tau(   8) = (   0.0015273   1.4827037   9.2680791  )
         9           O1  tau(   9) = (   3.3019049   5.9598586  11.2958584  )
        10           O1  tau(  10) = (   0.0116148   5.9584955  10.6183126  )
        11           O1  tau(  11) = (   1.3346742   1.4914638  12.6145280  )
        12           O1  tau(  12) = (   5.3113054   1.4894223  12.6320738  )
        13           Ti1 tau(  13) = (   6.4919192   2.9607050  12.7581921  )
        14           Ti1 tau(  14) = (   3.1808934   1.4809541  12.4628303  )
        15           O1  tau(  15) = (   0.0259758   5.9327586  14.5948705  )
        16           O1  tau(  16) = (   3.3179433   0.0111293  13.8771559  )
        17           O1  tau(  17) = (   4.5450242   1.5254396  16.0425357  )
        18           O1  tau(  18) = (   2.0945915   1.5254857  16.0466093  )
        19           Ti1 tau(  19) = (   3.3175380   3.0118254  15.6854273  )
        20           Ti1 tau(  20) = (   0.0287691   1.6153805  16.0968480  )
        21           O1  tau(  21) = (   3.2904802   0.0005063   4.7018136  )
        22           O1  tau(  22) = (   0.0272082   0.0527987  17.2096484  )
        23           O1  tau(  23) = (   1.3043587   1.4918075   6.0039043  )
        24           O1  tau(  24) = (   5.2767064   1.4903225   6.0039473  )
        25           Ti1 tau(  25) = (   0.0000382   5.9609847   6.0000000  )
        26           Ti1 tau(  26) = (   3.2902200   4.4714249   6.0002472  )
        27           O1  tau(  27) = (   0.0002396   2.9813036   7.9858123  )
        28           O1  tau(  28) = (   3.2902150   2.9813002   7.3038282  )
        29           O1  tau(  29) = (   4.5938453   4.4726049   9.2879030  )
        30           O1  tau(  30) = (   1.9864658   4.4711199   9.2879459  )
        31           Ti1 tau(  31) = (   3.2891106   5.8743827   9.1763621  )
        32           Ti1 tau(  32) = (   0.0006254   4.4649316   9.2693709  )
        33           O1  tau(  33) = (   3.3007599   2.9794320  11.2948048  )
        34           O1  tau(  34) = (   0.0092240   2.9805883  10.6323155  )
        35           O1  tau(  35) = (   1.3367187   4.4652043  12.6121808  )
        36           O1  tau(  36) = (   5.3110114   4.4536366  12.6300246  )
        37           Ti1 tau(  37) = (   6.5175235   5.9394146  12.7678677  )
        38           Ti1 tau(  38) = (   3.1810223   4.4618757  12.4682998  )
        39           O1  tau(  39) = (   0.0141956   2.9656780  14.6533049  )
        40           O1  tau(  40) = (   3.3125561   2.9946134  13.8784269  )
        41           O1  tau(  41) = (   4.5469694   4.5079638  16.0550352  )
        42           O1  tau(  42) = (   2.0896055   4.5089645  16.0567747  )
        43           Ti1 tau(  43) = (   3.3249511   0.0336637  15.6879192  )
        44           Ti1 tau(  44) = (   0.0309337   4.5948497  16.1324869  )
        45           O1  tau(  45) = (   3.2900926   2.9813045   4.7018136  )
        46           O1  tau(  46) = (   1.3039711   4.4726057   6.0039043  )
        47           O1  tau(  47) = (   5.2763189   4.4711207   6.0039473  )
        48           N1  tau(  48) = (   0.0510883   3.0100077  17.3315927  )
        49           C1  tau(  49) = (   0.2249723   3.0659314  18.7643681  )
        50           H1  tau(  50) = (   6.1109748   3.7957518  19.2115106  )
        51           H1  tau(  51) = (   0.0391147   2.0919789  19.2277120  )
        52           H1  tau(  52) = (   1.2341903   3.3897193  19.0223879  )
        53           N1  tau(  53) = (   4.7717085   1.8344328  21.5424420  )
        54           H1  tau(  54) = (   4.4711387   2.7986659  21.4441960  )
        55           H1  tau(  55) = (   4.1840297   1.2822813  20.9257432  )
        56           H1  tau(  56) = (   4.5427024   1.5537098  22.4892962  )

     number of k points=    10  Fermi-Dirac smearing, width (Ry)=  0.0073
                       cart. coord. in units 2pi/alat
        k(    1) = (   0.0000000   0.0000000   0.0000000), wk =   0.0625000
        k(    2) = (   0.0000000   0.0419351   0.0000000), wk =   0.1250000
        k(    3) = (   0.0000000  -0.0838702   0.0000000), wk =   0.0625000
        k(    4) = (   0.0379955   0.0000049   0.0000000), wk =   0.1250000
        k(    5) = (   0.0379955   0.0419400   0.0000000), wk =   0.1250000
[...]
     % possible and the two reviews that describe the various versions:     %
     %                                                                      %
     %   T. Thonhauser et al., PRL 115, 136402 (2015).                      %
     %   T. Thonhauser et al., PRB 76, 125112 (2007).                       %
     %   K. Berland et al., Rep. Prog. Phys. 78, 066501 (2015).             %
     %   D.C. Langreth et al., J. Phys.: Condens. Matter 21, 084203 (2009). %
     %                                                                      %
     %                                                                      %
     % If you are calculating the stress with vdW-DF, please also cite:     %
     %                                                                      %
     %   R. Sabatini et al., J. Phys.: Condens. Matter 24, 424209 (2012).   %
     %                                                                      %
     %%%%%%%%%%%%%%%%%%%%%%%%%%%%%%%%%%%%%%%%%%%%%%%%%%%%%%%%%%%%%%%%%%%%%%%%

     Adding external electric field

     Computed dipole along edir(3) :
        Dipole              -11.2917 Ry au,        -28.7007 Debye
        Dipole field         -0.0213 Ry au,

        Potential amp.        1.9753 Ry
        Total length         46.3494 bohr

[...]

     Starting wfcs are  302 atomic wfcs
  @ DRIVER MODE: Message from server: STATUS
  @ DRIVER MODE: Message from server: POSDATA
  @ DRIVER MODE: Reading and sharing cell
  @ DRIVER MODE: Reading and sharing positions
  @ DRIVER MODE: Received positions

     Self-consistent Calculation

     iteration #  1     ecut=    29.40 Ry     beta= 0.05
     Davidson diagonalization with overlap
     c_bands:  1 eigenvalues not converged
     c_bands:  1 eigenvalues not converged
     c_bands:  2 eigenvalues not converged
     c_bands:  1 eigenvalues not converged
     c_bands:  1 eigenvalues not converged
     c_bands:  1 eigenvalues not converged
     c_bands:  2 eigenvalues not converged
     c_bands:  2 eigenvalues not converged
     c_bands:  1 eigenvalues not converged
     c_bands:  1 eigenvalues not converged
     c_bands:  2 eigenvalues not converged
     c_bands:  1 eigenvalues not converged
     c_bands:  1 eigenvalues not converged
     c_bands:  1 eigenvalues not converged
     c_bands:  2 eigenvalues not converged
     c_bands:  2 eigenvalues not converged
     ethr =  1.00E-05,  avg # of iterations = 19.6

[...]

     total energy              =   -2520.82289094 Ry
     estimated scf accuracy    <    4704.44005014 Ry

     total magnetization       =     0.00 Bohr mag/cell
     absolute magnetization    =     0.01 Bohr mag/cell

     iteration #  2     ecut=    29.40 Ry     beta= 0.05
     Davidson diagonalization with overlap
     ethr =  1.00E-02,  avg # of iterations = 21.9

[...]

     iteration # 43     ecut=    29.40 Ry     beta= 0.05
     Davidson diagonalization with overlap
     c_bands:  2 eigenvalues not converged
     c_bands:  1 eigenvalues not converged
     c_bands:  1 eigenvalues not converged
     c_bands:  2 eigenvalues not converged
     c_bands:  1 eigenvalues not converged
     ethr =  9.11E-07,  avg # of iterations = 13.7

[...]

     total energy              =   -2942.90761826 Ry
     estimated scf accuracy    <       0.00000021 Ry

[...]

     iteration # 69     ecut=    29.40 Ry     beta= 0.05
     Davidson diagonalization with overlap
     ethr =  5.34E-11,  avg # of iterations =  5.3

     negative rho (up, down):  5.681E-03 5.681E-03

[...]

     Adding external electric field

     Computed dipole along edir(3) :
        Dipole                0.4177 Ry au,          1.0617 Debye
        Dipole field          0.0008 Ry au,

        Potential amp.       -0.0731 Ry
        Total length         46.3494 bohr

     Magnetic moment per site  (integrated on atomic sphere of radius R)
     atom   1 (R=0.735)  charge=  8.0053  magn= -0.0002
     atom   2 (R=0.735)  charge=  8.0011  magn= -0.0001
     atom   3 (R=0.735)  charge=  4.9958  magn=  0.0000
     atom   4 (R=0.735)  charge=  5.0345  magn=  0.0001
     atom   5 (R=0.735)  charge=  4.9982  magn=  0.0000
     atom   6 (R=0.735)  charge=  4.9994  magn=  0.0000
     atom   7 (R=0.735)  charge=  7.9947  magn= -0.0000
     atom   8 (R=0.735)  charge=  7.9823  magn= -0.0000
     atom   9 (R=0.735)  charge=  5.0128  magn=  0.0000
     atom  10 (R=0.735)  charge=  4.9434  magn=  0.0001
     atom  11 (R=0.735)  charge=  4.9999  magn=  0.0000
     atom  12 (R=0.735)  charge=  5.0035  magn=  0.0000
     atom  13 (R=0.735)  charge=  7.9933  magn= -0.0000
     atom  14 (R=0.735)  charge=  8.0007  magn= -0.0000
     atom  15 (R=0.735)  charge=  4.9894  magn=  0.0000
     atom  16 (R=0.735)  charge=  5.0146  magn=  0.0000
     atom  17 (R=0.735)  charge=  4.9900  magn=  0.0000
     atom  18 (R=0.735)  charge=  4.9888  magn=  0.0000
     atom  19 (R=0.735)  charge=  8.0209  magn= -0.0000
     atom  20 (R=0.735)  charge=  8.0242  magn= -0.0000
     atom  21 (R=0.735)  charge=  4.8827  magn=  0.0001
     atom  22 (R=0.735)  charge=  4.9720  magn=  0.0000
     atom  23 (R=0.735)  charge=  4.9883  magn=  0.0001
     atom  24 (R=0.735)  charge=  4.9885  magn=  0.0001
     atom  25 (R=0.735)  charge=  8.0053  magn= -0.0002
     atom  26 (R=0.735)  charge=  8.0011  magn= -0.0001
     atom  27 (R=0.735)  charge=  4.9957  magn=  0.0000
     atom  28 (R=0.735)  charge=  5.0347  magn=  0.0001
     atom  29 (R=0.735)  charge=  4.9989  magn=  0.0000
     atom  30 (R=0.735)  charge=  5.0001  magn=  0.0000
     atom  31 (R=0.735)  charge=  7.9948  magn= -0.0000
     atom  32 (R=0.735)  charge=  7.9826  magn= -0.0000
     atom  33 (R=0.735)  charge=  5.0126  magn=  0.0000
     atom  34 (R=0.735)  charge=  4.9424  magn=  0.0001
     atom  35 (R=0.735)  charge=  5.0006  magn=  0.0000
     atom  36 (R=0.735)  charge=  5.0043  magn=  0.0000
     atom  37 (R=0.735)  charge=  7.9990  magn= -0.0000
     atom  38 (R=0.735)  charge=  8.0004  magn= -0.0000
     atom  39 (R=0.735)  charge=  4.9852  magn=  0.0000
     atom  40 (R=0.735)  charge=  5.0160  magn=  0.0000
     atom  41 (R=0.735)  charge=  4.9884  magn=  0.0000
     atom  42 (R=0.735)  charge=  4.9879  magn=  0.0000
     atom  43 (R=0.735)  charge=  8.0214  magn= -0.0000
     atom  44 (R=0.735)  charge=  8.0216  magn= -0.0000
     atom  45 (R=0.735)  charge=  4.8827  magn=  0.0001
     atom  46 (R=0.735)  charge=  4.9883  magn=  0.0001
     atom  47 (R=0.735)  charge=  4.9885  magn=  0.0001
     atom  48 (R=0.418)  charge=  1.3135  magn=  0.0000
     atom  49 (R=0.450)  charge=  0.8497  magn=  0.0000
     atom  50 (R=0.418)  charge=  0.4337  magn= -0.0000
     atom  51 (R=0.418)  charge=  0.4382  magn= -0.0000
     atom  52 (R=0.418)  charge=  0.4391  magn= -0.0000
     atom  53 (R=0.418)  charge=  1.3298  magn=  0.0000
     atom  54 (R=0.418)  charge=  0.4522  magn= -0.0000
     atom  55 (R=0.418)  charge=  0.4511  magn= -0.0000
     atom  56 (R=0.418)  charge=  0.4538  magn= -0.0000

     End of self-consistent calculation

 ------ SPIN UP ------------

          k = 0.0000 0.0000 0.0000 ( 18029 PWs)   bands (ev):

   -56.6327 -56.5991 -55.7566 -55.7448 -55.7217 -55.7119 -55.6103 -55.5750
   -55.3923 -55.3564 -55.2981 -55.2905 -55.2642 -55.1926 -54.7261 -54.6144
   -33.0606 -32.9073 -32.8791 -32.8085 -32.7174 -32.6866 -32.2274 -32.2211
   -32.1530 -32.0407 -31.9945 -31.9702 -31.9519 -31.9306 -31.8970 -31.8925
   -31.8903 -31.8856 -31.8601 -31.8560 -31.8460 -31.8177 -31.7929 -31.7777
   -31.7647 -31.7466 -31.7367 -31.7119 -31.6902 -31.6364 -31.6229 -31.6123
   -31.5334 -31.5304 -31.5089 -31.4662 -31.4583 -31.4254 -31.4207 -31.3963
   -31.3739 -31.3145 -31.2316 -30.9719 -30.9568 -30.8736 -30.8365 -30.7460
   -16.7976 -16.3647 -16.1338 -15.9957 -15.9294 -15.8739 -15.8307 -15.7032
   -15.6364 -15.6289 -15.5877 -15.5580 -15.4871 -15.3478 -15.2492 -15.1958
   -15.1511 -15.0304 -14.9705 -14.9368 -14.9263 -14.8829 -14.8737 -14.6802
   -14.6572 -14.5643 -14.5419 -14.4218 -14.1855 -13.7968 -13.7015 -13.6868
   -12.7898  -7.4989  -4.3629  -3.8606  -3.7684  -3.7435  -3.6215  -3.5356
    -3.4278  -3.4148  -3.3266  -3.2142  -3.1693  -3.1219  -3.0055  -3.0033
    -2.8559  -2.8087  -2.8082  -2.8032  -2.7584  -2.6959  -2.6750  -2.6409
    -2.6285  -2.5990  -2.4789  -2.3806  -2.3065  -2.2854  -2.2791  -2.2440
    -2.1677  -2.1379  -2.1310  -2.1274  -2.0183  -1.8755  -1.8681  -1.8439
    -1.8021  -1.7984  -1.7557  -1.7406  -1.6221  -1.5330  -1.4295  -1.4146
    -1.3703  -1.3147  -1.3074  -1.2159  -1.1386  -1.0479  -1.0461  -0.9378
    -0.8885  -0.8718  -0.7812  -0.7223  -0.6831  -0.6561  -0.6444  -0.5449
    -0.5230  -0.5121  -0.4274  -0.4152  -0.3670  -0.2780  -0.2555  -0.2464
    -0.1637  -0.1611  -0.0648  -0.0243   0.0167   0.0515   0.1676   0.1854
     0.2833   0.3116   0.3402   0.4525   0.4682   0.5338   0.6088   0.6706
     0.6983   0.7232   0.7538   0.7727   0.8488   0.9598   0.9675   1.0719
     1.1036   1.2761   1.3150   1.3927   1.6029   1.6410   2.3023   2.6419
     2.8015   3.0999   3.2878   3.4009   3.6165   3.6326   3.6375   3.8078
     3.8599

[...]

          k =-0.0760-0.0000 0.0000 ( 17886 PWs)   bands (ev):

[...]

 ------ SPIN DOWN ----------

[...]

          k = 0.0380-0.0419 0.0000 ( 17876 PWs)   bands (ev):

[...]

          k =-0.0760-0.0839 0.0000 ( 17948 PWs)   bands (ev):

   -56.6165 -56.6161 -55.7416 -55.7358 -55.7292 -55.7287 -55.5931 -55.5922
   -55.3787 -55.3701 -55.2874 -55.2814 -55.2813 -55.1958 -54.7234 -54.6172
   -32.8936 -32.8933 -32.8778 -32.8776 -32.7621 -32.7618 -32.0574 -32.0551
   -32.0458 -32.0392 -31.9858 -31.9848 -31.9418 -31.9414 -31.9400 -31.9389
   -31.9310 -31.9281 -31.9260 -31.9244 -31.8456 -31.8435 -31.7945 -31.7916
   -31.7294 -31.7190 -31.6602 -31.6522 -31.6256 -31.6255 -31.6166 -31.5770
   -31.5727 -31.5448 -31.5106 -31.5068 -31.5067 -31.4677 -31.4676 -31.4616
   -31.4382 -31.3987 -31.1119 -30.9916 -30.9564 -30.9255 -30.8392 -30.8014
   -16.1462 -16.1441 -16.1112 -16.1110 -15.8424 -15.8388 -15.7954 -15.7929
   -15.6189 -15.6128 -15.4068 -15.3981 -15.3912 -15.3898 -15.2618 -15.2560
   -15.1896 -15.1792 -15.0896 -15.0805 -15.0242 -15.0178 -14.9749 -14.9539
   -14.6439 -14.6349 -14.5143 -14.4968 -14.3289 -13.7898 -13.7898 -13.7007
   -12.8059  -7.4889  -3.7757  -3.7518  -3.2451  -3.2448  -3.1809  -3.1798
    -3.0578  -3.0537  -2.9758  -2.9751  -2.8763  -2.8750  -2.7588  -2.7324
    -2.7295  -2.7259  -2.7118  -2.6656  -2.5759  -2.5716  -2.5619  -2.5477
    -2.4902  -2.4883  -2.4609  -2.3980  -2.3846  -2.3534  -2.3157  -2.2015
    -2.1914  -2.1783  -2.1473  -2.0830  -2.0784  -2.0647  -2.0221  -1.9928
    -1.9107  -1.8371  -1.8009  -1.6888  -1.6845  -1.6720  -1.6598  -1.5068
    -1.4666  -1.4360  -1.4297  -1.4226  -1.3745  -1.2807  -1.2732  -1.1407
    -1.1391  -1.0643  -0.9832  -0.9624  -0.9333  -0.8048  -0.7610  -0.7264
    -0.7186  -0.6902  -0.6695  -0.6488  -0.6039  -0.4688  -0.4572  -0.4184
    -0.3838  -0.3617  -0.3277  -0.2695  -0.1843  -0.1067  -0.1060  -0.0496
     0.0191   0.0788   0.1661   0.1755   0.1821   0.4624   0.5406   0.6309
     0.7068   0.7734   0.8363   0.8677   0.9230   0.9677   1.1024   1.1057
     1.1247   1.1250   1.1852   1.1890   1.3755   1.6474   2.1920   3.2144
     3.2147   3.2814   3.2819   3.6056   3.6113   3.7197   3.7290   3.8371
     3.8420

     the Fermi energy is     2.4815 ev

!    total energy              =   -2942.90763814 Ry
     estimated scf accuracy    <       0.00000005 Ry
     smearing contrib. (-TS)   =      -0.00485557 Ry
     internal energy E=F+TS    =   -2942.90278257 Ry

     The total energy is F=E-TS. E is the sum of the following terms:
     one-electron contribution =  -23242.35298530 Ry
     hartree contribution      =   11711.37803417 Ry
     xc contribution           =    -487.47201405 Ry
     ewald contribution        =    9075.54385333 Ry
     electric field correction =       0.00032928 Ry

     total magnetization       =    -0.00 Bohr mag/cell
     absolute magnetization    =     0.00 Bohr mag/cell

     convergence has been achieved in  69 iterations

     Forces acting on atoms (cartesian axes, Ry/au):

     atom    1 type  1   force =     0.00004030   -0.00040743    0.12410927
     atom    2 type  1   force =    -0.00010613   -0.00057123   -0.16062889
     atom    3 type  2   force =     0.00023421   -0.00026930   -0.06803594
     atom    4 type  2   force =     0.00001315   -0.00029150    0.02755714
     atom    5 type  2   force =    -0.01615452    0.00175588   -0.00937076
     atom    6 type  2   force =     0.01818690    0.00219444   -0.00899293
     atom    7 type  1   force =     0.00115265   -0.00378559    0.02176399
     atom    8 type  1   force =    -0.00057640   -0.00290473    0.11114126
     atom    9 type  2   force =    -0.00018222    0.00030741   -0.00049813
     atom   10 type  2   force =    -0.00195776    0.00129322   -0.07327284
     atom   11 type  2   force =     0.00022557   -0.00010682    0.00015907
     atom   12 type  2   force =    -0.00026307    0.00022384    0.00018962
     atom   13 type  1   force =    -0.00008564    0.00008479   -0.00033561
     atom   14 type  1   force =    -0.00059348    0.00044553    0.00045040
     atom   15 type  2   force =     0.00030815    0.00000702    0.00006739
     atom   16 type  2   force =    -0.00049569   -0.00036792    0.00053182
     atom   17 type  2   force =    -0.00063754    0.00023821    0.00002236
     atom   18 type  2   force =     0.00003940    0.00023805    0.00010603
     atom   19 type  1   force =     0.00040062   -0.00054687    0.00001083
     atom   20 type  1   force =    -0.00030038    0.00018018    0.00033632
     atom   21 type  2   force =     0.00004954   -0.00000722    0.09969714
     atom   22 type  2   force =     0.00033558   -0.00003563   -0.00043356
     atom   23 type  2   force =    -0.07917188    0.00000177   -0.03242671
     atom   24 type  2   force =     0.07905855    0.00043935   -0.03244797
     atom   25 type  1   force =     0.00001722   -0.00041788    0.12363417
     atom   26 type  1   force =    -0.00009691   -0.00046428   -0.16076368
     atom   27 type  2   force =     0.00033043   -0.00048478   -0.06708809
     atom   28 type  2   force =     0.00002822   -0.00011993    0.02728413
     atom   29 type  2   force =    -0.01662993    0.00127945   -0.00947760
     atom   30 type  2   force =     0.01856025    0.00165631   -0.00911151
     atom   31 type  1   force =     0.00116523   -0.00138866    0.02119277
     atom   32 type  1   force =    -0.00053098    0.00034721    0.11178553
     atom   33 type  2   force =    -0.00016237   -0.00025005    0.00002541
     atom   34 type  2   force =    -0.00132525    0.00066862   -0.07273247
     atom   35 type  2   force =    -0.00077544   -0.00043232   -0.00004039
     atom   36 type  2   force =     0.00010336   -0.00001864    0.00009358
     atom   37 type  1   force =     0.00006731    0.00063348    0.00030454
     atom   38 type  1   force =    -0.00023104    0.00003075   -0.00013647
     atom   39 type  2   force =     0.00006709   -0.00016925    0.00079059
     atom   40 type  2   force =    -0.00018388   -0.00046518    0.00029937
     atom   41 type  2   force =     0.00006062   -0.00010608    0.00001577
     atom   42 type  2   force =     0.00045991    0.00004777    0.00001866
     atom   43 type  1   force =    -0.00020591   -0.00011204    0.00009057
     atom   44 type  1   force =    -0.00026815    0.00040288    0.00023030
     atom   45 type  2   force =     0.00002491   -0.00003149    0.09972440
     atom   46 type  2   force =    -0.07917706    0.00005423   -0.03242599
     atom   47 type  2   force =     0.07905900    0.00047676   -0.03244047
     atom   48 type  3   force =     0.00288986    0.00072418   -0.00099091
     atom   49 type  4   force =    -0.01858033   -0.00067136    0.00068367
     atom   50 type  5   force =     0.00519600   -0.00310556   -0.00131942
     atom   51 type  5   force =     0.00232543    0.00194837   -0.00075526
     atom   52 type  5   force =     0.00919214    0.00234527    0.00168156
     atom   53 type  3   force =     0.00001935   -0.00086647   -0.00012108
     atom   54 type  5   force =    -0.00000658    0.00021771   -0.00055195
     atom   55 type  5   force =     0.00014861    0.00030647   -0.00082906
     atom   56 type  5   force =    -0.00106099   -0.00015093    0.00123000

     Total force =     0.425020     Total SCF correction =     0.000622
  @ DRIVER MODE: Message from server: STATUS
  @ DRIVER MODE: Message from server: GETFORCE
  @ DRIVER MODE: Returning v,forces,stress,ensemble

     Writing output data file ./calc.save/
  @ DRIVER MODE: Message from server: EXIT
  @ DRIVE MODE: Exiting

     General routines

     Parallel routines

   This run was terminated on:  21:16:26  15Jul2021

   JOB DONE.