     Program PWSCF v.6.7GPU starts on 16Sep2021 at  3:32:48

     R & G space division:  proc/nbgrp/npool/nimage =      10
     Reading input from /storage/home/hcoda1/3/ntian30/research/carbon/CxH_vib/H2O_calc/ads_slab/CHN2H2O_c/out_0038/pw.inp
Warning: card &CELL ignored
Warning: card   CELL_DYNAMICS='IPI', ignored
Warning: card / ignored

     Current dimensions of program PWSCF are:
     Max number of different atomic species (ntypx) = 10
     Max number of k-points (npk) =  40000
     Max angular momentum in pseudopotentials (lmaxx) =  3
     Presently no symmetry can be used with electric field

     Message from routine cell_base_init:
     DEPRECATED: use true lattice parameter, not A to a.u. conversion factor

     IMPORTANT: XC functional enforced from input :
     Exchange-correlation= BEEF-VDW
                           (   1   4  43  14   2   0   0)
     Any further DFT definition will be discarded
     Please, verify this is what you really want

  @ DRIVER MODE: Connecting to
 qe_1139763_2852625.sched-torque.pace.gatech.edu0vaiq75n_scratch
  using UNIX socket
  @ DRIVER MODE: Message from server: STATUS
  @ DRIVER MODE: Message from server: INIT
  @ DRIVER MODE: Receiving replica           0          -1
  @ DRIVER MODE: Receiving encoded integer          25
  @ DRIVER MODE:  SCF:  T  FORCE:  T  STRESS:  F  VC:  F  ENSEMBLE:  F
  @ DRIVER MODE:  SCF:  T  FORCE:  T  STRESS:  F  VC:  F  ENSEMBLE:  F

     Using Slab Decomposition

     bravais-lattice index     =            0
     lattice parameter (alat)  =       1.8897  a.u.
     unit-cell volume          =    6658.9804 (a.u.)^3
     number of atoms/cell      =           54
     number of atomic types    =            5
     number of electrons       =       401.00
     number of Kohn-Sham states=          210
     kinetic-energy cutoff     =      29.3995  Ry
     charge density cutoff     =     293.9946  Ry
     scf convergence threshold =      7.3E-08
     mixing beta               =       0.0500
     number of iterations used =            8  plain     mixing
     Exchange-correlation= BEEF-VDW
                           (   1   4  43  14   2   0   0)

     celldm(1)=   1.889726  celldm(2)=   0.000000  celldm(3)=   0.000000
     celldm(4)=   0.000000  celldm(5)=   0.000000  celldm(6)=   0.000000

     crystal axes: (cart. coord. in units of alat)
               a(1) = (   6.579727   0.000000   0.000000 )
               a(2) = (  -0.000775   5.961596   0.000000 )
               a(3) = (   0.000000   0.000000  25.155947 )

     reciprocal axes: (cart. coord. in units 2 pi/alat)
               b(1) = (  0.151982  0.000020  0.000000 )
               b(2) = (  0.000000  0.167740  0.000000 )
               b(3) = (  0.000000  0.000000  0.039752 )

     PseudoPot. # 1 for Ti read from file:
     /storage/coda1/p-amedford6/0/shared/rich_project_chbe-medford/medford-share/data/pseudos_module/espresso/nninc/pbe/van/Ti.UPF
     MD5 check sum: 8e4df49b7f0d34bbd5052bf3f5ea0213
     Pseudo is Ultrasoft, Zval = 12.0
     Generated by new atomic code, or converted to UPF format
     Using radial grid of  851 points,  6 beta functions with:
                l(1) =   0
                l(2) =   0
                l(3) =   1
                l(4) =   1
                l(5) =   2
                l(6) =   2
     Q(r) pseudized with  8 coefficients,  rinner =    1.000   1.000   1.000
                                                       1.000   1.000

     PseudoPot. # 2 for O  read from file:
     /storage/coda1/p-amedford6/0/shared/rich_project_chbe-medford/medford-share/data/pseudos_module/espresso/nninc/pbe/van/O.UPF
     MD5 check sum: 78c19812648e8988a0fe644b0f25305e
     Pseudo is Ultrasoft, Zval =  6.0
     Generated by new atomic code, or converted to UPF format
     Using radial grid of  737 points,  4 beta functions with:
                l(1) =   0
                l(2) =   0
                l(3) =   1
                l(4) =   1
     Q(r) pseudized with  8 coefficients,  rinner =    0.800   0.800   0.800

     PseudoPot. # 3 for C  read from file:
     /storage/coda1/p-amedford6/0/shared/rich_project_chbe-medford/medford-share/data/pseudos_module/espresso/nninc/pbe/van/C.UPF
     MD5 check sum: 1a69bf6b8db32088f5b2163dbdb77a27
     Pseudo is Ultrasoft, Zval =  4.0
     Generated by new atomic code, or converted to UPF format
     Using radial grid of  721 points,  4 beta functions with:
                l(1) =   0
                l(2) =   0
                l(3) =   1
                l(4) =   1
     Q(r) pseudized with  8 coefficients,  rinner =    0.800   0.800   0.800

     PseudoPot. # 4 for H  read from file:
     /storage/coda1/p-amedford6/0/shared/rich_project_chbe-medford/medford-share/data/pseudos_module/espresso/nninc/pbe/van/H.UPF
     MD5 check sum: b5ee9d7bfd3a09ee7748110bda690ff7
     Pseudo is Ultrasoft, Zval =  1.0
     Generated by new atomic code, or converted to UPF format
     Using radial grid of  615 points,  1 beta functions with:
                l(1) =   0
     Q(r) pseudized with  8 coefficients,  rinner =    0.800

     PseudoPot. # 5 for N  read from file:
     /storage/coda1/p-amedford6/0/shared/rich_project_chbe-medford/medford-share/data/pseudos_module/espresso/nninc/pbe/van/N.UPF
     MD5 check sum: 90d10febe142ad51ac9d5be1deb811c4
     Pseudo is Ultrasoft, Zval =  5.0
     Generated by new atomic code, or converted to UPF format
     Using radial grid of  729 points,  4 beta functions with:
                l(1) =   0
                l(2) =   0
                l(3) =   1
                l(4) =   1
     Q(r) pseudized with  8 coefficients,  rinner =    0.800   0.800   0.800

     atomic species   valence    mass     pseudopotential
        Ti1           12.00    47.86700     Ti( 1.00)
        O1             6.00    15.99900     O ( 1.00)
        C1             4.00    12.01100     C ( 1.00)
        H1             1.00     1.00800     H ( 1.00)
        N1             5.00    14.00700     N ( 1.00)

     No symmetry found

   Cartesian axes

     site n.     atom                  positions (alat units)
         1           Ti1 tau(   1) = (   0.0004258   2.9801865   6.0000000  )
         2           Ti1 tau(   2) = (   3.2906075   1.4906267   6.0002472  )
         3           O1  tau(   3) = (   0.0006271   0.0005054   7.9858123  )
         4           O1  tau(   4) = (   3.2906025   0.0005020   7.3038282  )
         5           O1  tau(   5) = (   4.5942328   1.4918067   9.2879030  )
         6           O1  tau(   6) = (   1.9868534   1.4903216   9.2879459  )
         7           Ti1 tau(   7) = (   3.2907910   2.8959150   9.1758416  )
         8           Ti1 tau(   8) = (   0.0015273   1.4827037   9.2680791  )
         9           O1  tau(   9) = (   3.2982821   5.9591942  11.3418950  )
        10           O1  tau(  10) = (   0.0116148   5.9584955  10.6183126  )
        11           O1  tau(  11) = (   1.2990089   1.4837789  12.6285733  )
        12           O1  tau(  12) = (   5.2904647   1.4888503  12.6163117  )
        13           Ti1 tau(  13) = (   0.0603338   2.9457994  12.6026339  )
        14           Ti1 tau(  14) = (   3.3706290   1.4705258  12.5092779  )
        15           O1  tau(  15) = (   6.5788109   0.0160518  14.6499261  )
        16           O1  tau(  16) = (   3.3158691   0.0087694  13.9605792  )
        17           O1  tau(  17) = (   4.5613999   1.5213109  16.0555727  )
        18           O1  tau(  18) = (   2.0390476   1.5587733  16.0026688  )
        19           Ti1 tau(  19) = (   3.2958454   3.0042652  15.6812246  )
        20           Ti1 tau(  20) = (   0.0477533   1.5223793  15.8108347  )
        21           O1  tau(  21) = (   3.2904802   0.0005063   4.7018136  )
        22           O1  tau(  22) = (   0.0778492   0.0082781  17.2116806  )
        23           O1  tau(  23) = (   1.3043587   1.4918075   6.0039043  )
        24           O1  tau(  24) = (   5.2767064   1.4903225   6.0039473  )
        25           Ti1 tau(  25) = (   0.0000382   5.9609847   6.0000000  )
        26           Ti1 tau(  26) = (   3.2902200   4.4714249   6.0002472  )
        27           O1  tau(  27) = (   0.0002396   2.9813036   7.9858123  )
        28           O1  tau(  28) = (   3.2902150   2.9813002   7.3038282  )
        29           O1  tau(  29) = (   4.5938453   4.4726049   9.2879030  )
        30           O1  tau(  30) = (   1.9864658   4.4711199   9.2879459  )
        31           Ti1 tau(  31) = (   3.2891106   5.8743827   9.1763621  )
        32           Ti1 tau(  32) = (   0.0006254   4.4649316   9.2693709  )
        33           O1  tau(  33) = (   3.3003553   2.9806904  11.3444413  )
        34           O1  tau(  34) = (   0.0092240   2.9805883  10.6323155  )
        35           O1  tau(  35) = (   1.2971990   4.4717445  12.6361083  )
        36           O1  tau(  36) = (   5.2938362   4.4783115  12.6231241  )
        37           Ti1 tau(  37) = (   0.0537182   5.9220384  12.5388396  )
        38           Ti1 tau(  38) = (   3.3696634   4.4695314  12.5002334  )
        39           O1  tau(  39) = (   0.0023790   2.9538485  14.6690360  )
        40           O1  tau(  40) = (   3.3142834   2.9899978  13.8932647  )
        41           O1  tau(  41) = (   4.5682027   4.4688565  16.0600133  )
        42           O1  tau(  42) = (   2.0418658   4.4415600  16.0251682  )
        43           Ti1 tau(  43) = (   3.3511655   0.0130708  15.8150828  )
        44           Ti1 tau(  44) = (   0.0311020   4.6533438  16.0685068  )
        45           O1  tau(  45) = (   3.2900926   2.9813045   4.7018136  )
        46           O1  tau(  46) = (   1.3039711   4.4726057   6.0039043  )
        47           O1  tau(  47) = (   5.2763189   4.4711207   6.0039473  )
        48           C1  tau(  48) = (   0.0453995   2.9433715  17.6444507  )
        49           H1  tau(  49) = (   0.9770157   2.9292850  18.2072415  )
        50           N1  tau(  50) = (   5.5932985   2.7872967  18.4085793  )
        51           N1  tau(  51) = (   4.6087457   2.6299947  18.9712495  )
        52           O1  tau(  52) = (   3.0556172   5.9408547  18.1262901  )
        53           H1  tau(  53) = (   3.4776725   0.7204629  18.5958315  )
        54           H1  tau(  54) = (   2.1035776   0.0631959  18.2589326  )

     number of k points=    10  Fermi-Dirac smearing, width (Ry)=  0.0073
                       cart. coord. in units 2pi/alat
        k(    1) = (   0.0000000   0.0000000   0.0000000), wk =   0.1250000
        k(    2) = (   0.0000000   0.0419351   0.0000000), wk =   0.2500000
        k(    3) = (   0.0000000  -0.0838702   0.0000000), wk =   0.1250000
        k(    4) = (   0.0379955   0.0000049   0.0000000), wk =   0.2500000
        k(    5) = (   0.0379955   0.0419400   0.0000000), wk =   0.2500000
        k(    6) = (   0.0379955  -0.0838652   0.0000000), wk =   0.2500000
        k(    7) = (   0.0379955  -0.0419301   0.0000000), wk =   0.2500000
        k(    8) = (  -0.0759910  -0.0000099   0.0000000), wk =   0.1250000
        k(    9) = (  -0.0759910   0.0419252   0.0000000), wk =   0.2500000
        k(   10) = (  -0.0759910  -0.0838800   0.0000000), wk =   0.1250000

     Initial potential from superposition of free atoms

     starting charge  384.99916, renormalised to  401.00000

     negative rho (up, down):  1.776E-02 0.000E+00

     %%%%%%%%%%%%%%%%%%%%%%%%%%%%%%%%%%%%%%%%%%%%%%%%%%%%%%%%%%%%%%%%%%%%%%%%
     %                                                                      %
     % You are using vdW-DF, which was implemented by the Thonhauser group. %
     % Please cite the following two papers that made this development      %
     % possible and the two reviews that describe the various versions:     %
     %                                                                      %
     %   T. Thonhauser et al., PRL 115, 136402 (2015).                      %
     %   T. Thonhauser et al., PRB 76, 125112 (2007).                       %
     %   K. Berland et al., Rep. Prog. Phys. 78, 066501 (2015).             %
     %   D.C. Langreth et al., J. Phys.: Condens. Matter 21, 084203 (2009). %
     %                                                                      %
     %                                                                      %
     % If you are calculating the stress with vdW-DF, please also cite:     %
     %                                                                      %
     %   R. Sabatini et al., J. Phys.: Condens. Matter 24, 424209 (2012).   %
     %                                                                      %
     %%%%%%%%%%%%%%%%%%%%%%%%%%%%%%%%%%%%%%%%%%%%%%%%%%%%%%%%%%%%%%%%%%%%%%%%

     Adding external electric field

     Computed dipole along edir(3) :
        Dipole              -11.5984 Ry au,        -29.4801 Debye
        Dipole field         -0.0219 Ry au,

        Potential amp.        2.0290 Ry
        Total length         46.3494 bohr

     Starting wfcs are  303 atomic wfcs
  @ DRIVER MODE: Message from server: STATUS
  @ DRIVER MODE: Message from server: POSDATA
  @ DRIVER MODE: Reading and sharing cell
  @ DRIVER MODE: Reading and sharing positions
  @ DRIVER MODE: Received positions

     Self-consistent Calculation

     iteration #  1     ecut=    29.40 Ry     beta= 0.05
     Davidson diagonalization with overlap
     c_bands:  3 eigenvalues not converged
     c_bands:  1 eigenvalues not converged
     c_bands:  3 eigenvalues not converged
     c_bands:  3 eigenvalues not converged
     c_bands:  5 eigenvalues not converged
     c_bands:  2 eigenvalues not converged
     c_bands:  3 eigenvalues not converged
     c_bands:  1 eigenvalues not converged
     c_bands:  5 eigenvalues not converged
     ethr =  1.00E-05,  avg # of iterations = 23.5

[...]

     total energy              =   -2415.40000112 Ry
     estimated scf accuracy    <    6267.15306630 Ry

     iteration #  2     ecut=    29.40 Ry     beta= 0.05
     Davidson diagonalization with overlap
     ethr =  1.00E-02,  avg # of iterations = 29.6

[...]

     iteration # 71     ecut=    29.40 Ry     beta= 0.05
     Davidson diagonalization with overlap
     c_bands:  1 eigenvalues not converged
     ethr =  6.13E-09,  avg # of iterations = 10.0

[...]

     total energy              =   -2971.50199891 Ry
     estimated scf accuracy    <       0.00000011 Ry

     iteration # 84     ecut=    29.40 Ry     beta= 0.05
     Davidson diagonalization with overlap
     ethr =  2.56E-11,  avg # of iterations =  5.1

     negative rho (up, down):  1.756E-02 0.000E+00

     Adding external electric field

     Computed dipole along edir(3) :
        Dipole                0.5795 Ry au,          1.4728 Debye
        Dipole field          0.0011 Ry au,

        Potential amp.       -0.1014 Ry
        Total length         46.3494 bohr

     End of self-consistent calculation

          k = 0.0000 0.0000 0.0000 ( 18029 PWs)   bands (ev):

   -55.8806 -55.8466 -55.8464 -55.8414 -55.8098 -55.7240 -55.6947 -55.6865
   -55.6611 -55.6607 -55.6512 -55.6272 -55.4115 -55.2192 -54.8624 -54.8284
   -32.3890 -32.3641 -32.2469 -32.2191 -32.1935 -32.1730 -32.1509 -32.1445
   -32.1244 -32.0722 -32.0676 -32.0651 -32.0329 -32.0267 -32.0216 -31.9957
   -31.9860 -31.9784 -31.9713 -31.9435 -31.9378 -31.9204 -31.8983 -31.8884
   -31.8855 -31.8737 -31.8732 -31.8594 -31.8519 -31.8478 -31.8368 -31.8338
   -31.8293 -31.8247 -31.8142 -31.8022 -31.7730 -31.6602 -31.6262 -31.4795
   -31.4637 -31.4324 -31.2696 -31.1809 -31.1585 -31.0863 -30.9998 -30.8888
   -20.5009 -18.8472 -16.5832 -16.3529 -16.1290 -16.0381 -15.9930 -15.7829
   -15.6738 -15.6180 -15.4945 -15.4305 -15.4223 -15.4149 -15.3939 -15.3839
   -15.3275 -15.3173 -15.3045 -15.2990 -15.2711 -15.2338 -15.2186 -15.2172
   -15.1451 -15.0424 -15.0214 -14.9981 -14.9961 -14.9383 -14.4942 -13.6086
   -13.3642 -13.2477  -6.6727  -5.8277  -4.7081  -4.4886  -3.9573  -3.8230
    -3.7875  -3.7515  -3.7165  -3.5203  -3.4924  -3.3770  -3.2387  -3.1301
    -3.0610  -3.0267  -2.9718  -2.8963  -2.8258  -2.7640  -2.7284  -2.6862
    -2.6773  -2.6414  -2.6347  -2.6169  -2.5967  -2.4968  -2.4616  -2.4130
    -2.3482  -2.2462  -2.2261  -2.1943  -2.1890  -2.1536  -2.1460  -2.1247
    -2.1075  -2.0977  -2.0228  -1.9266  -1.8767  -1.7831  -1.6727  -1.5343
    -1.5330  -1.4877  -1.3596  -1.3461  -1.3163  -1.2898  -1.2742  -1.2375
    -1.1427  -1.0858  -1.0401  -0.9772  -0.9036  -0.8144  -0.7719  -0.7203
    -0.6563  -0.6397  -0.6317  -0.6131  -0.5757  -0.4690  -0.4462  -0.3690
    -0.3656  -0.2803  -0.2486  -0.1883  -0.1578  -0.1196  -0.0806  -0.0070
     0.0130   0.0379   0.0560   0.0833   0.0920   0.1336   0.1665   0.1709
     0.3669   0.3922   0.4514   0.4612   0.5223   0.6430   0.6609   0.7747
     0.8920   1.0872   1.1603   1.2536   1.3521   1.7317   1.7776   1.7847
     3.2429   3.3404   3.3791   3.3880   3.4753   3.4871   3.7040   3.7498
     3.7575   3.8126

[...]

          k = 0.0380-0.0419 0.0000 ( 17876 PWs)   bands (ev):

[...]

          k =-0.0760-0.0000 0.0000 ( 17886 PWs)   bands (ev):

[...]

          k =-0.0760-0.0839 0.0000 ( 17948 PWs)   bands (ev):

   -55.8640 -55.8631 -55.8403 -55.8309 -55.8245 -55.7127 -55.6979 -55.6781
   -55.6767 -55.6526 -55.6460 -55.6424 -55.4101 -55.2205 -54.8454 -54.8452
   -32.2059 -32.1837 -32.1796 -32.1791 -32.1588 -32.1580 -32.1311 -32.1041
   -32.0910 -32.0636 -32.0556 -32.0513 -32.0376 -32.0070 -31.9990 -31.9923
   -31.9848 -31.9843 -31.9835 -31.9823 -31.9806 -31.9784 -31.9593 -31.9263
   -31.9139 -31.9092 -31.9012 -31.8800 -31.8794 -31.8760 -31.8688 -31.8613
   -31.8575 -31.8536 -31.8508 -31.8483 -31.7837 -31.6635 -31.6194 -31.5361
   -31.4818 -31.4553 -31.1713 -31.1711 -31.0825 -31.0823 -31.0432 -31.0430
   -20.5002 -18.8464 -16.0439 -15.9276 -15.8458 -15.8050 -15.7373 -15.7008
   -15.6542 -15.5895 -15.5596 -15.5563 -15.5014 -15.4855 -15.4450 -15.4309
   -15.4061 -15.3999 -15.3840 -15.3359 -15.3237 -15.3154 -15.3067 -15.3030
   -15.2621 -15.2278 -15.2028 -15.1984 -15.0923 -14.9612 -14.6681 -13.6174
   -13.3496 -13.3494  -6.6705  -5.8229  -4.6671  -4.4624  -3.6335  -3.3338
    -3.3220  -3.1037  -3.0506  -2.9913  -2.9856  -2.9406  -2.8175  -2.7900
    -2.7414  -2.7333  -2.6944  -2.6891  -2.6843  -2.6647  -2.6311  -2.6116
    -2.6064  -2.5558  -2.5498  -2.5429  -2.5252  -2.5145  -2.5072  -2.4825
    -2.4559  -2.4400  -2.4232  -2.3938  -2.3111  -2.2808  -2.1126  -2.0714
    -2.0238  -2.0153  -1.9841  -1.9634  -1.9515  -1.9301  -1.8864  -1.7292
    -1.6510  -1.5842  -1.5735  -1.5638  -1.4897  -1.4731  -1.3621  -1.3247
    -1.2910  -1.2567  -1.1831  -1.1036  -1.0965  -1.0758  -0.9693  -0.9623
    -0.9284  -0.8854  -0.8465  -0.8354  -0.8268  -0.7500  -0.6938  -0.6217
    -0.6153  -0.5912  -0.5783  -0.5518  -0.5265  -0.4353  -0.3661  -0.3103
    -0.2765  -0.1880  -0.1576   0.0639   0.0856   0.1958   0.2091   0.2771
     0.3184   0.4268   0.4351   0.4826   0.5058   0.5316   0.5943   0.6589
     0.6686   0.6960   0.8139   1.5235   1.5248   1.5972   1.5975   1.6990
     3.5617   3.5935   3.6261   3.6360   3.7457   3.7662   3.7863   3.7890
     3.9047   3.9252

     the Fermi energy is     3.2505 ev

!    total energy              =   -2971.50200512 Ry
     estimated scf accuracy    <       0.00000006 Ry
     smearing contrib. (-TS)   =      -0.02121703 Ry
     internal energy E=F+TS    =   -2971.48078809 Ry

     The total energy is F=E-TS. E is the sum of the following terms:
     one-electron contribution =  -24214.02193631 Ry
     hartree contribution      =   12197.68682795 Ry
     xc contribution           =    -492.40420668 Ry
     ewald contribution        =    9537.25789332 Ry
     electric field correction =       0.00063364 Ry

     convergence has been achieved in  84 iterations

     Forces acting on atoms (cartesian axes, Ry/au):

     atom    1 type  1   force =     0.00019330   -0.00029284    0.09588639
     atom    2 type  1   force =    -0.00004995   -0.00047885   -0.17571258
     atom    3 type  2   force =     0.00007137   -0.00014145   -0.02406597
     atom    4 type  2   force =     0.00005815   -0.00155752    0.05357029
     atom    5 type  2   force =    -0.01129267   -0.00085172    0.00336206
     atom    6 type  2   force =     0.01316353   -0.00018663    0.00285126
     atom    7 type  1   force =    -0.00060205    0.00052654   -0.00604523
     atom    8 type  1   force =     0.00022072    0.00883357    0.02325395
     atom    9 type  2   force =    -0.00021123    0.00013944   -0.00008888
     atom   10 type  2   force =    -0.00059835    0.00120250   -0.01589539
     atom   11 type  2   force =    -0.00017704    0.00013989   -0.00003622
     atom   12 type  2   force =    -0.00020173   -0.00008011   -0.00016720
     atom   13 type  1   force =     0.00000357    0.00057831    0.00021027
     atom   14 type  1   force =    -0.00006014    0.00003660   -0.00003733
     atom   15 type  2   force =    -0.00025300   -0.00009310   -0.00013516
     atom   16 type  2   force =    -0.00021870    0.00023959   -0.00005264
     atom   17 type  2   force =    -0.00033100   -0.00001629    0.00017566
     atom   18 type  2   force =    -0.00040190    0.00017360    0.00002288
     atom   19 type  1   force =    -0.00009878   -0.00031720   -0.00015321
     atom   20 type  1   force =    -0.00025179   -0.00057795    0.00021183
     atom   21 type  2   force =     0.00006277   -0.00004424    0.10324805
     atom   22 type  2   force =    -0.00000555    0.00004910   -0.00055756
     atom   23 type  2   force =    -0.07144148   -0.00012332   -0.02768159
     atom   24 type  2   force =     0.07142037    0.00030094   -0.02771133
     atom   25 type  1   force =     0.00002701   -0.00023701    0.09565977
     atom   26 type  1   force =    -0.00015410   -0.00036421   -0.17587003
     atom   27 type  2   force =     0.00010252   -0.00020057   -0.02306716
     atom   28 type  2   force =     0.00012370   -0.00121916    0.05308459
     atom   29 type  2   force =    -0.01154201    0.00061875    0.00327543
     atom   30 type  2   force =     0.01328079    0.00092795    0.00277940
     atom   31 type  1   force =    -0.00047062    0.00377779   -0.01063974
     atom   32 type  1   force =     0.00008265   -0.01102037    0.02366022
     atom   33 type  2   force =     0.00011175   -0.00003456    0.00002932
     atom   34 type  2   force =     0.00007777    0.00062126   -0.02082986
     atom   35 type  2   force =    -0.00018625   -0.00022595    0.00000479
     atom   36 type  2   force =    -0.00039252    0.00001366   -0.00009211
     atom   37 type  1   force =     0.00033543   -0.00052859   -0.00003132
     atom   38 type  1   force =     0.00001198   -0.00000813   -0.00020749
     atom   39 type  2   force =    -0.00034809   -0.00000044   -0.00001400
     atom   40 type  2   force =     0.00003082   -0.00015602   -0.00030760
     atom   41 type  2   force =    -0.00039397   -0.00020940   -0.00000322
     atom   42 type  2   force =     0.00014386   -0.00002996   -0.00001412
     atom   43 type  1   force =     0.00034193   -0.00048161   -0.00038475
     atom   44 type  1   force =    -0.00020333   -0.00000869    0.00049645
     atom   45 type  2   force =     0.00006215   -0.00008352    0.10323468
     atom   46 type  2   force =    -0.07144782   -0.00010257   -0.02770631
     atom   47 type  2   force =     0.07144872    0.00033389   -0.02773450
     atom   48 type  3   force =    -0.00016036    0.00006422    0.00047869
     atom   49 type  4   force =     0.00025287    0.00020262    0.00018263
     atom   50 type  5   force =     0.00119375    0.00055967   -0.00040741
     atom   51 type  5   force =    -0.00123901    0.00013281    0.00000524
     atom   52 type  2   force =     0.01754183   -0.00073773   -0.00215027
     atom   53 type  4   force =     0.00087915   -0.00021056    0.00027898
     atom   54 type  4   force =    -0.01850902    0.00114758    0.00183735

     Total force =     0.367736     Total SCF correction =     0.000484
  @ DRIVER MODE: Message from server: STATUS
  @ DRIVER MODE: Message from server: GETFORCE
  @ DRIVER MODE: Returning v,forces,stress,ensemble

     Writing output data file ./calc.save/
  @ DRIVER MODE: Message from server: EXIT
  @ DRIVE MODE: Exiting

     General routines

     Parallel routines

   This run was terminated on:   3:54:25  16Sep2021

   JOB DONE.