     Program PWSCF v.6.7GPU starts on 21Sep2021 at 16:36:17

     R & G space division:  proc/nbgrp/npool/nimage =      10
     Reading input from /storage/home/hcoda1/3/ntian30/research/carbon/CxH_vib/CH3_calc/ads_slab/CH3ON2_a/out_0014/pw.inp
Warning: card &CELL ignored
Warning: card   CELL_DYNAMICS='IPI', ignored
Warning: card / ignored

     Current dimensions of program PWSCF are:
     Max number of different atomic species (ntypx) = 10
     Max number of k-points (npk) =  40000
     Max angular momentum in pseudopotentials (lmaxx) =  3
     Presently no symmetry can be used with electric field

     Message from routine cell_base_init:
     DEPRECATED: use true lattice parameter, not A to a.u. conversion factor

     IMPORTANT: XC functional enforced from input :
     Exchange-correlation= BEEF-VDW
                           (   1   4  43  14   2   0   0)
     Any further DFT definition will be discarded
     Please, verify this is what you really want

  @ DRIVER MODE: Connecting to
 qe_1139763_2922197.sched-torque.pace.gatech.edu1e9op83e_scratch
  using UNIX socket
  @ DRIVER MODE: Message from server: STATUS
  @ DRIVER MODE: Message from server: INIT
  @ DRIVER MODE: Receiving replica           0          -1
  @ DRIVER MODE: Receiving encoded integer          25
  @ DRIVER MODE:  SCF:  T  FORCE:  T  STRESS:  F  VC:  F  ENSEMBLE:  F
  @ DRIVER MODE:  SCF:  T  FORCE:  T  STRESS:  F  VC:  F  ENSEMBLE:  F

     Using Slab Decomposition

     bravais-lattice index     =            0
     lattice parameter (alat)  =       1.8897  a.u.
     unit-cell volume          =    6658.9804 (a.u.)^3
     number of atoms/cell      =           54
     number of atomic types    =            5
     number of electrons       =       401.00
     number of Kohn-Sham states=          210
     kinetic-energy cutoff     =      29.3995  Ry
     charge density cutoff     =     293.9946  Ry
     scf convergence threshold =      7.3E-08
     mixing beta               =       0.0500
     number of iterations used =            8  plain     mixing
     Exchange-correlation= BEEF-VDW
                           (   1   4  43  14   2   0   0)

     celldm(1)=   1.889726  celldm(2)=   0.000000  celldm(3)=   0.000000
     celldm(4)=   0.000000  celldm(5)=   0.000000  celldm(6)=   0.000000

     crystal axes: (cart. coord. in units of alat)
               a(1) = (   6.579727   0.000000   0.000000 )
               a(2) = (  -0.000775   5.961596   0.000000 )
               a(3) = (   0.000000   0.000000  25.155947 )

     reciprocal axes: (cart. coord. in units 2 pi/alat)
               b(1) = (  0.151982  0.000020  0.000000 )
               b(2) = (  0.000000  0.167740  0.000000 )
               b(3) = (  0.000000  0.000000  0.039752 )

     PseudoPot. # 1 for Ti read from file:
     /storage/coda1/p-amedford6/0/shared/rich_project_chbe-medford/medford-share/data/pseudos_module/espresso/nninc/pbe/van/Ti.UPF
     MD5 check sum: 8e4df49b7f0d34bbd5052bf3f5ea0213
     Pseudo is Ultrasoft, Zval = 12.0
     Generated by new atomic code, or converted to UPF format
     Using radial grid of  851 points,  6 beta functions with:
                l(1) =   0
                l(2) =   0
                l(3) =   1
                l(4) =   1
                l(5) =   2
                l(6) =   2
     Q(r) pseudized with  8 coefficients,  rinner =    1.000   1.000   1.000
                                                       1.000   1.000

     PseudoPot. # 2 for O  read from file:
     /storage/coda1/p-amedford6/0/shared/rich_project_chbe-medford/medford-share/data/pseudos_module/espresso/nninc/pbe/van/O.UPF
     MD5 check sum: 78c19812648e8988a0fe644b0f25305e
     Pseudo is Ultrasoft, Zval =  6.0
     Generated by new atomic code, or converted to UPF format
     Using radial grid of  737 points,  4 beta functions with:
                l(1) =   0
                l(2) =   0
                l(3) =   1
                l(4) =   1
     Q(r) pseudized with  8 coefficients,  rinner =    0.800   0.800   0.800

     PseudoPot. # 3 for C  read from file:
     /storage/coda1/p-amedford6/0/shared/rich_project_chbe-medford/medford-share/data/pseudos_module/espresso/nninc/pbe/van/C.UPF
     MD5 check sum: 1a69bf6b8db32088f5b2163dbdb77a27
     Pseudo is Ultrasoft, Zval =  4.0
     Generated by new atomic code, or converted to UPF format
     Using radial grid of  721 points,  4 beta functions with:
                l(1) =   0
                l(2) =   0
                l(3) =   1
                l(4) =   1
     Q(r) pseudized with  8 coefficients,  rinner =    0.800   0.800   0.800

     PseudoPot. # 4 for H  read from file:
     /storage/coda1/p-amedford6/0/shared/rich_project_chbe-medford/medford-share/data/pseudos_module/espresso/nninc/pbe/van/H.UPF
     MD5 check sum: b5ee9d7bfd3a09ee7748110bda690ff7
     Pseudo is Ultrasoft, Zval =  1.0
     Generated by new atomic code, or converted to UPF format
     Using radial grid of  615 points,  1 beta functions with:
                l(1) =   0
     Q(r) pseudized with  8 coefficients,  rinner =    0.800

     PseudoPot. # 5 for N  read from file:
     /storage/coda1/p-amedford6/0/shared/rich_project_chbe-medford/medford-share/data/pseudos_module/espresso/nninc/pbe/van/N.UPF
     MD5 check sum: 90d10febe142ad51ac9d5be1deb811c4
     Pseudo is Ultrasoft, Zval =  5.0
     Generated by new atomic code, or converted to UPF format
     Using radial grid of  729 points,  4 beta functions with:
                l(1) =   0
                l(2) =   0
                l(3) =   1
                l(4) =   1
     Q(r) pseudized with  8 coefficients,  rinner =    0.800   0.800   0.800

     atomic species   valence    mass     pseudopotential
        Ti1           12.00    47.86700     Ti( 1.00)
        O1             6.00    15.99900     O ( 1.00)
        C1             4.00    12.01100     C ( 1.00)
        H1             1.00     1.00800     H ( 1.00)
        N1             5.00    14.00700     N ( 1.00)

     No symmetry found

   Cartesian axes

     site n.     atom                  positions (alat units)
         1           Ti1 tau(   1) = (   0.0004258   2.9801865   6.0000000  )
         2           Ti1 tau(   2) = (   3.2906075   1.4906267   6.0002472  )
         3           O1  tau(   3) = (   0.0006271   0.0005054   7.9858123  )
         4           O1  tau(   4) = (   3.2906025   0.0005020   7.3038282  )
         5           O1  tau(   5) = (   4.5942328   1.4918067   9.2879030  )
         6           O1  tau(   6) = (   1.9868534   1.4903216   9.2879459  )
         7           Ti1 tau(   7) = (   3.3204934   3.0328528   9.1574130  )
         8           Ti1 tau(   8) = (   0.0292148   1.6159158   9.3632543  )
         9           O1  tau(   9) = (   3.3070435   0.0102262  11.3480939  )
        10           O1  tau(  10) = (   0.0088878   0.0096727  10.6115680  )
        11           O1  tau(  11) = (   1.3030819   1.4981340  12.6442205  )
        12           O1  tau(  12) = (   5.3040506   1.5010416  12.6455732  )
        13           Ti1 tau(  13) = (   0.0403577   3.0063940  12.8112948  )
        14           Ti1 tau(  14) = (   3.3464846   1.5065728  12.4912112  )
        15           O1  tau(  15) = (   0.0134291   0.0009660  14.7247257  )
        16           O1  tau(  16) = (   3.3093041   0.0058478  13.9373560  )
        17           O1  tau(  17) = (   4.5500255   1.4945122  16.1009386  )
        18           O1  tau(  18) = (   2.0583445   1.4942802  16.1012567  )
        19           Ti1 tau(  19) = (   3.3037885   2.9813703  15.7231771  )
        20           Ti1 tau(  20) = (   0.0263689   1.3683668  16.1009981  )
        21           O1  tau(  21) = (   3.2904802   0.0005063   4.7018136  )
        22           O1  tau(  22) = (   0.0160251   5.9515368  17.2504238  )
        23           O1  tau(  23) = (   1.3043587   1.4918075   6.0039043  )
        24           O1  tau(  24) = (   5.2767064   1.4903225   6.0039473  )
        25           Ti1 tau(  25) = (   0.0000382   5.9609847   6.0000000  )
        26           Ti1 tau(  26) = (   3.2902200   4.4714249   6.0002472  )
        27           O1  tau(  27) = (   0.0002396   2.9813036   7.9858123  )
        28           O1  tau(  28) = (   3.2902150   2.9813002   7.3038282  )
        29           O1  tau(  29) = (   4.5938453   4.4726049   9.2879030  )
        30           O1  tau(  30) = (   1.9864658   4.4711199   9.2879459  )
        31           Ti1 tau(  31) = (   3.3068128   0.0556959   9.1539818  )
        32           Ti1 tau(  32) = (   0.0329352   4.5395830   9.2719105  )
        33           O1  tau(  33) = (   3.3067668   2.9902038  11.3487497  )
        34           O1  tau(  34) = (   0.0086428   2.9933526  10.5732881  )
        35           O1  tau(  35) = (   1.3040514   4.4849883  12.6410176  )
        36           O1  tau(  36) = (   5.3019722   4.4792838  12.6433842  )
        37           Ti1 tau(  37) = (   0.0449501   0.0247790  12.5283380  )
        38           Ti1 tau(  38) = (   3.3452221   4.4882979  12.4886840  )
        39           O1  tau(  39) = (   0.0326844   3.0101588  14.7024583  )
        40           O1  tau(  40) = (   3.3056340   2.9839048  13.9300935  )
        41           O1  tau(  41) = (   4.5482541   4.4683137  16.0944903  )
        42           O1  tau(  42) = (   2.0564524   4.4684886  16.0889558  )
        43           Ti1 tau(  43) = (   3.3155465   0.0028818  15.7289974  )
        44           Ti1 tau(  44) = (   0.0293978   4.5260084  15.9878609  )
        45           O1  tau(  45) = (   3.2900926   2.9813045   4.7018136  )
        46           O1  tau(  46) = (   1.3039711   4.4726057   6.0039043  )
        47           O1  tau(  47) = (   5.2763189   4.4711207   6.0039473  )
        48           C1  tau(  48) = (   6.0941187   3.0165090  18.6783144  )
        49           O1  tau(  49) = (   6.5649259   2.9843894  17.3344459  )
        50           H1  tau(  50) = (   5.0184317   2.8724860  18.7083625  )
        51           H1  tau(  51) = (   6.5664557   2.2147430  19.2506469  )
        52           H1  tau(  52) = (   6.3318479   3.9831036  19.1258517  )
        53           N1  tau(  53) = (   6.0286935   3.0693532  22.8641725  )
        54           N1  tau(  54) = (   5.2900788   3.1330812  22.0463807  )

     number of k points=    10  Fermi-Dirac smearing, width (Ry)=  0.0073
                       cart. coord. in units 2pi/alat
        k(    1) = (   0.0000000   0.0000000   0.0000000), wk =   0.1250000
        k(    2) = (   0.0000000   0.0419351   0.0000000), wk =   0.2500000
        k(    3) = (   0.0000000  -0.0838702   0.0000000), wk =   0.1250000
        k(    4) = (   0.0379955   0.0000049   0.0000000), wk =   0.2500000
        k(    5) = (   0.0379955   0.0419400   0.0000000), wk =   0.2500000
        k(    6) = (   0.0379955  -0.0838652   0.0000000), wk =   0.2500000
        k(    7) = (   0.0379955  -0.0419301   0.0000000), wk =   0.2500000
        k(    8) = (  -0.0759910  -0.0000099   0.0000000), wk =   0.1250000
        k(    9) = (  -0.0759910   0.0419252   0.0000000), wk =   0.2500000
        k(   10) = (  -0.0759910  -0.0838800   0.0000000), wk =   0.1250000

     Initial potential from superposition of free atoms

     starting charge  384.99916, renormalised to  401.00000

     negative rho (up, down):  1.014E-02 0.000E+00

     %%%%%%%%%%%%%%%%%%%%%%%%%%%%%%%%%%%%%%%%%%%%%%%%%%%%%%%%%%%%%%%%%%%%%%%%
     %                                                                      %
     % You are using vdW-DF, which was implemented by the Thonhauser group. %
     % Please cite the following two papers that made this development      %
     % possible and the two reviews that describe the various versions:     %
     %                                                                      %
     %   T. Thonhauser et al., PRL 115, 136402 (2015).                      %
     %   T. Thonhauser et al., PRB 76, 125112 (2007).                       %
     %   K. Berland et al., Rep. Prog. Phys. 78, 066501 (2015).             %
     %   D.C. Langreth et al., J. Phys.: Condens. Matter 21, 084203 (2009). %
     %                                                                      %
     %                                                                      %
     % If you are calculating the stress with vdW-DF, please also cite:     %
     %                                                                      %
     %   R. Sabatini et al., J. Phys.: Condens. Matter 24, 424209 (2012).   %
     %                                                                      %
     %%%%%%%%%%%%%%%%%%%%%%%%%%%%%%%%%%%%%%%%%%%%%%%%%%%%%%%%%%%%%%%%%%%%%%%%

     Adding external electric field

     Computed dipole along edir(3) :
        Dipole              -14.4684 Ry au,        -36.7751 Debye
        Dipole field         -0.0273 Ry au,

        Potential amp.        2.5310 Ry
        Total length         46.3494 bohr

     Starting wfcs are  303 atomic wfcs
  @ DRIVER MODE: Message from server: STATUS
  @ DRIVER MODE: Message from server: POSDATA
  @ DRIVER MODE: Reading and sharing cell
  @ DRIVER MODE: Reading and sharing positions
  @ DRIVER MODE: Received positions

     Self-consistent Calculation

     iteration #  1     ecut=    29.40 Ry     beta= 0.05
     Davidson diagonalization with overlap
     c_bands:  3 eigenvalues not converged
     c_bands:  3 eigenvalues not converged
     c_bands:  4 eigenvalues not converged
     c_bands:  3 eigenvalues not converged
     c_bands:  5 eigenvalues not converged
     c_bands:  3 eigenvalues not converged
     c_bands:  5 eigenvalues not converged
     c_bands:  3 eigenvalues not converged
     c_bands:  3 eigenvalues not converged
     c_bands:  1 eigenvalues not converged
     ethr =  1.00E-05,  avg # of iterations = 24.0

[...]

     total energy              =   -2414.25954356 Ry
     estimated scf accuracy    <    6341.48782743 Ry

     iteration #  2     ecut=    29.40 Ry     beta= 0.05
     Davidson diagonalization with overlap
     ethr =  1.00E-02,  avg # of iterations = 24.8

[...]

     iteration # 59     ecut=    29.40 Ry     beta= 0.05
     Davidson diagonalization with overlap
     c_bands:  1 eigenvalues not converged
     ethr =  9.05E-11,  avg # of iterations = 11.0

[...]

     total energy              =   -2971.68358751 Ry
     estimated scf accuracy    <       0.00000008 Ry

     iteration # 62     ecut=    29.40 Ry     beta= 0.05
     Davidson diagonalization with overlap
     ethr =  1.88E-11,  avg # of iterations = 11.3

     negative rho (up, down):  1.203E-02 0.000E+00

     Adding external electric field

     Computed dipole along edir(3) :
        Dipole                0.7574 Ry au,          1.9250 Debye
        Dipole field          0.0014 Ry au,

        Potential amp.       -0.1325 Ry
        Total length         46.3494 bohr

     End of self-consistent calculation

          k = 0.0000 0.0000 0.0000 ( 18029 PWs)   bands (ev):

   -55.6076 -55.5928 -55.5708 -55.5566 -55.5021 -55.4917 -55.4682 -55.4403
   -55.4340 -55.3796 -55.3708 -55.3638 -55.3301 -55.2512 -54.6213 -54.5873
   -32.1588 -32.0753 -32.0109 -31.9567 -31.9269 -31.9073 -31.8988 -31.8759
   -31.8432 -31.8317 -31.8137 -31.8084 -31.8063 -31.7742 -31.7678 -31.7521
   -31.7459 -31.7382 -31.7265 -31.6978 -31.6966 -31.6725 -31.6698 -31.6569
   -31.6482 -31.6464 -31.6241 -31.6171 -31.6084 -31.5959 -31.5887 -31.5882
   -31.5830 -31.5662 -31.5456 -31.5381 -31.5340 -31.5080 -31.4750 -31.4676
   -31.4462 -31.4394 -31.0312 -30.9340 -30.9117 -30.8478 -30.7618 -30.6506
   -21.1892 -17.3477 -16.3451 -16.0523 -15.8901 -15.7560 -15.7255 -15.6214
   -15.4316 -15.2937 -15.2748 -15.2118 -15.1741 -15.1627 -15.1337 -15.1288
   -15.1163 -15.1137 -15.0638 -15.0322 -15.0284 -15.0104 -14.9868 -14.9252
   -14.8846 -14.8056 -14.7576 -14.7258 -14.6700 -14.6077 -14.5919 -13.1222
   -13.0040  -9.1978  -6.3561  -4.3306  -4.3118  -4.0698  -3.8182  -3.7048
    -3.5455  -3.5275  -3.4970  -3.4787  -3.4106  -3.1638  -3.1468  -3.0507
    -2.8291  -2.7710  -2.7472  -2.7322  -2.7271  -2.4840  -2.4648  -2.4343
    -2.4244  -2.4147  -2.3881  -2.3618  -2.3579  -2.3265  -2.3084  -2.2192
    -2.1367  -2.1253  -2.0193  -1.9829  -1.9566  -1.9086  -1.8783  -1.8632
    -1.8467  -1.8188  -1.8050  -1.7758  -1.7729  -1.6748  -1.5496  -1.4377
    -1.4079  -1.3701  -1.3071  -1.1021  -1.0530  -1.0216  -1.0083  -0.9505
    -0.9249  -0.9164  -0.8392  -0.8054  -0.7843  -0.6765  -0.6142  -0.5909
    -0.5651  -0.5018  -0.4694  -0.4242  -0.3463  -0.3309  -0.3178  -0.0997
    -0.0783  -0.0687  -0.0593   0.0550   0.1055   0.1638   0.1754   0.1842
     0.2144   0.2955   0.3474   0.3666   0.3870   0.4081   0.4459   0.5183
     0.5458   0.5728   0.5980   0.6258   0.7168   0.7673   0.9087   1.0387
     1.0625   1.1602   1.3062   1.4028   1.4768   1.5734   1.9918   2.0512
     3.5798   3.6074   3.6407   3.6700   3.7331   3.8469   3.9661   4.0153
     4.0384   4.0622

[...]

          k = 0.0380-0.0419 0.0000 ( 17876 PWs)   bands (ev):

[...]

          k =-0.0760-0.0000 0.0000 ( 17886 PWs)   bands (ev):

[...]

          k =-0.0760-0.0839 0.0000 ( 17948 PWs)   bands (ev):

   -55.5961 -55.5822 -55.5756 -55.5736 -55.4995 -55.4860 -55.4518 -55.4504
   -55.4461 -55.3768 -55.3730 -55.3493 -55.3449 -55.2534 -54.6048 -54.6037
   -31.9630 -31.9575 -31.9111 -31.8990 -31.8880 -31.8841 -31.8661 -31.8622
   -31.8586 -31.8170 -31.7943 -31.7886 -31.7872 -31.7489 -31.7384 -31.7326
   -31.7227 -31.7223 -31.7183 -31.7132 -31.7098 -31.6926 -31.6878 -31.6824
   -31.6778 -31.6714 -31.6648 -31.6542 -31.6538 -31.6493 -31.6255 -31.6016
   -31.6009 -31.5984 -31.5932 -31.5760 -31.5714 -31.5601 -31.5539 -31.5433
   -31.4834 -31.4477 -30.9250 -30.9236 -30.8446 -30.8437 -30.8053 -30.8043
   -21.1891 -17.3113 -15.7822 -15.7711 -15.5273 -15.5252 -15.5228 -15.4542
   -15.3629 -15.3458 -15.3273 -15.3229 -15.2652 -15.2579 -15.2432 -15.1833
   -15.1433 -15.1242 -15.1121 -15.1096 -15.0568 -15.0526 -15.0001 -14.9778
   -14.9627 -14.9557 -14.9381 -14.9315 -14.8420 -14.8389 -14.7664 -13.1064
   -13.1041  -9.1985  -6.3566  -4.3284  -4.3189  -3.9466  -3.7865  -3.5505
    -3.0745  -3.0604  -3.0417  -2.7687  -2.7441  -2.7423  -2.6486  -2.5615
    -2.5225  -2.4853  -2.4474  -2.4443  -2.4428  -2.4240  -2.4047  -2.3927
    -2.3710  -2.3567  -2.3449  -2.2854  -2.2495  -2.2406  -2.2361  -2.2275
    -2.2008  -2.1802  -2.1588  -2.1527  -2.1426  -2.1228  -2.0301  -1.8901
    -1.8561  -1.7469  -1.7366  -1.7066  -1.6923  -1.6607  -1.6535  -1.6342
    -1.5282  -1.4582  -1.3365  -1.3240  -1.3060  -1.2544  -1.1846  -1.1116
    -1.0549  -1.0230  -1.0047  -0.9157  -0.9024  -0.8240  -0.8119  -0.7599
    -0.7231  -0.7053  -0.6133  -0.5746  -0.5614  -0.5480  -0.4802  -0.4625
    -0.4369  -0.4041  -0.3449  -0.3353  -0.2608  -0.2294  -0.1811  -0.1202
    -0.0987  -0.0465   0.0414   0.2099   0.3033   0.4031   0.4388   0.4975
     0.5101   0.6063   0.6500   0.6683   0.6735   0.7576   0.8243   0.8513
     0.9183   0.9328   0.9554   1.0185   1.7627   1.7642   1.8545   1.8646
     3.7852   3.8133   3.8333   3.8799   4.0393   4.0440   4.0632   4.0668
     4.1420   4.2038

     the Fermi energy is     3.5475 ev

!    total energy              =   -2971.68363643 Ry
     estimated scf accuracy    <       0.00000004 Ry
     smearing contrib. (-TS)   =      -0.02320934 Ry
     internal energy E=F+TS    =   -2971.66042709 Ry

     The total energy is F=E-TS. E is the sum of the following terms:
     one-electron contribution =  -22785.56351835 Ry
     hartree contribution      =   11484.75698714 Ry
     xc contribution           =    -492.27617698 Ry
     ewald contribution        =    8821.42119867 Ry
     electric field correction =       0.00108244 Ry

     convergence has been achieved in  62 iterations

     Forces acting on atoms (cartesian axes, Ry/au):

     atom    1 type  1   force =    -0.00021277   -0.00153612    0.10613725
     atom    2 type  1   force =    -0.00044913    0.00047468   -0.17981560
     atom    3 type  2   force =     0.00026870   -0.00690147   -0.03317970
     atom    4 type  2   force =     0.00054211    0.00050734    0.04563715
     atom    5 type  2   force =    -0.01840167    0.00015834    0.00401361
     atom    6 type  2   force =     0.02061565   -0.00127909    0.00460788
     atom    7 type  1   force =    -0.00033793   -0.00020659    0.00005615
     atom    8 type  1   force =    -0.00017631   -0.00126637    0.00020319
     atom    9 type  2   force =     0.00001080    0.00011137   -0.00075787
     atom   10 type  2   force =    -0.00005606    0.00002746   -0.00040954
     atom   11 type  2   force =     0.00005592    0.00007663    0.00041588
     atom   12 type  2   force =    -0.00072264    0.00015418    0.00037925
     atom   13 type  1   force =    -0.00000822    0.00042595    0.00051221
     atom   14 type  1   force =    -0.00014464    0.00087825    0.00017058
     atom   15 type  2   force =    -0.00046095   -0.00029478    0.00002491
     atom   16 type  2   force =    -0.00018804    0.00013455   -0.00072276
     atom   17 type  2   force =    -0.00042006    0.00006342    0.00017680
     atom   18 type  2   force =     0.00040030   -0.00010571   -0.00046516
     atom   19 type  1   force =    -0.00007834    0.00071064   -0.00060387
     atom   20 type  1   force =    -0.00024575    0.00022568   -0.00034692
     atom   21 type  2   force =    -0.00006568    0.00009750    0.10414706
     atom   22 type  2   force =    -0.00009450   -0.00044768   -0.00071444
     atom   23 type  2   force =    -0.06900504    0.00068166   -0.02953886
     atom   24 type  2   force =     0.06866129    0.00115253   -0.02960671
     atom   25 type  1   force =    -0.00013310    0.00147429    0.11714895
     atom   26 type  1   force =    -0.00021774   -0.00000150   -0.17990423
     atom   27 type  2   force =     0.00042690    0.00390019   -0.02756997
     atom   28 type  2   force =     0.00072591    0.00077716    0.04709061
     atom   29 type  2   force =    -0.01718276    0.00151684    0.00339349
     atom   30 type  2   force =     0.01882939    0.00099664    0.00381293
     atom   31 type  1   force =    -0.00038993    0.00043228   -0.00029914
     atom   32 type  1   force =    -0.00022580    0.00075929    0.00040617
     atom   33 type  2   force =    -0.00028258   -0.00010424   -0.00016559
     atom   34 type  2   force =    -0.00003392    0.00048320    0.00030003
     atom   35 type  2   force =    -0.00004457    0.00005566    0.00054499
     atom   36 type  2   force =    -0.00068525   -0.00006316    0.00042353
     atom   37 type  1   force =    -0.00006410   -0.00017631    0.00006853
     atom   38 type  1   force =    -0.00007367   -0.00114066    0.00005767
     atom   39 type  2   force =    -0.00021814    0.00002310    0.00046453
     atom   40 type  2   force =    -0.00022094    0.00020059    0.00071793
     atom   41 type  2   force =    -0.00094733   -0.00039759   -0.00017660
     atom   42 type  2   force =     0.00081627   -0.00015386   -0.00004294
     atom   43 type  1   force =     0.00018688   -0.00087704    0.00024055
     atom   44 type  1   force =     0.00008225    0.00104333   -0.00017758
     atom   45 type  2   force =    -0.00006077    0.00007550    0.10420761
     atom   46 type  2   force =    -0.06858573   -0.00128362   -0.02958059
     atom   47 type  2   force =     0.06834191   -0.00086203   -0.02966640
     atom   48 type  3   force =     0.01107639    0.00058910    0.00003860
     atom   49 type  2   force =     0.00018247    0.00043072   -0.00057600
     atom   50 type  4   force =    -0.01181651   -0.00135606   -0.00027217
     atom   51 type  4   force =     0.00050885    0.00004810   -0.00022045
     atom   52 type  4   force =     0.00065366   -0.00012330   -0.00022464
     atom   53 type  5   force =     0.00055060    0.00001988    0.00076690
     atom   54 type  5   force =    -0.00068571   -0.00012890   -0.00112720

     Total force =     0.376499     Total SCF correction =     0.000452
  @ DRIVER MODE: Message from server: STATUS
  @ DRIVER MODE: Message from server: GETFORCE
  @ DRIVER MODE: Returning v,forces,stress,ensemble

     Writing output data file ./calc.save/
  @ DRIVER MODE: Message from server: EXIT
  @ DRIVE MODE: Exiting

     General routines

     Parallel routines

   This run was terminated on:  16:54:18  21Sep2021

   JOB DONE.