     Program PWSCF v.6.7GPU starts on 23Sep2021 at 17:48: 4

     R & G space division:  proc/nbgrp/npool/nimage =       8
     Reading input from /storage/home/hcoda1/3/ntian30/research/carbon/CxH_vib/H2O_calc/ads_slab/CH3NH2NHHO_c/out_0016/pw.inp
Warning: card &CELL ignored
Warning: card   CELL_DYNAMICS='IPI', ignored
Warning: card / ignored

     Current dimensions of program PWSCF are:
     Max number of different atomic species (ntypx) = 10
     Max number of k-points (npk) =  40000
     Max angular momentum in pseudopotentials (lmaxx) =  3
     Presently no symmetry can be used with electric field

     Message from routine cell_base_init:
     DEPRECATED: use true lattice parameter, not A to a.u. conversion factor

     IMPORTANT: XC functional enforced from input :
     Exchange-correlation= BEEF-VDW
                           (   1   4  43  14   2   0   0)
     Any further DFT definition will be discarded
     Please, verify this is what you really want

  @ DRIVER MODE: Connecting to
 qe_1139763_2947310.sched-torque.pace.gatech.edu26mp749l_scratch
  using UNIX socket
  @ DRIVER MODE: Message from server: STATUS
  @ DRIVER MODE: Message from server: INIT
  @ DRIVER MODE: Receiving replica           0          -1
  @ DRIVER MODE: Receiving encoded integer          25
  @ DRIVER MODE:  SCF:  T  FORCE:  T  STRESS:  F  VC:  F  ENSEMBLE:  F
  @ DRIVER MODE:  SCF:  T  FORCE:  T  STRESS:  F  VC:  F  ENSEMBLE:  F

     Using Slab Decomposition

     bravais-lattice index     =            0
     lattice parameter (alat)  =       1.8897  a.u.
     unit-cell volume          =    6658.9804 (a.u.)^3
     number of atoms/cell      =           58
     number of atomic types    =            5
     number of electrons       =       405.00
     number of Kohn-Sham states=          212
     kinetic-energy cutoff     =      29.3995  Ry
     charge density cutoff     =     293.9946  Ry
     scf convergence threshold =      7.3E-08
     mixing beta               =       0.0500
     number of iterations used =            8  plain     mixing
     Exchange-correlation= BEEF-VDW
                           (   1   4  43  14   2   0   0)

     celldm(1)=   1.889726  celldm(2)=   0.000000  celldm(3)=   0.000000
     celldm(4)=   0.000000  celldm(5)=   0.000000  celldm(6)=   0.000000

     crystal axes: (cart. coord. in units of alat)
               a(1) = (   6.579727   0.000000   0.000000 )
               a(2) = (  -0.000775   5.961596   0.000000 )
               a(3) = (   0.000000   0.000000  25.155947 )

     reciprocal axes: (cart. coord. in units 2 pi/alat)
               b(1) = (  0.151982  0.000020  0.000000 )
               b(2) = (  0.000000  0.167740  0.000000 )
               b(3) = (  0.000000  0.000000  0.039752 )

     PseudoPot. # 1 for Ti read from file:
     /storage/coda1/p-amedford6/0/shared/rich_project_chbe-medford/medford-share/data/pseudos_module/espresso/nninc/pbe/van/Ti.UPF
     MD5 check sum: 8e4df49b7f0d34bbd5052bf3f5ea0213
     Pseudo is Ultrasoft, Zval = 12.0
     Generated by new atomic code, or converted to UPF format
     Using radial grid of  851 points,  6 beta functions with:
                l(1) =   0
                l(2) =   0
                l(3) =   1
                l(4) =   1
                l(5) =   2
                l(6) =   2
     Q(r) pseudized with  8 coefficients,  rinner =    1.000   1.000   1.000
                                                       1.000   1.000

     PseudoPot. # 2 for O  read from file:
     /storage/coda1/p-amedford6/0/shared/rich_project_chbe-medford/medford-share/data/pseudos_module/espresso/nninc/pbe/van/O.UPF
     MD5 check sum: 78c19812648e8988a0fe644b0f25305e
     Pseudo is Ultrasoft, Zval =  6.0
     Generated by new atomic code, or converted to UPF format
     Using radial grid of  737 points,  4 beta functions with:
                l(1) =   0
                l(2) =   0
                l(3) =   1
                l(4) =   1
     Q(r) pseudized with  8 coefficients,  rinner =    0.800   0.800   0.800

     PseudoPot. # 3 for N  read from file:
     /storage/coda1/p-amedford6/0/shared/rich_project_chbe-medford/medford-share/data/pseudos_module/espresso/nninc/pbe/van/N.UPF
     MD5 check sum: 90d10febe142ad51ac9d5be1deb811c4
     Pseudo is Ultrasoft, Zval =  5.0
     Generated by new atomic code, or converted to UPF format
     Using radial grid of  729 points,  4 beta functions with:
                l(1) =   0
                l(2) =   0
                l(3) =   1
                l(4) =   1
     Q(r) pseudized with  8 coefficients,  rinner =    0.800   0.800   0.800

     PseudoPot. # 4 for C  read from file:
     /storage/coda1/p-amedford6/0/shared/rich_project_chbe-medford/medford-share/data/pseudos_module/espresso/nninc/pbe/van/C.UPF
     MD5 check sum: 1a69bf6b8db32088f5b2163dbdb77a27
     Pseudo is Ultrasoft, Zval =  4.0
     Generated by new atomic code, or converted to UPF format
     Using radial grid of  721 points,  4 beta functions with:
                l(1) =   0
                l(2) =   0
                l(3) =   1
                l(4) =   1
     Q(r) pseudized with  8 coefficients,  rinner =    0.800   0.800   0.800

     PseudoPot. # 5 for H  read from file:
     /storage/coda1/p-amedford6/0/shared/rich_project_chbe-medford/medford-share/data/pseudos_module/espresso/nninc/pbe/van/H.UPF
     MD5 check sum: b5ee9d7bfd3a09ee7748110bda690ff7
     Pseudo is Ultrasoft, Zval =  1.0
     Generated by new atomic code, or converted to UPF format
     Using radial grid of  615 points,  1 beta functions with:
                l(1) =   0
     Q(r) pseudized with  8 coefficients,  rinner =    0.800

     atomic species   valence    mass     pseudopotential
        Ti1           12.00    47.86700     Ti( 1.00)
        O1             6.00    15.99900     O ( 1.00)
        N1             5.00    14.00700     N ( 1.00)
        C1             4.00    12.01100     C ( 1.00)
        H1             1.00     1.00800     H ( 1.00)

     No symmetry found

   Cartesian axes

     site n.     atom                  positions (alat units)
         1           Ti1 tau(   1) = (   0.0004258   2.9801865   6.0000000  )
         2           Ti1 tau(   2) = (   3.2906075   1.4906267   6.0002472  )
         3           O1  tau(   3) = (   0.0006271   0.0005054   7.9858123  )
         4           O1  tau(   4) = (   3.2906025   0.0005020   7.3038282  )
         5           O1  tau(   5) = (   4.5942328   1.4918067   9.2879030  )
         6           O1  tau(   6) = (   1.9868534   1.4903216   9.2879459  )
         7           Ti1 tau(   7) = (   3.2907910   2.8959150   9.1758416  )
         8           Ti1 tau(   8) = (   0.0015273   1.4827037   9.2680791  )
         9           O1  tau(   9) = (   3.2766908   5.9368450  11.3531397  )
        10           O1  tau(  10) = (   0.0116148   5.9584955  10.6183126  )
        11           O1  tau(  11) = (   1.2656210   1.4746568  12.6519442  )
        12           O1  tau(  12) = (   5.2821112   1.4671822  12.6528637  )
        13           Ti1 tau(  13) = (   0.0097886   3.0246942  12.5604876  )
        14           Ti1 tau(  14) = (   3.2716845   1.2919425  12.6923688  )
        15           O1  tau(  15) = (   6.5701288   5.9533353  14.7096902  )
        16           O1  tau(  16) = (   3.2612835   0.0684280  14.0222998  )
        17           O1  tau(  17) = (   4.5366247   1.5847279  16.0182572  )
        18           O1  tau(  18) = (   1.9973522   1.5932486  16.1410213  )
        19           Ti1 tau(  19) = (   3.3011230   3.0369928  15.6528835  )
        20           Ti1 tau(  20) = (   6.4616919   1.5442775  15.7581475  )
        21           O1  tau(  21) = (   3.2904802   0.0005063   4.7018136  )
        22           O1  tau(  22) = (   6.5264998   0.0144113  17.2942622  )
        23           O1  tau(  23) = (   1.3043587   1.4918075   6.0039043  )
        24           O1  tau(  24) = (   5.2767064   1.4903225   6.0039473  )
        25           Ti1 tau(  25) = (   0.0000382   5.9609847   6.0000000  )
        26           Ti1 tau(  26) = (   3.2902200   4.4714249   6.0002472  )
        27           O1  tau(  27) = (   0.0002396   2.9813036   7.9858123  )
        28           O1  tau(  28) = (   3.2902150   2.9813002   7.3038282  )
        29           O1  tau(  29) = (   4.5938453   4.4726049   9.2879030  )
        30           O1  tau(  30) = (   1.9864658   4.4711199   9.2879459  )
        31           Ti1 tau(  31) = (   3.2891106   5.8743827   9.1763621  )
        32           Ti1 tau(  32) = (   0.0006254   4.4649316   9.2693709  )
        33           O1  tau(  33) = (   3.2807216   2.9716845  11.3098041  )
        34           O1  tau(  34) = (   0.0092240   2.9805883  10.6323155  )
        35           O1  tau(  35) = (   1.2724369   4.4570745  12.6376724  )
        36           O1  tau(  36) = (   5.2808598   4.4590940  12.6336130  )
        37           Ti1 tau(  37) = (   6.5522345   0.0346224  12.5198063  )
        38           Ti1 tau(  38) = (   3.2841791   4.3624788  12.4156291  )
        39           O1  tau(  39) = (   6.5678423   2.9906399  14.7075790  )
        40           O1  tau(  40) = (   3.2630306   2.9991211  13.8878987  )
        41           O1  tau(  41) = (   4.5399391   4.4365880  16.1202346  )
        42           O1  tau(  42) = (   1.9952260   4.4486394  16.1468368  )
        43           Ti1 tau(  43) = (   3.1909378   0.0332154  16.1742435  )
        44           Ti1 tau(  44) = (   6.5525253   4.6749982  16.1158565  )
        45           O1  tau(  45) = (   3.2900926   2.9813045   4.7018136  )
        46           O1  tau(  46) = (   1.3039711   4.4726057   6.0039043  )
        47           O1  tau(  47) = (   5.2763189   4.4711207   6.0039473  )
        48           N1  tau(  48) = (   0.9351815   2.3805788  18.4294677  )
        49           N1  tau(  49) = (   6.5001775   2.8750743  17.5309975  )
        50           C1  tau(  50) = (   1.3386797   3.3009482  19.5301671  )
        51           H1  tau(  51) = (   0.4734699   3.4817333  20.1622224  )
        52           H1  tau(  52) = (   2.1262835   2.8019037  20.1042238  )
        53           H1  tau(  53) = (   1.7016266   4.2178517  19.0939426  )
        54           H1  tau(  54) = (   0.6429753   1.4474929  18.7566963  )
        55           H1  tau(  55) = (   5.6191021   2.8022447  18.0351622  )
        56           H1  tau(  56) = (   1.7303324   2.1440475  17.7969061  )
        57           O1  tau(  57) = (   3.3671931   0.1367260  18.0860582  )
        58           H1  tau(  58) = (   4.3009782   5.9598238  18.3144400  )

     number of k points=    10  Fermi-Dirac smearing, width (Ry)=  0.0073
                       cart. coord. in units 2pi/alat
        k(    1) = (   0.0000000   0.0000000   0.0000000), wk =   0.1250000
        k(    2) = (   0.0000000   0.0419351   0.0000000), wk =   0.2500000
        k(    3) = (   0.0000000  -0.0838702   0.0000000), wk =   0.1250000
        k(    4) = (   0.0379955   0.0000049   0.0000000), wk =   0.2500000
        k(    5) = (   0.0379955   0.0419400   0.0000000), wk =   0.2500000
        k(    6) = (   0.0379955  -0.0838652   0.0000000), wk =   0.2500000
        k(    7) = (   0.0379955  -0.0419301   0.0000000), wk =   0.2500000
        k(    8) = (  -0.0759910  -0.0000099   0.0000000), wk =   0.1250000
        k(    9) = (  -0.0759910   0.0419252   0.0000000), wk =   0.2500000
        k(   10) = (  -0.0759910  -0.0838800   0.0000000), wk =   0.1250000

     Initial potential from superposition of free atoms

     starting charge  388.99913, renormalised to  405.00000

     negative rho (up, down):  1.469E-02 0.000E+00

     %%%%%%%%%%%%%%%%%%%%%%%%%%%%%%%%%%%%%%%%%%%%%%%%%%%%%%%%%%%%%%%%%%%%%%%%
     %                                                                      %
     % You are using vdW-DF, which was implemented by the Thonhauser group. %
     % Please cite the following two papers that made this development      %
     % possible and the two reviews that describe the various versions:     %
     %                                                                      %
     %   T. Thonhauser et al., PRL 115, 136402 (2015).                      %
     %   T. Thonhauser et al., PRB 76, 125112 (2007).                       %
     %   K. Berland et al., Rep. Prog. Phys. 78, 066501 (2015).             %
     %   D.C. Langreth et al., J. Phys.: Condens. Matter 21, 084203 (2009). %
     %                                                                      %
     %                                                                      %
     % If you are calculating the stress with vdW-DF, please also cite:     %
     %                                                                      %
     %   R. Sabatini et al., J. Phys.: Condens. Matter 24, 424209 (2012).   %
     %                                                                      %
     %%%%%%%%%%%%%%%%%%%%%%%%%%%%%%%%%%%%%%%%%%%%%%%%%%%%%%%%%%%%%%%%%%%%%%%%

     Adding external electric field

     Computed dipole along edir(3) :
        Dipole              -13.9957 Ry au,        -35.5736 Debye
        Dipole field         -0.0264 Ry au,

        Potential amp.        2.4483 Ry
        Total length         46.3494 bohr

     Starting wfcs are  307 atomic wfcs
  @ DRIVER MODE: Message from server: STATUS
  @ DRIVER MODE: Message from server: POSDATA
  @ DRIVER MODE: Reading and sharing cell
  @ DRIVER MODE: Reading and sharing positions
  @ DRIVER MODE: Received positions

     Self-consistent Calculation

     iteration #  1     ecut=    29.40 Ry     beta= 0.05
     Davidson diagonalization with overlap
     c_bands:  5 eigenvalues not converged
     c_bands:  5 eigenvalues not converged
     c_bands:  1 eigenvalues not converged
     c_bands:  2 eigenvalues not converged
     c_bands:  3 eigenvalues not converged
     ethr =  1.00E-05,  avg # of iterations = 28.6

[...]

     total energy              =   -2225.13850244 Ry
     estimated scf accuracy    <    8520.64561423 Ry

     iteration #  2     ecut=    29.40 Ry     beta= 0.05
     Davidson diagonalization with overlap
     ethr =  1.00E-02,  avg # of iterations = 25.5

[...]

     iteration # 47     ecut=    29.40 Ry     beta= 0.05
     Davidson diagonalization with overlap
     c_bands:  1 eigenvalues not converged
     ethr =  9.36E-07,  avg # of iterations = 12.6

[...]

     total energy              =   -2976.49305154 Ry
     estimated scf accuracy    <       0.00000011 Ry

     iteration # 73     ecut=    29.40 Ry     beta= 0.05
     Davidson diagonalization with overlap
     ethr =  1.99E-11,  avg # of iterations =  3.2

     negative rho (up, down):  1.566E-02 0.000E+00

     Adding external electric field

     Computed dipole along edir(3) :
        Dipole                1.5013 Ry au,          3.8160 Debye
        Dipole field          0.0028 Ry au,

        Potential amp.       -0.2626 Ry
        Total length         46.3494 bohr

     End of self-consistent calculation

          k = 0.0000 0.0000 0.0000 ( 18029 PWs)   bands (ev):

   -55.2977 -55.1733 -55.1392 -55.0034 -54.9941 -54.9903 -54.9686 -54.9604
   -54.9304 -54.8817 -54.8492 -54.8129 -54.7917 -54.7507 -54.1369 -54.1028
   -31.6560 -31.6253 -31.5441 -31.4954 -31.4929 -31.4887 -31.4654 -31.4465
   -31.4189 -31.4144 -31.3697 -31.3343 -31.3255 -31.2780 -31.2653 -31.2578
   -31.2511 -31.2306 -31.2156 -31.1986 -31.1844 -31.1820 -31.1716 -31.1680
   -31.1491 -31.1262 -31.1240 -31.1204 -31.1105 -31.1027 -31.0967 -31.0764
   -31.0681 -31.0542 -31.0371 -31.0242 -31.0226 -31.0108 -31.0076 -31.0066
   -30.9801 -30.9408 -30.5426 -30.4573 -30.4347 -30.3601 -30.2738 -30.1620
   -18.8483 -16.0448 -15.8058 -15.6548 -15.4865 -15.3409 -15.2546 -15.0550
   -14.9392 -14.9003 -14.8815 -14.8076 -14.7051 -14.7044 -14.6605 -14.6333
   -14.6292 -14.6005 -14.5888 -14.5869 -14.5688 -14.5202 -14.5051 -14.4602
   -14.4540 -14.4149 -14.3025 -14.2331 -14.1885 -14.1161 -13.9990 -13.0661
   -12.6358 -12.5196 -10.8019  -7.5669  -6.2099  -5.5592  -3.7749  -3.6546
    -3.4456  -3.1665  -3.1005  -3.0711  -3.0440  -2.8911  -2.7656  -2.5849
    -2.4761  -2.4304  -2.3126  -2.2954  -2.2136  -2.1649  -2.1207  -2.0725
    -2.0427  -1.9773  -1.9599  -1.9554  -1.9272  -1.8605  -1.8328  -1.7176
    -1.6886  -1.6250  -1.5673  -1.4962  -1.4812  -1.4745  -1.4673  -1.4564
    -1.4277  -1.4125  -1.3809  -1.3403  -1.2604  -1.2069  -1.1995  -1.1590
    -1.0759  -0.8908  -0.7676  -0.7439  -0.6857  -0.6421  -0.5907  -0.5786
    -0.5551  -0.5167  -0.4107  -0.3975  -0.3340  -0.3052  -0.2418  -0.1916
    -0.1640  -0.1004  -0.0389   0.0483   0.0686   0.0871   0.1286   0.1754
     0.2468   0.2828   0.3220   0.3524   0.4408   0.4941   0.5542   0.5611
     0.5935   0.6660   0.7222   0.7696   0.7901   0.8094   0.8604   0.8763
     0.9199   0.9747   1.0154   1.0308   1.1017   1.1602   1.2074   1.2406
     1.3387   1.3561   1.5136   1.5688   1.8366   1.8891   1.9566   2.0826
     2.4555   2.5003   3.9353   4.0557   4.0669   4.0894   4.1684   4.2313
     4.3987   4.4055   4.5174   4.6175

[...]

          k = 0.0380-0.0419 0.0000 ( 17876 PWs)   bands (ev):

[...]

          k =-0.0760-0.0000 0.0000 ( 17886 PWs)   bands (ev):

[...]

          k =-0.0760-0.0839 0.0000 ( 17948 PWs)   bands (ev):

   -55.2970 -55.1567 -55.1557 -54.9908 -54.9874 -54.9845 -54.9780 -54.9762
   -54.9236 -54.8885 -54.8390 -54.8230 -54.7847 -54.7576 -54.1202 -54.1194
   -31.5585 -31.5355 -31.4900 -31.4717 -31.4710 -31.4513 -31.4504 -31.4134
   -31.3137 -31.3070 -31.3017 -31.2999 -31.2948 -31.2763 -31.2753 -31.2663
   -31.2660 -31.2451 -31.2434 -31.2143 -31.2013 -31.1974 -31.1967 -31.1903
   -31.1758 -31.1657 -31.1572 -31.1522 -31.1496 -31.1447 -31.1405 -31.1210
   -31.1098 -31.0878 -31.0731 -31.0667 -31.0320 -31.0297 -31.0178 -31.0151
   -31.0102 -30.9928 -30.4478 -30.4472 -30.3560 -30.3549 -30.3173 -30.3167
   -18.8441 -16.0105 -15.3735 -15.1694 -15.1067 -15.0833 -15.0687 -15.0320
   -15.0059 -14.9516 -14.9325 -14.8746 -14.8439 -14.8309 -14.7594 -14.7437
   -14.6882 -14.6588 -14.6463 -14.6066 -14.6019 -14.5797 -14.5473 -14.5388
   -14.4734 -14.4596 -14.4561 -14.3641 -14.3545 -14.2337 -14.1856 -13.0768
   -12.6218 -12.6212 -10.8041  -7.5778  -6.1954  -5.5487  -3.7259  -3.6617
    -3.4058  -2.5853  -2.4479  -2.4382  -2.3017  -2.2886  -2.1931  -2.1460
    -2.0928  -2.0747  -2.0521  -2.0335  -2.0028  -1.9698  -1.9534  -1.9461
    -1.9180  -1.8958  -1.8708  -1.8649  -1.8292  -1.8243  -1.8029  -1.7798
    -1.7696  -1.7345  -1.7212  -1.7171  -1.7029  -1.6495  -1.6308  -1.4680
    -1.4373  -1.3464  -1.3127  -1.2896  -1.2803  -1.2546  -1.2373  -1.2166
    -1.1614  -1.1084  -1.0477  -0.9209  -0.8758  -0.8112  -0.7755  -0.6978
    -0.6568  -0.6232  -0.5949  -0.5712  -0.5382  -0.4816  -0.4042  -0.3487
    -0.3033  -0.2621  -0.1643  -0.1450  -0.1225  -0.1112  -0.0776  -0.0188
    -0.0120   0.0440   0.0628   0.1262   0.1410   0.1567   0.1749   0.2585
     0.3523   0.4327   0.4567   0.5478   0.5657   0.6554   0.7022   0.8025
     0.9152   0.9607   1.0003   1.0100   1.0937   1.0990   1.1551   1.1779
     1.2607   1.3493   1.4136   1.4219   1.4418   1.4956   2.2519   2.2605
     2.3205   2.3208   4.1860   4.3486   4.4284   4.4400   4.4719   4.4833
     4.5154   4.5180   4.6058   4.6144

     the Fermi energy is     3.9544 ev

!    total energy              =   -2976.49306902 Ry
     estimated scf accuracy    <       0.00000007 Ry
     smearing contrib. (-TS)   =      -0.02056764 Ry
     internal energy E=F+TS    =   -2976.47250138 Ry

     The total energy is F=E-TS. E is the sum of the following terms:
     one-electron contribution =  -23617.00715092 Ry
     hartree contribution      =   11908.24566872 Ry
     xc contribution           =    -495.76637289 Ry
     ewald contribution        =    9228.05110017 Ry
     electric field correction =       0.00425354 Ry

     convergence has been achieved in  73 iterations

     Forces acting on atoms (cartesian axes, Ry/au):

     atom    1 type  1   force =     0.00014313   -0.00012815    0.09533991
     atom    2 type  1   force =    -0.00002736    0.00040869   -0.17478657
     atom    3 type  2   force =     0.00004111   -0.00017826   -0.02257187
     atom    4 type  2   force =     0.00001447   -0.00200519    0.05319361
     atom    5 type  2   force =    -0.00813738   -0.00302528    0.00227050
     atom    6 type  2   force =     0.00923369   -0.00232131    0.00056458
     atom    7 type  1   force =    -0.00079009   -0.00508972    0.00569958
     atom    8 type  1   force =     0.00083360    0.00657175    0.01468981
     atom    9 type  2   force =     0.00011533    0.00042776    0.00073755
     atom   10 type  2   force =    -0.00346339    0.00091889   -0.01236088
     atom   11 type  2   force =    -0.00000830   -0.00055753    0.00029018
     atom   12 type  2   force =     0.00007063   -0.00043156    0.00024058
     atom   13 type  1   force =     0.00093425    0.00088220    0.00011079
     atom   14 type  1   force =    -0.00019068    0.00011848   -0.00043646
     atom   15 type  2   force =     0.00015607   -0.00082084   -0.00072662
     atom   16 type  2   force =     0.00011675   -0.00013715    0.00092770
     atom   17 type  2   force =    -0.00006801    0.00010196   -0.00006176
     atom   18 type  2   force =    -0.00003954    0.00023329   -0.00005236
     atom   19 type  1   force =     0.00022454   -0.00008307   -0.00003527
     atom   20 type  1   force =     0.00008425    0.00015808   -0.00016927
     atom   21 type  2   force =     0.00009398    0.00000047    0.10304339
     atom   22 type  2   force =     0.00014510    0.00025799    0.00078715
     atom   23 type  2   force =    -0.07212060   -0.00022457   -0.02758839
     atom   24 type  2   force =     0.07207494    0.00026347   -0.02760713
     atom   25 type  1   force =     0.00016374   -0.00028949    0.09518568
     atom   26 type  1   force =     0.00001233   -0.00123788   -0.17526477
     atom   27 type  2   force =    -0.00000345    0.00008311   -0.02153814
     atom   28 type  2   force =     0.00005513   -0.00043632    0.04877136
     atom   29 type  2   force =    -0.00786461    0.00198595    0.00251610
     atom   30 type  2   force =     0.00889046    0.00234529    0.00069543
     atom   31 type  1   force =    -0.00069276    0.00833439   -0.00446712
     atom   32 type  1   force =     0.00105824   -0.00752020    0.01446782
     atom   33 type  2   force =     0.00012549    0.00021121   -0.00002086
     atom   34 type  2   force =    -0.00269802   -0.00027513   -0.01823534
     atom   35 type  2   force =    -0.00055368    0.00026663    0.00008696
     atom   36 type  2   force =     0.00071792    0.00039699    0.00024208
     atom   37 type  1   force =     0.00018158   -0.00037969    0.00023659
     atom   38 type  1   force =    -0.00006491   -0.00005008   -0.00074382
     atom   39 type  2   force =     0.00029219    0.00032856   -0.00013826
     atom   40 type  2   force =     0.00022996    0.00001780    0.00069405
     atom   41 type  2   force =    -0.00019589   -0.00032054    0.00001426
     atom   42 type  2   force =     0.00041794   -0.00014698    0.00053212
     atom   43 type  1   force =     0.00001065    0.00026065   -0.00043799
     atom   44 type  1   force =     0.00026484   -0.00027391   -0.00011401
     atom   45 type  2   force =     0.00008939   -0.00009836    0.10285812
     atom   46 type  2   force =    -0.07216653   -0.00003482   -0.02761634
     atom   47 type  2   force =     0.07211230    0.00036341   -0.02762244
     atom   48 type  3   force =     0.00073612    0.00529361    0.00138025
     atom   49 type  3   force =    -0.00072823   -0.00002749   -0.00067685
     atom   50 type  4   force =     0.00098104   -0.01985141    0.00341645
     atom   51 type  5   force =    -0.00106321    0.00246844    0.00057737
     atom   52 type  5   force =    -0.00335404    0.00379647   -0.00264587
     atom   53 type  5   force =     0.00332936    0.00939315   -0.00427511
     atom   54 type  5   force =     0.00000987    0.00009414    0.00099812
     atom   55 type  5   force =    -0.00026734   -0.00033073   -0.00013160
     atom   56 type  5   force =     0.00000198    0.00031537   -0.00023895
     atom   57 type  2   force =     0.00018003   -0.00057901   -0.00011438
     atom   58 type  5   force =     0.00035560    0.00055648    0.00011035

     Total force =     0.364383     Total SCF correction =     0.000847
  @ DRIVER MODE: Message from server: STATUS
  @ DRIVER MODE: Message from server: GETFORCE
  @ DRIVER MODE: Returning v,forces,stress,ensemble

     Writing output data file ./calc.save/
  @ DRIVER MODE: Message from server: EXIT
  @ DRIVE MODE: Exiting

     General routines

     Parallel routines

   This run was terminated on:  18:16:44  23Sep2021

   JOB DONE.