     Program PWSCF v.6.7GPU starts on 27Sep2021 at  3:47:34

     R & G space division:  proc/nbgrp/npool/nimage =       8
     Reading input from /storage/home/hcoda1/3/ntian30/research/carbon/CxH_vib/CH_calc/ads_slab/CHONHNH_a/out_0025/pw.inp
Warning: card &CELL ignored
Warning: card   CELL_DYNAMICS='IPI', ignored
Warning: card / ignored

     Current dimensions of program PWSCF are:
     Max number of different atomic species (ntypx) = 10
     Max number of k-points (npk) =  40000
     Max angular momentum in pseudopotentials (lmaxx) =  3
     Presently no symmetry can be used with electric field

     Message from routine cell_base_init:
     DEPRECATED: use true lattice parameter, not A to a.u. conversion factor

     IMPORTANT: XC functional enforced from input :
     Exchange-correlation= BEEF-VDW
                           (   1   4  43  14   2   0   0)
     Any further DFT definition will be discarded
     Please, verify this is what you really want

  @ DRIVER MODE: Connecting to
 qe_1139763_2982671.sched-torque.pace.gatech.eduipkuq8pb_scratch
  using UNIX socket
  @ DRIVER MODE: Message from server: STATUS
  @ DRIVER MODE: Message from server: INIT
  @ DRIVER MODE: Receiving replica           0          -1
  @ DRIVER MODE: Receiving encoded integer          25
  @ DRIVER MODE:  SCF:  T  FORCE:  T  STRESS:  F  VC:  F  ENSEMBLE:  F
  @ DRIVER MODE:  SCF:  T  FORCE:  T  STRESS:  F  VC:  F  ENSEMBLE:  F

     Using Slab Decomposition

     bravais-lattice index     =            0
     lattice parameter (alat)  =       1.8897  a.u.
     unit-cell volume          =    6658.9804 (a.u.)^3
     number of atoms/cell      =           54
     number of atomic types    =            5
     number of electrons       =       401.00
     number of Kohn-Sham states=          210
     kinetic-energy cutoff     =      29.3995  Ry
     charge density cutoff     =     293.9946  Ry
     scf convergence threshold =      7.3E-08
     mixing beta               =       0.0500
     number of iterations used =            8  plain     mixing
     Exchange-correlation= BEEF-VDW
                           (   1   4  43  14   2   0   0)

     celldm(1)=   1.889726  celldm(2)=   0.000000  celldm(3)=   0.000000
     celldm(4)=   0.000000  celldm(5)=   0.000000  celldm(6)=   0.000000

     crystal axes: (cart. coord. in units of alat)
               a(1) = (   6.579727   0.000000   0.000000 )
               a(2) = (  -0.000775   5.961596   0.000000 )
               a(3) = (   0.000000   0.000000  25.155947 )

     reciprocal axes: (cart. coord. in units 2 pi/alat)
               b(1) = (  0.151982  0.000020  0.000000 )
               b(2) = (  0.000000  0.167740  0.000000 )
               b(3) = (  0.000000  0.000000  0.039752 )

     PseudoPot. # 1 for O  read from file:
     /storage/coda1/p-amedford6/0/shared/rich_project_chbe-medford/medford-share/data/pseudos_module/espresso/nninc/pbe/van/O.UPF
     MD5 check sum: 78c19812648e8988a0fe644b0f25305e
     Pseudo is Ultrasoft, Zval =  6.0
     Generated by new atomic code, or converted to UPF format
     Using radial grid of  737 points,  4 beta functions with:
                l(1) =   0
                l(2) =   0
                l(3) =   1
                l(4) =   1
     Q(r) pseudized with  8 coefficients,  rinner =    0.800   0.800   0.800

     PseudoPot. # 2 for Ti read from file:
     /storage/coda1/p-amedford6/0/shared/rich_project_chbe-medford/medford-share/data/pseudos_module/espresso/nninc/pbe/van/Ti.UPF
     MD5 check sum: 8e4df49b7f0d34bbd5052bf3f5ea0213
     Pseudo is Ultrasoft, Zval = 12.0
     Generated by new atomic code, or converted to UPF format
     Using radial grid of  851 points,  6 beta functions with:
                l(1) =   0
                l(2) =   0
                l(3) =   1
                l(4) =   1
                l(5) =   2
                l(6) =   2
     Q(r) pseudized with  8 coefficients,  rinner =    1.000   1.000   1.000
                                                       1.000   1.000

     PseudoPot. # 3 for N  read from file:
     /storage/coda1/p-amedford6/0/shared/rich_project_chbe-medford/medford-share/data/pseudos_module/espresso/nninc/pbe/van/N.UPF
     MD5 check sum: 90d10febe142ad51ac9d5be1deb811c4
     Pseudo is Ultrasoft, Zval =  5.0
     Generated by new atomic code, or converted to UPF format
     Using radial grid of  729 points,  4 beta functions with:
                l(1) =   0
                l(2) =   0
                l(3) =   1
                l(4) =   1
     Q(r) pseudized with  8 coefficients,  rinner =    0.800   0.800   0.800

     PseudoPot. # 4 for C  read from file:
     /storage/coda1/p-amedford6/0/shared/rich_project_chbe-medford/medford-share/data/pseudos_module/espresso/nninc/pbe/van/C.UPF
     MD5 check sum: 1a69bf6b8db32088f5b2163dbdb77a27
     Pseudo is Ultrasoft, Zval =  4.0
     Generated by new atomic code, or converted to UPF format
     Using radial grid of  721 points,  4 beta functions with:
                l(1) =   0
                l(2) =   0
                l(3) =   1
                l(4) =   1
     Q(r) pseudized with  8 coefficients,  rinner =    0.800   0.800   0.800

     PseudoPot. # 5 for H  read from file:
     /storage/coda1/p-amedford6/0/shared/rich_project_chbe-medford/medford-share/data/pseudos_module/espresso/nninc/pbe/van/H.UPF
     MD5 check sum: b5ee9d7bfd3a09ee7748110bda690ff7
     Pseudo is Ultrasoft, Zval =  1.0
     Generated by new atomic code, or converted to UPF format
     Using radial grid of  615 points,  1 beta functions with:
                l(1) =   0
     Q(r) pseudized with  8 coefficients,  rinner =    0.800

     atomic species   valence    mass     pseudopotential
        O1             6.00    15.99900     O ( 1.00)
        Ti1           12.00    47.86700     Ti( 1.00)
        N1             5.00    14.00700     N ( 1.00)
        C1             4.00    12.01100     C ( 1.00)
        H1             1.00     1.00800     H ( 1.00)

     No symmetry found

   Cartesian axes

     site n.     atom                  positions (alat units)
         1           O1  tau(   1) = (   3.2904802   0.0005063   4.7018136  )
         2           O1  tau(   2) = (   3.2900926   2.9813045   4.7018136  )
         3           Ti1 tau(   3) = (   0.0004258   2.9801865   6.0000000  )
         4           Ti1 tau(   4) = (   0.0000382   5.9609847   6.0000000  )
         5           Ti1 tau(   5) = (   3.2906075   1.4906267   6.0002472  )
         6           Ti1 tau(   6) = (   3.2902200   4.4714249   6.0002472  )
         7           O1  tau(   7) = (   1.3043587   1.4918075   6.0039043  )
         8           O1  tau(   8) = (   1.3039711   4.4726057   6.0039043  )
         9           O1  tau(   9) = (   5.2767064   1.4903225   6.0039473  )
        10           O1  tau(  10) = (   5.2763189   4.4711207   6.0039473  )
        11           O1  tau(  11) = (   3.2906025   0.0005020   7.3038282  )
        12           O1  tau(  12) = (   3.2902150   2.9813002   7.3038282  )
        13           O1  tau(  13) = (   0.0006271   0.0005054   7.9858123  )
        14           O1  tau(  14) = (   0.0002396   2.9813036   7.9858123  )
        15           Ti1 tau(  15) = (   3.2907910   2.8959150   9.1758416  )
        16           Ti1 tau(  16) = (   3.2891106   5.8743827   9.1763621  )
        17           Ti1 tau(  17) = (   0.0015273   1.4827037   9.2680791  )
        18           Ti1 tau(  18) = (   0.0006254   4.4649316   9.2693709  )
        19           O1  tau(  19) = (   4.5942328   1.4918067   9.2879030  )
        20           O1  tau(  20) = (   4.5938453   4.4726049   9.2879030  )
        21           O1  tau(  21) = (   1.9868534   1.4903216   9.2879459  )
        22           O1  tau(  22) = (   1.9864658   4.4711199   9.2879459  )
        23           O1  tau(  23) = (   0.0116148   5.9584955  10.6183126  )
        24           O1  tau(  24) = (   0.0092240   2.9805883  10.6323155  )
        25           O1  tau(  25) = (   3.2531556   2.9620241  11.3322950  )
        26           O1  tau(  26) = (   3.2474763   5.9435521  11.3438280  )
        27           Ti1 tau(  27) = (   3.3237694   4.3814390  12.5572636  )
        28           Ti1 tau(  28) = (   0.0094504   0.0092305  12.5172013  )
        29           Ti1 tau(  29) = (   3.3224445   1.4452456  12.4745429  )
        30           Ti1 tau(  30) = (   0.0090234   2.9988230  12.5821063  )
        31           O1  tau(  31) = (   5.2496676   1.4726344  12.6006421  )
        32           O1  tau(  32) = (   5.2531746   4.4496067  12.6010712  )
        33           O1  tau(  33) = (   1.2410339   1.4659728  12.6671891  )
        34           O1  tau(  34) = (   1.2387123   4.4686174  12.6665250  )
        35           O1  tau(  35) = (   3.3067986   5.9564546  13.9007842  )
        36           O1  tau(  36) = (   3.2420318   3.0005841  13.9279729  )
        37           O1  tau(  37) = (   6.4209026   5.9439257  14.7021623  )
        38           O1  tau(  38) = (   6.4587925   2.9577525  14.6988961  )
        39           Ti1 tau(  39) = (   3.2423495   0.0283394  15.6829305  )
        40           Ti1 tau(  40) = (   6.4236859   1.5154006  15.7784978  )
        41           Ti1 tau(  41) = (   3.0799157   3.0146384  15.8599260  )
        42           O1  tau(  42) = (   1.9357555   1.4358950  15.9107064  )
        43           O1  tau(  43) = (   1.9271111   4.5447382  15.9660097  )
        44           Ti1 tau(  44) = (   6.4519450   4.6669281  16.1370820  )
        45           O1  tau(  45) = (   4.4443926   1.5071054  16.1134243  )
        46           O1  tau(  46) = (   4.4397279   4.4733020  16.1527106  )
        47           O1  tau(  47) = (   6.5167551   0.0277669  17.2715591  )
        48           N1  tau(  48) = (   0.3759035   2.6095042  18.6336219  )
        49           C1  tau(  49) = (   2.8136782   2.9081565  18.1516972  )
        50           H1  tau(  50) = (   0.1656462   1.5987175  18.7006542  )
        51           N1  tau(  51) = (   1.8163940   2.6652851  18.9293397  )
        52           H1  tau(  52) = (   3.7161332   2.9868749  18.7514029  )
        53           H1  tau(  53) = (   1.8928842   2.5952305  19.9427491  )
        54           O1  tau(  54) = (   0.0982553   2.9165792  17.3165359  )

     number of k points=    10  Fermi-Dirac smearing, width (Ry)=  0.0073
                       cart. coord. in units 2pi/alat
        k(    1) = (   0.0000000   0.0000000   0.0000000), wk =   0.1250000
        k(    2) = (   0.0000000   0.0419351   0.0000000), wk =   0.2500000
        k(    3) = (   0.0000000  -0.0838702   0.0000000), wk =   0.1250000
        k(    4) = (   0.0379955   0.0000049   0.0000000), wk =   0.2500000
        k(    5) = (   0.0379955   0.0419400   0.0000000), wk =   0.2500000
        k(    6) = (   0.0379955  -0.0838652   0.0000000), wk =   0.2500000
        k(    7) = (   0.0379955  -0.0419301   0.0000000), wk =   0.2500000
        k(    8) = (  -0.0759910  -0.0000099   0.0000000), wk =   0.1250000
        k(    9) = (  -0.0759910   0.0419252   0.0000000), wk =   0.2500000
        k(   10) = (  -0.0759910  -0.0838800   0.0000000), wk =   0.1250000

     Initial potential from superposition of free atoms

     starting charge  384.99916, renormalised to  401.00000

     negative rho (up, down):  1.631E-02 0.000E+00

     %%%%%%%%%%%%%%%%%%%%%%%%%%%%%%%%%%%%%%%%%%%%%%%%%%%%%%%%%%%%%%%%%%%%%%%%
     %                                                                      %
     % You are using vdW-DF, which was implemented by the Thonhauser group. %
     % Please cite the following two papers that made this development      %
     % possible and the two reviews that describe the various versions:     %
     %                                                                      %
     %   T. Thonhauser et al., PRL 115, 136402 (2015).                      %
     %   T. Thonhauser et al., PRB 76, 125112 (2007).                       %
     %   K. Berland et al., Rep. Prog. Phys. 78, 066501 (2015).             %
     %   D.C. Langreth et al., J. Phys.: Condens. Matter 21, 084203 (2009). %
     %                                                                      %
     %                                                                      %
     % If you are calculating the stress with vdW-DF, please also cite:     %
     %                                                                      %
     %   R. Sabatini et al., J. Phys.: Condens. Matter 24, 424209 (2012).   %
     %                                                                      %
     %%%%%%%%%%%%%%%%%%%%%%%%%%%%%%%%%%%%%%%%%%%%%%%%%%%%%%%%%%%%%%%%%%%%%%%%

     Adding external electric field

     Computed dipole along edir(3) :
        Dipole              -11.6315 Ry au,        -29.5642 Debye
        Dipole field         -0.0220 Ry au,

        Potential amp.        2.0347 Ry
        Total length         46.3494 bohr

     Starting wfcs are  303 atomic wfcs
  @ DRIVER MODE: Message from server: STATUS
  @ DRIVER MODE: Message from server: POSDATA
  @ DRIVER MODE: Reading and sharing cell
  @ DRIVER MODE: Reading and sharing positions
  @ DRIVER MODE: Received positions

     Self-consistent Calculation

     iteration #  1     ecut=    29.40 Ry     beta= 0.05
     Davidson diagonalization with overlap
     c_bands:  3 eigenvalues not converged
     c_bands:  3 eigenvalues not converged
     c_bands:  5 eigenvalues not converged
     c_bands:  4 eigenvalues not converged
     c_bands:  4 eigenvalues not converged
     c_bands:  3 eigenvalues not converged
     c_bands:  1 eigenvalues not converged
     c_bands:  3 eigenvalues not converged
     ethr =  1.00E-05,  avg # of iterations = 22.1

[...]

     total energy              =   -2394.34474167 Ry
     estimated scf accuracy    <    6494.49674715 Ry

     iteration #  2     ecut=    29.40 Ry     beta= 0.05
     Davidson diagonalization with overlap
     ethr =  1.00E-02,  avg # of iterations = 24.9

[...]

     iteration # 73     ecut=    29.40 Ry     beta= 0.05
     Davidson diagonalization with overlap
     c_bands:  1 eigenvalues not converged
     ethr =  3.63E-11,  avg # of iterations = 12.1

[...]

     total energy              =   -2971.36027120 Ry
     estimated scf accuracy    <       0.00000013 Ry

     iteration # 74     ecut=    29.40 Ry     beta= 0.05
     Davidson diagonalization with overlap
     ethr =  3.24E-11,  avg # of iterations =  7.5

     negative rho (up, down):  1.695E-02 0.000E+00

     Adding external electric field

     Computed dipole along edir(3) :
        Dipole                1.3765 Ry au,          3.4987 Debye
        Dipole field          0.0026 Ry au,

        Potential amp.       -0.2408 Ry
        Total length         46.3494 bohr

     End of self-consistent calculation

          k = 0.0000 0.0000 0.0000 ( 18029 PWs)   bands (ev):

   -55.3632 -55.3291 -55.2835 -55.2392 -55.2332 -55.2234 -55.1958 -55.1841
   -55.1502 -55.1421 -55.1292 -55.1069 -55.0336 -54.9938 -54.3427 -54.3086
   -31.8476 -31.8081 -31.7319 -31.6845 -31.6790 -31.6549 -31.6324 -31.6084
   -31.5987 -31.5684 -31.5403 -31.5155 -31.5019 -31.4952 -31.4695 -31.4662
   -31.4623 -31.4485 -31.4367 -31.4204 -31.4020 -31.3985 -31.3932 -31.3817
   -31.3776 -31.3768 -31.3729 -31.3639 -31.3411 -31.3404 -31.3335 -31.3240
   -31.3218 -31.3146 -31.2965 -31.2932 -31.2857 -31.2550 -31.2345 -31.2231
   -31.2082 -31.1783 -30.7495 -30.6617 -30.6392 -30.5666 -30.4801 -30.3687
   -20.1961 -17.3498 -16.0540 -15.8420 -15.6374 -15.5288 -15.4805 -15.2480
   -15.1306 -15.1007 -15.0139 -14.9432 -14.9271 -14.9030 -14.8918 -14.8732
   -14.8144 -14.8017 -14.7906 -14.7874 -14.7591 -14.7381 -14.7150 -14.7024
   -14.5815 -14.5681 -14.5390 -14.5071 -14.4848 -14.4240 -14.1655 -12.8436
   -12.7414 -12.7271  -9.0667  -7.2425  -5.7119  -4.9801  -3.4266  -3.3132
    -3.2854  -3.2697  -3.1876  -3.1443  -3.0217  -2.8053  -2.6577  -2.5574
    -2.5320  -2.4524  -2.3817  -2.3578  -2.3149  -2.2596  -2.2051  -2.1589
    -2.1340  -2.1098  -2.1018  -2.0960  -2.0028  -1.9835  -1.9431  -1.8913
    -1.8562  -1.7597  -1.7427  -1.6860  -1.6781  -1.6367  -1.6264  -1.6171
    -1.6081  -1.5898  -1.5066  -1.4910  -1.4431  -1.3662  -1.1766  -1.1237
    -1.0275  -0.9715  -0.8680  -0.8432  -0.8011  -0.7716  -0.7648  -0.7561
    -0.7114  -0.6157  -0.5734  -0.5211  -0.4600  -0.3821  -0.3128  -0.2728
    -0.1624  -0.1488  -0.1222  -0.1144  -0.0823   0.0597   0.1184   0.1687
     0.1930   0.2304   0.2965   0.3573   0.3715   0.4173   0.4413   0.5068
     0.5435   0.5628   0.5827   0.6104   0.6239   0.6527   0.6683   0.7165
     0.8428   0.8535   0.9015   0.9446   1.0025   1.1214   1.1288   1.2902
     1.3761   1.5607   1.6191   1.6812   1.7430   1.8729   2.2509   2.2966
     3.7426   3.8575   3.8897   3.9178   4.0014   4.0409   4.2110   4.2759
     4.2989   4.3366

[...]

          k = 0.0380-0.0419 0.0000 ( 17876 PWs)   bands (ev):

[...]

          k =-0.0760-0.0000 0.0000 ( 17886 PWs)   bands (ev):

[...]

          k =-0.0760-0.0839 0.0000 ( 17948 PWs)   bands (ev):

   -55.3462 -55.3459 -55.2775 -55.2307 -55.2305 -55.2290 -55.2043 -55.1672
   -55.1667 -55.1318 -55.1299 -55.1193 -55.0258 -55.0015 -54.3256 -54.3255
   -31.6630 -31.6627 -31.6494 -31.6405 -31.6402 -31.5904 -31.5677 -31.5487
   -31.5413 -31.5252 -31.5046 -31.4949 -31.4917 -31.4851 -31.4792 -31.4717
   -31.4657 -31.4656 -31.4628 -31.4592 -31.4554 -31.4390 -31.4371 -31.4300
   -31.4212 -31.4154 -31.4036 -31.3839 -31.3709 -31.3688 -31.3568 -31.3459
   -31.3458 -31.3429 -31.3407 -31.3401 -31.3370 -31.3304 -31.2620 -31.2485
   -31.2302 -31.2099 -30.6520 -30.6519 -30.5624 -30.5622 -30.5235 -30.5233
   -20.1911 -17.3472 -15.4857 -15.3735 -15.3697 -15.3030 -15.2488 -15.1774
   -15.1280 -15.0974 -15.0583 -15.0400 -15.0135 -14.9720 -14.9319 -14.9206
   -14.8959 -14.8870 -14.8655 -14.8217 -14.8129 -14.8048 -14.7987 -14.7720
   -14.7317 -14.7051 -14.6832 -14.6786 -14.6491 -14.5115 -14.3656 -12.8289
   -12.8289 -12.7460  -9.0597  -7.1857  -5.7230  -5.0023  -3.3231  -2.7508
    -2.6598  -2.5739  -2.5030  -2.4311  -2.3921  -2.3698  -2.3115  -2.3066
    -2.2772  -2.2174  -2.1981  -2.1823  -2.1668  -2.1364  -2.1285  -2.1061
    -2.0959  -2.0886  -2.0477  -2.0448  -2.0198  -2.0176  -1.9919  -1.9847
    -1.9551  -1.9265  -1.9055  -1.8672  -1.8224  -1.7224  -1.6367  -1.5656
    -1.5116  -1.5004  -1.4910  -1.4363  -1.4191  -1.3876  -1.3602  -1.3244
    -1.1899  -1.0514  -1.0414  -1.0062  -0.9419  -0.9098  -0.8717  -0.8495
    -0.7749  -0.7579  -0.7245  -0.6974  -0.6271  -0.5362  -0.4917  -0.4517
    -0.4203  -0.3652  -0.3375  -0.3177  -0.3006  -0.2865  -0.2515  -0.1860
    -0.1409  -0.1174  -0.0850  -0.0588  -0.0368  -0.0117   0.1602   0.1780
     0.2764   0.3447   0.4031   0.5386   0.6396   0.6786   0.7207   0.7799
     0.8468   0.8996   0.9332   0.9502   0.9687   1.0318   1.0884   1.1551
     1.1708   1.2034   1.2818   1.4475   2.0448   2.0472   2.1167   2.1168
     4.1137   4.1622   4.1865   4.1971   4.2645   4.2888   4.3058   4.3094
     4.4140   4.4312

     the Fermi energy is     3.7628 ev

!    total energy              =   -2971.36028609 Ry
     estimated scf accuracy    <       0.00000004 Ry
     smearing contrib. (-TS)   =      -0.02057423 Ry
     internal energy E=F+TS    =   -2971.33971186 Ry

     The total energy is F=E-TS. E is the sum of the following terms:
     one-electron contribution =  -24168.88985532 Ry
     hartree contribution      =   12180.09245814 Ry
     xc contribution           =    -492.43523199 Ry
     ewald contribution        =    9509.88934164 Ry
     electric field correction =       0.00357567 Ry

     convergence has been achieved in  74 iterations

     Forces acting on atoms (cartesian axes, Ry/au):

     atom    1 type  1   force =     0.00007408   -0.00012000    0.10311855
     atom    2 type  1   force =     0.00007553   -0.00010242    0.10314807
     atom    3 type  2   force =     0.00002503   -0.00019415    0.09529309
     atom    4 type  2   force =     0.00007765   -0.00047958    0.09486881
     atom    5 type  2   force =    -0.00021233   -0.00071343   -0.17563889
     atom    6 type  2   force =    -0.00005129   -0.00023438   -0.17576605
     atom    7 type  1   force =    -0.07168533   -0.00018802   -0.02756493
     atom    8 type  1   force =    -0.07166656   -0.00020903   -0.02749112
     atom    9 type  1   force =     0.07155098    0.00025467   -0.02756634
     atom   10 type  1   force =     0.07152059    0.00026660   -0.02754279
     atom   11 type  1   force =    -0.00007872   -0.00143912    0.05242735
     atom   12 type  1   force =    -0.00000348   -0.00150154    0.05289251
     atom   13 type  1   force =    -0.00013086   -0.00018068   -0.02268004
     atom   14 type  1   force =    -0.00005933   -0.00028763   -0.02179793
     atom   15 type  2   force =    -0.00221698    0.00205195   -0.00874625
     atom   16 type  2   force =    -0.00226689    0.00206996   -0.00152322
     atom   17 type  2   force =     0.00140009    0.00932152    0.01491678
     atom   18 type  2   force =     0.00154861   -0.01042284    0.01569156
     atom   19 type  1   force =    -0.01011430   -0.00094651    0.00484978
     atom   20 type  1   force =    -0.01049120   -0.00075741    0.00459518
     atom   21 type  1   force =     0.01028476   -0.00001283    0.00094538
     atom   22 type  1   force =     0.01056187   -0.00053679    0.00076123
     atom   23 type  1   force =    -0.00214349    0.00036921   -0.01185675
     atom   24 type  1   force =    -0.00061377   -0.00078216   -0.01486772
     atom   25 type  1   force =     0.00002380    0.00040287    0.00000127
     atom   26 type  1   force =     0.00010402   -0.00026081   -0.00044668
     atom   27 type  2   force =     0.00053425   -0.00011969   -0.00070436
     atom   28 type  2   force =    -0.00021296   -0.00020818   -0.00003595
     atom   29 type  2   force =     0.00020166    0.00076337    0.00012148
     atom   30 type  2   force =    -0.00030998   -0.00027265    0.00000196
     atom   31 type  1   force =     0.00022954    0.00056784    0.00025454
     atom   32 type  1   force =    -0.00064916    0.00047145    0.00004366
     atom   33 type  1   force =     0.00044960    0.00051946    0.00011130
     atom   34 type  1   force =     0.00072199    0.00023326   -0.00015695
     atom   35 type  1   force =    -0.00009928   -0.00034851   -0.00002256
     atom   36 type  1   force =     0.00081546    0.00057947   -0.00070451
     atom   37 type  1   force =     0.00038453    0.00021971    0.00024091
     atom   38 type  1   force =     0.00057205    0.00068995    0.00067328
     atom   39 type  2   force =     0.00041436   -0.00020304   -0.00029869
     atom   40 type  2   force =    -0.00023829   -0.00026911   -0.00001045
     atom   41 type  2   force =     0.00065106    0.00016857    0.00013104
     atom   42 type  1   force =     0.00036848    0.00015299    0.00004964
     atom   43 type  1   force =     0.00035909    0.00013384    0.00020066
     atom   44 type  2   force =    -0.00026504    0.00067816   -0.00036819
     atom   45 type  1   force =     0.00006708   -0.00007686   -0.00054220
     atom   46 type  1   force =     0.00011149    0.00070040    0.00017483
     atom   47 type  1   force =    -0.00032266    0.00039124    0.00000543
     atom   48 type  3   force =    -0.00076546   -0.00112739    0.00064384
     atom   49 type  4   force =    -0.00808717   -0.00108369   -0.00412594
     atom   50 type  5   force =     0.00047589    0.00089092   -0.00047050
     atom   51 type  3   force =    -0.00154115    0.00022852   -0.00175228
     atom   52 type  5   force =     0.01075173    0.00073439    0.00549030
     atom   53 type  5   force =    -0.00030478   -0.00000688    0.00113407
     atom   54 type  1   force =     0.00017517    0.00022504   -0.00010522

     Total force =     0.364751     Total SCF correction =     0.000599
  @ DRIVER MODE: Message from server: STATUS
  @ DRIVER MODE: Message from server: GETFORCE
  @ DRIVER MODE: Returning v,forces,stress,ensemble

     Writing output data file ./calc.save/
  @ DRIVER MODE: Message from server: EXIT
  @ DRIVE MODE: Exiting

     General routines

     Parallel routines

   This run was terminated on:   5:13: 7  27Sep2021

   JOB DONE.