     Program PWSCF v.6.7GPU starts on  9Sep2021 at 23:42:48

     R & G space division:  proc/nbgrp/npool/nimage =      10
     Reading input from /storage/home/hcoda1/3/ntian30/research/carbon/CxH_vib/CH3_calc/ads_slab/CH3N2H2O_g/out_0010/pw.inp
Warning: card &CELL ignored
Warning: card   CELL_DYNAMICS='IPI', ignored
Warning: card / ignored

     Current dimensions of program PWSCF are:
     Max number of different atomic species (ntypx) = 10
     Max number of k-points (npk) =  40000
     Max angular momentum in pseudopotentials (lmaxx) =  3
     Presently no symmetry can be used with electric field

     Message from routine cell_base_init:
     DEPRECATED: use true lattice parameter, not A to a.u. conversion factor

     IMPORTANT: XC functional enforced from input :
     Exchange-correlation= BEEF-VDW
                           (   1   4  43  14   2   0   0)
     Any further DFT definition will be discarded
     Please, verify this is what you really want

  @ DRIVER MODE: Connecting to
 qe_1139763_2779714.sched-torque.pace.gatech.eduprc2simb_scratch
  using UNIX socket
  @ DRIVER MODE: Message from server: STATUS
  @ DRIVER MODE: Message from server: INIT
  @ DRIVER MODE: Receiving replica           0          -1
  @ DRIVER MODE: Receiving encoded integer          25
  @ DRIVER MODE:  SCF:  T  FORCE:  T  STRESS:  F  VC:  F  ENSEMBLE:  F
  @ DRIVER MODE:  SCF:  T  FORCE:  T  STRESS:  F  VC:  F  ENSEMBLE:  F

     Using Slab Decomposition

     bravais-lattice index     =            0
     lattice parameter (alat)  =       1.8897  a.u.
     unit-cell volume          =    6658.9804 (a.u.)^3
     number of atoms/cell      =           56
     number of atomic types    =            5
     number of electrons       =       403.00
     number of Kohn-Sham states=          211
     kinetic-energy cutoff     =      29.3995  Ry
     charge density cutoff     =     293.9946  Ry
     scf convergence threshold =      7.3E-08
     mixing beta               =       0.0500
     number of iterations used =            8  plain     mixing
     Exchange-correlation= BEEF-VDW
                           (   1   4  43  14   2   0   0)

     celldm(1)=   1.889726  celldm(2)=   0.000000  celldm(3)=   0.000000
     celldm(4)=   0.000000  celldm(5)=   0.000000  celldm(6)=   0.000000

     crystal axes: (cart. coord. in units of alat)
               a(1) = (   6.579727   0.000000   0.000000 )
               a(2) = (  -0.000775   5.961596   0.000000 )
               a(3) = (   0.000000   0.000000  25.155947 )

     reciprocal axes: (cart. coord. in units 2 pi/alat)
               b(1) = (  0.151982  0.000020  0.000000 )
               b(2) = (  0.000000  0.167740  0.000000 )
               b(3) = (  0.000000  0.000000  0.039752 )

     PseudoPot. # 1 for Ti read from file:
     /storage/coda1/p-amedford6/0/shared/rich_project_chbe-medford/medford-share/data/pseudos_module/espresso/nninc/pbe/van/Ti.UPF
     MD5 check sum: 8e4df49b7f0d34bbd5052bf3f5ea0213
     Pseudo is Ultrasoft, Zval = 12.0
     Generated by new atomic code, or converted to UPF format
     Using radial grid of  851 points,  6 beta functions with:
                l(1) =   0
                l(2) =   0
                l(3) =   1
                l(4) =   1
                l(5) =   2
                l(6) =   2
     Q(r) pseudized with  8 coefficients,  rinner =    1.000   1.000   1.000
                                                       1.000   1.000

     PseudoPot. # 2 for O  read from file:
     /storage/coda1/p-amedford6/0/shared/rich_project_chbe-medford/medford-share/data/pseudos_module/espresso/nninc/pbe/van/O.UPF
     MD5 check sum: 78c19812648e8988a0fe644b0f25305e
     Pseudo is Ultrasoft, Zval =  6.0
     Generated by new atomic code, or converted to UPF format
     Using radial grid of  737 points,  4 beta functions with:
                l(1) =   0
                l(2) =   0
                l(3) =   1
                l(4) =   1
     Q(r) pseudized with  8 coefficients,  rinner =    0.800   0.800   0.800

     PseudoPot. # 3 for N  read from file:
     /storage/coda1/p-amedford6/0/shared/rich_project_chbe-medford/medford-share/data/pseudos_module/espresso/nninc/pbe/van/N.UPF
     MD5 check sum: 90d10febe142ad51ac9d5be1deb811c4
     Pseudo is Ultrasoft, Zval =  5.0
     Generated by new atomic code, or converted to UPF format
     Using radial grid of  729 points,  4 beta functions with:
                l(1) =   0
                l(2) =   0
                l(3) =   1
                l(4) =   1
     Q(r) pseudized with  8 coefficients,  rinner =    0.800   0.800   0.800

     PseudoPot. # 4 for C  read from file:
     /storage/coda1/p-amedford6/0/shared/rich_project_chbe-medford/medford-share/data/pseudos_module/espresso/nninc/pbe/van/C.UPF
     MD5 check sum: 1a69bf6b8db32088f5b2163dbdb77a27
     Pseudo is Ultrasoft, Zval =  4.0
     Generated by new atomic code, or converted to UPF format
     Using radial grid of  721 points,  4 beta functions with:
                l(1) =   0
                l(2) =   0
                l(3) =   1
                l(4) =   1
     Q(r) pseudized with  8 coefficients,  rinner =    0.800   0.800   0.800

     PseudoPot. # 5 for H  read from file:
     /storage/coda1/p-amedford6/0/shared/rich_project_chbe-medford/medford-share/data/pseudos_module/espresso/nninc/pbe/van/H.UPF
     MD5 check sum: b5ee9d7bfd3a09ee7748110bda690ff7
     Pseudo is Ultrasoft, Zval =  1.0
     Generated by new atomic code, or converted to UPF format
     Using radial grid of  615 points,  1 beta functions with:
                l(1) =   0
     Q(r) pseudized with  8 coefficients,  rinner =    0.800

     atomic species   valence    mass     pseudopotential
        Ti1           12.00    47.86700     Ti( 1.00)
        O1             6.00    15.99900     O ( 1.00)
        N1             5.00    14.00700     N ( 1.00)
        C1             4.00    12.01100     C ( 1.00)
        H1             1.00     1.00800     H ( 1.00)

     No symmetry found

   Cartesian axes

     site n.     atom                  positions (alat units)
         1           Ti1 tau(   1) = (   0.0004258   2.9801865   6.0000000  )
         2           Ti1 tau(   2) = (   3.2906075   1.4906267   6.0002472  )
         3           O1  tau(   3) = (   0.0006271   0.0005054   7.9858123  )
         4           O1  tau(   4) = (   3.2906025   0.0005020   7.3038282  )
         5           O1  tau(   5) = (   4.5942328   1.4918067   9.2879030  )
         6           O1  tau(   6) = (   1.9868534   1.4903216   9.2879459  )
         7           Ti1 tau(   7) = (   3.2907910   2.8959150   9.1758416  )
         8           Ti1 tau(   8) = (   0.0015273   1.4827037   9.2680791  )
         9           O1  tau(   9) = (   3.3002115   5.9463602  11.3460011  )
        10           O1  tau(  10) = (   0.0116148   5.9584955  10.6183126  )
        11           O1  tau(  11) = (   1.3192008   1.4768417  12.6238339  )
        12           O1  tau(  12) = (   5.3062067   1.4698383  12.6193417  )
        13           Ti1 tau(  13) = (   6.5330844   2.9444840  12.6148558  )
        14           Ti1 tau(  14) = (   3.2222230   1.4676475  12.5013840  )
        15           O1  tau(  15) = (   0.0064324   5.9471174  14.6352917  )
        16           O1  tau(  16) = (   3.3028336   5.9445487  13.9678148  )
        17           O1  tau(  17) = (   4.5628415   1.5226527  16.0793330  )
        18           O1  tau(  18) = (   2.0474444   1.5206590  16.0184434  )
        19           Ti1 tau(  19) = (   3.3141275   2.9607752  15.6908890  )
        20           Ti1 tau(  20) = (   6.5660065   1.5097775  15.7997320  )
        21           O1  tau(  21) = (   3.2904802   0.0005063   4.7018136  )
        22           O1  tau(  22) = (   0.0269361   0.0086655  17.1987262  )
        23           O1  tau(  23) = (   1.3043587   1.4918075   6.0039043  )
        24           O1  tau(  24) = (   5.2767064   1.4903225   6.0039473  )
        25           Ti1 tau(  25) = (   0.0000382   5.9609847   6.0000000  )
        26           Ti1 tau(  26) = (   3.2902200   4.4714249   6.0002472  )
        27           O1  tau(  27) = (   0.0002396   2.9813036   7.9858123  )
        28           O1  tau(  28) = (   3.2902150   2.9813002   7.3038282  )
        29           O1  tau(  29) = (   4.5938453   4.4726049   9.2879030  )
        30           O1  tau(  30) = (   1.9864658   4.4711199   9.2879459  )
        31           Ti1 tau(  31) = (   3.2891106   5.8743827   9.1763621  )
        32           Ti1 tau(  32) = (   0.0006254   4.4649316   9.2693709  )
        33           O1  tau(  33) = (   3.2944391   2.9688829  11.3444728  )
        34           O1  tau(  34) = (   0.0092240   2.9805883  10.6323155  )
        35           O1  tau(  35) = (   1.3142520   4.4635248  12.6275686  )
        36           O1  tau(  36) = (   5.3078217   4.4601700  12.6226734  )
        37           Ti1 tau(  37) = (   6.5374036   5.9186568  12.5467527  )
        38           Ti1 tau(  38) = (   3.2213306   4.4595164  12.5065882  )
        39           O1  tau(  39) = (   6.5756885   2.9534048  14.6511233  )
        40           O1  tau(  40) = (   3.3206316   2.9687378  13.8980937  )
        41           O1  tau(  41) = (   4.5543359   4.4428353  16.0905846  )
        42           O1  tau(  42) = (   2.0427057   4.4323087  16.0570365  )
        43           Ti1 tau(  43) = (   3.2570595   5.9269474  15.8069103  )
        44           Ti1 tau(  44) = (   6.5609319   4.6488967  16.0725391  )
        45           O1  tau(  45) = (   3.2900926   2.9813045   4.7018136  )
        46           O1  tau(  46) = (   1.3039711   4.4726057   6.0039043  )
        47           O1  tau(  47) = (   5.2763189   4.4711207   6.0039473  )
        48           N1  tau(  48) = (   0.2492319   2.6641403  18.6309932  )
        49           N1  tau(  49) = (   0.0782707   2.8935230  17.4382120  )
        50           C1  tau(  50) = (   0.2622466   3.8234900  19.5663878  )
        51           H1  tau(  51) = (   6.1755609   4.6233469  19.2444151  )
        52           H1  tau(  52) = (   6.5754044   3.4477461  20.5519103  )
        53           H1  tau(  53) = (   1.2857956   4.2073973  19.6006198  )
        54           O1  tau(  54) = (   3.1761146   0.0362278  18.2233714  )
        55           H1  tau(  55) = (   3.9097821   0.6076051  18.5038283  )
        56           H1  tau(  56) = (   2.3516031   0.5117379  18.4309238  )

     number of k points=    10  Fermi-Dirac smearing, width (Ry)=  0.0073
                       cart. coord. in units 2pi/alat
        k(    1) = (   0.0000000   0.0000000   0.0000000), wk =   0.1250000
        k(    2) = (   0.0000000   0.0419351   0.0000000), wk =   0.2500000
        k(    3) = (   0.0000000  -0.0838702   0.0000000), wk =   0.1250000
        k(    4) = (   0.0379955   0.0000049   0.0000000), wk =   0.2500000
        k(    5) = (   0.0379955   0.0419400   0.0000000), wk =   0.2500000
        k(    6) = (   0.0379955  -0.0838652   0.0000000), wk =   0.2500000
        k(    7) = (   0.0379955  -0.0419301   0.0000000), wk =   0.2500000
        k(    8) = (  -0.0759910  -0.0000099   0.0000000), wk =   0.1250000
        k(    9) = (  -0.0759910   0.0419252   0.0000000), wk =   0.2500000
        k(   10) = (  -0.0759910  -0.0838800   0.0000000), wk =   0.1250000

     Initial potential from superposition of free atoms

     starting charge  386.99914, renormalised to  403.00000

     negative rho (up, down):  1.449E-02 0.000E+00

     %%%%%%%%%%%%%%%%%%%%%%%%%%%%%%%%%%%%%%%%%%%%%%%%%%%%%%%%%%%%%%%%%%%%%%%%
     %                                                                      %
     % You are using vdW-DF, which was implemented by the Thonhauser group. %
     % Please cite the following two papers that made this development      %
     % possible and the two reviews that describe the various versions:     %
     %                                                                      %
     %   T. Thonhauser et al., PRL 115, 136402 (2015).                      %
     %   T. Thonhauser et al., PRB 76, 125112 (2007).                       %
     %   K. Berland et al., Rep. Prog. Phys. 78, 066501 (2015).             %
     %   D.C. Langreth et al., J. Phys.: Condens. Matter 21, 084203 (2009). %
     %                                                                      %
     %                                                                      %
     % If you are calculating the stress with vdW-DF, please also cite:     %
     %                                                                      %
     %   R. Sabatini et al., J. Phys.: Condens. Matter 24, 424209 (2012).   %
     %                                                                      %
     %%%%%%%%%%%%%%%%%%%%%%%%%%%%%%%%%%%%%%%%%%%%%%%%%%%%%%%%%%%%%%%%%%%%%%%%

     Adding external electric field

     Computed dipole along edir(3) :
        Dipole              -13.2089 Ry au,        -33.5737 Debye
        Dipole field         -0.0249 Ry au,

        Potential amp.        2.3107 Ry
        Total length         46.3494 bohr

     Starting wfcs are  305 atomic wfcs
  @ DRIVER MODE: Message from server: STATUS
  @ DRIVER MODE: Message from server: POSDATA
  @ DRIVER MODE: Reading and sharing cell
  @ DRIVER MODE: Reading and sharing positions
  @ DRIVER MODE: Received positions

     Self-consistent Calculation

     iteration #  1     ecut=    29.40 Ry     beta= 0.05
     Davidson diagonalization with overlap
     c_bands:  4 eigenvalues not converged
     c_bands:  2 eigenvalues not converged
     c_bands:  2 eigenvalues not converged
     c_bands:  5 eigenvalues not converged
     c_bands:  1 eigenvalues not converged
     c_bands:  1 eigenvalues not converged
     c_bands:  4 eigenvalues not converged
     c_bands:  1 eigenvalues not converged
     c_bands:  1 eigenvalues not converged
     ethr =  1.00E-05,  avg # of iterations = 28.0

[...]

     total energy              =   -2367.51796544 Ry
     estimated scf accuracy    <    6916.67904767 Ry

     iteration #  2     ecut=    29.40 Ry     beta= 0.05
     Davidson diagonalization with overlap
     ethr =  1.00E-02,  avg # of iterations = 22.7

[...]

     iteration # 55     ecut=    29.40 Ry     beta= 0.05
     Davidson diagonalization with overlap
     c_bands:  1 eigenvalues not converged
     ethr =  2.38E-10,  avg # of iterations = 15.1

[...]

     total energy              =   -2974.00265679 Ry
     estimated scf accuracy    <       0.00000010 Ry

     iteration # 61     ecut=    29.40 Ry     beta= 0.05
     Davidson diagonalization with overlap
     ethr =  2.41E-11,  avg # of iterations = 10.3

     negative rho (up, down):  1.476E-02 0.000E+00

     Adding external electric field

     Computed dipole along edir(3) :
        Dipole                0.8853 Ry au,          2.2501 Debye
        Dipole field          0.0017 Ry au,

        Potential amp.       -0.1549 Ry
        Total length         46.3494 bohr

     End of self-consistent calculation

          k = 0.0000 0.0000 0.0000 ( 18029 PWs)   bands (ev):

   -55.6228 -55.5887 -55.5816 -55.5639 -55.5449 -55.4519 -55.4329 -55.4124
   -55.3990 -55.3982 -55.3694 -55.3644 -55.0134 -54.8658 -54.6019 -54.5679
   -32.1237 -32.1052 -31.9654 -31.9491 -31.9316 -31.9157 -31.8877 -31.8819
   -31.8657 -31.8122 -31.8063 -31.7875 -31.7751 -31.7598 -31.7431 -31.7349
   -31.7270 -31.7144 -31.7091 -31.6801 -31.6715 -31.6546 -31.6254 -31.6212
   -31.6059 -31.6033 -31.6028 -31.5971 -31.5730 -31.5680 -31.5654 -31.5606
   -31.5508 -31.5458 -31.5395 -31.5160 -31.5098 -31.2820 -31.2068 -31.1263
   -31.1125 -31.0760 -31.0091 -30.9205 -30.8980 -30.8257 -30.7392 -30.6283
   -18.8627 -18.2770 -16.3149 -16.0863 -15.8561 -15.7688 -15.7206 -15.5208
   -15.4189 -15.3465 -15.2240 -15.1610 -15.1492 -15.1349 -15.1160 -15.1132
   -15.0617 -15.0549 -15.0502 -15.0426 -15.0097 -14.9693 -14.9543 -14.9447
   -14.8503 -14.7762 -14.7590 -14.7353 -14.6903 -14.6736 -14.2002 -13.1039
   -12.9875 -11.2339  -6.8691  -6.6370  -4.1862  -3.8286  -3.7855  -3.6875
    -3.5603  -3.5268  -3.4450  -3.3697  -3.2347  -3.1997  -3.0392  -2.8505
    -2.7899  -2.7635  -2.7109  -2.6441  -2.5302  -2.4712  -2.4266  -2.4186
    -2.4023  -2.3937  -2.3707  -2.3583  -2.2559  -2.2355  -2.1556  -2.1516
    -2.1007  -1.9846  -1.9693  -1.9349  -1.9215  -1.8976  -1.8759  -1.8557
    -1.8460  -1.8219  -1.7708  -1.6985  -1.6262  -1.5957  -1.5026  -1.4384
    -1.3993  -1.3522  -1.2329  -1.1387  -1.1038  -1.0642  -1.0560  -1.0428
    -1.0147  -0.9972  -0.8844  -0.7703  -0.7541  -0.6869  -0.6277  -0.5467
    -0.5188  -0.4404  -0.3864  -0.3681  -0.3645  -0.3187  -0.2859  -0.2288
    -0.0962  -0.0441  -0.0105  -0.0014   0.0582   0.1010   0.1296   0.2174
     0.2237   0.2684   0.3066   0.3390   0.3523   0.3673   0.3859   0.4150
     0.4298   0.6217   0.6581   0.6972   0.7346   0.7769   0.9156   0.9404
     1.0382   1.1478   1.3468   1.4205   1.5252   1.6126   1.9921   2.0378
     2.7406   3.5120   3.5994   3.6443   3.6730   3.7569   3.7713   3.9671
     3.9828   4.0212   4.1550

[...]

          k = 0.0380-0.0419 0.0000 ( 17876 PWs)   bands (ev):

[...]

          k =-0.0760-0.0000 0.0000 ( 17886 PWs)   bands (ev):

[...]

          k =-0.0760-0.0839 0.0000 ( 17948 PWs)   bands (ev):

   -55.6063 -55.6051 -55.5673 -55.5624 -55.5589 -55.4418 -55.4226 -55.4165
   -55.4147 -55.3831 -55.3797 -55.3708 -55.0116 -54.8675 -54.5849 -54.5847
   -31.9373 -31.9212 -31.9209 -31.9200 -31.9016 -31.9005 -31.8509 -31.8448
   -31.8242 -31.7994 -31.7870 -31.7775 -31.7731 -31.7353 -31.7305 -31.7291
   -31.7259 -31.7247 -31.7229 -31.7200 -31.7174 -31.7119 -31.6750 -31.6589
   -31.6396 -31.6353 -31.6285 -31.6160 -31.6155 -31.6127 -31.6070 -31.5977
   -31.5942 -31.5833 -31.5828 -31.5737 -31.4279 -31.2840 -31.2204 -31.1720
   -31.1269 -31.1013 -30.9108 -30.9106 -30.8220 -30.8217 -30.7825 -30.7825
   -18.8616 -18.2733 -15.7733 -15.6631 -15.5723 -15.5381 -15.4806 -15.4115
   -15.4035 -15.3175 -15.3009 -15.2977 -15.2314 -15.2111 -15.1738 -15.1670
   -15.1443 -15.1285 -15.1224 -15.0727 -15.0609 -15.0580 -15.0511 -15.0464
   -14.9701 -14.9397 -14.9358 -14.9267 -14.8000 -14.6766 -14.3707 -13.0894
   -13.0892 -11.2316  -6.8966  -6.6137  -4.1103  -3.8605  -3.7476  -3.2154
    -3.0557  -2.8417  -2.8234  -2.7274  -2.7157  -2.6812  -2.5502  -2.5096
    -2.4688  -2.4524  -2.4333  -2.4319  -2.4147  -2.4091  -2.3870  -2.3599
    -2.3373  -2.3173  -2.2887  -2.2853  -2.2724  -2.2591  -2.2359  -2.2238
    -2.2073  -2.1768  -2.1509  -2.1346  -2.0672  -1.9954  -1.8354  -1.7975
    -1.7582  -1.7518  -1.7342  -1.7039  -1.6886  -1.6705  -1.6213  -1.5812
    -1.4899  -1.3570  -1.3406  -1.3165  -1.2929  -1.2848  -1.2139  -1.1058
    -1.0864  -1.0152  -1.0067  -0.8998  -0.8919  -0.8069  -0.7969  -0.7864
    -0.7140  -0.6868  -0.6719  -0.5833  -0.5811  -0.5566  -0.5072  -0.4806
    -0.4156  -0.3737  -0.3427  -0.3397  -0.2937  -0.2715  -0.2277  -0.1592
    -0.1073  -0.0713   0.0253   0.1292   0.2296   0.3454   0.4601   0.4744
     0.5564   0.5898   0.6747   0.6902   0.6987   0.7703   0.7756   0.8756
     0.9192   0.9336   0.9742   1.0965   1.7838   1.7852   1.8574   1.8577
     2.7601   3.7299   3.8495   3.8918   3.9093   3.9838   4.0266   4.0460
     4.0483   4.0825   4.1886

     the Fermi energy is     3.5110 ev

!    total energy              =   -2974.00270750 Ry
     estimated scf accuracy    <       0.00000005 Ry
     smearing contrib. (-TS)   =      -0.02181456 Ry
     internal energy E=F+TS    =   -2973.98089295 Ry

     The total energy is F=E-TS. E is the sum of the following terms:
     one-electron contribution =  -23847.90074304 Ry
     hartree contribution      =   12018.33716248 Ry
     xc contribution           =    -494.02641849 Ry
     ewald contribution        =    9349.60762714 Ry
     electric field correction =       0.00147895 Ry

     convergence has been achieved in  61 iterations

     Forces acting on atoms (cartesian axes, Ry/au):

     atom    1 type  1   force =     0.00003779   -0.00023646    0.09650437
     atom    2 type  1   force =     0.00005335   -0.00043777   -0.17544107
     atom    3 type  2   force =     0.00011463   -0.00009605   -0.02474764
     atom    4 type  2   force =     0.00004252   -0.00157910    0.05349379
     atom    5 type  2   force =    -0.01197121   -0.00100507    0.00309070
     atom    6 type  2   force =     0.01371237   -0.00064632    0.00292760
     atom    7 type  1   force =     0.00074742    0.00068575   -0.00683085
     atom    8 type  1   force =     0.00022490    0.00947029    0.02710517
     atom    9 type  2   force =    -0.00014669   -0.00006059   -0.00005139
     atom   10 type  2   force =    -0.00204789    0.00048201   -0.01818752
     atom   11 type  2   force =    -0.00058511    0.00035264    0.00012362
     atom   12 type  2   force =     0.00069832    0.00015858    0.00032069
     atom   13 type  1   force =    -0.00015392   -0.00008051   -0.00034301
     atom   14 type  1   force =    -0.00040586   -0.00015674    0.00029208
     atom   15 type  2   force =     0.00006831   -0.00004167    0.00049252
     atom   16 type  2   force =    -0.00025986   -0.00006437   -0.00043532
     atom   17 type  2   force =    -0.00010009    0.00019126   -0.00033572
     atom   18 type  2   force =    -0.00010046    0.00017790   -0.00030319
     atom   19 type  1   force =    -0.00033439    0.00023128    0.00008790
     atom   20 type  1   force =    -0.00042644    0.00033389    0.00066151
     atom   21 type  2   force =     0.00008745    0.00001475    0.10326851
     atom   22 type  2   force =     0.00012472    0.00157569   -0.00030399
     atom   23 type  2   force =    -0.07144307   -0.00008581   -0.02774109
     atom   24 type  2   force =     0.07139720    0.00036880   -0.02781335
     atom   25 type  1   force =     0.00017888   -0.00033720    0.09616657
     atom   26 type  1   force =     0.00000565   -0.00037399   -0.17578133
     atom   27 type  2   force =     0.00021070   -0.00020690   -0.02374136
     atom   28 type  2   force =     0.00002326   -0.00128163    0.05295353
     atom   29 type  2   force =    -0.01220944    0.00024081    0.00291807
     atom   30 type  2   force =     0.01387145    0.00082087    0.00273538
     atom   31 type  1   force =     0.00041421    0.00343592   -0.00986005
     atom   32 type  1   force =     0.00036623   -0.01130070    0.02751081
     atom   33 type  2   force =     0.00009944    0.00014336    0.00000207
     atom   34 type  2   force =    -0.00188757   -0.00045203   -0.02408076
     atom   35 type  2   force =     0.00040939    0.00001382   -0.00026434
     atom   36 type  2   force =    -0.00029375   -0.00008801    0.00008457
     atom   37 type  1   force =    -0.00029658   -0.00011852    0.00012823
     atom   38 type  1   force =    -0.00080645    0.00014084   -0.00046296
     atom   39 type  2   force =     0.00005368   -0.00062748    0.00022242
     atom   40 type  2   force =     0.00019861    0.00034026    0.00040539
     atom   41 type  2   force =     0.00015959    0.00012011   -0.00044769
     atom   42 type  2   force =    -0.00028760   -0.00001867   -0.00049884
     atom   43 type  1   force =     0.00028926    0.00072005    0.00046382
     atom   44 type  1   force =    -0.00012414    0.00114022   -0.00035987
     atom   45 type  2   force =     0.00008544   -0.00002882    0.10325574
     atom   46 type  2   force =    -0.07144623   -0.00002994   -0.02775200
     atom   47 type  2   force =     0.07140690    0.00039711   -0.02780963
     atom   48 type  3   force =    -0.00119328    0.00349533   -0.00557264
     atom   49 type  3   force =     0.00040681   -0.00525304    0.00350114
     atom   50 type  4   force =     0.00031142    0.00004791    0.00157040
     atom   51 type  5   force =     0.00117496   -0.00088941   -0.00025555
     atom   52 type  5   force =    -0.00010389    0.00026293    0.00005192
     atom   53 type  5   force =    -0.00002679   -0.00064542    0.00023363
     atom   54 type  2   force =     0.00014398    0.00058703   -0.00085373
     atom   55 type  5   force =    -0.00006989   -0.00008526   -0.00000746
     atom   56 type  5   force =    -0.00039824    0.00027807   -0.00028981

     Total force =     0.368104     Total SCF correction =     0.000483
  @ DRIVER MODE: Message from server: STATUS
  @ DRIVER MODE: Message from server: GETFORCE
  @ DRIVER MODE: Returning v,forces,stress,ensemble

     Writing output data file ./calc.save/
  @ DRIVER MODE: Message from server: EXIT
  @ DRIVE MODE: Exiting

     General routines

     Parallel routines

   This run was terminated on:   0: 0:36  10Sep2021

   JOB DONE.