     Program PWSCF v.6.7GPU starts on  9Sep2021 at 10:39:39

     R & G space division:  proc/nbgrp/npool/nimage =      10
     Reading input from /storage/home/hcoda1/3/ntian30/research/carbon/CxH_vib/CH3_calc/ads_slab/CH3NNH3_a/out_0039/pw.inp
Warning: card &CELL ignored
Warning: card   CELL_DYNAMICS='IPI', ignored
Warning: card / ignored

     Current dimensions of program PWSCF are:
     Max number of different atomic species (ntypx) = 10
     Max number of k-points (npk) =  40000
     Max angular momentum in pseudopotentials (lmaxx) =  3
     Presently no symmetry can be used with electric field

     Message from routine cell_base_init:
     DEPRECATED: use true lattice parameter, not A to a.u. conversion factor

     IMPORTANT: XC functional enforced from input :
     Exchange-correlation= BEEF-VDW
                           (   1   4  43  14   2   0   0)
     Any further DFT definition will be discarded
     Please, verify this is what you really want

  @ DRIVER MODE: Connecting to
 qe_1139763_2767402.sched-torque.pace.gatech.eduso4emkyh_scratch
  using UNIX socket
  @ DRIVER MODE: Message from server: STATUS
  @ DRIVER MODE: Message from server: INIT
  @ DRIVER MODE: Receiving replica           0          -1
  @ DRIVER MODE: Receiving encoded integer          25
  @ DRIVER MODE:  SCF:  T  FORCE:  T  STRESS:  F  VC:  F  ENSEMBLE:  F
  @ DRIVER MODE:  SCF:  T  FORCE:  T  STRESS:  F  VC:  F  ENSEMBLE:  F

     Using Slab Decomposition

     bravais-lattice index     =            0
     lattice parameter (alat)  =       1.8897  a.u.
     unit-cell volume          =    6658.9804 (a.u.)^3
     number of atoms/cell      =           56
     number of atomic types    =            5
     number of electrons       =       398.00
     number of Kohn-Sham states=          209
     kinetic-energy cutoff     =      29.3995  Ry
     charge density cutoff     =     293.9946  Ry
     scf convergence threshold =      7.3E-08
     mixing beta               =       0.0500
     number of iterations used =            8  plain     mixing
     Exchange-correlation= BEEF-VDW
                           (   1   4  43  14   2   0   0)

     celldm(1)=   1.889726  celldm(2)=   0.000000  celldm(3)=   0.000000
     celldm(4)=   0.000000  celldm(5)=   0.000000  celldm(6)=   0.000000

     crystal axes: (cart. coord. in units of alat)
               a(1) = (   6.579727   0.000000   0.000000 )
               a(2) = (  -0.000775   5.961596   0.000000 )
               a(3) = (   0.000000   0.000000  25.155947 )

     reciprocal axes: (cart. coord. in units 2 pi/alat)
               b(1) = (  0.151982  0.000020  0.000000 )
               b(2) = (  0.000000  0.167740  0.000000 )
               b(3) = (  0.000000  0.000000  0.039752 )

     PseudoPot. # 1 for Ti read from file:
     /storage/coda1/p-amedford6/0/shared/rich_project_chbe-medford/medford-share/data/pseudos_module/espresso/nninc/pbe/van/Ti.UPF
     MD5 check sum: 8e4df49b7f0d34bbd5052bf3f5ea0213
     Pseudo is Ultrasoft, Zval = 12.0
     Generated by new atomic code, or converted to UPF format
     Using radial grid of  851 points,  6 beta functions with:
                l(1) =   0
                l(2) =   0
                l(3) =   1
                l(4) =   1
                l(5) =   2
                l(6) =   2
     Q(r) pseudized with  8 coefficients,  rinner =    1.000   1.000   1.000
                                                       1.000   1.000

     PseudoPot. # 2 for O  read from file:
     /storage/coda1/p-amedford6/0/shared/rich_project_chbe-medford/medford-share/data/pseudos_module/espresso/nninc/pbe/van/O.UPF
     MD5 check sum: 78c19812648e8988a0fe644b0f25305e
     Pseudo is Ultrasoft, Zval =  6.0
     Generated by new atomic code, or converted to UPF format
     Using radial grid of  737 points,  4 beta functions with:
                l(1) =   0
                l(2) =   0
                l(3) =   1
                l(4) =   1
     Q(r) pseudized with  8 coefficients,  rinner =    0.800   0.800   0.800

     PseudoPot. # 3 for N  read from file:
     /storage/coda1/p-amedford6/0/shared/rich_project_chbe-medford/medford-share/data/pseudos_module/espresso/nninc/pbe/van/N.UPF
     MD5 check sum: 90d10febe142ad51ac9d5be1deb811c4
     Pseudo is Ultrasoft, Zval =  5.0
     Generated by new atomic code, or converted to UPF format
     Using radial grid of  729 points,  4 beta functions with:
                l(1) =   0
                l(2) =   0
                l(3) =   1
                l(4) =   1
     Q(r) pseudized with  8 coefficients,  rinner =    0.800   0.800   0.800

     PseudoPot. # 4 for C  read from file:
     /storage/coda1/p-amedford6/0/shared/rich_project_chbe-medford/medford-share/data/pseudos_module/espresso/nninc/pbe/van/C.UPF
     MD5 check sum: 1a69bf6b8db32088f5b2163dbdb77a27
     Pseudo is Ultrasoft, Zval =  4.0
     Generated by new atomic code, or converted to UPF format
     Using radial grid of  721 points,  4 beta functions with:
                l(1) =   0
                l(2) =   0
                l(3) =   1
                l(4) =   1
     Q(r) pseudized with  8 coefficients,  rinner =    0.800   0.800   0.800

     PseudoPot. # 5 for H  read from file:
     /storage/coda1/p-amedford6/0/shared/rich_project_chbe-medford/medford-share/data/pseudos_module/espresso/nninc/pbe/van/H.UPF
     MD5 check sum: b5ee9d7bfd3a09ee7748110bda690ff7
     Pseudo is Ultrasoft, Zval =  1.0
     Generated by new atomic code, or converted to UPF format
     Using radial grid of  615 points,  1 beta functions with:
                l(1) =   0
     Q(r) pseudized with  8 coefficients,  rinner =    0.800

     atomic species   valence    mass     pseudopotential
        Ti1           12.00    47.86700     Ti( 1.00)
        O1             6.00    15.99900     O ( 1.00)
        N1             5.00    14.00700     N ( 1.00)
        C1             4.00    12.01100     C ( 1.00)
        H1             1.00     1.00800     H ( 1.00)

     No symmetry found

   Cartesian axes

     site n.     atom                  positions (alat units)
         1           Ti1 tau(   1) = (   0.0004258   2.9801865   6.0000000  )
         2           Ti1 tau(   2) = (   3.2906075   1.4906267   6.0002472  )
         3           O1  tau(   3) = (   0.0006271   0.0005054   7.9858123  )
         4           O1  tau(   4) = (   3.2906025   0.0005020   7.3038282  )
         5           O1  tau(   5) = (   4.5942328   1.4918067   9.2879030  )
         6           O1  tau(   6) = (   1.9868534   1.4903216   9.2879459  )
         7           Ti1 tau(   7) = (   3.2907910   2.8959150   9.1758416  )
         8           Ti1 tau(   8) = (   0.0015273   1.4827037   9.2680791  )
         9           O1  tau(   9) = (   3.2915376   0.0135470  11.3011085  )
        10           O1  tau(  10) = (   0.0116148   5.9584955  10.6183126  )
        11           O1  tau(  11) = (   1.3264285   1.5112823  12.6233503  )
        12           O1  tau(  12) = (   5.3038506   1.5117067  12.6402039  )
        13           Ti1 tau(  13) = (   6.4820107   2.9926285  12.7699842  )
        14           Ti1 tau(  14) = (   3.1705855   1.5046985  12.4703807  )
        15           O1  tau(  15) = (   0.0265921   0.0018185  14.6022993  )
        16           O1  tau(  16) = (   3.3077976   0.0231332  13.8844522  )
        17           O1  tau(  17) = (   4.5431088   1.5356983  16.0582573  )
        18           O1  tau(  18) = (   2.0919096   1.5355568  16.0602035  )
        19           Ti1 tau(  19) = (   3.3160089   3.0194793  15.6930983  )
        20           Ti1 tau(  20) = (   0.0166562   1.5958061  16.1043543  )
        21           O1  tau(  21) = (   3.2904802   0.0005063   4.7018136  )
        22           O1  tau(  22) = (   0.0292894   0.0555714  17.2141426  )
        23           O1  tau(  23) = (   1.3043587   1.4918075   6.0039043  )
        24           O1  tau(  24) = (   5.2767064   1.4903225   6.0039473  )
        25           Ti1 tau(  25) = (   0.0000382   5.9609847   6.0000000  )
        26           Ti1 tau(  26) = (   3.2902200   4.4714249   6.0002472  )
        27           O1  tau(  27) = (   0.0002396   2.9813036   7.9858123  )
        28           O1  tau(  28) = (   3.2902150   2.9813002   7.3038282  )
        29           O1  tau(  29) = (   4.5938453   4.4726049   9.2879030  )
        30           O1  tau(  30) = (   1.9864658   4.4711199   9.2879459  )
        31           Ti1 tau(  31) = (   3.2891106   5.8743827   9.1763621  )
        32           Ti1 tau(  32) = (   0.0006254   4.4649316   9.2693709  )
        33           O1  tau(  33) = (   3.2938734   2.9940915  11.3014364  )
        34           O1  tau(  34) = (   0.0092240   2.9805883  10.6323155  )
        35           O1  tau(  35) = (   1.3265148   4.4779228  12.6213786  )
        36           O1  tau(  36) = (   5.3043665   4.4729268  12.6387898  )
        37           Ti1 tau(  37) = (   6.5102921   0.0103953  12.7821347  )
        38           Ti1 tau(  38) = (   3.1702703   4.4844908  12.4724723  )
        39           O1  tau(  39) = (   0.0044238   2.9856840  14.6711682  )
        40           O1  tau(  40) = (   3.3052367   3.0047533  13.8869641  )
        41           O1  tau(  41) = (   4.5463945   4.5179403  16.0573015  )
        42           O1  tau(  42) = (   2.0913021   4.5186677  16.0620504  )
        43           Ti1 tau(  43) = (   3.3128124   0.0388915  15.6953448  )
        44           Ti1 tau(  44) = (   0.0191476   4.5695365  16.1495174  )
        45           O1  tau(  45) = (   3.2900926   2.9813045   4.7018136  )
        46           O1  tau(  46) = (   1.3039711   4.4726057   6.0039043  )
        47           O1  tau(  47) = (   5.2763189   4.4711207   6.0039473  )
        48           N1  tau(  48) = (   0.0657769   3.0188755  17.3428317  )
        49           N1  tau(  49) = (   6.3710133   2.5762042  22.6422586  )
        50           C1  tau(  50) = (   0.3130180   3.0007025  18.7658599  )
        51           H1  tau(  51) = (   0.2928038   4.0066326  19.1970245  )
        52           H1  tau(  52) = (   6.1505335   2.3845869  19.2855718  )
        53           H1  tau(  53) = (   1.2957935   2.5555442  18.9776258  )
        54           H1  tau(  54) = (   5.9555952   3.1843721  23.3306195  )
        55           H1  tau(  55) = (   0.0098814   1.7053999  23.1148127  )
        56           H1  tau(  56) = (   0.6724875   2.9916800  22.3598805  )

     number of k points=    10  Fermi-Dirac smearing, width (Ry)=  0.0073
                       cart. coord. in units 2pi/alat
        k(    1) = (   0.0000000   0.0000000   0.0000000), wk =   0.1250000
        k(    2) = (   0.0000000   0.0419351   0.0000000), wk =   0.2500000
        k(    3) = (   0.0000000  -0.0838702   0.0000000), wk =   0.1250000
        k(    4) = (   0.0379955   0.0000049   0.0000000), wk =   0.2500000
        k(    5) = (   0.0379955   0.0419400   0.0000000), wk =   0.2500000
        k(    6) = (   0.0379955  -0.0838652   0.0000000), wk =   0.2500000
        k(    7) = (   0.0379955  -0.0419301   0.0000000), wk =   0.2500000
        k(    8) = (  -0.0759910  -0.0000099   0.0000000), wk =   0.1250000
        k(    9) = (  -0.0759910   0.0419252   0.0000000), wk =   0.2500000
        k(   10) = (  -0.0759910  -0.0838800   0.0000000), wk =   0.1250000

     Initial potential from superposition of free atoms

     starting charge  381.99914, renormalised to  398.00000

     negative rho (up, down):  7.230E-03 0.000E+00

     %%%%%%%%%%%%%%%%%%%%%%%%%%%%%%%%%%%%%%%%%%%%%%%%%%%%%%%%%%%%%%%%%%%%%%%%
     %                                                                      %
     % You are using vdW-DF, which was implemented by the Thonhauser group. %
     % Please cite the following two papers that made this development      %
     % possible and the two reviews that describe the various versions:     %
     %                                                                      %
     %   T. Thonhauser et al., PRL 115, 136402 (2015).                      %
     %   T. Thonhauser et al., PRB 76, 125112 (2007).                       %
     %   K. Berland et al., Rep. Prog. Phys. 78, 066501 (2015).             %
     %   D.C. Langreth et al., J. Phys.: Condens. Matter 21, 084203 (2009). %
     %                                                                      %
     %                                                                      %
     % If you are calculating the stress with vdW-DF, please also cite:     %
     %                                                                      %
     %   R. Sabatini et al., J. Phys.: Condens. Matter 24, 424209 (2012).   %
     %                                                                      %
     %%%%%%%%%%%%%%%%%%%%%%%%%%%%%%%%%%%%%%%%%%%%%%%%%%%%%%%%%%%%%%%%%%%%%%%%

     Adding external electric field

     Computed dipole along edir(3) :
        Dipole              -12.0378 Ry au,        -30.5970 Debye
        Dipole field         -0.0227 Ry au,

        Potential amp.        2.1058 Ry
        Total length         46.3494 bohr

     Starting wfcs are  302 atomic wfcs
  @ DRIVER MODE: Message from server: STATUS
  @ DRIVER MODE: Message from server: POSDATA
  @ DRIVER MODE: Reading and sharing cell
  @ DRIVER MODE: Reading and sharing positions
  @ DRIVER MODE: Received positions

     Self-consistent Calculation

     iteration #  1     ecut=    29.40 Ry     beta= 0.05
     Davidson diagonalization with overlap
     c_bands:  1 eigenvalues not converged
     c_bands:  1 eigenvalues not converged
     c_bands:  1 eigenvalues not converged
     c_bands:  1 eigenvalues not converged
     c_bands:  1 eigenvalues not converged
     c_bands:  1 eigenvalues not converged
     c_bands:  1 eigenvalues not converged
     c_bands:  2 eigenvalues not converged
     c_bands:  1 eigenvalues not converged
     ethr =  1.00E-05,  avg # of iterations = 19.6

[...]

     total energy              =   -2520.01990247 Ry
     estimated scf accuracy    <    4725.48512563 Ry

     iteration #  2     ecut=    29.40 Ry     beta= 0.05
     Davidson diagonalization with overlap
     ethr =  1.00E-02,  avg # of iterations = 21.9

[...]

     iteration # 46     ecut=    29.40 Ry     beta= 0.05
     Davidson diagonalization with overlap
     c_bands:  1 eigenvalues not converged
     ethr =  4.33E-07,  avg # of iterations =  8.3

[...]

     total energy              =   -2942.90431001 Ry
     estimated scf accuracy    <       0.00000009 Ry

     iteration # 70     ecut=    29.40 Ry     beta= 0.05
     Davidson diagonalization with overlap
     ethr =  2.28E-11,  avg # of iterations =  5.8

     negative rho (up, down):  9.757E-03 0.000E+00

     Adding external electric field

     Computed dipole along edir(3) :
        Dipole                0.6816 Ry au,          1.7325 Debye
        Dipole field          0.0013 Ry au,

        Potential amp.       -0.1192 Ry
        Total length         46.3494 bohr

     End of self-consistent calculation

          k = 0.0000 0.0000 0.0000 ( 18029 PWs)   bands (ev):

   -56.5052 -56.4715 -55.6133 -55.6044 -55.5780 -55.5719 -55.4753 -55.4398
   -55.2603 -55.2252 -55.1686 -55.1623 -55.1347 -55.0495 -54.6097 -54.5663
   -32.9326 -32.7790 -32.7508 -32.6819 -32.5909 -32.5587 -32.0925 -32.0709
   -32.0167 -31.9011 -31.8600 -31.8207 -31.8183 -31.7849 -31.7560 -31.7551
   -31.7535 -31.7358 -31.7249 -31.7209 -31.6999 -31.6838 -31.6577 -31.6438
   -31.6309 -31.6107 -31.6040 -31.5801 -31.5608 -31.5070 -31.4919 -31.4829
   -31.4041 -31.3992 -31.3794 -31.3356 -31.3275 -31.2960 -31.2794 -31.2556
   -31.2364 -31.1852 -31.1369 -30.8541 -30.8304 -30.8131 -30.7879 -30.6679
   -16.6665 -16.2247 -15.9966 -15.8664 -15.7931 -15.7445 -15.6917 -15.5754
   -15.4981 -15.4955 -15.4583 -15.4219 -15.3526 -15.2097 -15.1119 -15.0554
   -15.0133 -14.8985 -14.8324 -14.8058 -14.7958 -14.7645 -14.7469 -14.5483
   -14.5045 -14.4141 -14.4047 -14.2680 -14.0658 -14.0177 -13.6672 -13.5572
   -12.6982  -7.4295  -4.2335  -4.1221  -4.0667  -3.7207  -3.4789  -3.3926
    -3.2896  -3.2773  -3.2038  -3.0842  -3.0312  -2.9853  -2.8706  -2.8681
    -2.7252  -2.7064  -2.6800  -2.6694  -2.6326  -2.5857  -2.5558  -2.5084
    -2.5031  -2.4941  -2.3404  -2.2430  -2.1765  -2.1481  -2.1331  -2.1036
    -2.0281  -2.0033  -1.9922  -1.9841  -1.8957  -1.7465  -1.7407  -1.7126
    -1.6676  -1.6674  -1.6237  -1.6123  -1.4710  -1.3960  -1.2859  -1.2804
    -1.2439  -1.1769  -1.1749  -1.0721  -1.0023  -0.9502  -0.9114  -0.8055
    -0.7617  -0.7355  -0.6501  -0.5793  -0.5456  -0.5295  -0.5063  -0.4089
    -0.3917  -0.3690  -0.2859  -0.2764  -0.2281  -0.1404  -0.1197  -0.1160
    -0.0280  -0.0199   0.0820   0.1187   0.1607   0.1887   0.2786   0.3074
     0.4085   0.4521   0.4679   0.5900   0.6073   0.6668   0.7420   0.8039
     0.8242   0.8528   0.8852   0.8958   0.9778   1.0976   1.1027   1.1365
     1.2052   1.2518   1.4068   1.4457   1.7303   1.7419   2.4148   2.7703
     2.9318   3.2304   3.4313   3.5380   3.7473   3.7609   3.7668   3.9427
     3.9939

[...]

          k = 0.0380-0.0419 0.0000 ( 17876 PWs)   bands (ev):

[...]

          k =-0.0760-0.0000 0.0000 ( 17886 PWs)   bands (ev):

[...]

          k =-0.0760-0.0839 0.0000 ( 17948 PWs)   bands (ev):

   -56.4884 -56.4881 -55.5952 -55.5944 -55.5916 -55.5861 -55.4595 -55.4554
   -55.2452 -55.2401 -55.1596 -55.1516 -55.1515 -55.0522 -54.6006 -54.5753
   -32.7648 -32.7646 -32.7495 -32.7494 -32.6350 -32.6347 -31.9212 -31.9189
   -31.8955 -31.8892 -31.8507 -31.8498 -31.8078 -31.8053 -31.8049 -31.8041
   -31.7819 -31.7800 -31.7785 -31.7749 -31.7107 -31.7072 -31.6619 -31.6562
   -31.5958 -31.5874 -31.5276 -31.5229 -31.4959 -31.4958 -31.4886 -31.4439
   -31.4430 -31.4117 -31.3772 -31.3771 -31.3730 -31.3379 -31.3379 -31.3311
   -31.2952 -31.2572 -30.9991 -30.9264 -30.8266 -30.7993 -30.7953 -30.7533
   -16.0133 -16.0114 -15.9816 -15.9813 -15.7070 -15.7035 -15.6561 -15.6541
   -15.4848 -15.4785 -15.2685 -15.2601 -15.2560 -15.2519 -15.1237 -15.1172
   -15.0589 -15.0414 -14.9581 -14.9540 -14.8922 -14.8820 -14.8463 -14.8278
   -14.5066 -14.4855 -14.3671 -14.3488 -14.2138 -14.0170 -13.6607 -13.6607
   -12.7146  -7.4201  -4.1248  -4.0786  -3.1136  -3.1130  -3.0421  -3.0412
    -2.9189  -2.9138  -2.8455  -2.8447  -2.7343  -2.7319  -2.6789  -2.5996
    -2.5980  -2.5956  -2.5762  -2.5563  -2.4446  -2.4370  -2.4245  -2.4059
    -2.3606  -2.3575  -2.3478  -2.2673  -2.2533  -2.2172  -2.1773  -2.0712
    -2.0591  -2.0442  -2.0145  -1.9536  -1.9432  -1.9281  -1.8789  -1.8619
    -1.7785  -1.7229  -1.6602  -1.5530  -1.5487  -1.5394  -1.5271  -1.3721
    -1.3327  -1.3045  -1.2983  -1.2895  -1.2452  -1.1466  -1.1391  -0.9970
    -0.9966  -0.9245  -0.8442  -0.8285  -0.7983  -0.6678  -0.6249  -0.5844
    -0.5778  -0.5558  -0.5316  -0.5116  -0.4789  -0.3330  -0.3207  -0.2900
    -0.2495  -0.2418  -0.1952  -0.1278  -0.0400   0.0232   0.0248   0.0888
     0.1518   0.2116   0.2922   0.3078   0.3128   0.5939   0.6770   0.7648
     0.8411   0.9087   0.9732   0.9951   1.0640   1.0959   1.1356   1.2330
     1.2370   1.2542   1.2545   1.3257   1.3276   1.7073   2.3068   3.3442
     3.3446   3.4126   3.4131   3.7369   3.7424   3.8528   3.8630   3.9729
     3.9769

     the Fermi energy is     2.6029 ev

!    total energy              =   -2942.90433033 Ry
     estimated scf accuracy    <       0.00000005 Ry
     smearing contrib. (-TS)   =      -0.00455247 Ry
     internal energy E=F+TS    =   -2942.89977785 Ry

     The total energy is F=E-TS. E is the sum of the following terms:
     one-electron contribution =  -23043.04555398 Ry
     hartree contribution      =   11612.14488685 Ry
     xc contribution           =    -487.44743278 Ry
     ewald contribution        =    8975.44744531 Ry
     electric field correction =       0.00087674 Ry

     convergence has been achieved in  70 iterations

     Forces acting on atoms (cartesian axes, Ry/au):

     atom    1 type  1   force =     0.00001053   -0.00050156    0.12497771
     atom    2 type  1   force =    -0.00013656   -0.00062660   -0.16060823
     atom    3 type  2   force =     0.00017193   -0.00022290   -0.06934399
     atom    4 type  2   force =    -0.00004242   -0.00027938    0.02764442
     atom    5 type  2   force =    -0.01718876    0.00222370   -0.00888940
     atom    6 type  2   force =     0.01886993    0.00287407   -0.00921067
     atom    7 type  1   force =     0.00088125   -0.00375642    0.02231224
     atom    8 type  1   force =    -0.00036283   -0.00328377    0.11351547
     atom    9 type  2   force =     0.00050228   -0.00039817    0.00003407
     atom   10 type  2   force =    -0.00234323    0.00260098   -0.07319070
     atom   11 type  2   force =     0.00013379   -0.00095570   -0.00010602
     atom   12 type  2   force =    -0.00000345   -0.00058556   -0.00003011
     atom   13 type  1   force =     0.00020890   -0.00019222   -0.00029465
     atom   14 type  1   force =    -0.00008719   -0.00053870   -0.00005301
     atom   15 type  2   force =    -0.00035315   -0.00099012    0.00085157
     atom   16 type  2   force =    -0.00013425   -0.00017061    0.00046779
     atom   17 type  2   force =     0.00089203   -0.00042581   -0.00033195
     atom   18 type  2   force =    -0.00058670   -0.00046281   -0.00030060
     atom   19 type  1   force =    -0.00025629    0.00006662   -0.00051410
     atom   20 type  1   force =     0.00054903   -0.00088512   -0.00096526
     atom   21 type  2   force =     0.00005235   -0.00006401    0.09968065
     atom   22 type  2   force =     0.00015230   -0.00037985   -0.00093251
     atom   23 type  2   force =    -0.07921863   -0.00005834   -0.03251851
     atom   24 type  2   force =     0.07907384    0.00037269   -0.03254601
     atom   25 type  1   force =     0.00002886   -0.00050168    0.12431658
     atom   26 type  1   force =    -0.00012712   -0.00048825   -0.16062339
     atom   27 type  2   force =     0.00028231   -0.00044608   -0.06835074
     atom   28 type  2   force =     0.00000375   -0.00013628    0.02749887
     atom   29 type  2   force =    -0.01764855    0.00173368   -0.00896216
     atom   30 type  2   force =     0.01922147    0.00199661   -0.00929976
     atom   31 type  1   force =     0.00080374   -0.00116523    0.02193253
     atom   32 type  1   force =    -0.00029133    0.00070837    0.11415646
     atom   33 type  2   force =    -0.00007882    0.00003984   -0.00058886
     atom   34 type  2   force =    -0.00201380    0.00206130   -0.07185315
     atom   35 type  2   force =     0.00002368   -0.00020926    0.00012713
     atom   36 type  2   force =    -0.00052472    0.00020667    0.00021553
     atom   37 type  1   force =     0.00087291    0.00095434   -0.00022189
     atom   38 type  1   force =    -0.00021631    0.00026764   -0.00018927
     atom   39 type  2   force =    -0.00001902   -0.00029855    0.00000474
     atom   40 type  2   force =    -0.00001369   -0.00019612   -0.00023933
     atom   41 type  2   force =     0.00022869   -0.00042889   -0.00031336
     atom   42 type  2   force =    -0.00000189   -0.00038976   -0.00036351
     atom   43 type  1   force =    -0.00037129    0.00007882   -0.00041257
     atom   44 type  1   force =     0.00006434    0.00092715    0.00031989
     atom   45 type  2   force =     0.00003982   -0.00007296    0.09970441
     atom   46 type  2   force =    -0.07922071   -0.00003005   -0.03252438
     atom   47 type  2   force =     0.07907655    0.00041389   -0.03252567
     atom   48 type  3   force =    -0.00033296    0.00102745   -0.00095709
     atom   49 type  3   force =     0.00307754   -0.00810463   -0.00521105
     atom   50 type  4   force =    -0.00009086    0.00056129    0.00143613
     atom   51 type  5   force =    -0.00051119   -0.00047695   -0.00046712
     atom   52 type  5   force =     0.00000276    0.00020554   -0.00016692
     atom   53 type  5   force =    -0.00013651    0.00042948   -0.00012911
     atom   54 type  5   force =    -0.00341100    0.00758225    0.00590878
     atom   55 type  5   force =     0.00083343    0.00017094   -0.00162316
     atom   56 type  5   force =    -0.00033479    0.00021905   -0.00024677

     Total force =     0.426868     Total SCF correction =     0.000662
  @ DRIVER MODE: Message from server: STATUS
  @ DRIVER MODE: Message from server: GETFORCE
  @ DRIVER MODE: Returning v,forces,stress,ensemble

     Writing output data file ./calc.save/
  @ DRIVER MODE: Message from server: EXIT
  @ DRIVE MODE: Exiting

     General routines

     Parallel routines

   This run was terminated on:  10:58: 7   9Sep2021

   JOB DONE.