     Program PWSCF v.6.7GPU starts on 24Aug2021 at 11:55: 6

     R & G space division:  proc/nbgrp/npool/nimage =      72
     Reading input from /storage/home/hcoda1/3/ntian30/research/carbon/CH2_vib/ads_slab/CH2_a/out_0007/pw.inp
Warning: card &CELL ignored
Warning: card   CELL_DYNAMICS='IPI', ignored
Warning: card / ignored

     Current dimensions of program PWSCF are:
     Max number of different atomic species (ntypx) = 10
     Max number of k-points (npk) =  40000
     Max angular momentum in pseudopotentials (lmaxx) =  3
     Presently no symmetry can be used with electric field

     Message from routine cell_base_init:
     DEPRECATED: use true lattice parameter, not A to a.u. conversion factor

     IMPORTANT: XC functional enforced from input :
     Exchange-correlation= BEEF-VDW
                           (   1   4  43  14   2   0   0)
     Any further DFT definition will be discarded
     Please, verify this is what you really want

  @ DRIVER MODE: Connecting to
 qe_1139763_2641437.sched-torque.pace.gatech.edua2aoo69s_scratch
  using UNIX socket
  @ DRIVER MODE: Message from server: STATUS
  @ DRIVER MODE: Message from server: INIT
  @ DRIVER MODE: Receiving replica           0          -1
  @ DRIVER MODE: Receiving encoded integer          25
  @ DRIVER MODE:  SCF:  T  FORCE:  T  STRESS:  F  VC:  F  ENSEMBLE:  F
  @ DRIVER MODE:  SCF:  T  FORCE:  T  STRESS:  F  VC:  F  ENSEMBLE:  F

     Using Slab Decomposition

     bravais-lattice index     =            0
     lattice parameter (alat)  =       1.8897  a.u.
     unit-cell volume          =    6658.9804 (a.u.)^3
     number of atoms/cell      =           50
     number of atomic types    =            4
     number of electrons       =       384.00
     number of Kohn-Sham states=          202
     kinetic-energy cutoff     =      29.3995  Ry
     charge density cutoff     =     293.9946  Ry
     scf convergence threshold =      7.3E-08
     mixing beta               =       0.0500
     number of iterations used =            8  plain     mixing
     Exchange-correlation= BEEF-VDW
                           (   1   4  43  14   2   0   0)

     celldm(1)=   1.889726  celldm(2)=   0.000000  celldm(3)=   0.000000
     celldm(4)=   0.000000  celldm(5)=   0.000000  celldm(6)=   0.000000

     crystal axes: (cart. coord. in units of alat)
               a(1) = (   6.579727   0.000000   0.000000 )
               a(2) = (  -0.000775   5.961596   0.000000 )
               a(3) = (   0.000000   0.000000  25.155947 )

     reciprocal axes: (cart. coord. in units 2 pi/alat)
               b(1) = (  0.151982  0.000020  0.000000 )
               b(2) = (  0.000000  0.167740  0.000000 )
               b(3) = (  0.000000  0.000000  0.039752 )

     PseudoPot. # 1 for Ti read from file:
     /storage/coda1/p-amedford6/0/shared/rich_project_chbe-medford/medford-share/data/pseudos_module/espresso/nninc/pbe/van/Ti.UPF
     MD5 check sum: 8e4df49b7f0d34bbd5052bf3f5ea0213
     Pseudo is Ultrasoft, Zval = 12.0
     Generated by new atomic code, or converted to UPF format
     Using radial grid of  851 points,  6 beta functions with:
                l(1) =   0
                l(2) =   0
                l(3) =   1
                l(4) =   1
                l(5) =   2
                l(6) =   2
     Q(r) pseudized with  8 coefficients,  rinner =    1.000   1.000   1.000
                                                       1.000   1.000

     PseudoPot. # 2 for O  read from file:
     /storage/coda1/p-amedford6/0/shared/rich_project_chbe-medford/medford-share/data/pseudos_module/espresso/nninc/pbe/van/O.UPF
     MD5 check sum: 78c19812648e8988a0fe644b0f25305e
     Pseudo is Ultrasoft, Zval =  6.0
     Generated by new atomic code, or converted to UPF format
     Using radial grid of  737 points,  4 beta functions with:
                l(1) =   0
                l(2) =   0
                l(3) =   1
                l(4) =   1
     Q(r) pseudized with  8 coefficients,  rinner =    0.800   0.800   0.800

     PseudoPot. # 3 for C  read from file:
     /storage/coda1/p-amedford6/0/shared/rich_project_chbe-medford/medford-share/data/pseudos_module/espresso/nninc/pbe/van/C.UPF
     MD5 check sum: 1a69bf6b8db32088f5b2163dbdb77a27
     Pseudo is Ultrasoft, Zval =  4.0
     Generated by new atomic code, or converted to UPF format
     Using radial grid of  721 points,  4 beta functions with:
                l(1) =   0
                l(2) =   0
                l(3) =   1
                l(4) =   1
     Q(r) pseudized with  8 coefficients,  rinner =    0.800   0.800   0.800

     PseudoPot. # 4 for H  read from file:
     /storage/coda1/p-amedford6/0/shared/rich_project_chbe-medford/medford-share/data/pseudos_module/espresso/nninc/pbe/van/H.UPF
     MD5 check sum: b5ee9d7bfd3a09ee7748110bda690ff7
     Pseudo is Ultrasoft, Zval =  1.0
     Generated by new atomic code, or converted to UPF format
     Using radial grid of  615 points,  1 beta functions with:
                l(1) =   0
     Q(r) pseudized with  8 coefficients,  rinner =    0.800

     atomic species   valence    mass     pseudopotential
        Ti1           12.00    47.86700     Ti( 1.00)
        O1             6.00    15.99900     O ( 1.00)
        C1             4.00    12.01100     C ( 1.00)
        H1             1.00     1.00800     H ( 1.00)

     No symmetry found

   Cartesian axes

     site n.     atom                  positions (alat units)
         1           Ti1 tau(   1) = (   0.0004258   2.9801865   6.0000000  )
         2           Ti1 tau(   2) = (   3.2906075   1.4906267   6.0002472  )
         3           O1  tau(   3) = (   0.0006271   0.0005054   7.9858123  )
         4           O1  tau(   4) = (   3.2906025   0.0005020   7.3038282  )
         5           O1  tau(   5) = (   4.5942328   1.4918067   9.2879030  )
         6           O1  tau(   6) = (   1.9868534   1.4903216   9.2879459  )
         7           Ti1 tau(   7) = (   3.2756478   2.8760420   9.1630771  )
         8           Ti1 tau(   8) = (   6.5651030   1.4385007   9.3790407  )
         9           O1  tau(   9) = (   3.2651923   0.0045787  11.3553482  )
        10           O1  tau(  10) = (   6.5766178   5.9492394  10.5646413  )
        11           O1  tau(  11) = (   1.2591847   1.4977620  12.6679731  )
        12           O1  tau(  12) = (   5.2482661   1.4982983  12.6347741  )
        13           Ti1 tau(  13) = (   0.0651775   2.9654633  12.8696618  )
        14           Ti1 tau(  14) = (   3.3800656   1.4924449  12.4946823  )
        15           O1  tau(  15) = (   6.5296085   5.9207011  14.6097682  )
        16           O1  tau(  16) = (   3.2682314   0.0147111  13.9481481  )
        17           O1  tau(  17) = (   4.4912147   1.5408453  16.1034427  )
        18           O1  tau(  18) = (   2.0062121   1.5430191  16.1010343  )
        19           Ti1 tau(  19) = (   3.2584153   3.0188911  15.7272741  )
        20           Ti1 tau(  20) = (   6.5595668   1.6180917  16.2090303  )
        21           O1  tau(  21) = (   3.2904802   0.0005063   4.7018136  )
        22           O1  tau(  22) = (   6.5447935   0.0528136  17.2578995  )
        23           O1  tau(  23) = (   1.3043587   1.4918075   6.0039043  )
        24           O1  tau(  24) = (   5.2767064   1.4903225   6.0039473  )
        25           Ti1 tau(  25) = (   0.0000382   5.9609847   6.0000000  )
        26           Ti1 tau(  26) = (   3.2902200   4.4714249   6.0002472  )
        27           O1  tau(  27) = (   0.0002396   2.9813036   7.9858123  )
        28           O1  tau(  28) = (   3.2902150   2.9813002   7.3038282  )
        29           O1  tau(  29) = (   4.5938453   4.4726049   9.2879030  )
        30           O1  tau(  30) = (   1.9864658   4.4711199   9.2879459  )
        31           Ti1 tau(  31) = (   3.2806623   5.8565216   9.1617982  )
        32           Ti1 tau(  32) = (   6.5670484   4.4138833   9.3856844  )
        33           O1  tau(  33) = (   3.2704644   2.9808095  11.3502114  )
        34           O1  tau(  34) = (   6.5770050   2.9672111  10.5601139  )
        35           O1  tau(  35) = (   1.2614422   4.4490125  12.6594447  )
        36           O1  tau(  36) = (   5.2451530   4.4578719  12.6250501  )
        37           Ti1 tau(  37) = (   0.0436288   5.9429386  12.8080954  )
        38           Ti1 tau(  38) = (   3.3780510   4.4695497  12.4860242  )
        39           O1  tau(  39) = (   6.5513063   2.9765972  14.7162787  )
        40           O1  tau(  40) = (   3.2682626   2.9952000  13.9367060  )
        41           O1  tau(  41) = (   4.4851171   4.5114873  16.1027694  )
        42           O1  tau(  42) = (   2.0082088   4.5103763  16.0975713  )
        43           Ti1 tau(  43) = (   3.2690221   0.0357551  15.7449602  )
        44           Ti1 tau(  44) = (   6.5655258   4.6249605  16.1704562  )
        45           O1  tau(  45) = (   3.2900926   2.9813045   4.7018136  )
        46           O1  tau(  46) = (   1.3039711   4.4726057   6.0039043  )
        47           O1  tau(  47) = (   5.2763189   4.4711207   6.0039473  )
        48           C1  tau(  48) = (   6.5259393   3.0234738  17.6125649  )
        49           H1  tau(  49) = (   0.8372112   3.1395175  18.2203151  )
        50           H1  tau(  50) = (   5.6209537   3.1160310  18.2142257  )

     number of k points=    10  Fermi-Dirac smearing, width (Ry)=  0.0073
                       cart. coord. in units 2pi/alat
        k(    1) = (   0.0000000   0.0000000   0.0000000), wk =   0.1250000
        k(    2) = (   0.0000000   0.0419351   0.0000000), wk =   0.2500000
        k(    3) = (   0.0000000  -0.0838702   0.0000000), wk =   0.1250000
        k(    4) = (   0.0379955   0.0000049   0.0000000), wk =   0.2500000
        k(    5) = (   0.0379955   0.0419400   0.0000000), wk =   0.2500000
        k(    6) = (   0.0379955  -0.0838652   0.0000000), wk =   0.2500000
        k(    7) = (   0.0379955  -0.0419301   0.0000000), wk =   0.2500000
        k(    8) = (  -0.0759910  -0.0000099   0.0000000), wk =   0.1250000
        k(    9) = (  -0.0759910   0.0419252   0.0000000), wk =   0.2500000
        k(   10) = (  -0.0759910  -0.0838800   0.0000000), wk =   0.1250000

     Initial potential from superposition of free atoms

     starting charge  367.99919, renormalised to  384.00000

     negative rho (up, down):  2.117E-02 0.000E+00

     %%%%%%%%%%%%%%%%%%%%%%%%%%%%%%%%%%%%%%%%%%%%%%%%%%%%%%%%%%%%%%%%%%%%%%%%
     %                                                                      %
     % You are using vdW-DF, which was implemented by the Thonhauser group. %
     % Please cite the following two papers that made this development      %
     % possible and the two reviews that describe the various versions:     %
     %                                                                      %
     %   T. Thonhauser et al., PRL 115, 136402 (2015).                      %
     %   T. Thonhauser et al., PRB 76, 125112 (2007).                       %
     %   K. Berland et al., Rep. Prog. Phys. 78, 066501 (2015).             %
     %   D.C. Langreth et al., J. Phys.: Condens. Matter 21, 084203 (2009). %
     %                                                                      %
     %                                                                      %
     % If you are calculating the stress with vdW-DF, please also cite:     %
     %                                                                      %
     %   R. Sabatini et al., J. Phys.: Condens. Matter 24, 424209 (2012).   %
     %                                                                      %
     %%%%%%%%%%%%%%%%%%%%%%%%%%%%%%%%%%%%%%%%%%%%%%%%%%%%%%%%%%%%%%%%%%%%%%%%

     Adding external electric field

     Computed dipole along edir(3) :
        Dipole               -0.5194 Ry au,         -1.3201 Debye
        Dipole field         -0.0010 Ry au,

        Potential amp.        0.0909 Ry
        Total length         46.3494 bohr

     Starting wfcs are  290 atomic wfcs
  @ DRIVER MODE: Message from server: STATUS
  @ DRIVER MODE: Message from server: POSDATA
  @ DRIVER MODE: Reading and sharing cell
  @ DRIVER MODE: Reading and sharing positions
  @ DRIVER MODE: Received positions

     Self-consistent Calculation

     iteration #  1     ecut=    29.40 Ry     beta= 0.05
     Davidson diagonalization with overlap
     c_bands:  1 eigenvalues not converged
     c_bands:  2 eigenvalues not converged
     c_bands:  4 eigenvalues not converged
     c_bands:  1 eigenvalues not converged
     c_bands:  1 eigenvalues not converged
     c_bands:  2 eigenvalues not converged
     c_bands:  1 eigenvalues not converged
     c_bands:  2 eigenvalues not converged
     c_bands:  1 eigenvalues not converged
     c_bands:  2 eigenvalues not converged
     ethr =  1.00E-05,  avg # of iterations = 22.0

[...]

     total energy              =   -2899.22985568 Ry
     estimated scf accuracy    <      12.10923284 Ry

     iteration #  2     ecut=    29.40 Ry     beta= 0.05
     Davidson diagonalization with overlap
     ethr =  3.15E-03,  avg # of iterations =  1.0

[...]

     iteration # 45     ecut=    29.40 Ry     beta= 0.05
     Davidson diagonalization with overlap
     c_bands:  1 eigenvalues not converged
     ethr =  3.82E-07,  avg # of iterations = 10.6

[...]

     total energy              =   -2897.72461079 Ry
     estimated scf accuracy    <       0.00000009 Ry

     iteration # 70     ecut=    29.40 Ry     beta= 0.05
     Davidson diagonalization with overlap
     ethr =  2.32E-11,  avg # of iterations =  6.0

     negative rho (up, down):  2.039E-02 0.000E+00

     Adding external electric field

     Computed dipole along edir(3) :
        Dipole                0.2842 Ry au,          0.7224 Debye
        Dipole field          0.0005 Ry au,

        Potential amp.       -0.0497 Ry
        Total length         46.3494 bohr

     End of self-consistent calculation

          k = 0.0000 0.0000 0.0000 ( 18029 PWs)   bands (ev):

   -56.6524 -56.6184 -56.3989 -56.3622 -56.3258 -56.2732 -56.0912 -56.0854
   -56.0515 -55.9841 -55.9585 -55.9203 -55.5532 -55.4709 -55.4370 -55.4286
   -33.0819 -32.9451 -32.9013 -32.8726 -32.8428 -32.7766 -32.7513 -32.7229
   -32.7085 -32.6433 -32.6250 -32.5987 -32.5906 -32.5669 -32.5615 -32.5515
   -32.5480 -32.5302 -32.4588 -32.4540 -32.3874 -32.3487 -32.3370 -32.3257
   -32.3083 -32.3079 -32.2365 -32.2242 -32.2152 -32.1961 -32.1951 -32.1589
   -32.1499 -32.1366 -32.1125 -32.0574 -32.0206 -31.8724 -31.8613 -31.8078
   -31.7945 -31.7708 -31.7470 -31.6907 -31.6056 -31.6055 -31.4936 -31.4754
   -17.0500 -16.8380 -16.6267 -16.4777 -16.3963 -16.3440 -16.0505 -16.0331
   -16.0243 -15.9242 -15.9126 -15.8599 -15.8258 -15.8230 -15.8136 -15.8069
   -15.7724 -15.7287 -15.6967 -15.6612 -15.6282 -15.5943 -15.5041 -15.4655
   -15.4471 -15.3221 -15.2645 -15.2303 -15.0956 -13.9641 -13.8495  -8.4153
    -4.4325  -4.3834  -4.2310  -4.2226  -4.1027  -3.8884  -3.7062  -3.5186
    -3.4873  -3.4579  -3.4520  -3.3479  -3.2948  -3.1845  -3.1837  -3.1522
    -3.1383  -3.1061  -3.0845  -3.0801  -3.0394  -3.0221  -2.9570  -2.9149
    -2.9051  -2.8479  -2.7679  -2.6746  -2.6550  -2.6266  -2.5940  -2.5556
    -2.5376  -2.4395  -2.4324  -2.3671  -2.2332  -2.2092  -2.1615  -2.1333
    -2.1010  -2.0617  -1.9243  -1.7859  -1.7420  -1.7257  -1.6948  -1.6847
    -1.6547  -1.5319  -1.4901  -1.3902  -1.3590  -1.2474  -1.2347  -1.2172
    -1.2018  -1.1712  -1.1024  -1.0756  -1.0405  -0.9608  -0.8973  -0.7672
    -0.7343  -0.7153  -0.6862  -0.6789  -0.6205  -0.5788  -0.5206  -0.5105
    -0.4517  -0.4091  -0.3925  -0.3764  -0.3522  -0.2926  -0.2179  -0.1957
    -0.1319  -0.0948   0.1026   0.1401   0.1652   0.1837   0.2693   0.3020
     0.4793   0.4934   0.5578   0.7606   0.7993   1.1512   1.2305   1.7157
     2.6111   2.7911   2.9855   3.0433   3.0878   3.1676   3.2221   3.3001
     3.3329   3.4548

[...]

          k = 0.0380-0.0419 0.0000 ( 17876 PWs)   bands (ev):

[...]

          k =-0.0760-0.0000 0.0000 ( 17886 PWs)   bands (ev):

[...]

          k =-0.0760-0.0839 0.0000 ( 17948 PWs)   bands (ev):

   -56.6381 -56.6326 -56.3842 -56.3767 -56.3194 -56.2795 -56.0883 -56.0692
   -56.0675 -55.9869 -55.9470 -55.9317 -55.5508 -55.4539 -55.4539 -55.4309
   -32.9016 -32.8970 -32.8899 -32.8831 -32.7976 -32.7929 -32.7529 -32.7465
   -32.6865 -32.6734 -32.6163 -32.6096 -32.5859 -32.5782 -32.5710 -32.5633
   -32.5188 -32.4824 -32.4085 -32.3917 -32.3910 -32.3317 -32.3228 -32.3197
   -32.3078 -32.2930 -32.2877 -32.2841 -32.2619 -32.2532 -32.2339 -32.2174
   -32.1593 -32.1582 -32.1474 -32.1445 -31.9291 -31.8595 -31.8115 -31.7837
   -31.7836 -31.7317 -31.6989 -31.6865 -31.6863 -31.6483 -31.6482 -31.4950
   -16.5192 -16.4920 -16.2733 -16.2597 -16.1498 -16.1471 -16.1348 -16.1337
   -16.0455 -16.0411 -15.9950 -15.9745 -15.9169 -15.9045 -15.8632 -15.8618
   -15.8398 -15.8384 -15.7969 -15.7943 -15.6518 -15.6500 -15.5378 -15.5302
   -15.4925 -15.4508 -15.4105 -15.3981 -15.2362 -13.9517 -13.9514  -8.4173
    -3.8227  -3.7854  -3.4875  -3.4791  -3.2791  -3.2758  -3.2574  -3.2485
    -3.2285  -3.2012  -3.1982  -3.1857  -3.1477  -3.1070  -3.0840  -3.0659
    -3.0546  -3.0468  -3.0420  -3.0410  -3.0210  -3.0018  -2.9868  -2.9622
    -2.9024  -2.8914  -2.8677  -2.8585  -2.7764  -2.6315  -2.5641  -2.5582
    -2.5496  -2.5286  -2.4875  -2.3978  -2.3932  -2.3565  -2.3494  -2.3306
    -2.1380  -2.0724  -2.0691  -2.0075  -1.9786  -1.8751  -1.7281  -1.6951
    -1.6716  -1.6481  -1.5659  -1.5269  -1.5125  -1.4894  -1.4818  -1.4541
    -1.4439  -1.3589  -1.3496  -1.3168  -1.2712  -1.2095  -1.2054  -1.1838
    -1.1635  -1.0650  -0.9954  -0.9791  -0.9648  -0.9231  -0.8575  -0.8034
    -0.7632  -0.6750  -0.6592  -0.3905  -0.3886  -0.2539  -0.2429  -0.1142
    -0.1014  -0.0081   0.0233   0.0672   0.1820   0.1960   0.2009   0.2265
     0.3278   0.3290   0.3596   0.9415   0.9418   1.0071   1.0084   1.9904
     3.0337   3.0505   3.1321   3.1494   3.1540   3.1715   3.2156   3.2181
     3.5123   3.5247

     the Fermi energy is     2.3277 ev

!    total energy              =   -2897.72462479 Ry
     estimated scf accuracy    <       0.00000003 Ry
     smearing contrib. (-TS)   =      -0.00186404 Ry
     internal energy E=F+TS    =   -2897.72276075 Ry

     The total energy is F=E-TS. E is the sum of the following terms:
     one-electron contribution =  -24685.05460683 Ry
     hartree contribution      =   12420.48242208 Ry
     xc contribution           =    -473.86140601 Ry
     ewald contribution        =    9840.71067756 Ry
     electric field correction =       0.00015245 Ry

     convergence has been achieved in  70 iterations

     Forces acting on atoms (cartesian axes, Ry/au):

     atom    1 type  1   force =     0.00029779   -0.00003943    0.14818568
     atom    2 type  1   force =     0.00005677   -0.00032795   -0.17143425
     atom    3 type  2   force =    -0.00004589    0.00265459   -0.05989117
     atom    4 type  2   force =    -0.00032599   -0.00141259    0.04062197
     atom    5 type  2   force =    -0.02536871    0.00094065    0.00495355
     atom    6 type  2   force =     0.02287866    0.00011748    0.00300205
     atom    7 type  1   force =    -0.00051232   -0.00072006   -0.00013569
     atom    8 type  1   force =     0.00074396   -0.00041069    0.00040833
     atom    9 type  2   force =     0.00089739   -0.00028417    0.00034542
     atom   10 type  2   force =    -0.00010412   -0.00000614   -0.00021914
     atom   11 type  2   force =    -0.00016705    0.00003927    0.00014775
     atom   12 type  2   force =     0.00018579    0.00012276    0.00010469
     atom   13 type  1   force =     0.00003202   -0.00100566    0.00030045
     atom   14 type  1   force =    -0.00004659   -0.00114672   -0.00031678
     atom   15 type  2   force =     0.00025432   -0.00031529   -0.00046793
     atom   16 type  2   force =     0.00001353    0.00015306    0.00038037
     atom   17 type  2   force =     0.00107993    0.00005515    0.00022778
     atom   18 type  2   force =    -0.00080547   -0.00018695    0.00039742
     atom   19 type  1   force =     0.00056632   -0.00025125    0.00016268
     atom   20 type  1   force =     0.00006107   -0.00010120    0.00034635
     atom   21 type  2   force =     0.00014143   -0.00010222    0.10275612
     atom   22 type  2   force =     0.00012395   -0.00016780   -0.00024231
     atom   23 type  2   force =    -0.07353701    0.00029693   -0.03460306
     atom   24 type  2   force =     0.07358534    0.00074298   -0.03465417
     atom   25 type  1   force =     0.00007749   -0.00018299    0.14938251
     atom   26 type  1   force =     0.00000018   -0.00105195   -0.17159309
     atom   27 type  2   force =    -0.00006863    0.00191967   -0.05887937
     atom   28 type  2   force =    -0.00039688   -0.00137248    0.04059303
     atom   29 type  2   force =    -0.02528892    0.00191230    0.00524204
     atom   30 type  2   force =     0.02338007    0.00034513    0.00329000
     atom   31 type  1   force =    -0.00048262   -0.00019882   -0.00008112
     atom   32 type  1   force =     0.00062805   -0.00026965    0.00000259
     atom   33 type  2   force =     0.00005416   -0.00037773    0.00042179
     atom   34 type  2   force =     0.00007450   -0.00014729    0.00005018
     atom   35 type  2   force =    -0.00019993   -0.00036150   -0.00035806
     atom   36 type  2   force =     0.00053365   -0.00063362   -0.00014796
     atom   37 type  1   force =     0.00089261    0.00031330   -0.00006551
     atom   38 type  1   force =    -0.00034901   -0.00015576    0.00021517
     atom   39 type  2   force =     0.00004911    0.00009446   -0.00108185
     atom   40 type  2   force =    -0.00000446    0.00030156   -0.00083228
     atom   41 type  2   force =     0.00023793    0.00024815    0.00022857
     atom   42 type  2   force =     0.00019368    0.00050787    0.00040410
     atom   43 type  1   force =     0.00044038    0.00079699   -0.00078390
     atom   44 type  1   force =    -0.00054448    0.00028571   -0.00000422
     atom   45 type  2   force =     0.00013789   -0.00009451    0.10271737
     atom   46 type  2   force =    -0.07356358   -0.00012485   -0.03459336
     atom   47 type  2   force =     0.07362119    0.00033850   -0.03466867
     atom   48 type  3   force =    -0.00673987   -0.00087827   -0.00415844
     atom   49 type  4   force =     0.00795308    0.00033734    0.00496424
     atom   50 type  4   force =    -0.00064071   -0.00019635   -0.00063991

     Total force =     0.404519     Total SCF correction =     0.000374
  @ DRIVER MODE: Message from server: STATUS
  @ DRIVER MODE: Message from server: GETFORCE
  @ DRIVER MODE: Returning v,forces,stress,ensemble

     Writing output data file ./calc.save/
  @ DRIVER MODE: Message from server: EXIT
  @ DRIVE MODE: Exiting

     General routines

     Parallel routines

   This run was terminated on:  12:17: 1  24Aug2021

   JOB DONE.