     Program PWSCF v.6.7GPU starts on 28Sep2021 at  6:58:33

     R & G space division:  proc/nbgrp/npool/nimage =       8
     Reading input from /storage/home/hcoda1/3/ntian30/research/carbon/CxH_vib/H2O_calc/ads_slab/CHN2HO_c/out_0024/pw.inp
Warning: card &CELL ignored
Warning: card   CELL_DYNAMICS='IPI', ignored
Warning: card / ignored

     Current dimensions of program PWSCF are:
     Max number of different atomic species (ntypx) = 10
     Max number of k-points (npk) =  40000
     Max angular momentum in pseudopotentials (lmaxx) =  3
     Presently no symmetry can be used with electric field

     Message from routine cell_base_init:
     DEPRECATED: use true lattice parameter, not A to a.u. conversion factor

     IMPORTANT: XC functional enforced from input :
     Exchange-correlation= BEEF-VDW
                           (   1   4  43  14   2   0   0)
     Any further DFT definition will be discarded
     Please, verify this is what you really want

  @ DRIVER MODE: Connecting to
 qe_1139763_3003540.sched-torque.pace.gatech.eduj6eus1fi_scratch
  using UNIX socket
  @ DRIVER MODE: Message from server: STATUS
  @ DRIVER MODE: Message from server: INIT
  @ DRIVER MODE: Receiving replica           0          -1
  @ DRIVER MODE: Receiving encoded integer          25
  @ DRIVER MODE:  SCF:  T  FORCE:  T  STRESS:  F  VC:  F  ENSEMBLE:  F
  @ DRIVER MODE:  SCF:  T  FORCE:  T  STRESS:  F  VC:  F  ENSEMBLE:  F

     Using Slab Decomposition

     bravais-lattice index     =            0
     lattice parameter (alat)  =       1.8897  a.u.
     unit-cell volume          =    6658.9804 (a.u.)^3
     number of atoms/cell      =           53
     number of atomic types    =            5
     number of electrons       =       400.00
     number of Kohn-Sham states=          210
     kinetic-energy cutoff     =      29.3995  Ry
     charge density cutoff     =     293.9946  Ry
     scf convergence threshold =      7.3E-08
     mixing beta               =       0.0500
     number of iterations used =            8  plain     mixing
     Exchange-correlation= BEEF-VDW
                           (   1   4  43  14   2   0   0)

     celldm(1)=   1.889726  celldm(2)=   0.000000  celldm(3)=   0.000000
     celldm(4)=   0.000000  celldm(5)=   0.000000  celldm(6)=   0.000000

     crystal axes: (cart. coord. in units of alat)
               a(1) = (   6.579727   0.000000   0.000000 )
               a(2) = (  -0.000775   5.961596   0.000000 )
               a(3) = (   0.000000   0.000000  25.155947 )

     reciprocal axes: (cart. coord. in units 2 pi/alat)
               b(1) = (  0.151982  0.000020  0.000000 )
               b(2) = (  0.000000  0.167740  0.000000 )
               b(3) = (  0.000000  0.000000  0.039752 )

     PseudoPot. # 1 for Ti read from file:
     /storage/coda1/p-amedford6/0/shared/rich_project_chbe-medford/medford-share/data/pseudos_module/espresso/nninc/pbe/van/Ti.UPF
     MD5 check sum: 8e4df49b7f0d34bbd5052bf3f5ea0213
     Pseudo is Ultrasoft, Zval = 12.0
     Generated by new atomic code, or converted to UPF format
     Using radial grid of  851 points,  6 beta functions with:
                l(1) =   0
                l(2) =   0
                l(3) =   1
                l(4) =   1
                l(5) =   2
                l(6) =   2
     Q(r) pseudized with  8 coefficients,  rinner =    1.000   1.000   1.000
                                                       1.000   1.000

     PseudoPot. # 2 for O  read from file:
     /storage/coda1/p-amedford6/0/shared/rich_project_chbe-medford/medford-share/data/pseudos_module/espresso/nninc/pbe/van/O.UPF
     MD5 check sum: 78c19812648e8988a0fe644b0f25305e
     Pseudo is Ultrasoft, Zval =  6.0
     Generated by new atomic code, or converted to UPF format
     Using radial grid of  737 points,  4 beta functions with:
                l(1) =   0
                l(2) =   0
                l(3) =   1
                l(4) =   1
     Q(r) pseudized with  8 coefficients,  rinner =    0.800   0.800   0.800

     PseudoPot. # 3 for C  read from file:
     /storage/coda1/p-amedford6/0/shared/rich_project_chbe-medford/medford-share/data/pseudos_module/espresso/nninc/pbe/van/C.UPF
     MD5 check sum: 1a69bf6b8db32088f5b2163dbdb77a27
     Pseudo is Ultrasoft, Zval =  4.0
     Generated by new atomic code, or converted to UPF format
     Using radial grid of  721 points,  4 beta functions with:
                l(1) =   0
                l(2) =   0
                l(3) =   1
                l(4) =   1
     Q(r) pseudized with  8 coefficients,  rinner =    0.800   0.800   0.800

     PseudoPot. # 4 for H  read from file:
     /storage/coda1/p-amedford6/0/shared/rich_project_chbe-medford/medford-share/data/pseudos_module/espresso/nninc/pbe/van/H.UPF
     MD5 check sum: b5ee9d7bfd3a09ee7748110bda690ff7
     Pseudo is Ultrasoft, Zval =  1.0
     Generated by new atomic code, or converted to UPF format
     Using radial grid of  615 points,  1 beta functions with:
                l(1) =   0
     Q(r) pseudized with  8 coefficients,  rinner =    0.800

     PseudoPot. # 5 for N  read from file:
     /storage/coda1/p-amedford6/0/shared/rich_project_chbe-medford/medford-share/data/pseudos_module/espresso/nninc/pbe/van/N.UPF
     MD5 check sum: 90d10febe142ad51ac9d5be1deb811c4
     Pseudo is Ultrasoft, Zval =  5.0
     Generated by new atomic code, or converted to UPF format
     Using radial grid of  729 points,  4 beta functions with:
                l(1) =   0
                l(2) =   0
                l(3) =   1
                l(4) =   1
     Q(r) pseudized with  8 coefficients,  rinner =    0.800   0.800   0.800

     atomic species   valence    mass     pseudopotential
        Ti1           12.00    47.86700     Ti( 1.00)
        O1             6.00    15.99900     O ( 1.00)
        C1             4.00    12.01100     C ( 1.00)
        H1             1.00     1.00800     H ( 1.00)
        N1             5.00    14.00700     N ( 1.00)

     No symmetry found

   Cartesian axes

     site n.     atom                  positions (alat units)
         1           Ti1 tau(   1) = (   0.0004258   2.9801865   6.0000000  )
         2           Ti1 tau(   2) = (   3.2906075   1.4906267   6.0002472  )
         3           O1  tau(   3) = (   0.0006271   0.0005054   7.9858123  )
         4           O1  tau(   4) = (   3.2906025   0.0005020   7.3038282  )
         5           O1  tau(   5) = (   4.5942328   1.4918067   9.2879030  )
         6           O1  tau(   6) = (   1.9868534   1.4903216   9.2879459  )
         7           Ti1 tau(   7) = (   3.2907910   2.8959150   9.1758416  )
         8           Ti1 tau(   8) = (   0.0015273   1.4827037   9.2680791  )
         9           O1  tau(   9) = (   3.2766663   5.9464886  11.2681881  )
        10           O1  tau(  10) = (   0.0116148   5.9584955  10.6183126  )
        11           O1  tau(  11) = (   1.2752176   1.4923442  12.6271229  )
        12           O1  tau(  12) = (   5.2852060   1.4859299  12.6156521  )
        13           Ti1 tau(  13) = (   6.5717068   2.8472942  12.7124165  )
        14           Ti1 tau(  14) = (   3.2754330   1.3122793  12.6492615  )
        15           O1  tau(  15) = (   6.5604847   5.9612185  14.6398873  )
        16           O1  tau(  16) = (   3.2770837   0.0341078  13.8632434  )
        17           O1  tau(  17) = (   4.5026011   1.5263741  16.0779633  )
        18           O1  tau(  18) = (   1.9856211   1.5373541  16.0544900  )
        19           Ti1 tau(  19) = (   3.2645371   3.0024783  15.6402076  )
        20           Ti1 tau(  20) = (   0.0306923   1.4636683  15.8866077  )
        21           O1  tau(  21) = (   3.2904802   0.0005063   4.7018136  )
        22           O1  tau(  22) = (   6.5250562   0.0096470  17.1651689  )
        23           O1  tau(  23) = (   1.3043587   1.4918075   6.0039043  )
        24           O1  tau(  24) = (   5.2767064   1.4903225   6.0039473  )
        25           Ti1 tau(  25) = (   0.0000382   5.9609847   6.0000000  )
        26           Ti1 tau(  26) = (   3.2902200   4.4714249   6.0002472  )
        27           O1  tau(  27) = (   0.0002396   2.9813036   7.9858123  )
        28           O1  tau(  28) = (   3.2902150   2.9813002   7.3038282  )
        29           O1  tau(  29) = (   4.5938453   4.4726049   9.2879030  )
        30           O1  tau(  30) = (   1.9864658   4.4711199   9.2879459  )
        31           Ti1 tau(  31) = (   3.2891106   5.8743827   9.1763621  )
        32           Ti1 tau(  32) = (   0.0006254   4.4649316   9.2693709  )
        33           O1  tau(  33) = (   3.2790072   3.0290766  11.2406627  )
        34           O1  tau(  34) = (   0.0092240   2.9805883  10.6323155  )
        35           O1  tau(  35) = (   1.2722205   4.4691906  12.6310473  )
        36           O1  tau(  36) = (   5.2766839   4.4717175  12.6187613  )
        37           Ti1 tau(  37) = (   6.5522158   5.8291752  12.6058762  )
        38           Ti1 tau(  38) = (   3.2615408   4.4097241  12.4102932  )
        39           O1  tau(  39) = (   6.5509886   2.9451087  14.6802276  )
        40           O1  tau(  40) = (   3.2772003   2.9821494  13.8576607  )
        41           O1  tau(  41) = (   4.5331312   4.4179464  16.0511208  )
        42           O1  tau(  42) = (   2.0062445   4.4387243  16.0647957  )
        43           Ti1 tau(  43) = (   3.2965114   0.0079596  16.3395523  )
        44           Ti1 tau(  44) = (   6.5556523   4.6042306  16.0453395  )
        45           O1  tau(  45) = (   3.2900926   2.9813045   4.7018136  )
        46           O1  tau(  46) = (   1.3039711   4.4726057   6.0039043  )
        47           O1  tau(  47) = (   5.2763189   4.4711207   6.0039473  )
        48           C1  tau(  48) = (   0.0539703   2.9674629  17.6512085  )
        49           H1  tau(  49) = (   1.0088706   2.9548903  18.1741722  )
        50           N1  tau(  50) = (   5.6350074   2.8816608  18.4775489  )
        51           N1  tau(  51) = (   4.6939826   2.7887373  19.1266784  )
        52           O1  tau(  52) = (   3.2898008   5.9156070  18.1392511  )
        53           H1  tau(  53) = (   3.8410492   0.4763436  18.7420070  )

     number of k points=    10  Fermi-Dirac smearing, width (Ry)=  0.0073
                       cart. coord. in units 2pi/alat
        k(    1) = (   0.0000000   0.0000000   0.0000000), wk =   0.1250000
        k(    2) = (   0.0000000   0.0419351   0.0000000), wk =   0.2500000
        k(    3) = (   0.0000000  -0.0838702   0.0000000), wk =   0.1250000
        k(    4) = (   0.0379955   0.0000049   0.0000000), wk =   0.2500000
        k(    5) = (   0.0379955   0.0419400   0.0000000), wk =   0.2500000
        k(    6) = (   0.0379955  -0.0838652   0.0000000), wk =   0.2500000
        k(    7) = (   0.0379955  -0.0419301   0.0000000), wk =   0.2500000
        k(    8) = (  -0.0759910  -0.0000099   0.0000000), wk =   0.1250000
        k(    9) = (  -0.0759910   0.0419252   0.0000000), wk =   0.2500000
        k(   10) = (  -0.0759910  -0.0838800   0.0000000), wk =   0.1250000

     Initial potential from superposition of free atoms

     starting charge  383.99917, renormalised to  400.00000

     negative rho (up, down):  1.800E-02 0.000E+00

     %%%%%%%%%%%%%%%%%%%%%%%%%%%%%%%%%%%%%%%%%%%%%%%%%%%%%%%%%%%%%%%%%%%%%%%%
     %                                                                      %
     % You are using vdW-DF, which was implemented by the Thonhauser group. %
     % Please cite the following two papers that made this development      %
     % possible and the two reviews that describe the various versions:     %
     %                                                                      %
     %   T. Thonhauser et al., PRL 115, 136402 (2015).                      %
     %   T. Thonhauser et al., PRB 76, 125112 (2007).                       %
     %   K. Berland et al., Rep. Prog. Phys. 78, 066501 (2015).             %
     %   D.C. Langreth et al., J. Phys.: Condens. Matter 21, 084203 (2009). %
     %                                                                      %
     %                                                                      %
     % If you are calculating the stress with vdW-DF, please also cite:     %
     %                                                                      %
     %   R. Sabatini et al., J. Phys.: Condens. Matter 24, 424209 (2012).   %
     %                                                                      %
     %%%%%%%%%%%%%%%%%%%%%%%%%%%%%%%%%%%%%%%%%%%%%%%%%%%%%%%%%%%%%%%%%%%%%%%%

     Adding external electric field

     Computed dipole along edir(3) :
        Dipole              -10.2499 Ry au,        -26.0528 Debye
        Dipole field         -0.0193 Ry au,

        Potential amp.        1.7931 Ry
        Total length         46.3494 bohr

     Starting wfcs are  302 atomic wfcs
  @ DRIVER MODE: Message from server: STATUS
  @ DRIVER MODE: Message from server: POSDATA
  @ DRIVER MODE: Reading and sharing cell
  @ DRIVER MODE: Reading and sharing positions
  @ DRIVER MODE: Received positions

     Self-consistent Calculation

     iteration #  1     ecut=    29.40 Ry     beta= 0.05
     Davidson diagonalization with overlap
     c_bands:  2 eigenvalues not converged
     c_bands:  1 eigenvalues not converged
     c_bands:  2 eigenvalues not converged
     c_bands:  2 eigenvalues not converged
     c_bands:  3 eigenvalues not converged
     c_bands:  2 eigenvalues not converged
     c_bands:  1 eigenvalues not converged
     c_bands:  1 eigenvalues not converged
     ethr =  1.00E-05,  avg # of iterations = 19.5

[...]

     total energy              =   -2478.26319466 Ry
     estimated scf accuracy    <    5480.25701413 Ry

     iteration #  2     ecut=    29.40 Ry     beta= 0.05
     Davidson diagonalization with overlap
     ethr =  1.00E-02,  avg # of iterations = 24.1

[...]

     iteration # 48     ecut=    29.40 Ry     beta= 0.05
     Davidson diagonalization with overlap
     c_bands:  1 eigenvalues not converged
     c_bands:  1 eigenvalues not converged
     c_bands:  1 eigenvalues not converged
     c_bands:  1 eigenvalues not converged
     ethr =  1.07E-06,  avg # of iterations = 13.4

[...]

     total energy              =   -2970.23693719 Ry
     estimated scf accuracy    <       0.00000063 Ry

     iteration # 81     ecut=    29.40 Ry     beta= 0.05
     Davidson diagonalization with overlap
     ethr =  2.54E-11,  avg # of iterations =  6.0

     negative rho (up, down):  1.776E-02 0.000E+00

     Adding external electric field

     Computed dipole along edir(3) :
        Dipole                0.0277 Ry au,          0.0703 Debye
        Dipole field          0.0001 Ry au,

        Potential amp.       -0.0048 Ry
        Total length         46.3494 bohr

     End of self-consistent calculation

          k = 0.0000 0.0000 0.0000 ( 18029 PWs)   bands (ev):

   -56.9039 -56.8703 -56.1372 -56.1014 -55.8796 -55.8181 -55.7077 -55.5630
   -55.5062 -55.4965 -55.4861 -55.4723 -55.4461 -55.4335 -55.2485 -55.2330
   -33.3294 -33.1832 -33.1551 -33.0764 -32.9856 -32.9558 -32.6203 -32.3588
   -32.3572 -32.3281 -32.2787 -32.2765 -32.2453 -32.1107 -32.0993 -32.0463
   -32.0441 -32.0401 -32.0222 -31.9812 -31.9713 -31.9321 -31.9291 -31.9045
   -31.8910 -31.8580 -31.8501 -31.8308 -31.8258 -31.7713 -31.7151 -31.7143
   -31.7024 -31.6965 -31.6852 -31.6808 -31.6579 -31.6512 -31.6377 -31.6316
   -31.6252 -31.5199 -31.4984 -31.4855 -31.4769 -31.4728 -31.4422 -31.4388
   -20.2906 -17.0496 -16.5619 -16.5139 -16.2483 -16.2210 -16.1457 -16.1312
   -16.1261 -15.8645 -15.8395 -15.8154 -15.7482 -15.6983 -15.5249 -15.4283
   -15.3626 -15.2702 -15.2032 -15.1832 -15.1791 -15.1500 -15.1276 -15.1231
   -15.0372 -15.0297 -14.9191 -14.8210 -14.7767 -14.5265 -14.4824 -14.0039
   -13.8956 -13.4093  -5.5865  -4.6125  -4.5235  -4.3688  -4.1556  -4.0476
    -3.8680  -3.6735  -3.6205  -3.4630  -3.4540  -3.3930  -3.3493  -3.3324
    -3.2404  -3.1366  -3.0640  -3.0637  -3.0393  -2.9705  -2.9441  -2.7837
    -2.7827  -2.7729  -2.6492  -2.5982  -2.5433  -2.4973  -2.4847  -2.4389
    -2.4158  -2.4031  -2.3554  -2.3075  -2.3005  -2.1684  -2.1270  -2.1022
    -2.0485  -1.9917  -1.9750  -1.9002  -1.8824  -1.8587  -1.6901  -1.6247
    -1.5833  -1.5321  -1.5021  -1.4760  -1.3370  -1.3054  -1.2075  -1.2044
    -1.1667  -1.1170  -1.0590  -1.0388  -0.9696  -0.8794  -0.8648  -0.8513
    -0.7814  -0.7021  -0.6233  -0.5802  -0.5136  -0.5033  -0.4845  -0.4524
    -0.4439  -0.3496  -0.3041  -0.2559  -0.1702  -0.1425  -0.0150  -0.0045
     0.0592   0.1080   0.1273   0.1588   0.1720   0.2023   0.2718   0.3386
     0.3651   0.3924   0.5155   0.5245   0.5749   0.5913   0.7063   0.7295
     0.7390   0.7871   0.8533   0.9274   1.0514   1.0924   1.3595   1.9202
     2.3750   2.5346   2.8145   2.9011   3.2096   3.3573   3.3626   3.3721
     3.5480   3.6712

[...]

          k = 0.0380-0.0419 0.0000 ( 17876 PWs)   bands (ev):

[...]

          k =-0.0760-0.0000 0.0000 ( 17886 PWs)   bands (ev):

[...]

          k =-0.0760-0.0839 0.0000 ( 17948 PWs)   bands (ev):

   -56.8876 -56.8866 -56.1256 -56.1129 -55.8745 -55.8232 -55.7068 -55.5589
   -55.4972 -55.4900 -55.4897 -55.4886 -55.4448 -55.4320 -55.2499 -55.2342
   -33.1694 -33.1684 -33.1470 -33.1458 -33.0298 -33.0292 -32.4462 -32.4357
   -32.3197 -32.3067 -32.3061 -32.2979 -32.1815 -32.1410 -32.1044 -32.0951
   -32.0504 -32.0442 -31.9974 -31.9569 -31.9173 -31.8895 -31.8645 -31.8392
   -31.8384 -31.8303 -31.8198 -31.8171 -31.7846 -31.7773 -31.7624 -31.7254
   -31.7119 -31.7104 -31.7043 -31.6871 -31.6843 -31.6732 -31.6720 -31.6616
   -31.6455 -31.6227 -31.5846 -31.5375 -31.4984 -31.4876 -31.4681 -31.4460
   -20.2901 -16.5044 -16.4216 -16.4184 -16.3535 -16.3516 -16.1269 -16.1208
   -15.9014 -15.8689 -15.7602 -15.6697 -15.6019 -15.5490 -15.5443 -15.5031
   -15.4077 -15.3927 -15.3276 -15.2874 -15.2723 -15.2069 -15.1841 -15.1418
   -15.1342 -15.0995 -14.9590 -14.9021 -14.8763 -14.7338 -14.6227 -13.9999
   -13.9992 -13.4155  -5.5877  -4.5310  -4.3177  -4.1407  -3.5047  -3.4857
    -3.4746  -3.4681  -3.2404  -3.2252  -3.2008  -3.1102  -3.0887  -3.0578
    -2.9958  -2.9931  -2.8909  -2.8354  -2.8052  -2.7970  -2.7811  -2.7252
    -2.7229  -2.7021  -2.6554  -2.5619  -2.5526  -2.5212  -2.4994  -2.4474
    -2.3662  -2.3345  -2.3132  -2.2910  -2.2809  -2.2720  -2.2495  -2.2149
    -2.1482  -1.9644  -1.9271  -1.8876  -1.8468  -1.8046  -1.7937  -1.7259
    -1.7169  -1.6977  -1.6549  -1.5706  -1.5461  -1.5078  -1.5018  -1.4207
    -1.3710  -1.3482  -1.2934  -1.2322  -1.1214  -1.0625  -1.0287  -1.0181
    -1.0041  -0.9770  -0.9049  -0.8293  -0.7821  -0.7060  -0.6771  -0.6580
    -0.6230  -0.5992  -0.5354  -0.5215  -0.4311  -0.3765  -0.2773  -0.2084
    -0.1765  -0.1268  -0.0969  -0.0232   0.0488   0.1395   0.1655   0.2322
     0.2439   0.2958   0.3336   0.5134   0.6204   0.6471   0.6797   0.7998
     0.8131   0.8455   0.8963   0.8998   0.9006   0.9389   0.9836   1.8798
     2.9549   2.9576   3.0122   3.0189   3.3114   3.3195   3.4276   3.4318
     3.6499   3.6730

     the Fermi energy is     2.2054 ev

!    total energy              =   -2970.23694672 Ry
     estimated scf accuracy    <       0.00000007 Ry
     smearing contrib. (-TS)   =      -0.00495327 Ry
     internal energy E=F+TS    =   -2970.23199345 Ry

     The total energy is F=E-TS. E is the sum of the following terms:
     one-electron contribution =  -23888.39297278 Ry
     hartree contribution      =   12033.63019836 Ry
     xc contribution           =    -491.36420971 Ry
     ewald contribution        =    9375.89498924 Ry
     electric field correction =       0.00000144 Ry

     convergence has been achieved in  81 iterations

     Forces acting on atoms (cartesian axes, Ry/au):

     atom    1 type  1   force =     0.00017116   -0.00041327    0.12034924
     atom    2 type  1   force =    -0.00005835    0.00016297   -0.15701008
     atom    3 type  2   force =     0.00001850   -0.00007308   -0.05924705
     atom    4 type  2   force =     0.00000159    0.00008495    0.02054640
     atom    5 type  2   force =    -0.00369994   -0.00202006   -0.01103902
     atom    6 type  2   force =     0.00482242   -0.00123447   -0.01303148
     atom    7 type  1   force =    -0.00068736   -0.00619144    0.05342150
     atom    8 type  1   force =     0.00116121    0.01367574    0.08841360
     atom    9 type  2   force =    -0.00013179   -0.00126245    0.00075187
     atom   10 type  2   force =    -0.00301446    0.00052352   -0.05511440
     atom   11 type  2   force =    -0.00001898    0.00030984    0.00021603
     atom   12 type  2   force =    -0.00047218   -0.00023536   -0.00030701
     atom   13 type  1   force =    -0.00071744    0.00116178   -0.00087431
     atom   14 type  1   force =    -0.00004930   -0.00122860   -0.00007396
     atom   15 type  2   force =     0.00018244    0.00053463   -0.00021972
     atom   16 type  2   force =     0.00059061   -0.00074522   -0.00068387
     atom   17 type  2   force =     0.00053302    0.00048925   -0.00034618
     atom   18 type  2   force =    -0.00004869    0.00049375   -0.00080121
     atom   19 type  1   force =     0.00026459    0.00002768    0.00070788
     atom   20 type  1   force =     0.00047726   -0.00090815    0.00008273
     atom   21 type  2   force =     0.00009624    0.00021619    0.09835630
     atom   22 type  2   force =     0.00029329    0.00001426    0.00064897
     atom   23 type  2   force =    -0.08116246    0.00005188   -0.03237480
     atom   24 type  2   force =     0.08114850    0.00049324   -0.03236911
     atom   25 type  1   force =     0.00015624   -0.00059602    0.12074366
     atom   26 type  1   force =     0.00006758   -0.00144700   -0.15745852
     atom   27 type  2   force =     0.00009602   -0.00078570   -0.05738437
     atom   28 type  2   force =     0.00003614    0.00183012    0.01623406
     atom   29 type  2   force =    -0.00203659    0.00509215   -0.01431466
     atom   30 type  2   force =     0.00291465    0.00551937   -0.01633070
     atom   31 type  1   force =    -0.00058847    0.00198821    0.03656846
     atom   32 type  1   force =     0.00117216   -0.01698441    0.08810336
     atom   33 type  2   force =    -0.00003492    0.00050016    0.00104637
     atom   34 type  2   force =    -0.00260606    0.00100689   -0.07065416
     atom   35 type  2   force =     0.00134694   -0.00050536    0.00039043
     atom   36 type  2   force =    -0.00023744   -0.00017345    0.00025351
     atom   37 type  1   force =    -0.00061786   -0.00039243    0.00008717
     atom   38 type  1   force =     0.00106411   -0.00063252   -0.00016897
     atom   39 type  2   force =    -0.00063362   -0.00079075    0.00040044
     atom   40 type  2   force =    -0.00015271   -0.00007660   -0.00066342
     atom   41 type  2   force =     0.00096022    0.00027266   -0.00014448
     atom   42 type  2   force =    -0.00002202   -0.00004205   -0.00026453
     atom   43 type  1   force =     0.00008622    0.00054558    0.00074625
     atom   44 type  1   force =     0.00015915    0.00087460   -0.00077345
     atom   45 type  2   force =     0.00010020    0.00002212    0.09817777
     atom   46 type  2   force =    -0.08120439    0.00000778   -0.03235591
     atom   47 type  2   force =     0.08119348    0.00042400   -0.03237361
     atom   48 type  3   force =    -0.00131397   -0.00150182    0.00090529
     atom   49 type  4   force =    -0.00031127    0.00020984    0.00084717
     atom   50 type  5   force =    -0.01673788   -0.00204357    0.01312081
     atom   51 type  5   force =     0.01856993    0.00125642   -0.01452018
     atom   52 type  2   force =    -0.00093174    0.00081751   -0.00100406
     atom   53 type  4   force =    -0.00019394    0.00167669    0.00078395

     Total force =     0.407589     Total SCF correction =     0.000800
  @ DRIVER MODE: Message from server: STATUS
  @ DRIVER MODE: Message from server: GETFORCE
  @ DRIVER MODE: Returning v,forces,stress,ensemble

     Writing output data file ./calc.save/
  @ DRIVER MODE: Message from server: EXIT
  @ DRIVE MODE: Exiting

     General routines

     Parallel routines

   This run was terminated on:   7:23:21  28Sep2021

   JOB DONE.