     Program PWSCF v.6.7GPU starts on 22Sep2021 at 19:19:23

     R & G space division:  proc/nbgrp/npool/nimage =      10
     Reading input from /storage/home/hcoda1/3/ntian30/research/carbon/CxH_vib/H2O_calc/ads_slab/CHNHHO_a/out_0011/pw.inp
Warning: card &CELL ignored
Warning: card   CELL_DYNAMICS='IPI', ignored
Warning: card / ignored

     Current dimensions of program PWSCF are:
     Max number of different atomic species (ntypx) = 10
     Max number of k-points (npk) =  40000
     Max angular momentum in pseudopotentials (lmaxx) =  3
     Presently no symmetry can be used with electric field

     Message from routine cell_base_init:
     DEPRECATED: use true lattice parameter, not A to a.u. conversion factor

     IMPORTANT: XC functional enforced from input :
     Exchange-correlation= BEEF-VDW
                           (   1   4  43  14   2   0   0)
     Any further DFT definition will be discarded
     Please, verify this is what you really want

  @ DRIVER MODE: Connecting to
 qe_1139763_2937314.sched-torque.pace.gatech.eduf85rcs2f_scratch
  using UNIX socket
  @ DRIVER MODE: Message from server: STATUS
  @ DRIVER MODE: Message from server: INIT
  @ DRIVER MODE: Receiving replica           0          -1
  @ DRIVER MODE: Receiving encoded integer          25
  @ DRIVER MODE:  SCF:  T  FORCE:  T  STRESS:  F  VC:  F  ENSEMBLE:  F
  @ DRIVER MODE:  SCF:  T  FORCE:  T  STRESS:  F  VC:  F  ENSEMBLE:  F

     Using Slab Decomposition

     bravais-lattice index     =            0
     lattice parameter (alat)  =       1.8897  a.u.
     unit-cell volume          =    6658.9804 (a.u.)^3
     number of atoms/cell      =           53
     number of atomic types    =            5
     number of electrons       =       396.00
     number of Kohn-Sham states=          208
     kinetic-energy cutoff     =      29.3995  Ry
     charge density cutoff     =     293.9946  Ry
     scf convergence threshold =      7.3E-08
     mixing beta               =       0.0500
     number of iterations used =            8  plain     mixing
     Exchange-correlation= BEEF-VDW
                           (   1   4  43  14   2   0   0)

     celldm(1)=   1.889726  celldm(2)=   0.000000  celldm(3)=   0.000000
     celldm(4)=   0.000000  celldm(5)=   0.000000  celldm(6)=   0.000000

     crystal axes: (cart. coord. in units of alat)
               a(1) = (   6.579727   0.000000   0.000000 )
               a(2) = (  -0.000775   5.961596   0.000000 )
               a(3) = (   0.000000   0.000000  25.155947 )

     reciprocal axes: (cart. coord. in units 2 pi/alat)
               b(1) = (  0.151982  0.000020  0.000000 )
               b(2) = (  0.000000  0.167740  0.000000 )
               b(3) = (  0.000000  0.000000  0.039752 )

     PseudoPot. # 1 for Ti read from file:
     /storage/coda1/p-amedford6/0/shared/rich_project_chbe-medford/medford-share/data/pseudos_module/espresso/nninc/pbe/van/Ti.UPF
     MD5 check sum: 8e4df49b7f0d34bbd5052bf3f5ea0213
     Pseudo is Ultrasoft, Zval = 12.0
     Generated by new atomic code, or converted to UPF format
     Using radial grid of  851 points,  6 beta functions with:
                l(1) =   0
                l(2) =   0
                l(3) =   1
                l(4) =   1
                l(5) =   2
                l(6) =   2
     Q(r) pseudized with  8 coefficients,  rinner =    1.000   1.000   1.000
                                                       1.000   1.000

     PseudoPot. # 2 for O  read from file:
     /storage/coda1/p-amedford6/0/shared/rich_project_chbe-medford/medford-share/data/pseudos_module/espresso/nninc/pbe/van/O.UPF
     MD5 check sum: 78c19812648e8988a0fe644b0f25305e
     Pseudo is Ultrasoft, Zval =  6.0
     Generated by new atomic code, or converted to UPF format
     Using radial grid of  737 points,  4 beta functions with:
                l(1) =   0
                l(2) =   0
                l(3) =   1
                l(4) =   1
     Q(r) pseudized with  8 coefficients,  rinner =    0.800   0.800   0.800

     PseudoPot. # 3 for N  read from file:
     /storage/coda1/p-amedford6/0/shared/rich_project_chbe-medford/medford-share/data/pseudos_module/espresso/nninc/pbe/van/N.UPF
     MD5 check sum: 90d10febe142ad51ac9d5be1deb811c4
     Pseudo is Ultrasoft, Zval =  5.0
     Generated by new atomic code, or converted to UPF format
     Using radial grid of  729 points,  4 beta functions with:
                l(1) =   0
                l(2) =   0
                l(3) =   1
                l(4) =   1
     Q(r) pseudized with  8 coefficients,  rinner =    0.800   0.800   0.800

     PseudoPot. # 4 for C  read from file:
     /storage/coda1/p-amedford6/0/shared/rich_project_chbe-medford/medford-share/data/pseudos_module/espresso/nninc/pbe/van/C.UPF
     MD5 check sum: 1a69bf6b8db32088f5b2163dbdb77a27
     Pseudo is Ultrasoft, Zval =  4.0
     Generated by new atomic code, or converted to UPF format
     Using radial grid of  721 points,  4 beta functions with:
                l(1) =   0
                l(2) =   0
                l(3) =   1
                l(4) =   1
     Q(r) pseudized with  8 coefficients,  rinner =    0.800   0.800   0.800

     PseudoPot. # 5 for H  read from file:
     /storage/coda1/p-amedford6/0/shared/rich_project_chbe-medford/medford-share/data/pseudos_module/espresso/nninc/pbe/van/H.UPF
     MD5 check sum: b5ee9d7bfd3a09ee7748110bda690ff7
     Pseudo is Ultrasoft, Zval =  1.0
     Generated by new atomic code, or converted to UPF format
     Using radial grid of  615 points,  1 beta functions with:
                l(1) =   0
     Q(r) pseudized with  8 coefficients,  rinner =    0.800

     atomic species   valence    mass     pseudopotential
        Ti1           12.00    47.86700     Ti( 1.00)
        O1             6.00    15.99900     O ( 1.00)
        N1             5.00    14.00700     N ( 1.00)
        C1             4.00    12.01100     C ( 1.00)
        H1             1.00     1.00800     H ( 1.00)

     No symmetry found

   Cartesian axes

     site n.     atom                  positions (alat units)
         1           Ti1 tau(   1) = (   0.0004258   2.9801865   6.0000000  )
         2           Ti1 tau(   2) = (   3.2906075   1.4906267   6.0002472  )
         3           O1  tau(   3) = (   0.0006271   0.0005054   7.9858123  )
         4           O1  tau(   4) = (   3.2906025   0.0005020   7.3038282  )
         5           O1  tau(   5) = (   4.5942328   1.4918067   9.2879030  )
         6           O1  tau(   6) = (   1.9868534   1.4903216   9.2879459  )
         7           Ti1 tau(   7) = (   3.2907910   2.8959150   9.1758416  )
         8           Ti1 tau(   8) = (   0.0015273   1.4827037   9.2680791  )
         9           O1  tau(   9) = (   3.2817170   5.9459930  11.3074998  )
        10           O1  tau(  10) = (   0.0116148   5.9584955  10.6183126  )
        11           O1  tau(  11) = (   1.2737360   1.4926482  12.6406718  )
        12           O1  tau(  12) = (   5.2902952   1.4950437  12.6299455  )
        13           Ti1 tau(  13) = (   6.5743562   2.8588748  12.6391164  )
        14           Ti1 tau(  14) = (   3.2840152   1.3010445  12.6757008  )
        15           O1  tau(  15) = (   6.5722207   0.0022838  14.6395268  )
        16           O1  tau(  16) = (   3.2882888   0.0547267  13.9272720  )
        17           O1  tau(  17) = (   4.5277618   1.5549090  16.0796657  )
        18           O1  tau(  18) = (   1.9889223   1.5445724  16.0964948  )
        19           Ti1 tau(  19) = (   3.2710169   3.0098750  15.6493427  )
        20           Ti1 tau(  20) = (   0.0212523   1.3583160  16.0154628  )
        21           O1  tau(  21) = (   3.2904802   0.0005063   4.7018136  )
        22           O1  tau(  22) = (   6.5278121   5.9442159  17.1408904  )
        23           O1  tau(  23) = (   1.3043587   1.4918075   6.0039043  )
        24           O1  tau(  24) = (   5.2767064   1.4903225   6.0039473  )
        25           Ti1 tau(  25) = (   0.0000382   5.9609847   6.0000000  )
        26           Ti1 tau(  26) = (   3.2902200   4.4714249   6.0002472  )
        27           O1  tau(  27) = (   0.0002396   2.9813036   7.9858123  )
        28           O1  tau(  28) = (   3.2902150   2.9813002   7.3038282  )
        29           O1  tau(  29) = (   4.5938453   4.4726049   9.2879030  )
        30           O1  tau(  30) = (   1.9864658   4.4711199   9.2879459  )
        31           Ti1 tau(  31) = (   3.2891106   5.8743827   9.1763621  )
        32           Ti1 tau(  32) = (   0.0006254   4.4649316   9.2693709  )
        33           O1  tau(  33) = (   3.2809651   3.0158959  11.2742024  )
        34           O1  tau(  34) = (   0.0092240   2.9805883  10.6323155  )
        35           O1  tau(  35) = (   1.2801966   4.4796301  12.6363892  )
        36           O1  tau(  36) = (   5.2833020   4.4787161  12.6245292  )
        37           Ti1 tau(  37) = (   6.5725262   5.8449372  12.5269696  )
        38           Ti1 tau(  38) = (   3.2830651   4.3950422  12.4122791  )
        39           O1  tau(  39) = (   6.5612936   2.9998473  14.7091997  )
        40           O1  tau(  40) = (   3.2734765   2.9867355  13.8776313  )
        41           O1  tau(  41) = (   4.5260587   4.4294304  16.0527172  )
        42           O1  tau(  42) = (   1.9919704   4.4458081  16.0639873  )
        43           Ti1 tau(  43) = (   3.3135318   0.0270965  16.3071496  )
        44           Ti1 tau(  44) = (   0.0294795   4.5257316  15.8201724  )
        45           O1  tau(  45) = (   3.2900926   2.9813045   4.7018136  )
        46           O1  tau(  46) = (   1.3039711   4.4726057   6.0039043  )
        47           O1  tau(  47) = (   5.2763189   4.4711207   6.0039473  )
        48           N1  tau(  48) = (   6.4282372   2.9740631  17.7102171  )
        49           C1  tau(  49) = (   0.6535733   3.0176064  18.6920832  )
        50           H1  tau(  50) = (   1.7291544   2.9413089  18.4820742  )
        51           H1  tau(  51) = (   5.4410488   3.0579230  17.9716058  )
        52           O1  tau(  52) = (   3.3635319   0.0010587  18.1193045  )
        53           H1  tau(  53) = (   4.1580425   0.0400832  18.6733683  )

     number of k points=    10  Fermi-Dirac smearing, width (Ry)=  0.0073
                       cart. coord. in units 2pi/alat
        k(    1) = (   0.0000000   0.0000000   0.0000000), wk =   0.1250000
        k(    2) = (   0.0000000   0.0419351   0.0000000), wk =   0.2500000
        k(    3) = (   0.0000000  -0.0838702   0.0000000), wk =   0.1250000
        k(    4) = (   0.0379955   0.0000049   0.0000000), wk =   0.2500000
        k(    5) = (   0.0379955   0.0419400   0.0000000), wk =   0.2500000
        k(    6) = (   0.0379955  -0.0838652   0.0000000), wk =   0.2500000
        k(    7) = (   0.0379955  -0.0419301   0.0000000), wk =   0.2500000
        k(    8) = (  -0.0759910  -0.0000099   0.0000000), wk =   0.1250000
        k(    9) = (  -0.0759910   0.0419252   0.0000000), wk =   0.2500000
        k(   10) = (  -0.0759910  -0.0838800   0.0000000), wk =   0.1250000

     Initial potential from superposition of free atoms

     starting charge  379.99917, renormalised to  396.00000

     negative rho (up, down):  1.780E-02 0.000E+00

     %%%%%%%%%%%%%%%%%%%%%%%%%%%%%%%%%%%%%%%%%%%%%%%%%%%%%%%%%%%%%%%%%%%%%%%%
     %                                                                      %
     % You are using vdW-DF, which was implemented by the Thonhauser group. %
     % Please cite the following two papers that made this development      %
     % possible and the two reviews that describe the various versions:     %
     %                                                                      %
     %   T. Thonhauser et al., PRL 115, 136402 (2015).                      %
     %   T. Thonhauser et al., PRB 76, 125112 (2007).                       %
     %   K. Berland et al., Rep. Prog. Phys. 78, 066501 (2015).             %
     %   D.C. Langreth et al., J. Phys.: Condens. Matter 21, 084203 (2009). %
     %                                                                      %
     %                                                                      %
     % If you are calculating the stress with vdW-DF, please also cite:     %
     %                                                                      %
     %   R. Sabatini et al., J. Phys.: Condens. Matter 24, 424209 (2012).   %
     %                                                                      %
     %%%%%%%%%%%%%%%%%%%%%%%%%%%%%%%%%%%%%%%%%%%%%%%%%%%%%%%%%%%%%%%%%%%%%%%%

     Adding external electric field

     Computed dipole along edir(3) :
        Dipole               -8.0621 Ry au,        -20.4919 Debye
        Dipole field         -0.0152 Ry au,

        Potential amp.        1.4103 Ry
        Total length         46.3494 bohr

     Starting wfcs are  299 atomic wfcs
  @ DRIVER MODE: Message from server: STATUS
  @ DRIVER MODE: Message from server: POSDATA
  @ DRIVER MODE: Reading and sharing cell
  @ DRIVER MODE: Reading and sharing positions
  @ DRIVER MODE: Received positions

     Self-consistent Calculation

     iteration #  1     ecut=    29.40 Ry     beta= 0.05
     Davidson diagonalization with overlap
     c_bands:  2 eigenvalues not converged
     c_bands:  1 eigenvalues not converged
     c_bands:  3 eigenvalues not converged
     c_bands:  1 eigenvalues not converged
     c_bands:  2 eigenvalues not converged
     c_bands:  1 eigenvalues not converged
     c_bands:  1 eigenvalues not converged
     ethr =  1.00E-05,  avg # of iterations = 18.9

[...]

     total energy              =   -2618.22673024 Ry
     estimated scf accuracy    <    3681.09306821 Ry

     iteration #  2     ecut=    29.40 Ry     beta= 0.05
     Davidson diagonalization with overlap
     ethr =  1.00E-02,  avg # of iterations = 21.8

[...]

     iteration # 49     ecut=    29.40 Ry     beta= 0.05
     Davidson diagonalization with overlap
     c_bands:  1 eigenvalues not converged
     ethr =  8.46E-07,  avg # of iterations =  5.4

[...]

     total energy              =   -2951.37635258 Ry
     estimated scf accuracy    <       0.00000031 Ry

     iteration # 82     ecut=    29.40 Ry     beta= 0.05
     Davidson diagonalization with overlap
     ethr =  2.39E-11,  avg # of iterations =  7.1

     negative rho (up, down):  1.667E-02 0.000E+00

     Adding external electric field

     Computed dipole along edir(3) :
        Dipole                0.1980 Ry au,          0.5032 Debye
        Dipole field          0.0004 Ry au,

        Potential amp.       -0.0346 Ry
        Total length         46.3494 bohr

     End of self-consistent calculation

          k = 0.0000 0.0000 0.0000 ( 18029 PWs)   bands (ev):

   -56.4113 -56.3774 -56.1582 -56.1350 -56.1012 -55.9371 -55.8840 -55.8658
   -55.8602 -55.8442 -55.8092 -55.7268 -55.6664 -55.5274 -55.2639 -55.2299
   -32.8759 -32.7054 -32.6854 -32.6078 -32.5655 -32.4991 -32.4720 -32.4513
   -32.4280 -32.4209 -32.3778 -32.3652 -32.3528 -32.3513 -32.3455 -32.2959
   -32.2738 -32.2658 -32.2402 -32.1699 -32.1533 -32.1489 -32.1472 -32.1151
   -32.1038 -32.0946 -32.0852 -32.0696 -32.0577 -32.0441 -32.0391 -32.0092
   -31.9938 -31.9793 -31.9608 -31.9605 -31.9362 -31.8722 -31.8615 -31.7866
   -31.7574 -31.7391 -31.6642 -31.5919 -31.5687 -31.4826 -31.3971 -31.2850
   -16.9275 -16.8108 -16.5889 -16.4370 -16.2805 -16.1736 -16.0588 -16.0153
   -15.9834 -15.8852 -15.8175 -15.7649 -15.7276 -15.6544 -15.5970 -15.5860
   -15.5584 -15.5242 -15.5122 -15.4983 -15.4959 -15.4780 -15.4486 -15.3310
   -15.2890 -15.2505 -15.2211 -15.2082 -15.0812 -14.8339 -14.7809 -13.7613
   -13.6474  -8.2479  -4.6958  -4.2782  -4.2595  -4.1135  -3.9445  -3.8785
    -3.8464  -3.5956  -3.5682  -3.5402  -3.3486  -3.2857  -3.1991  -3.1482
    -3.1323  -3.0939  -3.0230  -3.0104  -2.9849  -2.8938  -2.8568  -2.8460
    -2.8216  -2.7719  -2.7650  -2.6725  -2.6430  -2.6230  -2.5527  -2.4922
    -2.4655  -2.4503  -2.4334  -2.4210  -2.3758  -2.3666  -2.3382  -2.1960
    -2.1907  -2.1626  -2.0807  -2.0087  -1.8407  -1.7576  -1.7562  -1.6530
    -1.5820  -1.5727  -1.5176  -1.4717  -1.3831  -1.3725  -1.3627  -1.3220
    -1.2333  -1.2194  -1.1757  -1.1232  -1.0423  -0.9559  -0.9444  -0.9012
    -0.8764  -0.8071  -0.7193  -0.6768  -0.6206  -0.5887  -0.5466  -0.4792
    -0.4270  -0.4002  -0.3719  -0.3644  -0.3012  -0.2443  -0.1997  -0.1737
    -0.1085  -0.0897  -0.0440   0.0139   0.0380   0.0480   0.1658   0.2112
     0.2245   0.2726   0.3797   0.4359   0.5284   0.5866   0.6583   0.7620
     0.7675   0.9760   1.0777   1.3164   1.3569   2.5967   2.7769   2.8985
     2.9664   3.1665   3.2146   3.2327   3.5223   3.5328   3.5408   3.6284

[...]

          k = 0.0380-0.0419 0.0000 ( 17876 PWs)   bands (ev):

[...]

          k =-0.0760-0.0000 0.0000 ( 17886 PWs)   bands (ev):

[...]

          k =-0.0760-0.0839 0.0000 ( 17948 PWs)   bands (ev):

   -56.3948 -56.3937 -56.1575 -56.1198 -56.1163 -55.9309 -55.8901 -55.8632
   -55.8612 -55.8307 -55.8226 -55.7287 -55.6644 -55.5293 -55.2474 -55.2463
   -32.6924 -32.6921 -32.6904 -32.6899 -32.5174 -32.5161 -32.4398 -32.4351
   -32.4297 -32.3864 -32.3752 -32.3285 -32.3236 -32.3120 -32.3055 -32.2877
   -32.2443 -32.2332 -32.2039 -32.1637 -32.1613 -32.1578 -32.1544 -32.1516
   -32.1239 -32.1159 -32.1076 -32.0728 -32.0656 -32.0631 -32.0547 -32.0539
   -32.0376 -32.0049 -31.9898 -31.9648 -31.9499 -31.9281 -31.8758 -31.8672
   -31.7894 -31.7427 -31.5820 -31.5812 -31.4787 -31.4773 -31.4404 -31.4395
   -16.9126 -16.2306 -16.2043 -16.1253 -16.1139 -16.0930 -16.0595 -16.0372
   -15.8818 -15.8705 -15.8556 -15.7894 -15.7410 -15.7285 -15.6994 -15.6943
   -15.6336 -15.6162 -15.6089 -15.5568 -15.5442 -15.5168 -15.5024 -15.4720
   -15.4416 -15.4134 -15.2490 -15.1973 -15.1376 -15.1256 -14.9149 -13.7503
   -13.7497  -8.2594  -4.6876  -4.1845  -3.5528  -3.4834  -3.3551  -3.3513
    -3.2199  -3.2148  -3.1339  -3.0652  -3.0623  -2.9919  -2.9769  -2.9642
    -2.9300  -2.9075  -2.9017  -2.8968  -2.8628  -2.8502  -2.8267  -2.8152
    -2.8084  -2.7960  -2.7576  -2.7277  -2.7033  -2.6893  -2.6322  -2.6199
    -2.5087  -2.4426  -2.3961  -2.3952  -2.3896  -2.3516  -2.3075  -2.2941
    -2.2673  -2.2463  -2.1498  -2.0312  -2.0097  -1.8211  -1.7969  -1.7714
    -1.7501  -1.6993  -1.6954  -1.6307  -1.5781  -1.5653  -1.5470  -1.5258
    -1.4249  -1.3687  -1.3208  -1.3129  -1.2559  -1.2427  -1.1984  -1.0935
    -1.0456  -1.0150  -0.9845  -0.9750  -0.9389  -0.9105  -0.8542  -0.8189
    -0.8139  -0.7859  -0.7488  -0.5727  -0.4049  -0.3650  -0.3418  -0.2724
    -0.2582  -0.2077  -0.0668  -0.0271  -0.0191   0.0226   0.0673   0.0877
     0.1082   0.1667   0.3429   0.3678   0.4298   0.4836   0.4901   0.5736
     0.6726   1.1406   1.1483   1.1757   1.1765   2.6260   3.3217   3.3236
     3.3250   3.3414   3.4018   3.4808   3.4903   3.5199   3.6036   3.6357

     the Fermi energy is     2.7409 ev

!    total energy              =   -2951.37635939 Ry
     estimated scf accuracy    <       0.00000002 Ry
     smearing contrib. (-TS)   =      -0.01743217 Ry
     internal energy E=F+TS    =   -2951.35892722 Ry

     The total energy is F=E-TS. E is the sum of the following terms:
     one-electron contribution =  -24275.56819045 Ry
     hartree contribution      =   12223.89061003 Ry
     xc contribution           =    -487.05797931 Ry
     ewald contribution        =    9587.37655855 Ry
     electric field correction =       0.00007395 Ry

     convergence has been achieved in  82 iterations

     Forces acting on atoms (cartesian axes, Ry/au):

     atom    1 type  1   force =     0.00006701   -0.00028339    0.10075373
     atom    2 type  1   force =    -0.00005440    0.00024164   -0.16930002
     atom    3 type  2   force =     0.00000655   -0.00004775   -0.02983991
     atom    4 type  2   force =     0.00000180   -0.00100047    0.04202833
     atom    5 type  2   force =    -0.00524503   -0.00241721   -0.00297189
     atom    6 type  2   force =     0.00639636   -0.00183458   -0.00458108
     atom    7 type  1   force =    -0.00065906   -0.00537474    0.02500611
     atom    8 type  1   force =     0.00077857    0.01605986    0.04105943
     atom    9 type  2   force =    -0.00021646    0.00026432    0.00045449
     atom   10 type  2   force =    -0.00258227    0.00081539   -0.03393333
     atom   11 type  2   force =     0.00016070    0.00002826    0.00019364
     atom   12 type  2   force =     0.00017403   -0.00035635    0.00016908
     atom   13 type  1   force =    -0.00070050   -0.00005671   -0.00084308
     atom   14 type  1   force =     0.00018459    0.00005402   -0.00019135
     atom   15 type  2   force =     0.00019667    0.00007300    0.00039696
     atom   16 type  2   force =     0.00004849   -0.00019705    0.00019853
     atom   17 type  2   force =     0.00000605    0.00010584    0.00038470
     atom   18 type  2   force =     0.00013082   -0.00009372    0.00025685
     atom   19 type  1   force =     0.00002531    0.00018356   -0.00038753
     atom   20 type  1   force =    -0.00003609    0.00000974   -0.00065083
     atom   21 type  2   force =     0.00007241    0.00015273    0.10152136
     atom   22 type  2   force =    -0.00004620    0.00008336    0.00071792
     atom   23 type  2   force =    -0.07484256   -0.00008863   -0.02879602
     atom   24 type  2   force =     0.07477396    0.00036263   -0.02882695
     atom   25 type  1   force =     0.00019286   -0.00035692    0.10062241
     atom   26 type  1   force =     0.00001240   -0.00114446   -0.16951719
     atom   27 type  2   force =     0.00004504   -0.00039934   -0.02832783
     atom   28 type  2   force =     0.00000968    0.00073816    0.03801205
     atom   29 type  2   force =    -0.00393675    0.00436300   -0.00519649
     atom   30 type  2   force =     0.00501598    0.00488659   -0.00686634
     atom   31 type  1   force =    -0.00064261    0.00467678    0.01085129
     atom   32 type  1   force =     0.00088868   -0.01904480    0.04041885
     atom   33 type  2   force =     0.00044221    0.00003596    0.00054538
     atom   34 type  2   force =    -0.00214375    0.00069157   -0.03919854
     atom   35 type  2   force =     0.00015108   -0.00052265   -0.00001485
     atom   36 type  2   force =     0.00012156   -0.00025832    0.00022555
     atom   37 type  1   force =    -0.00004463   -0.00008019   -0.00056907
     atom   38 type  1   force =     0.00001852    0.00010159   -0.00026931
     atom   39 type  2   force =    -0.00001073    0.00043470    0.00020246
     atom   40 type  2   force =     0.00032405   -0.00006625    0.00072077
     atom   41 type  2   force =     0.00015142    0.00010270    0.00051866
     atom   42 type  2   force =    -0.00014777    0.00013365    0.00045424
     atom   43 type  1   force =     0.00015968   -0.00003507   -0.00009666
     atom   44 type  1   force =    -0.00025520    0.00034514   -0.00168353
     atom   45 type  2   force =     0.00006795   -0.00000316    0.10131269
     atom   46 type  2   force =    -0.07489236   -0.00001357   -0.02882687
     atom   47 type  2   force =     0.07480661    0.00041425   -0.02885325
     atom   48 type  3   force =    -0.00888681   -0.00069042   -0.01051678
     atom   49 type  4   force =     0.00727329    0.00082657    0.01376205
     atom   50 type  5   force =     0.00089138   -0.00061384   -0.00137656
     atom   51 type  5   force =     0.00136359   -0.00064460   -0.00016714
     atom   52 type  2   force =    -0.00018477   -0.00018137    0.00198825
     atom   53 type  5   force =     0.00056865   -0.00037948   -0.00097337

     Total force =     0.370175     Total SCF correction =     0.000421
  @ DRIVER MODE: Message from server: STATUS
  @ DRIVER MODE: Message from server: GETFORCE
  @ DRIVER MODE: Returning v,forces,stress,ensemble

     Writing output data file ./calc.save/
  @ DRIVER MODE: Message from server: EXIT
  @ DRIVE MODE: Exiting

     General routines

     Parallel routines

   This run was terminated on:  19:40:35  22Sep2021

   JOB DONE.