     Program PWSCF v.6.7GPU starts on 18Oct2021 at 12:50:24

     R & G space division:  proc/nbgrp/npool/nimage =       8
     Reading input from /storage/home/hcoda1/3/ntian30/research/carbon/CxH_vib/Thiel_calc/ads_slab/NH3NH2H_perslab/out_0003/pw.inp
Warning: card &CELL ignored
Warning: card   CELL_DYNAMICS='IPI', ignored
Warning: card / ignored

     Current dimensions of program PWSCF are:
     Max number of different atomic species (ntypx) = 10
     Max number of k-points (npk) =  40000
     Max angular momentum in pseudopotentials (lmaxx) =  3
     Presently no symmetry can be used with electric field

     Message from routine cell_base_init:
     DEPRECATED: use true lattice parameter, not A to a.u. conversion factor

     IMPORTANT: XC functional enforced from input :
     Exchange-correlation= BEEF-VDW
                           (   1   4  43  14   2   0   0)
     Any further DFT definition will be discarded
     Please, verify this is what you really want

  @ DRIVER MODE: Connecting to
 qe_1139763_3255139.sched-torque.pace.gatech.edu6l8ksb06_scratch
  using UNIX socket
  @ DRIVER MODE: Message from server: STATUS
  @ DRIVER MODE: Message from server: INIT
  @ DRIVER MODE: Receiving replica           0          -1
  @ DRIVER MODE: Receiving encoded integer          25
  @ DRIVER MODE:  SCF:  T  FORCE:  T  STRESS:  F  VC:  F  ENSEMBLE:  F
  @ DRIVER MODE:  SCF:  T  FORCE:  T  STRESS:  F  VC:  F  ENSEMBLE:  F

     Using Slab Decomposition

     bravais-lattice index     =            0
     lattice parameter (alat)  =       1.8897  a.u.
     unit-cell volume          =    9988.4706 (a.u.)^3
     number of atoms/cell      =           61
     number of atomic types    =            4
     number of electrons       =       442.00
     number of Kohn-Sham states=          231
     kinetic-energy cutoff     =      29.3995  Ry
     charge density cutoff     =     293.9946  Ry
     scf convergence threshold =      7.3E-08
     mixing beta               =       0.0500
     number of iterations used =            8  plain     mixing
     Exchange-correlation= BEEF-VDW
                           (   1   4  43  14   2   0   0)

     celldm(1)=   1.889726  celldm(2)=   0.000000  celldm(3)=   0.000000
     celldm(4)=   0.000000  celldm(5)=   0.000000  celldm(6)=   0.000000

     crystal axes: (cart. coord. in units of alat)
               a(1) = (   6.579727   0.000000   0.000000 )
               a(2) = (  -0.001163   8.942395   0.000000 )
               a(3) = (   0.000000   0.000000  25.155947 )

     reciprocal axes: (cart. coord. in units 2 pi/alat)
               b(1) = (  0.151982  0.000020  0.000000 )
               b(2) = (  0.000000  0.111827  0.000000 )
               b(3) = (  0.000000  0.000000  0.039752 )

     PseudoPot. # 1 for O  read from file:
     /storage/coda1/p-amedford6/0/shared/rich_project_chbe-medford/medford-share/data/pseudos_module/espresso/nninc/pbe/van/O.UPF
     MD5 check sum: 78c19812648e8988a0fe644b0f25305e
     Pseudo is Ultrasoft, Zval =  6.0
     Generated by new atomic code, or converted to UPF format
     Using radial grid of  737 points,  4 beta functions with:
                l(1) =   0
                l(2) =   0
                l(3) =   1
                l(4) =   1
     Q(r) pseudized with  8 coefficients,  rinner =    0.800   0.800   0.800

     PseudoPot. # 2 for Ti read from file:
     /storage/coda1/p-amedford6/0/shared/rich_project_chbe-medford/medford-share/data/pseudos_module/espresso/nninc/pbe/van/Ti.UPF
     MD5 check sum: 8e4df49b7f0d34bbd5052bf3f5ea0213
     Pseudo is Ultrasoft, Zval = 12.0
     Generated by new atomic code, or converted to UPF format
     Using radial grid of  851 points,  6 beta functions with:
                l(1) =   0
                l(2) =   0
                l(3) =   1
                l(4) =   1
                l(5) =   2
                l(6) =   2
     Q(r) pseudized with  8 coefficients,  rinner =    1.000   1.000   1.000
                                                       1.000   1.000

     PseudoPot. # 3 for H  read from file:
     /storage/coda1/p-amedford6/0/shared/rich_project_chbe-medford/medford-share/data/pseudos_module/espresso/nninc/pbe/van/H.UPF
     MD5 check sum: b5ee9d7bfd3a09ee7748110bda690ff7
     Pseudo is Ultrasoft, Zval =  1.0
     Generated by new atomic code, or converted to UPF format
     Using radial grid of  615 points,  1 beta functions with:
                l(1) =   0
     Q(r) pseudized with  8 coefficients,  rinner =    0.800

     PseudoPot. # 4 for N  read from file:
     /storage/coda1/p-amedford6/0/shared/rich_project_chbe-medford/medford-share/data/pseudos_module/espresso/nninc/pbe/van/N.UPF
     MD5 check sum: 90d10febe142ad51ac9d5be1deb811c4
     Pseudo is Ultrasoft, Zval =  5.0
     Generated by new atomic code, or converted to UPF format
     Using radial grid of  729 points,  4 beta functions with:
                l(1) =   0
                l(2) =   0
                l(3) =   1
                l(4) =   1
     Q(r) pseudized with  8 coefficients,  rinner =    0.800   0.800   0.800

     atomic species   valence    mass     pseudopotential
        O1             6.00    15.99900     O ( 1.00)
        Ti1           12.00    47.86700     Ti( 1.00)
        H1             1.00     1.00800     H ( 1.00)
        N1             5.00    14.00700     N ( 1.00)

     No symmetry found

   Cartesian axes

     site n.     atom                  positions (alat units)
         1           O1  tau(   1) = (   0.0007354   0.0005023  10.5931620  )
         2           O1  tau(   2) = (   3.2892937   8.9423630  13.8814308  )
         3           O1  tau(   3) = (   6.5785080   0.0907754  17.2996570  )
         4           O1  tau(   4) = (   0.0006271   0.0005054   7.9858123  )
         5           O1  tau(   5) = (   3.2892617   8.9274694  11.1867540  )
         6           O1  tau(   6) = (   0.0001068   0.0384811  14.5856928  )
         7           O1  tau(   7) = (   1.9868534   1.4903216   9.2879459  )
         8           O1  tau(   8) = (   5.2392332   1.6199063  12.5840971  )
         9           O1  tau(   9) = (   2.0046145   1.5651943  16.0652335  )
        10           Ti1 tau(  10) = (   0.0007404   1.4906270   9.2895810  )
        11           Ti1 tau(  11) = (   3.2903033   1.3475644  12.4784176  )
        12           Ti1 tau(  12) = (   0.0002083   1.2954417  15.7753146  )
        13           O1  tau(  13) = (   4.5942328   1.4918067   9.2879030  )
        14           O1  tau(  14) = (   1.3408909   1.6195689  12.5841697  )
        15           O1  tau(  15) = (   4.5747373   1.5650701  16.0650860  )
        16           Ti1 tau(  16) = (   3.2902859   2.9801868   9.2893338  )
        17           Ti1 tau(  17) = (   0.0003213   2.8429885  12.4272127  )
        18           Ti1 tau(  18) = (   3.2894782   2.8703589  15.6911549  )
        19           O1  tau(  19) = (   0.0003479   2.9813005  10.5931620  )
        20           O1  tau(  20) = (   3.2897922   2.9583395  13.9032781  )
        21           O1  tau(  21) = (   0.0002396   2.9813036   7.9858123  )
        22           O1  tau(  22) = (   3.2900450   2.9730570  11.1907869  )
        23           O1  tau(  23) = (   0.0001206   2.9807552  14.9070210  )
        24           O1  tau(  24) = (   1.9864658   4.4711199   9.2879459  )
        25           O1  tau(  25) = (   5.2482068   4.5640541  12.6028892  )
        26           O1  tau(  26) = (   2.0118887   4.5193519  16.0312246  )
        27           Ti1 tau(  27) = (   0.0003529   4.4714252   9.2895810  )
        28           Ti1 tau(  28) = (   3.2901403   4.3402809  12.5217819  )
        29           Ti1 tau(  29) = (   0.0009811   4.3515161  16.1888847  )
        30           O1  tau(  30) = (   4.5938453   4.4726049   9.2879030  )
        31           O1  tau(  31) = (   1.3314901   4.5639303  12.6028828  )
        32           O1  tau(  32) = (   4.5682806   4.5188618  16.0312494  )
        33           Ti1 tau(  33) = (   3.2898983   5.9609850   9.2893338  )
        34           Ti1 tau(  34) = (   0.0001002   5.8006911  12.4939615  )
        35           Ti1 tau(  35) = (   3.2910898   5.8128663  15.8108673  )
        36           O1  tau(  36) = (  -0.0000397   5.9620987  10.5931620  )
        37           O1  tau(  37) = (   3.2898758   5.9691391  13.9384534  )
        38           O1  tau(  38) = (   0.0001572   5.9906873  17.2924393  )
        39           O1  tau(  39) = (  -0.0001480   5.9621018   7.9858123  )
        40           O1  tau(  40) = (   3.2897271   5.9334558  11.2049738  )
        41           O1  tau(  41) = (   0.0000685   5.9641935  14.6703060  )
        42           O1  tau(  42) = (   1.9860782   7.4519181   9.2879459  )
        43           O1  tau(  43) = (   5.2398882   7.5535610  12.5750285  )
        44           O1  tau(  44) = (   1.9879998   7.5809304  16.0172394  )
        45           Ti1 tau(  45) = (  -0.0000347   7.4522234   9.2895810  )
        46           Ti1 tau(  46) = (   3.2896426   7.2731609  12.5447809  )
        47           Ti1 tau(  47) = (   0.0002275   7.1890881  15.9781391  )
        48           O1  tau(  48) = (   4.5934577   7.4534031   9.2879030  )
        49           O1  tau(  49) = (   1.3388943   7.5534522  12.5751898  )
        50           O1  tau(  50) = (   4.5903976   7.5792304  16.0166626  )
        51           Ti1 tau(  51) = (   3.2895107   8.9417832   9.2893338  )
        52           Ti1 tau(  52) = (  -0.0003648   8.7758640  12.4444508  )
        53           Ti1 tau(  53) = (   3.2897763   8.8353469  15.6829021  )
        54           H1  tau(  54) = (   0.0028024   0.0278429  18.2586218  )
        55           N1  tau(  55) = (   0.0000016   3.3024973  17.8430138  )
        56           H1  tau(  56) = (   6.5772996   2.3364033  18.1430564  )
        57           H1  tau(  57) = (   6.5785254   3.8921159  18.6668881  )
        58           N1  tau(  58) = (   3.2892544   5.9906839  18.1401779  )
        59           H1  tau(  59) = (   3.2890604   5.0659402  18.5578254  )
        60           H1  tau(  60) = (   2.4549486   6.4784715  18.4500629  )
        61           H1  tau(  61) = (   4.1227990   6.4789769  18.4516084  )

     number of k points=    10  Fermi-Dirac smearing, width (Ry)=  0.0073
                       cart. coord. in units 2pi/alat
        k(    1) = (   0.0000000   0.0000000   0.0000000), wk =   0.1250000
        k(    2) = (   0.0000000   0.0279567   0.0000000), wk =   0.2500000
        k(    3) = (   0.0000000  -0.0559134   0.0000000), wk =   0.1250000
        k(    4) = (   0.0379955   0.0000049   0.0000000), wk =   0.2500000
        k(    5) = (   0.0379955   0.0279617   0.0000000), wk =   0.2500000
        k(    6) = (   0.0379955  -0.0559085   0.0000000), wk =   0.2500000
        k(    7) = (   0.0379955  -0.0279518   0.0000000), wk =   0.2500000
        k(    8) = (  -0.0759910  -0.0000099   0.0000000), wk =   0.1250000
        k(    9) = (  -0.0759910   0.0279468   0.0000000), wk =   0.2500000
        k(   10) = (  -0.0759910  -0.0559233   0.0000000), wk =   0.1250000

     Initial potential from superposition of free atoms

     starting charge  423.99908, renormalised to  442.00000

     negative rho (up, down):  3.654E-02 0.000E+00

     %%%%%%%%%%%%%%%%%%%%%%%%%%%%%%%%%%%%%%%%%%%%%%%%%%%%%%%%%%%%%%%%%%%%%%%%
     %                                                                      %
     % You are using vdW-DF, which was implemented by the Thonhauser group. %
     % Please cite the following two papers that made this development      %
     % possible and the two reviews that describe the various versions:     %
     %                                                                      %
     %   T. Thonhauser et al., PRL 115, 136402 (2015).                      %
     %   T. Thonhauser et al., PRB 76, 125112 (2007).                       %
     %   K. Berland et al., Rep. Prog. Phys. 78, 066501 (2015).             %
     %   D.C. Langreth et al., J. Phys.: Condens. Matter 21, 084203 (2009). %
     %                                                                      %
     %                                                                      %
     % If you are calculating the stress with vdW-DF, please also cite:     %
     %                                                                      %
     %   R. Sabatini et al., J. Phys.: Condens. Matter 24, 424209 (2012).   %
     %                                                                      %
     %%%%%%%%%%%%%%%%%%%%%%%%%%%%%%%%%%%%%%%%%%%%%%%%%%%%%%%%%%%%%%%%%%%%%%%%

     Adding external electric field

     Computed dipole along edir(3) :
        Dipole               -6.3674 Ry au,        -16.1843 Debye
        Dipole field         -0.0080 Ry au,

        Potential amp.        0.7426 Ry
        Total length         46.3494 bohr

     Starting wfcs are  334 atomic wfcs
  @ DRIVER MODE: Message from server: STATUS
  @ DRIVER MODE: Message from server: POSDATA
  @ DRIVER MODE: Reading and sharing cell
  @ DRIVER MODE: Reading and sharing positions
  @ DRIVER MODE: Received positions

     Self-consistent Calculation

     iteration #  1     ecut=    29.40 Ry     beta= 0.05
     Davidson diagonalization with overlap
     c_bands:  2 eigenvalues not converged
     c_bands:  3 eigenvalues not converged
     c_bands:  3 eigenvalues not converged
     c_bands:  2 eigenvalues not converged
     c_bands:  1 eigenvalues not converged
     c_bands:  4 eigenvalues not converged
     c_bands:  1 eigenvalues not converged
     c_bands:  1 eigenvalues not converged
     c_bands:  5 eigenvalues not converged
     ethr =  1.00E-05,  avg # of iterations = 20.0

[...]

     total energy              =   -3277.30895624 Ry
     estimated scf accuracy    <     250.05596854 Ry

     iteration #  2     ecut=    29.40 Ry     beta= 0.05
     Davidson diagonalization with overlap
     ethr =  1.00E-02,  avg # of iterations = 15.6

[...]

     iteration # 74     ecut=    29.40 Ry     beta= 0.05
     Davidson diagonalization with overlap
     c_bands:  1 eigenvalues not converged
     c_bands:  1 eigenvalues not converged
     c_bands:  1 eigenvalues not converged
     c_bands:  1 eigenvalues not converged
     ethr =  9.20E-11,  avg # of iterations = 16.6

[...]

     total energy              =   -3295.81886486 Ry
     estimated scf accuracy    <       0.00000019 Ry

     iteration # 78     ecut=    29.40 Ry     beta= 0.05
     Davidson diagonalization with overlap
     ethr =  4.24E-11,  avg # of iterations =  6.2

     negative rho (up, down):  3.514E-02 0.000E+00

     Adding external electric field

     Computed dipole along edir(3) :
        Dipole                2.0100 Ry au,          5.1088 Debye
        Dipole field          0.0025 Ry au,

        Potential amp.       -0.2344 Ry
        Total length         46.3494 bohr

     End of self-consistent calculation

          k = 0.0000 0.0000 0.0000 ( 26871 PWs)   bands (ev):

   -57.4456 -57.4225 -57.4139 -57.4066 -57.3633 -57.3522 -57.3120 -57.3081
   -57.2923 -57.2629 -57.2425 -57.2341 -57.2252 -57.1903 -57.0103 -56.5106
   -56.4839 -56.4674 -33.8431 -33.8318 -33.8249 -33.8205 -33.8120 -33.7788
   -33.7677 -33.7612 -33.7525 -33.7385 -33.7345 -33.7141 -33.6930 -33.6801
   -33.6526 -33.6494 -33.6373 -33.6353 -33.6137 -33.6122 -33.5915 -33.5802
   -33.5569 -33.5538 -33.5528 -33.5435 -33.5399 -33.5373 -33.5350 -33.5262
   -33.5174 -33.5050 -33.4898 -33.4753 -33.4667 -33.4554 -33.4407 -33.4387
   -33.4343 -33.4317 -33.4033 -33.3799 -33.3401 -33.3047 -33.2319 -32.8301
   -32.8228 -32.8092 -32.8020 -32.7879 -32.7350 -32.6761 -32.6561 -32.5312
   -19.1352 -18.3005 -17.9734 -17.7569 -17.7097 -17.6870 -17.6065 -17.5415
   -17.5347 -17.4636 -17.3844 -17.3045 -17.2766 -17.2717 -17.2370 -17.2091
   -17.1901 -17.1659 -17.1646 -17.1243 -17.1136 -17.0941 -17.0674 -17.0199
   -16.9467 -16.9340 -16.8997 -16.8924 -16.8869 -16.8867 -16.7429 -16.6657
   -16.5843 -15.2643 -14.9708 -14.9144 -14.9071  -7.7070  -7.6436  -7.2315
    -6.7444  -5.6243  -5.4642  -5.3785  -5.2764  -4.9378  -4.8718  -4.8502
    -4.8368  -4.7916  -4.7530  -4.7516  -4.6940  -4.6850  -4.6665  -4.5854
    -4.5718  -4.5491  -4.4976  -4.4755  -4.4251  -4.4244  -4.3746  -4.3199
    -4.2694  -4.2613  -4.2602  -4.2344  -4.2335  -4.2111  -4.2067  -4.0936
    -4.0885  -4.0148  -3.9058  -3.8967  -3.8492  -3.7764  -3.7664  -3.7404
    -3.7130  -3.6507  -3.6044  -3.5508  -3.5429  -3.5293  -3.4659  -3.4410
    -3.3595  -3.2562  -3.2431  -3.2114  -3.1668  -3.1524  -3.1062  -3.0756
    -3.0026  -2.9277  -2.8485  -2.8220  -2.7175  -2.6716  -2.6524  -2.6192
    -2.6121  -2.5385  -2.5346  -2.5095  -2.3573  -2.2538  -2.2439  -2.2244
    -2.2132  -2.1860  -2.1826  -2.1549  -2.0899  -2.0440  -2.0367  -2.0200
    -2.0004  -1.9882  -1.8988  -1.8399  -1.8125  -1.7835  -1.7678  -1.6738
    -1.6348  -1.5991  -1.5887  -1.4838  -1.4289  -1.3224  -1.3176  -1.3036
    -1.2327  -1.1864  -1.1143  -0.7968  -0.6265  -0.5557  -0.2687  -0.2107
    -0.2026   0.0573   0.0696   0.1978   1.5433   1.7745   1.9750   1.9773
     1.9930   2.0637   2.1317   2.1447   2.2096   2.2620   2.2776

[...]

          k = 0.0380-0.0280 0.0000 ( 26873 PWs)   bands (ev):

[...]

          k =-0.0760-0.0000 0.0000 ( 26902 PWs)   bands (ev):

[...]

          k =-0.0760-0.0559 0.0000 ( 26868 PWs)   bands (ev):

   -57.4400 -57.4329 -57.4090 -57.4058 -57.3641 -57.3524 -57.3108 -57.3090
   -57.2914 -57.2614 -57.2452 -57.2360 -57.2235 -57.1897 -57.0103 -56.5080
   -56.4891 -56.4646 -33.9222 -33.9042 -33.8545 -33.8228 -33.8067 -33.7827
   -33.7738 -33.7652 -33.7235 -33.7086 -33.6938 -33.6640 -33.6411 -33.6370
   -33.6330 -33.6122 -33.6001 -33.5982 -33.5970 -33.5891 -33.5871 -33.5811
   -33.5694 -33.5606 -33.5565 -33.5524 -33.5357 -33.5294 -33.5231 -33.5174
   -33.5166 -33.5134 -33.5044 -33.5015 -33.4946 -33.4880 -33.4563 -33.4554
   -33.4471 -33.4352 -33.4335 -33.3947 -33.3610 -33.3042 -33.2353 -32.9115
   -32.8256 -32.8081 -32.7851 -32.7231 -32.7018 -32.6462 -32.6365 -32.6175
   -19.1287 -17.9940 -17.9226 -17.6834 -17.6270 -17.6144 -17.5991 -17.5632
   -17.5078 -17.4771 -17.4383 -17.4111 -17.3724 -17.3273 -17.3133 -17.2390
   -17.2342 -17.2305 -17.1643 -17.1623 -17.1448 -17.0999 -17.0865 -17.0639
   -17.0149 -16.9739 -16.9600 -16.8810 -16.8559 -16.8155 -16.7206 -16.6526
   -16.6176 -15.2618 -14.9721 -14.9617 -14.8489  -7.6891  -7.6419  -7.2220
    -6.7474  -5.2461  -5.2147  -5.1800  -5.1515  -5.0465  -4.8616  -4.7846
    -4.7516  -4.7475  -4.6826  -4.6623  -4.6558  -4.6115  -4.5993  -4.5744
    -4.5514  -4.5217  -4.4873  -4.4795  -4.4432  -4.4114  -4.3962  -4.3747
    -4.3570  -4.3517  -4.3377  -4.2492  -4.1872  -4.1732  -4.1159  -4.0889
    -4.0640  -4.0208  -4.0081  -3.9670  -3.9389  -3.7130  -3.6249  -3.6093
    -3.6087  -3.5816  -3.5467  -3.4900  -3.4319  -3.4017  -3.3707  -3.2440
    -3.2040  -3.1910  -3.1864  -3.1514  -3.0677  -3.0415  -3.0123  -2.9797
    -2.9644  -2.9148  -2.9022  -2.8617  -2.8214  -2.7497  -2.7061  -2.6689
    -2.6362  -2.6032  -2.5920  -2.5656  -2.5365  -2.5311  -2.5053  -2.4859
    -2.4137  -2.4116  -2.3726  -2.3160  -2.2429  -2.2090  -2.1913  -2.1123
    -2.0343  -1.9832  -1.9593  -1.9389  -1.8615  -1.7446  -1.7187  -1.7100
    -1.6763  -1.6282  -1.5772  -1.5432  -1.4931  -1.4026  -1.2705  -1.2502
    -1.1819  -1.0858  -1.0648  -1.0445  -0.8235  -0.7312  -0.4196  -0.1607
    -0.1159  -0.0967   0.0623   0.0699   1.7039   1.7709   1.8335   1.8668
     1.8831   1.9143   1.9171   1.9862   2.0417   2.1107   2.1293

     the Fermi energy is     1.6429 ev

!    total energy              =   -3295.81887105 Ry
     estimated scf accuracy    <       0.00000006 Ry
     smearing contrib. (-TS)   =      -0.03294904 Ry
     internal energy E=F+TS    =   -3295.78592201 Ry

     The total energy is F=E-TS. E is the sum of the following terms:
     one-electron contribution =  -34382.81534625 Ry
     hartree contribution      =   17260.70523852 Ry
     xc contribution           =    -543.89578725 Ry
     ewald contribution        =   14370.21489031 Ry
     electric field correction =       0.00508268 Ry

     convergence has been achieved in  78 iterations

     Forces acting on atoms (cartesian axes, Ry/au):

     atom    1 type  1   force =     0.00000504    0.00791319    0.05043201
     atom    2 type  1   force =    -0.00000905    0.00034495   -0.00969368
     atom    3 type  1   force =    -0.00002071   -0.00511492    0.00065954
     atom    4 type  1   force =     0.00005776    0.00282463    0.10760903
     atom    5 type  1   force =     0.00000427    0.00069390    0.00922794
     atom    6 type  1   force =    -0.00000667   -0.00159300    0.00005076
     atom    7 type  1   force =     0.06463445    0.00007728   -0.02899024
     atom    8 type  1   force =     0.00389711   -0.02785874    0.00323166
     atom    9 type  1   force =     0.00825770   -0.01831478    0.00239357
     atom   10 type  2   force =    -0.00004926   -0.00797869   -0.19371679
     atom   11 type  2   force =    -0.00002613    0.02061966   -0.00636682
     atom   12 type  2   force =    -0.00005344    0.02206538   -0.00269002
     atom   13 type  1   force =    -0.06472818   -0.00037663   -0.02893661
     atom   14 type  1   force =    -0.00389610   -0.02783953    0.00322717
     atom   15 type  1   force =    -0.00824811   -0.01829960    0.00238240
     atom   16 type  2   force =     0.00010094    0.00058825    0.06675644
     atom   17 type  2   force =     0.00002441    0.03325509    0.00613740
     atom   18 type  2   force =     0.00000375    0.02088104    0.00188278
     atom   19 type  1   force =     0.00000457    0.00226038    0.05628643
     atom   20 type  1   force =    -0.00000490   -0.00132349   -0.00687416
     atom   21 type  1   force =     0.00006006   -0.00139139    0.10885677
     atom   22 type  1   force =     0.00000749   -0.00024748    0.00986263
     atom   23 type  1   force =     0.00000971   -0.00495152    0.00112527
     atom   24 type  1   force =     0.06620042   -0.00050860   -0.02949061
     atom   25 type  1   force =     0.00418655   -0.03009243    0.00219332
     atom   26 type  1   force =     0.00998053   -0.02415175    0.00224974
     atom   27 type  2   force =    -0.00006676    0.01375290   -0.18653740
     atom   28 type  2   force =    -0.00001861    0.02334491   -0.00582943
     atom   29 type  2   force =    -0.00004332    0.01727585   -0.00905771
     atom   30 type  1   force =    -0.06630798   -0.00095930   -0.02944573
     atom   31 type  1   force =    -0.00418151   -0.03006349    0.00219341
     atom   32 type  1   force =    -0.00991640   -0.02412819    0.00224226
     atom   33 type  2   force =     0.00009678   -0.00141503    0.06833284
     atom   34 type  2   force =     0.00002203    0.03781921    0.00403513
     atom   35 type  2   force =    -0.00002519    0.03581568    0.00771808
     atom   36 type  1   force =     0.00001517    0.00056781    0.06524261
     atom   37 type  1   force =    -0.00001030    0.00227675   -0.01099200
     atom   38 type  1   force =    -0.00000184   -0.00078357    0.00184702
     atom   39 type  1   force =     0.00005838   -0.00143579    0.10680197
     atom   40 type  1   force =     0.00000079   -0.00040522    0.00775590
     atom   41 type  1   force =    -0.00000145   -0.00032315    0.00568351
     atom   42 type  1   force =     0.06732440   -0.00097692   -0.02905823
     atom   43 type  1   force =     0.00312583   -0.02830220    0.00236867
     atom   44 type  1   force =     0.00714336   -0.02151984    0.00458250
     atom   45 type  2   force =    -0.00006763   -0.00850214   -0.18088075
     atom   46 type  2   force =    -0.00000399    0.01745713   -0.00235646
     atom   47 type  2   force =    -0.00004484    0.02056015   -0.00652552
     atom   48 type  1   force =    -0.06741921   -0.00142447   -0.02901353
     atom   49 type  1   force =    -0.00309425   -0.02830057    0.00236590
     atom   50 type  1   force =    -0.00711632   -0.02148180    0.00455243
     atom   51 type  2   force =     0.00012397   -0.00305693    0.06676872
     atom   52 type  2   force =     0.00000440    0.03509829    0.00728276
     atom   53 type  2   force =    -0.00002239    0.02417019    0.00298050
     atom   54 type  3   force =     0.00010454    0.00029766   -0.00068236
     atom   55 type  4   force =    -0.00001640   -0.00006592    0.00086592
     atom   56 type  3   force =    -0.00003440    0.00059326    0.00034983
     atom   57 type  3   force =     0.00000220    0.00053212    0.00078785
     atom   58 type  4   force =     0.00012428    0.00077516   -0.00143758
     atom   59 type  3   force =    -0.00000215   -0.00006682    0.00005090
     atom   60 type  3   force =    -0.00053273    0.00073328   -0.00037924
     atom   61 type  3   force =     0.00038934    0.00065981   -0.00041872

     Total force =     0.461605     Total SCF correction =     0.000529
  @ DRIVER MODE: Message from server: STATUS
  @ DRIVER MODE: Message from server: GETFORCE
  @ DRIVER MODE: Returning v,forces,stress,ensemble

     Writing output data file ./calc.save/
  @ DRIVER MODE: Message from server: EXIT
  @ DRIVE MODE: Exiting

     General routines

     Parallel routines

   This run was terminated on:  13:29:25  18Oct2021

   JOB DONE.