     Program PWSCF v.6.7GPU starts on 15Jul2021 at 17: 6: 1

     R & G space division:  proc/nbgrp/npool/nimage =      16
     Reading input from /storage/home/hcoda1/3/ntian30/research/carbon/15Jul_vib/ads_slab/CH3N2_b/out_0001/pw.inp
Warning: card &CELL ignored
Warning: card   CELL_DYNAMICS='IPI', ignored
Warning: card / ignored

     Current dimensions of program PWSCF are:
     Max number of different atomic species (ntypx) = 10
     Max number of k-points (npk) =  40000
     Max angular momentum in pseudopotentials (lmaxx) =  3
     Presently no symmetry can be used with electric field

     Message from routine cell_base_init:
     DEPRECATED: use true lattice parameter, not A to a.u. conversion factor

     IMPORTANT: XC functional enforced from input :
     Exchange-correlation= BEEF-VDW
                           (   1   4  43  14   2   0   0)
     Any further DFT definition will be discarded
     Please, verify this is what you really want

  @ DRIVER MODE: Connecting to
 qe_1139763_2351645.sched-torque.pace.gatech.edu92blc4nl_scratch
  using UNIX socket
  @ DRIVER MODE: Message from server: STATUS
  @ DRIVER MODE: Message from server: INIT
  @ DRIVER MODE: Receiving replica           0          -1
  @ DRIVER MODE: Receiving encoded integer          25
  @ DRIVER MODE:  SCF:  T  FORCE:  T  STRESS:  F  VC:  F  ENSEMBLE:  F
  @ DRIVER MODE:  SCF:  T  FORCE:  T  STRESS:  F  VC:  F  ENSEMBLE:  F

     Using Slab Decomposition

     bravais-lattice index     =            0
     lattice parameter (alat)  =       1.8897  a.u.
     unit-cell volume          =    6658.9804 (a.u.)^3
     number of atoms/cell      =           53
     number of atomic types    =            5
     number of electrons       =       395.00
     number of Kohn-Sham states=          207
     kinetic-energy cutoff     =      29.3995  Ry
     charge density cutoff     =     293.9946  Ry
     scf convergence threshold =      7.3E-08
     mixing beta               =       0.0500
     number of iterations used =            8  plain     mixing
     Exchange-correlation= BEEF-VDW
                           (   1   4  43  14   2   0   0)

     celldm(1)=   1.889726  celldm(2)=   0.000000  celldm(3)=   0.000000
     celldm(4)=   0.000000  celldm(5)=   0.000000  celldm(6)=   0.000000

     crystal axes: (cart. coord. in units of alat)
               a(1) = (   6.579727   0.000000   0.000000 )
               a(2) = (  -0.000775   5.961596   0.000000 )
               a(3) = (   0.000000   0.000000  25.155947 )

     reciprocal axes: (cart. coord. in units 2 pi/alat)
               b(1) = (  0.151982  0.000020  0.000000 )
               b(2) = (  0.000000  0.167740  0.000000 )
               b(3) = (  0.000000  0.000000  0.039752 )

     PseudoPot. # 1 for Ti read from file:
     /storage/coda1/p-amedford6/0/shared/rich_project_chbe-medford/medford-share/data/pseudos_module/espresso/nninc/pbe/van/Ti.UPF
     MD5 check sum: 8e4df49b7f0d34bbd5052bf3f5ea0213
     Pseudo is Ultrasoft, Zval = 12.0
     Generated by new atomic code, or converted to UPF format
     Using radial grid of  851 points,  6 beta functions with:
                l(1) =   0
                l(2) =   0
                l(3) =   1
                l(4) =   1
                l(5) =   2
                l(6) =   2
     Q(r) pseudized with  8 coefficients,  rinner =    1.000   1.000   1.000
                                                       1.000   1.000

     PseudoPot. # 2 for O  read from file:
     /storage/coda1/p-amedford6/0/shared/rich_project_chbe-medford/medford-share/data/pseudos_module/espresso/nninc/pbe/van/O.UPF
     MD5 check sum: 78c19812648e8988a0fe644b0f25305e
     Pseudo is Ultrasoft, Zval =  6.0
     Generated by new atomic code, or converted to UPF format
     Using radial grid of  737 points,  4 beta functions with:
                l(1) =   0
                l(2) =   0
                l(3) =   1
                l(4) =   1
     Q(r) pseudized with  8 coefficients,  rinner =    0.800   0.800   0.800

     PseudoPot. # 3 for N  read from file:
     /storage/coda1/p-amedford6/0/shared/rich_project_chbe-medford/medford-share/data/pseudos_module/espresso/nninc/pbe/van/N.UPF
     MD5 check sum: 90d10febe142ad51ac9d5be1deb811c4
     Pseudo is Ultrasoft, Zval =  5.0
     Generated by new atomic code, or converted to UPF format
     Using radial grid of  729 points,  4 beta functions with:
                l(1) =   0
                l(2) =   0
                l(3) =   1
                l(4) =   1
     Q(r) pseudized with  8 coefficients,  rinner =    0.800   0.800   0.800

     PseudoPot. # 4 for C  read from file:
     /storage/coda1/p-amedford6/0/shared/rich_project_chbe-medford/medford-share/data/pseudos_module/espresso/nninc/pbe/van/C.UPF
     MD5 check sum: 1a69bf6b8db32088f5b2163dbdb77a27
     Pseudo is Ultrasoft, Zval =  4.0
     Generated by new atomic code, or converted to UPF format
     Using radial grid of  721 points,  4 beta functions with:
                l(1) =   0
                l(2) =   0
                l(3) =   1
                l(4) =   1
     Q(r) pseudized with  8 coefficients,  rinner =    0.800   0.800   0.800

     PseudoPot. # 5 for H  read from file:
     /storage/coda1/p-amedford6/0/shared/rich_project_chbe-medford/medford-share/data/pseudos_module/espresso/nninc/pbe/van/H.UPF
     MD5 check sum: b5ee9d7bfd3a09ee7748110bda690ff7
     Pseudo is Ultrasoft, Zval =  1.0
     Generated by new atomic code, or converted to UPF format
     Using radial grid of  615 points,  1 beta functions with:
                l(1) =   0
     Q(r) pseudized with  8 coefficients,  rinner =    0.800

     atomic species   valence    mass     pseudopotential
        Ti1           12.00    47.86700     Ti( 1.00)
        O1             6.00    15.99900     O ( 1.00)
        N1             5.00    14.00700     N ( 1.00)
        C1             4.00    12.01100     C ( 1.00)
        H1             1.00     1.00800     H ( 1.00)

     Starting magnetic structure
     atomic species   magnetization
        Ti1          0.000
        O1           0.000
        N1           0.000
        C1           0.025
        H1           0.000

     No symmetry found

   Cartesian axes

     site n.     atom                  positions (alat units)
         1           Ti1 tau(   1) = (   0.0004258   2.9801865   6.0000000  )
         2           Ti1 tau(   2) = (   3.2906075   1.4906267   6.0002472  )
         3           O1  tau(   3) = (   0.0006271   0.0005054   7.9858123  )
         4           O1  tau(   4) = (   3.2906025   0.0005020   7.3038282  )
         5           O1  tau(   5) = (   4.5942328   1.4918067   9.2879030  )
         6           O1  tau(   6) = (   1.9868534   1.4903216   9.2879459  )
         7           Ti1 tau(   7) = (   3.2907910   2.8959150   9.1758416  )
         8           Ti1 tau(   8) = (   0.0015273   1.4827037   9.2680791  )
         9           O1  tau(   9) = (   3.3037365   0.0094216  11.3222111  )
        10           O1  tau(  10) = (   0.0116148   5.9584955  10.6183126  )
        11           O1  tau(  11) = (   1.3152514   1.5075076  12.6320051  )
        12           O1  tau(  12) = (   5.3186361   1.4995162  12.6508707  )
        13           Ti1 tau(  13) = (   6.5540705   2.9956815  12.5884341  )
        14           Ti1 tau(  14) = (   3.2234832   1.4927074  12.4921739  )
        15           O1  tau(  15) = (   0.0610261   5.9052480  14.6017706  )
        16           O1  tau(  16) = (   3.2936532   0.0132264  13.8830087  )
        17           O1  tau(  17) = (   4.5722397   1.5061520  16.0138922  )
        18           O1  tau(  18) = (   2.0767725   1.5295127  16.0808449  )
        19           Ti1 tau(  19) = (   3.3650854   3.0251465  15.6907462  )
        20           Ti1 tau(  20) = (   0.0387768   1.3037779  15.7216176  )
        21           O1  tau(  21) = (   3.2904802   0.0005063   4.7018136  )
        22           O1  tau(  22) = (   0.0189486   0.1070799  17.1824039  )
        23           O1  tau(  23) = (   1.3043587   1.4918075   6.0039043  )
        24           O1  tau(  24) = (   5.2767064   1.4903225   6.0039473  )
        25           Ti1 tau(  25) = (   0.0000382   5.9609847   6.0000000  )
        26           Ti1 tau(  26) = (   3.2902200   4.4714249   6.0002472  )
        27           O1  tau(  27) = (   0.0002396   2.9813036   7.9858123  )
        28           O1  tau(  28) = (   3.2902150   2.9813002   7.3038282  )
        29           O1  tau(  29) = (   4.5938453   4.4726049   9.2879030  )
        30           O1  tau(  30) = (   1.9864658   4.4711199   9.2879459  )
        31           Ti1 tau(  31) = (   3.2891106   5.8743827   9.1763621  )
        32           Ti1 tau(  32) = (   0.0006254   4.4649316   9.2693709  )
        33           O1  tau(  33) = (   3.3043114   2.9829305  11.3227053  )
        34           O1  tau(  34) = (   0.0092240   2.9805883  10.6323155  )
        35           O1  tau(  35) = (   1.3131995   4.4620516  12.6081187  )
        36           O1  tau(  36) = (   5.3117129   4.4692194  12.6284301  )
        37           Ti1 tau(  37) = (   6.5303063   5.9583428  12.5400172  )
        38           Ti1 tau(  38) = (   3.2255477   4.4746212  12.4748647  )
        39           O1  tau(  39) = (   0.0377805   3.0059521  14.8845374  )
        40           O1  tau(  40) = (   3.3120027   2.9986483  13.8863452  )
        41           O1  tau(  41) = (   4.5434534   4.5277214  16.0148975  )
        42           O1  tau(  42) = (   2.1165747   4.4940517  16.0783766  )
        43           Ti1 tau(  43) = (   3.3042555   0.0241951  15.7004812  )
        44           Ti1 tau(  44) = (   0.0495666   4.4505358  16.3362958  )
        45           O1  tau(  45) = (   3.2900926   2.9813045   4.7018136  )
        46           O1  tau(  46) = (   1.3039711   4.4726057   6.0039043  )
        47           O1  tau(  47) = (   5.2763189   4.4711207   6.0039473  )
        48           N1  tau(  48) = (   0.5248212   3.4288502  18.0689430  )
        49           C1  tau(  49) = (   1.3556880   3.0079929  19.2215664  )
        50           H1  tau(  50) = (   1.4862090   3.8900195  19.8496782  )
        51           H1  tau(  51) = (   0.8469181   2.2141957  19.7647163  )
        52           H1  tau(  52) = (   2.3296892   2.6851793  18.8624704  )
        53           N1  tau(  53) = (   5.9145885   3.2636146  17.9655992  )

     number of k points=    10  Fermi-Dirac smearing, width (Ry)=  0.0073
                       cart. coord. in units 2pi/alat
        k(    1) = (   0.0000000   0.0000000   0.0000000), wk =   0.0625000
        k(    2) = (   0.0000000   0.0419351   0.0000000), wk =   0.1250000
        k(    3) = (   0.0000000  -0.0838702   0.0000000), wk =   0.0625000
        k(    4) = (   0.0379955   0.0000049   0.0000000), wk =   0.1250000
        k(    5) = (   0.0379955   0.0419400   0.0000000), wk =   0.1250000
        k(    6) = (   0.0379955  -0.0838652   0.0000000), wk =   0.1250000
        k(    7) = (   0.0379955  -0.0419301   0.0000000), wk =   0.1250000
        k(    8) = (  -0.0759910  -0.0000099   0.0000000), wk =   0.0625000
        k(    9) = (  -0.0759910   0.0419252   0.0000000), wk =   0.1250000
        k(   10) = (  -0.0759910  -0.0838800   0.0000000), wk =   0.0625000

     Initial potential from superposition of free atoms

     starting charge  378.99916, renormalised to  395.00000

     negative rho (up, down):  8.047E-03 8.054E-03

     %%%%%%%%%%%%%%%%%%%%%%%%%%%%%%%%%%%%%%%%%%%%%%%%%%%%%%%%%%%%%%%%%%%%%%%%
     %                                                                      %
     % You are using vdW-DF, which was implemented by the Thonhauser group. %
     % Please cite the following two papers that made this development      %
     % possible and the two reviews that describe the various versions:     %
     %                                                                      %
     %   T. Thonhauser et al., PRL 115, 136402 (2015).                      %
     %   T. Thonhauser et al., PRB 76, 125112 (2007).                       %
     %   K. Berland et al., Rep. Prog. Phys. 78, 066501 (2015).             %
     %   D.C. Langreth et al., J. Phys.: Condens. Matter 21, 084203 (2009). %
     %                                                                      %
     %                                                                      %
     % If you are calculating the stress with vdW-DF, please also cite:     %
     %                                                                      %
     %   R. Sabatini et al., J. Phys.: Condens. Matter 24, 424209 (2012).   %
     %                                                                      %
     %%%%%%%%%%%%%%%%%%%%%%%%%%%%%%%%%%%%%%%%%%%%%%%%%%%%%%%%%%%%%%%%%%%%%%%%

     Adding external electric field

     Computed dipole along edir(3) :
        Dipole               -8.5786 Ry au,        -21.8047 Debye
        Dipole field         -0.0162 Ry au,

        Potential amp.        1.5007 Ry
        Total length         46.3494 bohr

[...]

     Starting wfcs are  299 atomic wfcs
  @ DRIVER MODE: Message from server: STATUS
  @ DRIVER MODE: Message from server: POSDATA
  @ DRIVER MODE: Reading and sharing cell
  @ DRIVER MODE: Reading and sharing positions
  @ DRIVER MODE: Received positions

     Self-consistent Calculation

     iteration #  1     ecut=    29.40 Ry     beta= 0.05
     Davidson diagonalization with overlap
     c_bands:  1 eigenvalues not converged
     c_bands:  1 eigenvalues not converged
     c_bands:  1 eigenvalues not converged
     c_bands:  3 eigenvalues not converged
     c_bands:  1 eigenvalues not converged
     c_bands:  3 eigenvalues not converged
     c_bands:  1 eigenvalues not converged
     c_bands:  2 eigenvalues not converged
     c_bands:  1 eigenvalues not converged
     c_bands:  1 eigenvalues not converged
     c_bands:  1 eigenvalues not converged
     c_bands:  3 eigenvalues not converged
     c_bands:  1 eigenvalues not converged
     c_bands:  3 eigenvalues not converged
     c_bands:  1 eigenvalues not converged
     c_bands:  2 eigenvalues not converged
     ethr =  1.00E-05,  avg # of iterations = 19.2

[...]

     total energy              =   -2599.49933850 Ry
     estimated scf accuracy    <    3761.94619709 Ry

     total magnetization       =     0.00 Bohr mag/cell
     absolute magnetization    =     0.02 Bohr mag/cell

     iteration #  2     ecut=    29.40 Ry     beta= 0.05
     Davidson diagonalization with overlap
     ethr =  1.00E-02,  avg # of iterations = 22.8

[...]

     iteration # 35     ecut=    29.40 Ry     beta= 0.05
     Davidson diagonalization with overlap
     c_bands:  1 eigenvalues not converged
     ethr =  6.58E-07,  avg # of iterations = 15.7

[...]

     total energy              =   -2939.12561484 Ry
     estimated scf accuracy    <       0.00000011 Ry

[...]

     iteration # 60     ecut=    29.40 Ry     beta= 0.05
     Davidson diagonalization with overlap
     ethr =  2.90E-11,  avg # of iterations =  9.9

     negative rho (up, down):  8.111E-03 8.112E-03

[...]

     Adding external electric field

     Computed dipole along edir(3) :
        Dipole                0.9151 Ry au,          2.3258 Debye
        Dipole field          0.0017 Ry au,

        Potential amp.       -0.1601 Ry
        Total length         46.3494 bohr

     Magnetic moment per site  (integrated on atomic sphere of radius R)
     atom   1 (R=0.727)  charge=  7.9485  magn=  0.0092
     atom   2 (R=0.727)  charge=  7.9316  magn=  0.0007
     atom   3 (R=0.727)  charge=  4.9369  magn= -0.0007
     atom   4 (R=0.727)  charge=  4.9738  magn= -0.0002
     atom   5 (R=0.727)  charge=  4.9423  magn= -0.0001
     atom   6 (R=0.727)  charge=  4.9431  magn= -0.0001
     atom   7 (R=0.727)  charge=  7.9299  magn=  0.0004
     atom   8 (R=0.727)  charge=  7.9249  magn=  0.0031
     atom   9 (R=0.727)  charge=  4.9562  magn= -0.0001
     atom  10 (R=0.727)  charge=  4.9398  magn= -0.0002
     atom  11 (R=0.727)  charge=  4.9438  magn= -0.0001
     atom  12 (R=0.727)  charge=  4.9403  magn= -0.0001
     atom  13 (R=0.727)  charge=  7.9199  magn=  0.0008
     atom  14 (R=0.727)  charge=  7.9286  magn=  0.0002
     atom  15 (R=0.727)  charge=  4.9367  magn= -0.0000
     atom  16 (R=0.727)  charge=  4.9585  magn= -0.0000
     atom  17 (R=0.727)  charge=  4.9269  magn= -0.0000
     atom  18 (R=0.727)  charge=  4.9196  magn= -0.0000
     atom  19 (R=0.727)  charge=  7.9517  magn=  0.0000
     atom  20 (R=0.727)  charge=  7.9766  magn=  0.0001
     atom  21 (R=0.727)  charge=  4.8265  magn= -0.0007
     atom  22 (R=0.727)  charge=  4.9098  magn=  0.0000
     atom  23 (R=0.727)  charge=  4.9339  magn= -0.0011
     atom  24 (R=0.727)  charge=  4.9340  magn= -0.0011
     atom  25 (R=0.727)  charge=  7.9486  magn=  0.0091
     atom  26 (R=0.727)  charge=  7.9316  magn=  0.0007
     atom  27 (R=0.727)  charge=  4.9363  magn= -0.0007
     atom  28 (R=0.727)  charge=  4.9740  magn= -0.0002
     atom  29 (R=0.727)  charge=  4.9433  magn= -0.0001
     atom  30 (R=0.727)  charge=  4.9439  magn= -0.0001
     atom  31 (R=0.727)  charge=  7.9304  magn=  0.0004
     atom  32 (R=0.727)  charge=  7.9251  magn=  0.0030
     atom  33 (R=0.727)  charge=  4.9553  magn= -0.0001
     atom  34 (R=0.727)  charge=  4.9242  magn= -0.0002
     atom  35 (R=0.727)  charge=  4.9447  magn= -0.0001
     atom  36 (R=0.727)  charge=  4.9438  magn= -0.0001
     atom  37 (R=0.727)  charge=  7.9230  magn=  0.0007
     atom  38 (R=0.727)  charge=  7.9296  magn=  0.0003
     atom  39 (R=0.727)  charge=  4.9078  magn= -0.0000
     atom  40 (R=0.727)  charge=  4.9610  magn= -0.0000
     atom  41 (R=0.727)  charge=  4.9355  magn= -0.0000
     atom  42 (R=0.727)  charge=  4.9347  magn= -0.0000
     atom  43 (R=0.727)  charge=  7.9537  magn=  0.0000
     atom  44 (R=0.727)  charge=  7.9736  magn= -0.0001
     atom  45 (R=0.727)  charge=  4.8265  magn= -0.0008
     atom  46 (R=0.727)  charge=  4.9339  magn= -0.0011
     atom  47 (R=0.727)  charge=  4.9340  magn= -0.0011
     atom  48 (R=0.497)  charge=  1.9693  magn= -0.0000
     atom  49 (R=0.448)  charge=  0.8472  magn=  0.0000
     atom  50 (R=0.448)  charge=  0.4993  magn= -0.0000
     atom  51 (R=0.448)  charge=  0.5029  magn= -0.0000
     atom  52 (R=0.448)  charge=  0.5039  magn= -0.0000
     atom  53 (R=0.497)  charge=  1.9288  magn=  0.0000

     End of self-consistent calculation

 ------ SPIN UP ------------

          k = 0.0000 0.0000 0.0000 ( 18029 PWs)   bands (ev):

   -55.7808 -55.7666 -55.7468 -55.7307 -55.6807 -55.6324 -55.5956 -55.5617
   -55.5523 -55.5186 -55.5162 -55.4438 -54.9542 -54.7953 -54.7531 -54.7191
   -32.3153 -32.2598 -32.1715 -32.0964 -32.0739 -32.0530 -32.0440 -32.0259
   -32.0027 -31.9670 -31.9369 -31.9344 -31.9185 -31.9014 -31.8817 -31.8804
   -31.8763 -31.8748 -31.8622 -31.8395 -31.8325 -31.8189 -31.7975 -31.7903
   -31.7873 -31.7792 -31.7782 -31.7522 -31.7378 -31.7338 -31.7244 -31.7074
   -31.7059 -31.6660 -31.6332 -31.5608 -31.4891 -31.3344 -31.1652 -31.1597
   -31.0969 -31.0720 -31.0593 -31.0495 -30.9768 -30.8995 -30.8904 -30.7788
   -19.5888 -16.5137 -16.2484 -15.9629 -15.9118 -15.8382 -15.7443 -15.6209
   -15.5249 -15.4069 -15.3680 -15.3105 -15.3044 -15.2600 -15.2330 -15.2289
   -15.2031 -15.1935 -15.1303 -15.1227 -15.0730 -15.0612 -15.0127 -14.9788
   -14.9664 -14.9102 -14.8420 -14.8023 -14.6828 -14.1577 -13.2525 -13.1360
   -12.2998  -7.2503  -4.9783  -4.8110  -3.8961  -3.7536  -3.7049  -3.6816
    -3.6371  -3.4369  -3.3488  -3.2805  -3.0409  -2.9494  -2.9248  -2.9141
    -2.8652  -2.7126  -2.6845  -2.6059  -2.5872  -2.5591  -2.5372  -2.5288
    -2.4971  -2.4834  -2.4775  -2.4342  -2.3234  -2.2096  -2.1832  -2.1088
    -2.0874  -2.0734  -2.0421  -2.0340  -2.0216  -2.0131  -1.9955  -1.9571
    -1.9076  -1.8492  -1.7857  -1.7015  -1.5641  -1.5406  -1.4576  -1.3815
    -1.3022  -1.2594  -1.2377  -1.2090  -1.1691  -1.0902  -1.0634  -0.9174
    -0.8213  -0.7874  -0.7717  -0.7286  -0.6919  -0.5898  -0.5679  -0.5384
    -0.5286  -0.5017  -0.4287  -0.3739  -0.2393  -0.2091  -0.2059  -0.1690
    -0.0968  -0.0431   0.0097   0.0594   0.0674   0.1038   0.1635   0.1889
     0.1940   0.2362   0.2778   0.3537   0.3793   0.4534   0.4575   0.5209
     0.5654   0.6452   0.7550   0.8775   1.0205   1.1570   1.2028   1.2719
     1.3663   1.4635   1.8425   1.8877   2.1683   3.3367   3.4381   3.4703
     3.4815   3.5892   3.7944   3.8214   3.8707   3.8906   3.8997

[...]

          k =-0.0760-0.0000 0.0000 ( 17886 PWs)   bands (ev):

[...]

 ------ SPIN DOWN ----------

[...]

          k = 0.0380-0.0419 0.0000 ( 17876 PWs)   bands (ev):

[...]

          k =-0.0760-0.0839 0.0000 ( 17948 PWs)   bands (ev):

   -55.7487 -55.7473 -55.7466 -55.7466 -55.6721 -55.6384 -55.5733 -55.5729
   -55.5349 -55.5345 -55.5116 -55.4482 -54.9528 -54.7966 -54.7345 -54.7344
   -32.1186 -32.1150 -32.0677 -32.0676 -32.0401 -32.0400 -32.0158 -32.0010
   -31.9948 -31.9861 -31.9172 -31.9119 -31.8989 -31.8924 -31.8777 -31.8756
   -31.8747 -31.8686 -31.8642 -31.8640 -31.8498 -31.8467 -31.8454 -31.8105
   -31.7811 -31.7771 -31.7755 -31.7642 -31.7639 -31.7529 -31.7521 -31.7518
   -31.7505 -31.7335 -31.7084 -31.6580 -31.4375 -31.3149 -31.1668 -31.1537
   -31.0745 -31.0606 -31.0605 -30.9713 -30.9711 -30.9321 -30.9320 -30.9024
   -19.5867 -15.9143 -15.9082 -15.7468 -15.7124 -15.6465 -15.6378 -15.5701
   -15.5030 -15.4584 -15.4534 -15.3382 -15.3360 -15.3216 -15.2998 -15.2455
   -15.2293 -15.2279 -15.2247 -15.2169 -15.2056 -15.1778 -15.1469 -15.0961
   -15.0911 -15.0711 -15.0600 -14.9390 -14.5297 -14.4678 -13.2400 -13.2400
   -12.3021  -7.2370  -4.9807  -4.8080  -3.6269  -3.2035  -3.1872  -2.9990
    -2.9159  -2.9047  -2.8890  -2.7527  -2.7275  -2.7078  -2.6624  -2.6492
    -2.6341  -2.5967  -2.5806  -2.5567  -2.5228  -2.5119  -2.4823  -2.4623
    -2.4526  -2.4443  -2.4050  -2.4005  -2.3860  -2.3727  -2.3334  -2.2788
    -2.2398  -2.2125  -2.1848  -2.0891  -2.0267  -1.9910  -1.9234  -1.9148
    -1.8646  -1.8394  -1.8256  -1.7746  -1.6908  -1.6618  -1.5770  -1.4834
    -1.4643  -1.4493  -1.3308  -1.3167  -1.2426  -1.2178  -1.1343  -1.1171
    -1.0775  -0.9670  -0.9437  -0.9130  -0.8776  -0.8347  -0.7699  -0.7330
    -0.7311  -0.6825  -0.6390  -0.5821  -0.5204  -0.5085  -0.4936  -0.4853
    -0.4225  -0.3877  -0.3656  -0.2835  -0.2683  -0.1863  -0.0430  -0.0110
     0.1462   0.1957   0.3052   0.3333   0.4241   0.4456   0.5395   0.5426
     0.5748   0.7042   0.7236   0.7412   0.7575   0.7766   0.8007   0.9398
     1.6348   1.6349   1.7062   1.7063   2.1068   3.6747   3.7118   3.7626
     3.7850   3.8926   3.8967   3.8990   3.9071   4.0271   4.0316

     the Fermi energy is     3.3547 ev

!    total energy              =   -2939.12565722 Ry
     estimated scf accuracy    <       0.00000007 Ry
     smearing contrib. (-TS)   =      -0.02051429 Ry
     internal energy E=F+TS    =   -2939.10514294 Ry

     The total energy is F=E-TS. E is the sum of the following terms:
     one-electron contribution =  -24213.66418915 Ry
     hartree contribution      =   12195.60551174 Ry
     xc contribution           =    -485.21235253 Ry
     ewald contribution        =    9564.16430685 Ry
     electric field correction =       0.00158015 Ry

     total magnetization       =     0.04 Bohr mag/cell
     absolute magnetization    =     0.06 Bohr mag/cell

     convergence has been achieved in  60 iterations

     Forces acting on atoms (cartesian axes, Ry/au):

     atom    1 type  1   force =     0.00009447   -0.00021190    0.09580853
     atom    2 type  1   force =     0.00006046   -0.00063385   -0.17549497
     atom    3 type  2   force =     0.00017762   -0.00019385   -0.02303279
     atom    4 type  2   force =     0.00003976   -0.00128694    0.05262901
     atom    5 type  2   force =    -0.00978079   -0.00031318    0.00253478
     atom    6 type  2   force =     0.01165816    0.00022845    0.00291632
     atom    7 type  1   force =     0.00088178   -0.00000124   -0.00990004
     atom    8 type  1   force =     0.00000728    0.00530633    0.01815489
     atom    9 type  2   force =    -0.00001638   -0.00029240   -0.00010502
     atom   10 type  2   force =    -0.00254203    0.00216292   -0.01348684
     atom   11 type  2   force =    -0.00097987    0.00012093    0.00016744
     atom   12 type  2   force =     0.00039626   -0.00024870    0.00049058
     atom   13 type  1   force =     0.00010047   -0.00008536    0.00049243
     atom   14 type  1   force =    -0.00004879   -0.00011708   -0.00017551
     atom   15 type  2   force =    -0.00050422    0.00036049    0.00052818
     atom   16 type  2   force =    -0.00043905    0.00007454    0.00021780
     atom   17 type  2   force =    -0.00011770   -0.00007751   -0.00026162
     atom   18 type  2   force =     0.00017728    0.00029675    0.00019229
     atom   19 type  1   force =    -0.00055578   -0.00043242    0.00067153
     atom   20 type  1   force =    -0.00023531   -0.00006243   -0.00120804
     atom   21 type  2   force =     0.00006594   -0.00006403    0.10322945
     atom   22 type  2   force =     0.00005180    0.00009151   -0.00010995
     atom   23 type  2   force =    -0.07156287   -0.00019174   -0.02755007
     atom   24 type  2   force =     0.07153996    0.00031096   -0.02761306
     atom   25 type  1   force =     0.00012321   -0.00027931    0.09520256
     atom   26 type  1   force =     0.00008173   -0.00048421   -0.17564902
     atom   27 type  2   force =     0.00015764   -0.00012089   -0.02178630
     atom   28 type  2   force =     0.00007863   -0.00106149    0.05250606
     atom   29 type  2   force =    -0.01016127    0.00023459    0.00291274
     atom   30 type  2   force =     0.01197561    0.00052111    0.00328863
     atom   31 type  1   force =     0.00087699    0.00413906   -0.01177131
     atom   32 type  1   force =     0.00013854   -0.00634793    0.01828963
     atom   33 type  2   force =     0.00016055    0.00041919   -0.00009665
     atom   34 type  2   force =    -0.00308716   -0.00010474   -0.00865503
     atom   35 type  2   force =    -0.00022529    0.00006154    0.00001902
     atom   36 type  2   force =    -0.00002893    0.00027262   -0.00006108
     atom   37 type  1   force =     0.00044431   -0.00094113    0.00015127
     atom   38 type  1   force =    -0.00031976    0.00008354    0.00033354
     atom   39 type  2   force =     0.00011771   -0.00038528    0.00072156
     atom   40 type  2   force =    -0.00008617    0.00026606    0.00015015
     atom   41 type  2   force =    -0.00017544   -0.00015128   -0.00018533
     atom   42 type  2   force =    -0.00060477   -0.00014237    0.00005739
     atom   43 type  1   force =     0.00034666    0.00040448    0.00008979
     atom   44 type  1   force =    -0.00074169   -0.00000997   -0.00240472
     atom   45 type  2   force =     0.00007658   -0.00005855    0.10318030
     atom   46 type  2   force =    -0.07157650   -0.00009436   -0.02754214
     atom   47 type  2   force =     0.07155541    0.00025692   -0.02760951
     atom   48 type  3   force =     0.03057031    0.00235104    0.00411321
     atom   49 type  4   force =    -0.00203498    0.00059374   -0.00082064
     atom   50 type  5   force =    -0.00002540    0.00020540   -0.00046737
     atom   51 type  5   force =    -0.00059001   -0.00033997    0.00005239
     atom   52 type  5   force =    -0.00055040   -0.00056268   -0.00174104
     atom   53 type  3   force =    -0.02496453   -0.00346535   -0.00137339

     Total force =     0.366952     Total SCF correction =     0.000536
  @ DRIVER MODE: Message from server: STATUS
  @ DRIVER MODE: Message from server: GETFORCE
  @ DRIVER MODE: Returning v,forces,stress,ensemble

     Writing output data file ./calc.save/
  @ DRIVER MODE: Message from server: EXIT
  @ DRIVE MODE: Exiting

     General routines

     Parallel routines

   This run was terminated on:  17:32:47  15Jul2021

   JOB DONE.