     Program PWSCF v.6.7GPU starts on 28Sep2021 at  5:55: 9

     R & G space division:  proc/nbgrp/npool/nimage =       8
     Reading input from /storage/home/hcoda1/3/ntian30/research/carbon/CxH_vib/H2O_calc/ads_slab/CH3OHN2H2O_a/out_0027/pw.inp
Warning: card &CELL ignored
Warning: card   CELL_DYNAMICS='IPI', ignored
Warning: card / ignored

     Current dimensions of program PWSCF are:
     Max number of different atomic species (ntypx) = 10
     Max number of k-points (npk) =  40000
     Max angular momentum in pseudopotentials (lmaxx) =  3
     Presently no symmetry can be used with electric field

     Message from routine cell_base_init:
     DEPRECATED: use true lattice parameter, not A to a.u. conversion factor

     IMPORTANT: XC functional enforced from input :
     Exchange-correlation= BEEF-VDW
                           (   1   4  43  14   2   0   0)
     Any further DFT definition will be discarded
     Please, verify this is what you really want

  @ DRIVER MODE: Connecting to
 qe_1139763_3000313.sched-torque.pace.gatech.eduagj9sooe_scratch
  using UNIX socket
  @ DRIVER MODE: Message from server: STATUS
  @ DRIVER MODE: Message from server: INIT
  @ DRIVER MODE: Receiving replica           0          -1
  @ DRIVER MODE: Receiving encoded integer          25
  @ DRIVER MODE:  SCF:  T  FORCE:  T  STRESS:  F  VC:  F  ENSEMBLE:  F
  @ DRIVER MODE:  SCF:  T  FORCE:  T  STRESS:  F  VC:  F  ENSEMBLE:  F

     Using Slab Decomposition

     bravais-lattice index     =            0
     lattice parameter (alat)  =       1.8897  a.u.
     unit-cell volume          =    6658.9804 (a.u.)^3
     number of atoms/cell      =           58
     number of atomic types    =            5
     number of electrons       =       410.00
     number of Kohn-Sham states=          215
     kinetic-energy cutoff     =      29.3995  Ry
     charge density cutoff     =     293.9946  Ry
     scf convergence threshold =      7.3E-08
     mixing beta               =       0.0500
     number of iterations used =            8  plain     mixing
     Exchange-correlation= BEEF-VDW
                           (   1   4  43  14   2   0   0)

     celldm(1)=   1.889726  celldm(2)=   0.000000  celldm(3)=   0.000000
     celldm(4)=   0.000000  celldm(5)=   0.000000  celldm(6)=   0.000000

     crystal axes: (cart. coord. in units of alat)
               a(1) = (   6.579727   0.000000   0.000000 )
               a(2) = (  -0.000775   5.961596   0.000000 )
               a(3) = (   0.000000   0.000000  25.155947 )

     reciprocal axes: (cart. coord. in units 2 pi/alat)
               b(1) = (  0.151982  0.000020  0.000000 )
               b(2) = (  0.000000  0.167740  0.000000 )
               b(3) = (  0.000000  0.000000  0.039752 )

     PseudoPot. # 1 for Ti read from file:
     /storage/coda1/p-amedford6/0/shared/rich_project_chbe-medford/medford-share/data/pseudos_module/espresso/nninc/pbe/van/Ti.UPF
     MD5 check sum: 8e4df49b7f0d34bbd5052bf3f5ea0213
     Pseudo is Ultrasoft, Zval = 12.0
     Generated by new atomic code, or converted to UPF format
     Using radial grid of  851 points,  6 beta functions with:
                l(1) =   0
                l(2) =   0
                l(3) =   1
                l(4) =   1
                l(5) =   2
                l(6) =   2
     Q(r) pseudized with  8 coefficients,  rinner =    1.000   1.000   1.000
                                                       1.000   1.000

     PseudoPot. # 2 for O  read from file:
     /storage/coda1/p-amedford6/0/shared/rich_project_chbe-medford/medford-share/data/pseudos_module/espresso/nninc/pbe/van/O.UPF
     MD5 check sum: 78c19812648e8988a0fe644b0f25305e
     Pseudo is Ultrasoft, Zval =  6.0
     Generated by new atomic code, or converted to UPF format
     Using radial grid of  737 points,  4 beta functions with:
                l(1) =   0
                l(2) =   0
                l(3) =   1
                l(4) =   1
     Q(r) pseudized with  8 coefficients,  rinner =    0.800   0.800   0.800

     PseudoPot. # 3 for C  read from file:
     /storage/coda1/p-amedford6/0/shared/rich_project_chbe-medford/medford-share/data/pseudos_module/espresso/nninc/pbe/van/C.UPF
     MD5 check sum: 1a69bf6b8db32088f5b2163dbdb77a27
     Pseudo is Ultrasoft, Zval =  4.0
     Generated by new atomic code, or converted to UPF format
     Using radial grid of  721 points,  4 beta functions with:
                l(1) =   0
                l(2) =   0
                l(3) =   1
                l(4) =   1
     Q(r) pseudized with  8 coefficients,  rinner =    0.800   0.800   0.800

     PseudoPot. # 4 for H  read from file:
     /storage/coda1/p-amedford6/0/shared/rich_project_chbe-medford/medford-share/data/pseudos_module/espresso/nninc/pbe/van/H.UPF
     MD5 check sum: b5ee9d7bfd3a09ee7748110bda690ff7
     Pseudo is Ultrasoft, Zval =  1.0
     Generated by new atomic code, or converted to UPF format
     Using radial grid of  615 points,  1 beta functions with:
                l(1) =   0
     Q(r) pseudized with  8 coefficients,  rinner =    0.800

     PseudoPot. # 5 for N  read from file:
     /storage/coda1/p-amedford6/0/shared/rich_project_chbe-medford/medford-share/data/pseudos_module/espresso/nninc/pbe/van/N.UPF
     MD5 check sum: 90d10febe142ad51ac9d5be1deb811c4
     Pseudo is Ultrasoft, Zval =  5.0
     Generated by new atomic code, or converted to UPF format
     Using radial grid of  729 points,  4 beta functions with:
                l(1) =   0
                l(2) =   0
                l(3) =   1
                l(4) =   1
     Q(r) pseudized with  8 coefficients,  rinner =    0.800   0.800   0.800

     atomic species   valence    mass     pseudopotential
        Ti1           12.00    47.86700     Ti( 1.00)
        O1             6.00    15.99900     O ( 1.00)
        C1             4.00    12.01100     C ( 1.00)
        H1             1.00     1.00800     H ( 1.00)
        N1             5.00    14.00700     N ( 1.00)

     No symmetry found

   Cartesian axes

     site n.     atom                  positions (alat units)
         1           Ti1 tau(   1) = (   0.0004258   2.9801865   6.0000000  )
         2           Ti1 tau(   2) = (   3.2906075   1.4906267   6.0002472  )
         3           O1  tau(   3) = (   0.0006271   0.0005054   7.9858123  )
         4           O1  tau(   4) = (   3.2906025   0.0005020   7.3038282  )
         5           O1  tau(   5) = (   4.5942328   1.4918067   9.2879030  )
         6           O1  tau(   6) = (   1.9868534   1.4903216   9.2879459  )
         7           Ti1 tau(   7) = (   3.3250738   2.9918783   9.1599549  )
         8           Ti1 tau(   8) = (   0.0412716   1.4903975   9.2658274  )
         9           O1  tau(   9) = (   3.2852344   0.0116916  11.3753809  )
        10           O1  tau(  10) = (   6.5701620   0.0027176  10.6052010  )
        11           O1  tau(  11) = (   1.2758103   1.4969824  12.6410148  )
        12           O1  tau(  12) = (   5.2796941   1.4985041  12.6691897  )
        13           Ti1 tau(  13) = (   6.5531116   2.9870417  12.5348353  )
        14           Ti1 tau(  14) = (   3.2504356   1.4995581  12.5215122  )
        15           O1  tau(  15) = (   0.0383206   0.0046779  14.6787597  )
        16           O1  tau(  16) = (   3.2537876   0.0095675  14.0320577  )
        17           O1  tau(  17) = (   4.5855444   1.5609978  16.0639115  )
        18           O1  tau(  18) = (   2.0343745   1.5440679  16.2001998  )
        19           Ti1 tau(  19) = (   3.3058624   3.0043567  15.7064231  )
        20           Ti1 tau(  20) = (   6.5549511   1.4266458  15.8675638  )
        21           O1  tau(  21) = (   3.2904802   0.0005063   4.7018136  )
        22           O1  tau(  22) = (   6.4974171   0.0126247  17.2237355  )
        23           O1  tau(  23) = (   1.3043587   1.4918075   6.0039043  )
        24           O1  tau(  24) = (   5.2767064   1.4903225   6.0039473  )
        25           Ti1 tau(  25) = (   0.0000382   5.9609847   6.0000000  )
        26           Ti1 tau(  26) = (   3.2902200   4.4714249   6.0002472  )
        27           O1  tau(  27) = (   0.0002396   2.9813036   7.9858123  )
        28           O1  tau(  28) = (   3.2902150   2.9813002   7.3038282  )
        29           O1  tau(  29) = (   4.5938453   4.4726049   9.2879030  )
        30           O1  tau(  30) = (   1.9864658   4.4711199   9.2879459  )
        31           Ti1 tau(  31) = (   3.3194574   0.0113313   9.1541029  )
        32           Ti1 tau(  32) = (   0.0414074   4.4589881   9.2683624  )
        33           O1  tau(  33) = (   3.2821265   2.9896323  11.3676027  )
        34           O1  tau(  34) = (   6.5712111   2.9825298  10.6251173  )
        35           O1  tau(  35) = (   1.2751242   4.4805681  12.6359318  )
        36           O1  tau(  36) = (   5.2791817   4.4782367  12.6627471  )
        37           Ti1 tau(  37) = (   6.5506445   0.0032150  12.4806913  )
        38           Ti1 tau(  38) = (   3.2507345   4.4881811  12.5195668  )
        39           O1  tau(  39) = (   0.0469291   2.9928743  14.8464778  )
        40           O1  tau(  40) = (   3.2514374   2.9975957  13.9281162  )
        41           O1  tau(  41) = (   4.5866068   4.4203933  16.0984022  )
        42           O1  tau(  42) = (   2.0418857   4.4579080  16.2200674  )
        43           Ti1 tau(  43) = (   3.2648600   0.0292614  15.8571223  )
        44           Ti1 tau(  44) = (   6.5763064   4.6169283  15.9626260  )
        45           O1  tau(  45) = (   3.2900926   2.9813045   4.7018136  )
        46           O1  tau(  46) = (   1.3039711   4.4726057   6.0039043  )
        47           O1  tau(  47) = (   5.2763189   4.4711207   6.0039473  )
        48           C1  tau(  48) = (   6.0301898   2.9050411  18.9351799  )
        49           O1  tau(  49) = (   0.1575529   2.9516393  17.6723866  )
        50           H1  tau(  50) = (   4.9714676   2.8818909  18.6991823  )
        51           H1  tau(  51) = (   1.1132637   2.8218831  17.8130049  )
        52           H1  tau(  52) = (   6.2985093   1.9852365  19.4696065  )
        53           H1  tau(  53) = (   6.2732381   3.7939772  19.5169533  )
        54           N1  tau(  54) = (   4.8840950   3.1052494  22.6850861  )
        55           N1  tau(  55) = (   4.2680757   3.3403818  21.7970487  )
        56           O1  tau(  56) = (   3.8772584   0.1141246  18.3039653  )
        57           H1  tau(  57) = (   4.8407149   0.0692883  18.0716375  )
        58           H1  tau(  58) = (   3.6680196   5.2122673  18.6877519  )

     number of k points=    10  Fermi-Dirac smearing, width (Ry)=  0.0073
                       cart. coord. in units 2pi/alat
        k(    1) = (   0.0000000   0.0000000   0.0000000), wk =   0.1250000
        k(    2) = (   0.0000000   0.0419351   0.0000000), wk =   0.2500000
        k(    3) = (   0.0000000  -0.0838702   0.0000000), wk =   0.1250000
        k(    4) = (   0.0379955   0.0000049   0.0000000), wk =   0.2500000
        k(    5) = (   0.0379955   0.0419400   0.0000000), wk =   0.2500000
        k(    6) = (   0.0379955  -0.0838652   0.0000000), wk =   0.2500000
        k(    7) = (   0.0379955  -0.0419301   0.0000000), wk =   0.2500000
        k(    8) = (  -0.0759910  -0.0000099   0.0000000), wk =   0.1250000
        k(    9) = (  -0.0759910   0.0419252   0.0000000), wk =   0.2500000
        k(   10) = (  -0.0759910  -0.0838800   0.0000000), wk =   0.1250000

     Initial potential from superposition of free atoms

     starting charge  393.99913, renormalised to  410.00000

     negative rho (up, down):  9.553E-03 0.000E+00

     %%%%%%%%%%%%%%%%%%%%%%%%%%%%%%%%%%%%%%%%%%%%%%%%%%%%%%%%%%%%%%%%%%%%%%%%
     %                                                                      %
     % You are using vdW-DF, which was implemented by the Thonhauser group. %
     % Please cite the following two papers that made this development      %
     % possible and the two reviews that describe the various versions:     %
     %                                                                      %
     %   T. Thonhauser et al., PRL 115, 136402 (2015).                      %
     %   T. Thonhauser et al., PRB 76, 125112 (2007).                       %
     %   K. Berland et al., Rep. Prog. Phys. 78, 066501 (2015).             %
     %   D.C. Langreth et al., J. Phys.: Condens. Matter 21, 084203 (2009). %
     %                                                                      %
     %                                                                      %
     % If you are calculating the stress with vdW-DF, please also cite:     %
     %                                                                      %
     %   R. Sabatini et al., J. Phys.: Condens. Matter 24, 424209 (2012).   %
     %                                                                      %
     %%%%%%%%%%%%%%%%%%%%%%%%%%%%%%%%%%%%%%%%%%%%%%%%%%%%%%%%%%%%%%%%%%%%%%%%

     Adding external electric field

     Computed dipole along edir(3) :
        Dipole              -20.0784 Ry au,        -51.0342 Debye
        Dipole field         -0.0379 Ry au,

        Potential amp.        3.5124 Ry
        Total length         46.3494 bohr

     Starting wfcs are  310 atomic wfcs
  @ DRIVER MODE: Message from server: STATUS
  @ DRIVER MODE: Message from server: POSDATA
  @ DRIVER MODE: Reading and sharing cell
  @ DRIVER MODE: Reading and sharing positions
  @ DRIVER MODE: Received positions

     Self-consistent Calculation

     iteration #  1     ecut=    29.40 Ry     beta= 0.05
     Davidson diagonalization with overlap
     c_bands:  1 eigenvalues not converged
     c_bands:  1 eigenvalues not converged
     c_bands:  5 eigenvalues not converged
     c_bands:  1 eigenvalues not converged
     c_bands:  4 eigenvalues not converged
     c_bands:  3 eigenvalues not converged
     ethr =  1.00E-05,  avg # of iterations = 32.1

[...]

     total energy              =   -2098.63155871 Ry
     estimated scf accuracy    <   10668.28609097 Ry

     iteration #  2     ecut=    29.40 Ry     beta= 0.05
     Davidson diagonalization with overlap
     ethr =  1.00E-02,  avg # of iterations = 30.4

[...]

     iteration #115     ecut=    29.40 Ry     beta= 0.05
     Davidson diagonalization with overlap
     ethr =  5.07E-11,  avg # of iterations = 10.1

[...]

     total energy              =   -3007.66313674 Ry
     estimated scf accuracy    <       0.00000010 Ry

     iteration #118     ecut=    29.40 Ry     beta= 0.05
     Davidson diagonalization with overlap
     c_bands:  2 eigenvalues not converged
     c_bands:  2 eigenvalues not converged
     c_bands:  1 eigenvalues not converged
     ethr =  2.52E-11,  avg # of iterations = 15.7

     negative rho (up, down):  1.050E-02 0.000E+00

     Adding external electric field

     Computed dipole along edir(3) :
        Dipole                1.2311 Ry au,          3.1291 Debye
        Dipole field          0.0023 Ry au,

        Potential amp.       -0.2154 Ry
        Total length         46.3494 bohr

     End of self-consistent calculation

          k = 0.0000 0.0000 0.0000 ( 18029 PWs)   bands (ev):

   -54.9340 -54.9100 -54.8980 -54.8757 -54.8610 -54.8555 -54.8284 -54.8091
   -54.7809 -54.7781 -54.7436 -54.7232 -54.6919 -54.6892 -53.9981 -53.9641
   -31.4998 -31.4740 -31.4057 -31.3130 -31.2537 -31.2483 -31.2361 -31.2342
   -31.1987 -31.1643 -31.1552 -31.1528 -31.1485 -31.1254 -31.1189 -31.1128
   -31.0966 -31.0777 -31.0719 -31.0702 -31.0634 -31.0555 -31.0327 -31.0265
   -31.0262 -31.0206 -31.0058 -31.0035 -31.0024 -30.9665 -30.9494 -30.9295
   -30.9279 -30.9270 -30.9186 -30.9178 -30.9076 -30.8772 -30.8633 -30.8588
   -30.8543 -30.8348 -30.4101 -30.3078 -30.2862 -30.2263 -30.1399 -30.0290
   -21.6288 -19.8087 -18.2753 -15.7672 -15.5211 -15.3819 -15.2846 -15.1607
   -15.0307 -14.9568 -14.8364 -14.7644 -14.6709 -14.6573 -14.6391 -14.6177
   -14.5843 -14.5584 -14.5014 -14.4961 -14.4416 -14.4382 -14.4275 -14.4167
   -14.3837 -14.3682 -14.3375 -14.3282 -14.1659 -14.1000 -14.0404 -13.8969
   -12.4986 -12.3793 -10.8087  -6.8787  -6.5406  -6.0332  -4.8567  -4.7854
    -4.7288  -4.6288  -3.5509  -3.1001  -2.9492  -2.9127  -2.8905  -2.8699
    -2.7410  -2.6536  -2.6211  -2.4655  -2.3713  -2.2356  -2.2078  -2.1766
    -2.1380  -2.0703  -2.0147  -1.9277  -1.8980  -1.8581  -1.8380  -1.8142
    -1.7992  -1.7726  -1.7423  -1.6705  -1.6325  -1.5478  -1.5319  -1.4435
    -1.3912  -1.3829  -1.3397  -1.2767  -1.2733  -1.2628  -1.2228  -1.2090
    -1.2007  -1.1906  -1.1840  -1.0235  -0.9775  -0.9440  -0.8205  -0.7101
    -0.6181  -0.6084  -0.5045  -0.4912  -0.4286  -0.4239  -0.3840  -0.3445
    -0.2824  -0.1860  -0.1281  -0.0819  -0.0685   0.0422   0.1078   0.1225
     0.1836   0.2592   0.2745   0.2959   0.3248   0.4121   0.4802   0.5220
     0.5562   0.6213   0.6310   0.6782   0.7074   0.7482   0.8339   0.8878
     0.8912   0.9784   0.9955   1.0089   1.0341   1.0397   1.1378   1.1716
     1.2161   1.2439   1.3952   1.4302   1.6217   1.6570   1.9174   2.0157
     2.0278   2.1891   2.6137   2.6682   4.1560   4.2239   4.2604   4.2677
     4.2824   4.3620   4.6443   4.6488   4.6640   4.6761   4.6840

[...]

          k = 0.0380-0.0419 0.0000 ( 17876 PWs)   bands (ev):

[...]

          k =-0.0760-0.0000 0.0000 ( 17886 PWs)   bands (ev):

[...]

          k =-0.0760-0.0839 0.0000 ( 17948 PWs)   bands (ev):

   -54.9169 -54.9148 -54.8943 -54.8911 -54.8560 -54.8509 -54.8211 -54.8166
   -54.7882 -54.7630 -54.7584 -54.7077 -54.7048 -54.6935 -53.9810 -53.9810
   -31.3866 -31.3087 -31.2984 -31.2221 -31.2190 -31.1966 -31.1893 -31.1872
   -31.1808 -31.1579 -31.1433 -31.1415 -31.1338 -31.1277 -31.1089 -31.0947
   -31.0790 -31.0772 -31.0683 -31.0671 -31.0654 -31.0643 -31.0587 -31.0533
   -31.0284 -31.0229 -31.0189 -31.0138 -31.0134 -31.0109 -31.0100 -31.0097
   -31.0094 -30.9806 -30.9722 -30.9611 -30.9600 -30.9328 -30.9304 -30.8945
   -30.8912 -30.8769 -30.2988 -30.2988 -30.2230 -30.2226 -30.1832 -30.1830
   -21.6287 -19.8051 -18.2743 -15.3424 -15.2289 -15.0629 -14.9544 -14.9447
   -14.9162 -14.8572 -14.8141 -14.7829 -14.7428 -14.7325 -14.7031 -14.6852
   -14.6799 -14.6223 -14.5382 -14.5326 -14.5188 -14.4835 -14.4563 -14.4423
   -14.4403 -14.4259 -14.3890 -14.3872 -14.3679 -14.3568 -14.3007 -14.2087
   -12.4805 -12.4800 -10.8114  -6.8778  -6.5426  -6.0356  -4.8540  -4.7924
    -4.7226  -4.6165  -3.5425  -2.7563  -2.5319  -2.4964  -2.4235  -2.2573
    -2.1778  -2.1570  -2.0810  -2.0572  -2.0219  -1.9435  -1.9397  -1.9058
    -1.8659  -1.8412  -1.8354  -1.8172  -1.7990  -1.7660  -1.7453  -1.7241
    -1.7105  -1.6952  -1.6486  -1.6397  -1.6039  -1.6003  -1.5857  -1.5738
    -1.5548  -1.5438  -1.4633  -1.4354  -1.3943  -1.3085  -1.2919  -1.1621
    -1.1566  -1.1109  -1.0742  -1.0360  -1.0167  -0.9957  -0.9708  -0.9406
    -0.9084  -0.7363  -0.7153  -0.6725  -0.6213  -0.6155  -0.5421  -0.5263
    -0.4720  -0.4397  -0.3503  -0.3091  -0.2694  -0.1610  -0.1340  -0.1217
     0.0165   0.0223   0.0678   0.0693   0.1113   0.1500   0.1620   0.1694
     0.2441   0.2768   0.3132   0.3392   0.3627   0.5407   0.5770   0.6357
     0.7248   0.7435   0.9218   0.9520   0.9960   1.0769   1.1385   1.1921
     1.2145   1.3224   1.3304   1.3537   1.4453   1.4937   1.4950   1.5249
     2.3791   2.3820   2.4828   2.4855   4.2802   4.4111   4.4174   4.4974
     4.5711   4.6635   4.6639   4.6785   4.7088   4.7188   4.7198

     the Fermi energy is     4.2120 ev

!    total energy              =   -3007.66313702 Ry
     estimated scf accuracy    <       0.00000004 Ry
     smearing contrib. (-TS)   =      -0.03685933 Ry
     internal energy E=F+TS    =   -3007.62627769 Ry

     The total energy is F=E-TS. E is the sum of the following terms:
     one-electron contribution =  -22339.03425120 Ry
     hartree contribution      =   11271.31078293 Ry
     xc contribution           =    -502.07510380 Ry
     ewald contribution        =    8562.16943429 Ry
     electric field correction =       0.00286010 Ry

     convergence has been achieved in 118 iterations

     Forces acting on atoms (cartesian axes, Ry/au):

     atom    1 type  1   force =    -0.00028050   -0.00001170    0.09249314
     atom    2 type  1   force =    -0.00012798    0.00113972   -0.18325198
     atom    3 type  2   force =     0.00054971   -0.00039994   -0.02389473
     atom    4 type  2   force =     0.00079859    0.00021077    0.05086401
     atom    5 type  2   force =    -0.01547920   -0.00014124    0.00437546
     atom    6 type  2   force =     0.01419439   -0.00032944    0.00505725
     atom    7 type  1   force =    -0.00010709    0.00020803    0.00004648
     atom    8 type  1   force =    -0.00007777    0.00016956   -0.00000193
     atom    9 type  2   force =     0.00007454    0.00004467    0.00013228
     atom   10 type  2   force =    -0.00000048    0.00002099   -0.00005572
     atom   11 type  2   force =     0.00017645    0.00001109   -0.00013946
     atom   12 type  2   force =     0.00003726    0.00003081   -0.00006267
     atom   13 type  1   force =     0.00016403    0.00011845   -0.00004710
     atom   14 type  1   force =     0.00027083    0.00016444   -0.00012363
     atom   15 type  2   force =     0.00027875    0.00039624    0.00000751
     atom   16 type  2   force =     0.00015401   -0.00001618    0.00019523
     atom   17 type  2   force =     0.00001325    0.00012444    0.00013490
     atom   18 type  2   force =     0.00018084    0.00001835    0.00029814
     atom   19 type  1   force =     0.00010140   -0.00014097    0.00007042
     atom   20 type  1   force =     0.00017867   -0.00008670   -0.00021070
     atom   21 type  2   force =     0.00003053    0.00001223    0.10491299
     atom   22 type  2   force =    -0.00024624   -0.00002520    0.00018551
     atom   23 type  2   force =    -0.06802888   -0.00011844   -0.02684201
     atom   24 type  2   force =     0.06789023    0.00033327   -0.02688421
     atom   25 type  1   force =    -0.00011851   -0.00002278    0.09595729
     atom   26 type  1   force =    -0.00010885   -0.00143264   -0.18316789
     atom   27 type  2   force =     0.00049879   -0.00020124   -0.02269115
     atom   28 type  2   force =     0.00086399    0.00017899    0.05126172
     atom   29 type  2   force =    -0.01540068    0.00049829    0.00454724
     atom   30 type  2   force =     0.01414974    0.00077750    0.00524924
     atom   31 type  1   force =    -0.00009904    0.00005964   -0.00001122
     atom   32 type  1   force =    -0.00007477    0.00016195   -0.00004696
     atom   33 type  2   force =     0.00012530   -0.00002985    0.00017739
     atom   34 type  2   force =     0.00000007    0.00006826    0.00002675
     atom   35 type  2   force =     0.00013473   -0.00000221   -0.00003601
     atom   36 type  2   force =     0.00008053   -0.00000054    0.00008808
     atom   37 type  1   force =     0.00016062    0.00006995   -0.00011174
     atom   38 type  1   force =     0.00015474   -0.00003425    0.00002738
     atom   39 type  2   force =     0.00017029   -0.00008783   -0.00019573
     atom   40 type  2   force =     0.00002445   -0.00018250    0.00003487
     atom   41 type  2   force =     0.00021197    0.00000954    0.00005728
     atom   42 type  2   force =    -0.00005910    0.00001315    0.00014006
     atom   43 type  1   force =    -0.00004278   -0.00018163    0.00112104
     atom   44 type  1   force =     0.00006832    0.00013054    0.00030777
     atom   45 type  2   force =     0.00003524    0.00002036    0.10484416
     atom   46 type  2   force =    -0.06803764   -0.00050177   -0.02683430
     atom   47 type  2   force =     0.06790443   -0.00008471   -0.02691201
     atom   48 type  3   force =     0.00206537   -0.00876725    0.00347735
     atom   49 type  2   force =    -0.00043873    0.00005535    0.00012711
     atom   50 type  4   force =    -0.00013080   -0.00035838    0.00002280
     atom   51 type  4   force =     0.00010676   -0.00011265    0.00010389
     atom   52 type  4   force =    -0.00197766    0.00877738   -0.00406140
     atom   53 type  4   force =     0.00040236   -0.00050588    0.00025980
     atom   54 type  5   force =    -0.00085066    0.00000373   -0.00096495
     atom   55 type  5   force =     0.00028779   -0.00004873    0.00008964
     atom   56 type  2   force =     0.00128652    0.00057827   -0.00078378
     atom   57 type  4   force =    -0.00101241   -0.00044561    0.00020657
     atom   58 type  4   force =    -0.00112571   -0.00013570    0.00043052

     Total force =     0.368428     Total SCF correction =     0.000622
  @ DRIVER MODE: Message from server: STATUS
  @ DRIVER MODE: Message from server: GETFORCE
  @ DRIVER MODE: Returning v,forces,stress,ensemble

     Writing output data file ./calc.save/
  @ DRIVER MODE: Message from server: EXIT
  @ DRIVE MODE: Exiting

     General routines

     Parallel routines

   This run was terminated on:   6:34:26  28Sep2021

   JOB DONE.