     Program PWSCF v.6.7GPU starts on 22Sep2021 at 19:52:55

     R & G space division:  proc/nbgrp/npool/nimage =      10
     Reading input from /storage/home/hcoda1/3/ntian30/research/carbon/CxH_vib/H2O_calc/ads_slab/CHNHNHH2O_b/out_0012/pw.inp
Warning: card &CELL ignored
Warning: card   CELL_DYNAMICS='IPI', ignored
Warning: card / ignored

     Current dimensions of program PWSCF are:
     Max number of different atomic species (ntypx) = 10
     Max number of k-points (npk) =  40000
     Max angular momentum in pseudopotentials (lmaxx) =  3
     Presently no symmetry can be used with electric field

     Message from routine cell_base_init:
     DEPRECATED: use true lattice parameter, not A to a.u. conversion factor

     IMPORTANT: XC functional enforced from input :
     Exchange-correlation= BEEF-VDW
                           (   1   4  43  14   2   0   0)
     Any further DFT definition will be discarded
     Please, verify this is what you really want

  @ DRIVER MODE: Connecting to
 qe_1139763_2937311.sched-torque.pace.gatech.eduiiforx4h_scratch
  using UNIX socket
  @ DRIVER MODE: Message from server: STATUS
  @ DRIVER MODE: Message from server: INIT
  @ DRIVER MODE: Receiving replica           0          -1
  @ DRIVER MODE: Receiving encoded integer          25
  @ DRIVER MODE:  SCF:  T  FORCE:  T  STRESS:  F  VC:  F  ENSEMBLE:  F
  @ DRIVER MODE:  SCF:  T  FORCE:  T  STRESS:  F  VC:  F  ENSEMBLE:  F

     Using Slab Decomposition

     bravais-lattice index     =            0
     lattice parameter (alat)  =       1.8897  a.u.
     unit-cell volume          =    6658.9804 (a.u.)^3
     number of atoms/cell      =           56
     number of atomic types    =            5
     number of electrons       =       403.00
     number of Kohn-Sham states=          211
     kinetic-energy cutoff     =      29.3995  Ry
     charge density cutoff     =     293.9946  Ry
     scf convergence threshold =      7.3E-08
     mixing beta               =       0.0500
     number of iterations used =            8  plain     mixing
     Exchange-correlation= BEEF-VDW
                           (   1   4  43  14   2   0   0)

     celldm(1)=   1.889726  celldm(2)=   0.000000  celldm(3)=   0.000000
     celldm(4)=   0.000000  celldm(5)=   0.000000  celldm(6)=   0.000000

     crystal axes: (cart. coord. in units of alat)
               a(1) = (   6.579727   0.000000   0.000000 )
               a(2) = (  -0.000775   5.961596   0.000000 )
               a(3) = (   0.000000   0.000000  25.155947 )

     reciprocal axes: (cart. coord. in units 2 pi/alat)
               b(1) = (  0.151982  0.000020  0.000000 )
               b(2) = (  0.000000  0.167740  0.000000 )
               b(3) = (  0.000000  0.000000  0.039752 )

     PseudoPot. # 1 for Ti read from file:
     /storage/coda1/p-amedford6/0/shared/rich_project_chbe-medford/medford-share/data/pseudos_module/espresso/nninc/pbe/van/Ti.UPF
     MD5 check sum: 8e4df49b7f0d34bbd5052bf3f5ea0213
     Pseudo is Ultrasoft, Zval = 12.0
     Generated by new atomic code, or converted to UPF format
     Using radial grid of  851 points,  6 beta functions with:
                l(1) =   0
                l(2) =   0
                l(3) =   1
                l(4) =   1
                l(5) =   2
                l(6) =   2
     Q(r) pseudized with  8 coefficients,  rinner =    1.000   1.000   1.000
                                                       1.000   1.000

     PseudoPot. # 2 for O  read from file:
     /storage/coda1/p-amedford6/0/shared/rich_project_chbe-medford/medford-share/data/pseudos_module/espresso/nninc/pbe/van/O.UPF
     MD5 check sum: 78c19812648e8988a0fe644b0f25305e
     Pseudo is Ultrasoft, Zval =  6.0
     Generated by new atomic code, or converted to UPF format
     Using radial grid of  737 points,  4 beta functions with:
                l(1) =   0
                l(2) =   0
                l(3) =   1
                l(4) =   1
     Q(r) pseudized with  8 coefficients,  rinner =    0.800   0.800   0.800

     PseudoPot. # 3 for N  read from file:
     /storage/coda1/p-amedford6/0/shared/rich_project_chbe-medford/medford-share/data/pseudos_module/espresso/nninc/pbe/van/N.UPF
     MD5 check sum: 90d10febe142ad51ac9d5be1deb811c4
     Pseudo is Ultrasoft, Zval =  5.0
     Generated by new atomic code, or converted to UPF format
     Using radial grid of  729 points,  4 beta functions with:
                l(1) =   0
                l(2) =   0
                l(3) =   1
                l(4) =   1
     Q(r) pseudized with  8 coefficients,  rinner =    0.800   0.800   0.800

     PseudoPot. # 4 for C  read from file:
     /storage/coda1/p-amedford6/0/shared/rich_project_chbe-medford/medford-share/data/pseudos_module/espresso/nninc/pbe/van/C.UPF
     MD5 check sum: 1a69bf6b8db32088f5b2163dbdb77a27
     Pseudo is Ultrasoft, Zval =  4.0
     Generated by new atomic code, or converted to UPF format
     Using radial grid of  721 points,  4 beta functions with:
                l(1) =   0
                l(2) =   0
                l(3) =   1
                l(4) =   1
     Q(r) pseudized with  8 coefficients,  rinner =    0.800   0.800   0.800

     PseudoPot. # 5 for H  read from file:
     /storage/coda1/p-amedford6/0/shared/rich_project_chbe-medford/medford-share/data/pseudos_module/espresso/nninc/pbe/van/H.UPF
     MD5 check sum: b5ee9d7bfd3a09ee7748110bda690ff7
     Pseudo is Ultrasoft, Zval =  1.0
     Generated by new atomic code, or converted to UPF format
     Using radial grid of  615 points,  1 beta functions with:
                l(1) =   0
     Q(r) pseudized with  8 coefficients,  rinner =    0.800

     atomic species   valence    mass     pseudopotential
        Ti1           12.00    47.86700     Ti( 1.00)
        O1             6.00    15.99900     O ( 1.00)
        N1             5.00    14.00700     N ( 1.00)
        C1             4.00    12.01100     C ( 1.00)
        H1             1.00     1.00800     H ( 1.00)

     No symmetry found

   Cartesian axes

     site n.     atom                  positions (alat units)
         1           Ti1 tau(   1) = (   0.0004258   2.9801865   6.0000000  )
         2           Ti1 tau(   2) = (   3.2906075   1.4906267   6.0002472  )
         3           O1  tau(   3) = (   0.0006271   0.0005054   7.9858123  )
         4           O1  tau(   4) = (   3.2906025   0.0005020   7.3038282  )
         5           O1  tau(   5) = (   4.5942328   1.4918067   9.2879030  )
         6           O1  tau(   6) = (   1.9868534   1.4903216   9.2879459  )
         7           Ti1 tau(   7) = (   3.2907910   2.8959150   9.1758416  )
         8           Ti1 tau(   8) = (   0.0015273   1.4827037   9.2680791  )
         9           O1  tau(   9) = (   3.2780774   5.9605562  11.3537357  )
        10           O1  tau(  10) = (   0.0116148   5.9584955  10.6183126  )
        11           O1  tau(  11) = (   1.2922713   1.4781662  12.6511241  )
        12           O1  tau(  12) = (   5.2965393   1.5043564  12.6031353  )
        13           Ti1 tau(  13) = (   6.5273184   3.0207086  12.5807821  )
        14           Ti1 tau(  14) = (   3.2344070   1.4559942  12.5004267  )
        15           O1  tau(  15) = (   6.4759410   0.0295824  14.6525783  )
        16           O1  tau(  16) = (   3.3604338   0.0238249  13.9383540  )
        17           O1  tau(  17) = (   4.5324113   1.5808541  16.1066768  )
        18           O1  tau(  18) = (   1.9684897   1.4712893  15.8817925  )
        19           Ti1 tau(  19) = (   3.2566353   3.0739815  15.8599551  )
        20           Ti1 tau(  20) = (   6.5466614   1.5318677  15.7800735  )
        21           O1  tau(  21) = (   3.2904802   0.0005063   4.7018136  )
        22           O1  tau(  22) = (   6.5744325   0.0155309  17.2227980  )
        23           O1  tau(  23) = (   1.3043587   1.4918075   6.0039043  )
        24           O1  tau(  24) = (   5.2767064   1.4903225   6.0039473  )
        25           Ti1 tau(  25) = (   0.0000382   5.9609847   6.0000000  )
        26           Ti1 tau(  26) = (   3.2902200   4.4714249   6.0002472  )
        27           O1  tau(  27) = (   0.0002396   2.9813036   7.9858123  )
        28           O1  tau(  28) = (   3.2902150   2.9813002   7.3038282  )
        29           O1  tau(  29) = (   4.5938453   4.4726049   9.2879030  )
        30           O1  tau(  30) = (   1.9864658   4.4711199   9.2879459  )
        31           Ti1 tau(  31) = (   3.2891106   5.8743827   9.1763621  )
        32           Ti1 tau(  32) = (   0.0006254   4.4649316   9.2693709  )
        33           O1  tau(  33) = (   3.2727763   2.9788165  11.3438337  )
        34           O1  tau(  34) = (   0.0092240   2.9805883  10.6323155  )
        35           O1  tau(  35) = (   1.2865780   4.4896361  12.6556599  )
        36           O1  tau(  36) = (   5.2967437   4.4749066  12.6066920  )
        37           Ti1 tau(  37) = (   6.5467059   0.0356701  12.5108493  )
        38           Ti1 tau(  38) = (   3.2305653   4.4019604  12.5605372  )
        39           O1  tau(  39) = (   6.5199767   2.9846217  14.6905747  )
        40           O1  tau(  40) = (   3.2851694   3.0254550  13.9321539  )
        41           O1  tau(  41) = (   4.5310495   4.4602642  16.1636806  )
        42           O1  tau(  42) = (   1.9842988   4.5744318  15.9411167  )
        43           Ti1 tau(  43) = (   3.2691225   0.1036042  15.7405456  )
        44           Ti1 tau(  44) = (   6.5697781   4.6877429  16.0360384  )
        45           O1  tau(  45) = (   3.2900926   2.9813045   4.7018136  )
        46           O1  tau(  46) = (   1.3039711   4.4726057   6.0039043  )
        47           O1  tau(  47) = (   5.2763189   4.4711207   6.0039473  )
        48           N1  tau(  48) = (   1.2792381   2.8578196  18.3696018  )
        49           N1  tau(  49) = (   0.1888888   2.9646215  17.5157353  )
        50           C1  tau(  50) = (   2.5352320   2.9081513  18.0382144  )
        51           H1  tau(  51) = (   3.1442446   2.7411670  18.9317345  )
        52           H1  tau(  52) = (   1.0014291   2.6635404  19.3302151  )
        53           H1  tau(  53) = (   5.9397212   2.8571719  18.0851170  )
        54           O1  tau(  54) = (   3.2630597   0.0341043  18.2348460  )
        55           H1  tau(  55) = (   4.0455299   5.4198958  18.2485053  )
        56           H1  tau(  56) = (   2.4923979   5.4091459  18.3156537  )

     number of k points=    10  Fermi-Dirac smearing, width (Ry)=  0.0073
                       cart. coord. in units 2pi/alat
        k(    1) = (   0.0000000   0.0000000   0.0000000), wk =   0.1250000
        k(    2) = (   0.0000000   0.0419351   0.0000000), wk =   0.2500000
        k(    3) = (   0.0000000  -0.0838702   0.0000000), wk =   0.1250000
        k(    4) = (   0.0379955   0.0000049   0.0000000), wk =   0.2500000
        k(    5) = (   0.0379955   0.0419400   0.0000000), wk =   0.2500000
        k(    6) = (   0.0379955  -0.0838652   0.0000000), wk =   0.2500000
        k(    7) = (   0.0379955  -0.0419301   0.0000000), wk =   0.2500000
        k(    8) = (  -0.0759910  -0.0000099   0.0000000), wk =   0.1250000
        k(    9) = (  -0.0759910   0.0419252   0.0000000), wk =   0.2500000
        k(   10) = (  -0.0759910  -0.0838800   0.0000000), wk =   0.1250000

     Initial potential from superposition of free atoms

     starting charge  386.99914, renormalised to  403.00000

     negative rho (up, down):  1.739E-02 0.000E+00

     %%%%%%%%%%%%%%%%%%%%%%%%%%%%%%%%%%%%%%%%%%%%%%%%%%%%%%%%%%%%%%%%%%%%%%%%
     %                                                                      %
     % You are using vdW-DF, which was implemented by the Thonhauser group. %
     % Please cite the following two papers that made this development      %
     % possible and the two reviews that describe the various versions:     %
     %                                                                      %
     %   T. Thonhauser et al., PRL 115, 136402 (2015).                      %
     %   T. Thonhauser et al., PRB 76, 125112 (2007).                       %
     %   K. Berland et al., Rep. Prog. Phys. 78, 066501 (2015).             %
     %   D.C. Langreth et al., J. Phys.: Condens. Matter 21, 084203 (2009). %
     %                                                                      %
     %                                                                      %
     % If you are calculating the stress with vdW-DF, please also cite:     %
     %                                                                      %
     %   R. Sabatini et al., J. Phys.: Condens. Matter 24, 424209 (2012).   %
     %                                                                      %
     %%%%%%%%%%%%%%%%%%%%%%%%%%%%%%%%%%%%%%%%%%%%%%%%%%%%%%%%%%%%%%%%%%%%%%%%

     Adding external electric field

     Computed dipole along edir(3) :
        Dipole              -12.3502 Ry au,        -31.3910 Debye
        Dipole field         -0.0233 Ry au,

        Potential amp.        2.1605 Ry
        Total length         46.3494 bohr

     Starting wfcs are  305 atomic wfcs
  @ DRIVER MODE: Message from server: STATUS
  @ DRIVER MODE: Message from server: POSDATA
  @ DRIVER MODE: Reading and sharing cell
  @ DRIVER MODE: Reading and sharing positions
  @ DRIVER MODE: Received positions

     Self-consistent Calculation

     iteration #  1     ecut=    29.40 Ry     beta= 0.05
     Davidson diagonalization with overlap
     c_bands:  5 eigenvalues not converged
     c_bands:  3 eigenvalues not converged
     c_bands:  3 eigenvalues not converged
     c_bands:  1 eigenvalues not converged
     c_bands:  2 eigenvalues not converged
     c_bands:  2 eigenvalues not converged
     c_bands:  5 eigenvalues not converged
     c_bands:  2 eigenvalues not converged
     c_bands:  4 eigenvalues not converged
     ethr =  1.00E-05,  avg # of iterations = 29.3

[...]

     total energy              =   -2358.69351059 Ry
     estimated scf accuracy    <    6971.72878529 Ry

     iteration #  2     ecut=    29.40 Ry     beta= 0.05
     Davidson diagonalization with overlap
     ethr =  1.00E-02,  avg # of iterations = 27.7

[...]

     iteration # 70     ecut=    29.40 Ry     beta= 0.05
     Davidson diagonalization with overlap
     c_bands:  1 eigenvalues not converged
     ethr =  9.92E-11,  avg # of iterations = 11.5

[...]

     total energy              =   -2973.93997475 Ry
     estimated scf accuracy    <       0.00000011 Ry

     iteration # 73     ecut=    29.40 Ry     beta= 0.05
     Davidson diagonalization with overlap
     ethr =  2.75E-11,  avg # of iterations =  9.7

     negative rho (up, down):  1.725E-02 0.000E+00

     Adding external electric field

     Computed dipole along edir(3) :
        Dipole                1.3947 Ry au,          3.5449 Debye
        Dipole field          0.0026 Ry au,

        Potential amp.       -0.2440 Ry
        Total length         46.3494 bohr

     End of self-consistent calculation

          k = 0.0000 0.0000 0.0000 ( 18029 PWs)   bands (ev):

   -55.3224 -55.2883 -55.2133 -55.1886 -55.1704 -55.1591 -55.1433 -55.1218
   -55.1095 -55.1062 -55.1008 -55.0662 -54.9986 -54.8406 -54.3029 -54.2688
   -31.8066 -31.7343 -31.6594 -31.6535 -31.6431 -31.6144 -31.5904 -31.5676
   -31.5226 -31.5073 -31.4748 -31.4672 -31.4585 -31.4437 -31.4285 -31.4245
   -31.4015 -31.3833 -31.3797 -31.3681 -31.3377 -31.3360 -31.3322 -31.3291
   -31.3261 -31.3226 -31.3185 -31.3003 -31.2923 -31.2823 -31.2753 -31.2743
   -31.2645 -31.2626 -31.2552 -31.2512 -31.2462 -31.2206 -31.2133 -31.0968
   -31.0814 -31.0557 -30.7097 -30.6217 -30.5993 -30.5267 -30.4402 -30.3290
   -18.8761 -18.6948 -15.9812 -15.7972 -15.6160 -15.4770 -15.3957 -15.1639
   -15.1064 -15.0672 -14.9861 -14.9623 -14.8618 -14.8433 -14.8417 -14.8238
   -14.8209 -14.7656 -14.7514 -14.7458 -14.6979 -14.6909 -14.6656 -14.6500
   -14.5971 -14.5189 -14.5098 -14.4634 -14.4185 -14.3720 -14.0275 -13.4307
   -12.8037 -12.6872  -8.7968  -7.3170  -6.6132  -4.3375  -3.8020  -3.3636
    -3.2874  -3.2526  -3.2273  -3.0904  -2.9743  -2.8688  -2.7412  -2.6738
    -2.5883  -2.4838  -2.4267  -2.3814  -2.3200  -2.2608  -2.2348  -2.1492
    -2.1297  -2.1094  -2.0879  -2.0610  -2.0318  -1.9944  -1.8717  -1.8611
    -1.7793  -1.7231  -1.6827  -1.6667  -1.6382  -1.6357  -1.5984  -1.5840
    -1.5754  -1.5631  -1.5616  -1.5260  -1.3883  -1.3629  -1.3357  -1.3131
    -1.1667  -1.0289  -0.9402  -0.9377  -0.8283  -0.7632  -0.7604  -0.7218
    -0.7065  -0.6051  -0.5186  -0.4825  -0.4578  -0.3765  -0.3188  -0.2663
    -0.2144  -0.1778  -0.1120  -0.0881  -0.0715  -0.0547   0.0155   0.0774
     0.1379   0.2234   0.2666   0.2913   0.3823   0.3959   0.4194   0.4842
     0.5176   0.5609   0.5964   0.6256   0.6495   0.6794   0.7044   0.7478
     0.7867   0.9114   0.9296   0.9585   0.9803   1.1539   1.2031   1.3126
     1.3370   1.4499   1.4852   1.6599   1.7210   1.8000   1.9129   2.2911
     2.3370   3.7866   3.8979   3.9320   3.9568   3.9962   4.0474   4.2543
     4.3269   4.3686   4.4265

[...]

          k = 0.0380-0.0419 0.0000 ( 17876 PWs)   bands (ev):

[...]

          k =-0.0760-0.0000 0.0000 ( 17886 PWs)   bands (ev):

[...]

          k =-0.0760-0.0839 0.0000 ( 17948 PWs)   bands (ev):

   -55.3056 -55.3050 -55.2039 -55.1853 -55.1790 -55.1477 -55.1336 -55.1264
   -55.1257 -55.1097 -55.0876 -55.0796 -54.9969 -54.8423 -54.2858 -54.2858
   -31.6221 -31.6217 -31.6001 -31.5996 -31.5685 -31.5363 -31.5052 -31.4927
   -31.4862 -31.4709 -31.4521 -31.4462 -31.4427 -31.4334 -31.4291 -31.4285
   -31.4250 -31.4247 -31.4198 -31.4040 -31.3932 -31.3791 -31.3681 -31.3656
   -31.3612 -31.3566 -31.3477 -31.3349 -31.3289 -31.3274 -31.3124 -31.3032
   -31.2998 -31.2992 -31.2975 -31.2947 -31.2625 -31.2395 -31.2256 -31.1525
   -31.0990 -31.0844 -30.6120 -30.6119 -30.5226 -30.5225 -30.4835 -30.4835
   -18.8630 -18.7037 -15.3599 -15.3233 -15.2853 -15.2580 -15.2428 -15.1210
   -15.1071 -15.0721 -15.0300 -15.0168 -14.9866 -14.9579 -14.9098 -14.9006
   -14.8664 -14.8469 -14.8082 -14.7815 -14.7620 -14.7578 -14.7409 -14.7194
   -14.6757 -14.6539 -14.6414 -14.6371 -14.5856 -14.4930 -14.2122 -13.4531
   -12.7891 -12.7889  -8.7921  -7.2438  -6.6143  -4.5453  -3.5898  -2.8627
    -2.6476  -2.6323  -2.5808  -2.4911  -2.4430  -2.3225  -2.3158  -2.2929
    -2.2473  -2.2345  -2.1944  -2.1542  -2.1479  -2.1199  -2.1076  -2.0631
    -2.0517  -2.0488  -2.0344  -2.0003  -1.9950  -1.9745  -1.9506  -1.9470
    -1.9371  -1.9206  -1.8864  -1.8795  -1.8532  -1.8313  -1.6828  -1.6079
    -1.5667  -1.4890  -1.4657  -1.4489  -1.4301  -1.3949  -1.3747  -1.3493
    -1.3213  -1.1757  -1.0322  -0.9997  -0.9746  -0.8760  -0.8614  -0.8420
    -0.7941  -0.7531  -0.7171  -0.6595  -0.6506  -0.6046  -0.5830  -0.4642
    -0.4257  -0.3263  -0.2911  -0.2895  -0.2713  -0.2564  -0.2395  -0.2146
    -0.1644  -0.0933  -0.0779  -0.0289  -0.0051  -0.0024   0.0105   0.1577
     0.2272   0.2494   0.3505   0.3796   0.5541   0.7190   0.7307   0.7986
     0.8614   0.9176   0.9505   0.9905   1.0010   1.0667   1.0921   1.1978
     1.2061   1.2557   1.2639   1.3488   1.3529   2.0847   2.0864   2.1569
     2.1571   4.1501   4.1680   4.1941   4.2573   4.3010   4.3126   4.3501
     4.3537   4.4564   4.4729

     the Fermi energy is     3.8047 ev

!    total energy              =   -2973.93999198 Ry
     estimated scf accuracy    <       0.00000006 Ry
     smearing contrib. (-TS)   =      -0.02071851 Ry
     internal energy E=F+TS    =   -2973.91927347 Ry

     The total energy is F=E-TS. E is the sum of the following terms:
     one-electron contribution =  -24336.41273971 Ry
     hartree contribution      =   12265.87869783 Ry
     xc contribution           =    -494.12477653 Ry
     ewald contribution        =    9590.73587418 Ry
     electric field correction =       0.00367076 Ry

     convergence has been achieved in  73 iterations

     Forces acting on atoms (cartesian axes, Ry/au):

     atom    1 type  1   force =     0.00002596   -0.00010367    0.09508052
     atom    2 type  1   force =     0.00017766   -0.00068848   -0.17565168
     atom    3 type  2   force =     0.00008798   -0.00004576   -0.02295127
     atom    4 type  2   force =     0.00002147   -0.00143381    0.05290243
     atom    5 type  2   force =    -0.01001142   -0.00031606    0.00380943
     atom    6 type  2   force =     0.01113307    0.00020134    0.00206652
     atom    7 type  1   force =    -0.00020650    0.00177856   -0.00591134
     atom    8 type  1   force =     0.00081367    0.01007940    0.01602656
     atom    9 type  2   force =    -0.00015697    0.00086921    0.00033693
     atom   10 type  2   force =    -0.00227388    0.00218009   -0.01795933
     atom   11 type  2   force =     0.00021194   -0.00003488    0.00010648
     atom   12 type  2   force =    -0.00033174   -0.00018574    0.00059242
     atom   13 type  1   force =    -0.00001410    0.00125578    0.00004175
     atom   14 type  1   force =    -0.00011581    0.00009981    0.00000910
     atom   15 type  2   force =     0.00009639    0.00042427    0.00034404
     atom   16 type  2   force =    -0.00036083    0.00044626   -0.00027153
     atom   17 type  2   force =     0.00006242   -0.00022203   -0.00001894
     atom   18 type  2   force =    -0.00033099    0.00000249    0.00037478
     atom   19 type  1   force =    -0.00064601    0.00035339    0.00030768
     atom   20 type  1   force =    -0.00019253    0.00004480    0.00094119
     atom   21 type  2   force =     0.00009053   -0.00008465    0.10318078
     atom   22 type  2   force =     0.00039046    0.00001324    0.00025779
     atom   23 type  2   force =    -0.07159079   -0.00016561   -0.02757860
     atom   24 type  2   force =     0.07154881    0.00024822   -0.02762659
     atom   25 type  1   force =     0.00024551   -0.00039903    0.09519162
     atom   26 type  1   force =    -0.00004957   -0.00020564   -0.17581176
     atom   27 type  2   force =     0.00012205   -0.00012472   -0.02197927
     atom   28 type  2   force =     0.00001400   -0.00139796    0.05322977
     atom   29 type  2   force =    -0.01035562   -0.00022667    0.00365249
     atom   30 type  2   force =     0.01139089    0.00042328    0.00192215
     atom   31 type  1   force =    -0.00030236    0.00266453   -0.00010749
     atom   32 type  1   force =     0.00067724   -0.01114169    0.01689999
     atom   33 type  2   force =     0.00037117   -0.00027429    0.00001221
     atom   34 type  2   force =    -0.00033884    0.00144368   -0.01888350
     atom   35 type  2   force =    -0.00003204   -0.00034640   -0.00014224
     atom   36 type  2   force =     0.00001245   -0.00023658    0.00045740
     atom   37 type  1   force =    -0.00003841   -0.00122146    0.00016737
     atom   38 type  1   force =    -0.00039513    0.00086407    0.00009515
     atom   39 type  2   force =     0.00015164    0.00007079    0.00061720
     atom   40 type  2   force =    -0.00051309   -0.00061166   -0.00016750
     atom   41 type  2   force =     0.00036546   -0.00014026    0.00027038
     atom   42 type  2   force =    -0.00041296   -0.00030353   -0.00027948
     atom   43 type  1   force =    -0.00032171   -0.00020755    0.00066177
     atom   44 type  1   force =     0.00011049   -0.00067931    0.00074517
     atom   45 type  2   force =     0.00009978   -0.00010225    0.10320076
     atom   46 type  2   force =    -0.07157495   -0.00017076   -0.02757102
     atom   47 type  2   force =     0.07157498    0.00024239   -0.02758578
     atom   48 type  3   force =     0.00047091   -0.00135250    0.00630011
     atom   49 type  3   force =     0.00383344    0.00205473   -0.01535890
     atom   50 type  4   force =     0.00102981    0.00005280   -0.00020834
     atom   51 type  5   force =    -0.00035131   -0.00056877   -0.00039723
     atom   52 type  5   force =     0.00125245   -0.00111335    0.00009647
     atom   53 type  5   force =    -0.00556778   -0.00161001    0.00632869
     atom   54 type  2   force =    -0.00001047    0.00107725   -0.00023258
     atom   55 type  5   force =     0.00008729   -0.00027516    0.00003333
     atom   56 type  5   force =     0.00002591   -0.00090011    0.00043393

     Total force =     0.365700     Total SCF correction =     0.000693
  @ DRIVER MODE: Message from server: STATUS
  @ DRIVER MODE: Message from server: GETFORCE
  @ DRIVER MODE: Returning v,forces,stress,ensemble

     Writing output data file ./calc.save/
  @ DRIVER MODE: Message from server: EXIT
  @ DRIVE MODE: Exiting

     General routines

     Parallel routines

   This run was terminated on:  20:14:40  22Sep2021

   JOB DONE.