     Program PWSCF v.6.7GPU starts on 11Sep2021 at  1:35: 0

     R & G space division:  proc/nbgrp/npool/nimage =      10
     Reading input from /storage/home/hcoda1/3/ntian30/research/carbon/CxH_vib/CH2_calc/ads_slab/CH2O_c/out_0022/pw.inp
Warning: card &CELL ignored
Warning: card   CELL_DYNAMICS='IPI', ignored
Warning: card / ignored

     Current dimensions of program PWSCF are:
     Max number of different atomic species (ntypx) = 10
     Max number of k-points (npk) =  40000
     Max angular momentum in pseudopotentials (lmaxx) =  3
     Presently no symmetry can be used with electric field

     Message from routine cell_base_init:
     DEPRECATED: use true lattice parameter, not A to a.u. conversion factor

     IMPORTANT: XC functional enforced from input :
     Exchange-correlation= BEEF-VDW
                           (   1   4  43  14   2   0   0)
     Any further DFT definition will be discarded
     Please, verify this is what you really want

  @ DRIVER MODE: Connecting to
 qe_1139763_2792043.sched-torque.pace.gatech.eduzh3gtypy_scratch
  using UNIX socket
  @ DRIVER MODE: Message from server: STATUS
  @ DRIVER MODE: Message from server: INIT
  @ DRIVER MODE: Receiving replica           0          -1
  @ DRIVER MODE: Receiving encoded integer          25
  @ DRIVER MODE:  SCF:  T  FORCE:  T  STRESS:  F  VC:  F  ENSEMBLE:  F
  @ DRIVER MODE:  SCF:  T  FORCE:  T  STRESS:  F  VC:  F  ENSEMBLE:  F

     Using Slab Decomposition

     bravais-lattice index     =            0
     lattice parameter (alat)  =       1.8897  a.u.
     unit-cell volume          =    6658.9804 (a.u.)^3
     number of atoms/cell      =           51
     number of atomic types    =            4
     number of electrons       =       390.00
     number of Kohn-Sham states=          205
     kinetic-energy cutoff     =      29.3995  Ry
     charge density cutoff     =     293.9946  Ry
     scf convergence threshold =      7.3E-08
     mixing beta               =       0.0500
     number of iterations used =            8  plain     mixing
     Exchange-correlation= BEEF-VDW
                           (   1   4  43  14   2   0   0)

     celldm(1)=   1.889726  celldm(2)=   0.000000  celldm(3)=   0.000000
     celldm(4)=   0.000000  celldm(5)=   0.000000  celldm(6)=   0.000000

     crystal axes: (cart. coord. in units of alat)
               a(1) = (   6.579727   0.000000   0.000000 )
               a(2) = (  -0.000775   5.961596   0.000000 )
               a(3) = (   0.000000   0.000000  25.155947 )

     reciprocal axes: (cart. coord. in units 2 pi/alat)
               b(1) = (  0.151982  0.000020  0.000000 )
               b(2) = (  0.000000  0.167740  0.000000 )
               b(3) = (  0.000000  0.000000  0.039752 )

     PseudoPot. # 1 for O  read from file:
     /storage/coda1/p-amedford6/0/shared/rich_project_chbe-medford/medford-share/data/pseudos_module/espresso/nninc/pbe/van/O.UPF
     MD5 check sum: 78c19812648e8988a0fe644b0f25305e
     Pseudo is Ultrasoft, Zval =  6.0
     Generated by new atomic code, or converted to UPF format
     Using radial grid of  737 points,  4 beta functions with:
                l(1) =   0
                l(2) =   0
                l(3) =   1
                l(4) =   1
     Q(r) pseudized with  8 coefficients,  rinner =    0.800   0.800   0.800

     PseudoPot. # 2 for Ti read from file:
     /storage/coda1/p-amedford6/0/shared/rich_project_chbe-medford/medford-share/data/pseudos_module/espresso/nninc/pbe/van/Ti.UPF
     MD5 check sum: 8e4df49b7f0d34bbd5052bf3f5ea0213
     Pseudo is Ultrasoft, Zval = 12.0
     Generated by new atomic code, or converted to UPF format
     Using radial grid of  851 points,  6 beta functions with:
                l(1) =   0
                l(2) =   0
                l(3) =   1
                l(4) =   1
                l(5) =   2
                l(6) =   2
     Q(r) pseudized with  8 coefficients,  rinner =    1.000   1.000   1.000
                                                       1.000   1.000

     PseudoPot. # 3 for C  read from file:
     /storage/coda1/p-amedford6/0/shared/rich_project_chbe-medford/medford-share/data/pseudos_module/espresso/nninc/pbe/van/C.UPF
     MD5 check sum: 1a69bf6b8db32088f5b2163dbdb77a27
     Pseudo is Ultrasoft, Zval =  4.0
     Generated by new atomic code, or converted to UPF format
     Using radial grid of  721 points,  4 beta functions with:
                l(1) =   0
                l(2) =   0
                l(3) =   1
                l(4) =   1
     Q(r) pseudized with  8 coefficients,  rinner =    0.800   0.800   0.800

     PseudoPot. # 4 for H  read from file:
     /storage/coda1/p-amedford6/0/shared/rich_project_chbe-medford/medford-share/data/pseudos_module/espresso/nninc/pbe/van/H.UPF
     MD5 check sum: b5ee9d7bfd3a09ee7748110bda690ff7
     Pseudo is Ultrasoft, Zval =  1.0
     Generated by new atomic code, or converted to UPF format
     Using radial grid of  615 points,  1 beta functions with:
                l(1) =   0
     Q(r) pseudized with  8 coefficients,  rinner =    0.800

     atomic species   valence    mass     pseudopotential
        O1             6.00    15.99900     O ( 1.00)
        Ti1           12.00    47.86700     Ti( 1.00)
        C1             4.00    12.01100     C ( 1.00)
        H1             1.00     1.00800     H ( 1.00)

     No symmetry found

   Cartesian axes

     site n.     atom                  positions (alat units)
         1           O1  tau(   1) = (   3.2904802   0.0005063   4.7018136  )
         2           O1  tau(   2) = (   3.2900926   2.9813045   4.7018136  )
         3           Ti1 tau(   3) = (   0.0004258   2.9801865   6.0000000  )
         4           Ti1 tau(   4) = (   0.0000382   5.9609847   6.0000000  )
         5           Ti1 tau(   5) = (   3.2906075   1.4906267   6.0002472  )
         6           Ti1 tau(   6) = (   3.2902200   4.4714249   6.0002472  )
         7           O1  tau(   7) = (   1.3043587   1.4918075   6.0039043  )
         8           O1  tau(   8) = (   1.3039711   4.4726057   6.0039043  )
         9           O1  tau(   9) = (   5.2767064   1.4903225   6.0039473  )
        10           O1  tau(  10) = (   5.2763189   4.4711207   6.0039473  )
        11           O1  tau(  11) = (   3.2906025   0.0005020   7.3038282  )
        12           O1  tau(  12) = (   3.2902150   2.9813002   7.3038282  )
        13           O1  tau(  13) = (   0.0006271   0.0005054   7.9858123  )
        14           O1  tau(  14) = (   0.0002396   2.9813036   7.9858123  )
        15           Ti1 tau(  15) = (   3.3026304   0.0558743   9.1529855  )
        16           Ti1 tau(  16) = (   3.3164045   3.0327615   9.1572159  )
        17           Ti1 tau(  17) = (   0.0278175   4.5359734   9.2551557  )
        18           Ti1 tau(  18) = (   0.0245227   1.6138560   9.3625275  )
        19           O1  tau(  19) = (   4.5942328   1.4918067   9.2879030  )
        20           O1  tau(  20) = (   4.5938453   4.4726049   9.2879030  )
        21           O1  tau(  21) = (   1.9868534   1.4903216   9.2879459  )
        22           O1  tau(  22) = (   1.9864658   4.4711199   9.2879459  )
        23           O1  tau(  23) = (   0.0082563   0.0105963  10.6032901  )
        24           O1  tau(  24) = (   0.0079484   2.9900140  10.5841352  )
        25           O1  tau(  25) = (   3.3038251   2.9929121  11.3473413  )
        26           O1  tau(  26) = (   3.3033308   0.0102956  11.3494618  )
        27           Ti1 tau(  27) = (   0.0317432   0.0173395  12.5007832  )
        28           Ti1 tau(  28) = (   3.3306627   4.4867663  12.4909107  )
        29           Ti1 tau(  29) = (   3.3307827   1.5098530  12.4883691  )
        30           Ti1 tau(  30) = (   0.0330478   2.9976760  12.7859357  )
        31           O1  tau(  31) = (   1.3012438   4.4818129  12.6408784  )
        32           O1  tau(  32) = (   1.3024292   1.5014896  12.6394904  )
        33           O1  tau(  33) = (   5.3013637   4.4812751  12.6442516  )
        34           O1  tau(  34) = (   5.3009141   1.5012301  12.6421300  )
        35           O1  tau(  35) = (   3.3022887   2.9886358  13.9251823  )
        36           O1  tau(  36) = (   3.3062039   0.0095056  13.9482717  )
        37           O1  tau(  37) = (   0.0260699   0.0177473  14.6866479  )
        38           O1  tau(  38) = (   0.0273203   2.9953000  14.7270975  )
        39           Ti1 tau(  39) = (   3.3120190   2.9903054  15.7171600  )
        40           Ti1 tau(  40) = (   3.3230935   0.0106652  15.7391692  )
        41           Ti1 tau(  41) = (   0.0328368   4.5824378  15.9539421  )
        42           Ti1 tau(  42) = (   0.0326753   1.3890416  16.0019494  )
        43           O1  tau(  43) = (   4.5622593   4.4711273  16.0916796  )
        44           O1  tau(  44) = (   4.5612194   1.5125715  16.1009491  )
        45           O1  tau(  45) = (   2.0595944   1.5153445  16.1103626  )
        46           O1  tau(  46) = (   2.0577381   4.4687033  16.1006481  )
        47           O1  tau(  47) = (   0.0167757   0.0040543  17.2075325  )
        48           O1  tau(  48) = (   6.5679879   3.0050237  17.4360139  )
        49           C1  tau(  49) = (   6.3840651   3.0748419  18.6981053  )
        50           H1  tau(  50) = (   6.3009919   4.0539401  19.1613311  )
        51           H1  tau(  51) = (   6.3054763   2.1676074  19.2739789  )

     number of k points=    10  Fermi-Dirac smearing, width (Ry)=  0.0073
                       cart. coord. in units 2pi/alat
        k(    1) = (   0.0000000   0.0000000   0.0000000), wk =   0.1250000
        k(    2) = (   0.0000000   0.0419351   0.0000000), wk =   0.2500000
        k(    3) = (   0.0000000  -0.0838702   0.0000000), wk =   0.1250000
        k(    4) = (   0.0379955   0.0000049   0.0000000), wk =   0.2500000
        k(    5) = (   0.0379955   0.0419400   0.0000000), wk =   0.2500000
        k(    6) = (   0.0379955  -0.0838652   0.0000000), wk =   0.2500000
        k(    7) = (   0.0379955  -0.0419301   0.0000000), wk =   0.2500000
        k(    8) = (  -0.0759910  -0.0000099   0.0000000), wk =   0.1250000
        k(    9) = (  -0.0759910   0.0419252   0.0000000), wk =   0.2500000
        k(   10) = (  -0.0759910  -0.0838800   0.0000000), wk =   0.1250000

     Initial potential from superposition of free atoms

     starting charge  373.99919, renormalised to  390.00000

     negative rho (up, down):  1.845E-02 0.000E+00

     %%%%%%%%%%%%%%%%%%%%%%%%%%%%%%%%%%%%%%%%%%%%%%%%%%%%%%%%%%%%%%%%%%%%%%%%
     %                                                                      %
     % You are using vdW-DF, which was implemented by the Thonhauser group. %
     % Please cite the following two papers that made this development      %
     % possible and the two reviews that describe the various versions:     %
     %                                                                      %
     %   T. Thonhauser et al., PRL 115, 136402 (2015).                      %
     %   T. Thonhauser et al., PRB 76, 125112 (2007).                       %
     %   K. Berland et al., Rep. Prog. Phys. 78, 066501 (2015).             %
     %   D.C. Langreth et al., J. Phys.: Condens. Matter 21, 084203 (2009). %
     %                                                                      %
     %                                                                      %
     % If you are calculating the stress with vdW-DF, please also cite:     %
     %                                                                      %
     %   R. Sabatini et al., J. Phys.: Condens. Matter 24, 424209 (2012).   %
     %                                                                      %
     %%%%%%%%%%%%%%%%%%%%%%%%%%%%%%%%%%%%%%%%%%%%%%%%%%%%%%%%%%%%%%%%%%%%%%%%

     Adding external electric field

     Computed dipole along edir(3) :
        Dipole               -5.1802 Ry au,        -13.1669 Debye
        Dipole field         -0.0098 Ry au,

        Potential amp.        0.9062 Ry
        Total length         46.3494 bohr

     Starting wfcs are  294 atomic wfcs
  @ DRIVER MODE: Message from server: STATUS
  @ DRIVER MODE: Message from server: POSDATA
  @ DRIVER MODE: Reading and sharing cell
  @ DRIVER MODE: Reading and sharing positions
  @ DRIVER MODE: Received positions

     Self-consistent Calculation

     iteration #  1     ecut=    29.40 Ry     beta= 0.05
     Davidson diagonalization with overlap
     c_bands:  5 eigenvalues not converged
     c_bands:  2 eigenvalues not converged
     c_bands:  2 eigenvalues not converged
     c_bands:  1 eigenvalues not converged
     c_bands:  2 eigenvalues not converged
     c_bands:  2 eigenvalues not converged
     c_bands:  3 eigenvalues not converged
     c_bands:  2 eigenvalues not converged
     ethr =  1.00E-05,  avg # of iterations = 21.9

[...]

     total energy              =   -2823.15748632 Ry
     estimated scf accuracy    <    1180.32606181 Ry

     iteration #  2     ecut=    29.40 Ry     beta= 0.05
     Davidson diagonalization with overlap
     ethr =  1.00E-02,  avg # of iterations = 17.0

[...]

     iteration # 69     ecut=    29.40 Ry     beta= 0.05
     Davidson diagonalization with overlap
     c_bands:  1 eigenvalues not converged
     c_bands:  1 eigenvalues not converged
     ethr =  8.04E-11,  avg # of iterations = 13.8

[...]

     total energy              =   -2930.16716949 Ry
     estimated scf accuracy    <       0.00000034 Ry

     iteration # 71     ecut=    29.40 Ry     beta= 0.05
     Davidson diagonalization with overlap
     ethr =  8.04E-11,  avg # of iterations = 12.3

     negative rho (up, down):  1.728E-02 0.000E+00

     Adding external electric field

     Computed dipole along edir(3) :
        Dipole                0.9338 Ry au,          2.3735 Debye
        Dipole field          0.0018 Ry au,

        Potential amp.       -0.1634 Ry
        Total length         46.3494 bohr

     End of self-consistent calculation

          k = 0.0000 0.0000 0.0000 ( 18029 PWs)   bands (ev):

   -55.8208 -55.8104 -55.7844 -55.7742 -55.7116 -55.6973 -55.6749 -55.6023
   -55.6009 -55.5899 -55.5791 -55.5563 -55.5245 -55.4869 -54.8464 -54.8124
   -32.3803 -32.2932 -32.1881 -32.1706 -32.1274 -32.1226 -32.1154 -32.0965
   -32.0694 -32.0521 -32.0504 -32.0246 -31.9942 -31.9917 -31.9795 -31.9588
   -31.9426 -31.9411 -31.9316 -31.9150 -31.8930 -31.8870 -31.8841 -31.8722
   -31.8629 -31.8463 -31.8443 -31.8210 -31.8157 -31.8151 -31.7898 -31.7622
   -31.7560 -31.7342 -31.7333 -31.7306 -31.7088 -31.7087 -31.6949 -31.6774
   -31.6758 -31.6752 -31.2566 -31.1587 -31.1365 -31.0732 -30.9872 -30.8760
   -19.8384 -16.5910 -16.2966 -16.1504 -16.0167 -15.9674 -15.8525 -15.6945
   -15.6155 -15.5492 -15.4938 -15.4413 -15.4041 -15.4028 -15.3733 -15.3597
   -15.3539 -15.3466 -15.2726 -15.2707 -15.2357 -15.2182 -15.2074 -15.1183
   -15.0575 -14.9978 -14.9508 -14.8923 -14.8394 -14.8253 -13.3475 -13.2290
    -9.3205  -5.5653  -5.5165  -3.9402  -3.7635  -3.7237  -3.7080  -3.6514
    -3.5281  -3.4234  -3.3964  -3.1061  -3.0184  -2.9885  -2.9777  -2.9652
    -2.8224  -2.7798  -2.6651  -2.6621  -2.6504  -2.6458  -2.6258  -2.5904
    -2.5839  -2.5391  -2.5163  -2.4071  -2.3675  -2.2578  -2.2442  -2.2156
    -2.1562  -2.1310  -2.1003  -2.0875  -2.0578  -2.0537  -2.0515  -2.0066
    -1.9060  -1.8187  -1.7512  -1.6689  -1.6306  -1.5376  -1.3790  -1.3098
    -1.2692  -1.2336  -1.1843  -1.1654  -1.1351  -1.1131  -1.0919  -1.0821
    -0.9840  -0.8719  -0.8617  -0.7633  -0.7032  -0.6835  -0.6689  -0.5783
    -0.5596  -0.5491  -0.4552  -0.3140  -0.3042  -0.3002  -0.1814  -0.1504
    -0.1274  -0.0825  -0.0578  -0.0230   0.0076   0.0630   0.1071   0.1176
     0.1645   0.1818   0.2075   0.3088   0.3613   0.3728   0.4270   0.4640
     0.6458   0.6659   0.8074   0.8729   1.0795   1.1779   1.2327   1.3466
     1.7654   1.8232   3.3445   3.3759   3.4010   3.4509   3.4968   3.5387
     3.5919   3.8043   3.8112   3.8375   3.9027

[...]

          k = 0.0380-0.0419 0.0000 ( 17876 PWs)   bands (ev):

[...]

          k =-0.0760-0.0000 0.0000 ( 17886 PWs)   bands (ev):

[...]

          k =-0.0760-0.0839 0.0000 ( 17948 PWs)   bands (ev):

   -55.8090 -55.7960 -55.7925 -55.7919 -55.7018 -55.6940 -55.6847 -55.6053
   -55.5976 -55.5759 -55.5729 -55.5709 -55.5306 -55.4895 -54.8300 -54.8287
   -32.1817 -32.1815 -32.1167 -32.1030 -32.1016 -32.0968 -32.0817 -32.0763
   -32.0630 -32.0336 -32.0259 -32.0114 -31.9946 -31.9577 -31.9469 -31.9384
   -31.9371 -31.9334 -31.9252 -31.9219 -31.9046 -31.9017 -31.8982 -31.8972
   -31.8943 -31.8912 -31.8797 -31.8560 -31.8290 -31.8282 -31.8276 -31.8055
   -31.8009 -31.7833 -31.7801 -31.7733 -31.7704 -31.7700 -31.7429 -31.7167
   -31.7091 -31.6846 -31.1499 -31.1483 -31.0700 -31.0690 -31.0308 -31.0297
   -19.8306 -16.0231 -15.9926 -15.8753 -15.7626 -15.7497 -15.7069 -15.6637
   -15.6159 -15.5574 -15.5546 -15.5065 -15.4874 -15.4833 -15.4388 -15.4058
   -15.3584 -15.3523 -15.3407 -15.3398 -15.2859 -15.2823 -15.2358 -15.2282
   -15.2076 -15.1685 -15.1651 -15.0949 -15.0593 -15.0047 -13.3314 -13.3292
    -9.3216  -5.5429  -5.4991  -3.5544  -3.3119  -3.2785  -3.1082  -2.9806
    -2.9708  -2.9120  -2.8282  -2.7909  -2.7462  -2.6962  -2.6928  -2.6708
    -2.6587  -2.6450  -2.6410  -2.6329  -2.5872  -2.5679  -2.5260  -2.4820
    -2.4743  -2.4608  -2.4549  -2.4149  -2.3991  -2.3875  -2.3802  -2.3744
    -2.3029  -2.2268  -2.1558  -2.0808  -2.0274  -2.0076  -1.9764  -1.9417
    -1.9069  -1.8895  -1.8725  -1.7485  -1.7260  -1.5773  -1.5615  -1.5385
    -1.5296  -1.4763  -1.4690  -1.3472  -1.2711  -1.2651  -1.1983  -1.1755
    -1.1469  -1.0985  -1.0763  -0.9960  -0.9540  -0.9111  -0.8571  -0.7962
    -0.7844  -0.7186  -0.7083  -0.6276  -0.6068  -0.5855  -0.5808  -0.5103
    -0.4764  -0.3970  -0.3860  -0.3632  -0.2622  -0.1965  -0.1921   0.0030
     0.1748   0.1793   0.1991   0.2992   0.3295   0.3726   0.4289   0.4440
     0.5307   0.5852   0.6762   0.6964   0.7052   0.7858   1.5365   1.5376
     1.6286   1.6391   3.2987   3.5631   3.6004   3.6044   3.6644   3.8184
     3.8214   3.8385   3.8479   3.9732   3.9839

     the Fermi energy is     3.3297 ev

!    total energy              =   -2930.16718675 Ry
     estimated scf accuracy    <       0.00000005 Ry
     smearing contrib. (-TS)   =      -0.03340687 Ry
     internal energy E=F+TS    =   -2930.13377988 Ry

     The total energy is F=E-TS. E is the sum of the following terms:
     one-electron contribution =  -24668.17809199 Ry
     hartree contribution      =   12419.53880601 Ry
     xc contribution           =    -481.27437023 Ry
     ewald contribution        =    9799.77823081 Ry
     electric field correction =       0.00164552 Ry

     convergence has been achieved in  71 iterations

     Forces acting on atoms (cartesian axes, Ry/au):

     atom    1 type  1   force =    -0.00009964    0.00004707    0.10425310
     atom    2 type  1   force =    -0.00009542    0.00005074    0.10430796
     atom    3 type  2   force =    -0.00025107   -0.00196185    0.10279984
     atom    4 type  2   force =    -0.00014788    0.00159512    0.11370883
     atom    5 type  2   force =    -0.00033199    0.00058279   -0.18043338
     atom    6 type  2   force =    -0.00019557   -0.00013765   -0.18078629
     atom    7 type  1   force =    -0.06892981    0.00063607   -0.02908264
     atom    8 type  1   force =    -0.06845067   -0.00121194   -0.02912233
     atom    9 type  1   force =     0.06856474    0.00112431   -0.02916145
     atom   10 type  1   force =     0.06818018   -0.00081409   -0.02921245
     atom   11 type  1   force =     0.00037482    0.00051065    0.04558645
     atom   12 type  1   force =     0.00056865    0.00075843    0.04712144
     atom   13 type  1   force =     0.00028180   -0.00576170   -0.03303297
     atom   14 type  1   force =     0.00033193    0.00397705   -0.02581165
     atom   15 type  2   force =     0.00003098   -0.00027857    0.00022572
     atom   16 type  2   force =     0.00013443    0.00012980   -0.00012059
     atom   17 type  2   force =    -0.00021598   -0.00068847    0.00125002
     atom   18 type  2   force =    -0.00028367   -0.00034614    0.00063568
     atom   19 type  1   force =    -0.01791730    0.00015204    0.00393080
     atom   20 type  1   force =    -0.01643404    0.00130349    0.00320616
     atom   21 type  1   force =     0.01955015   -0.00097428    0.00432524
     atom   22 type  1   force =     0.01781143    0.00103205    0.00343724
     atom   23 type  1   force =    -0.00014455   -0.00025944    0.00013409
     atom   24 type  1   force =    -0.00022428    0.00003419    0.00001288
     atom   25 type  1   force =    -0.00002413   -0.00010005   -0.00085834
     atom   26 type  1   force =    -0.00011708    0.00021860   -0.00015068
     atom   27 type  2   force =    -0.00004189   -0.00075017   -0.00090183
     atom   28 type  2   force =     0.00014727    0.00066984    0.00014367
     atom   29 type  2   force =     0.00009773   -0.00086985    0.00052880
     atom   30 type  2   force =    -0.00025153    0.00137815   -0.00044198
     atom   31 type  1   force =    -0.00020050   -0.00035265    0.00041857
     atom   32 type  1   force =    -0.00024782    0.00036375    0.00001344
     atom   33 type  1   force =    -0.00000678   -0.00040300    0.00052409
     atom   34 type  1   force =     0.00019836    0.00043769    0.00022835
     atom   35 type  1   force =     0.00014769   -0.00006600   -0.00139738
     atom   36 type  1   force =    -0.00006899    0.00033641   -0.00014106
     atom   37 type  1   force =    -0.00074770    0.00009543    0.00040889
     atom   38 type  1   force =     0.00006334   -0.00023169   -0.00062380
     atom   39 type  2   force =    -0.00077269    0.00066974    0.00134007
     atom   40 type  2   force =    -0.00103516   -0.00008605    0.00044051
     atom   41 type  2   force =     0.00062162   -0.00090566   -0.00055514
     atom   42 type  2   force =     0.00069009    0.00100788   -0.00052349
     atom   43 type  1   force =    -0.00035149    0.00021999    0.00053166
     atom   44 type  1   force =     0.00051870    0.00014918    0.00050491
     atom   45 type  1   force =    -0.00060920   -0.00004547    0.00036800
     atom   46 type  1   force =     0.00019043    0.00015991    0.00053426
     atom   47 type  1   force =    -0.00043255    0.00081583    0.00139314
     atom   48 type  1   force =    -0.00047366   -0.00057473    0.00083423
     atom   49 type  3   force =     0.00031412    0.00975001   -0.00473620
     atom   50 type  4   force =     0.00054589   -0.00052741   -0.00030738
     atom   51 type  4   force =    -0.00026132   -0.01085934    0.00425300

     Total force =     0.374726     Total SCF correction =     0.000607
  @ DRIVER MODE: Message from server: STATUS
  @ DRIVER MODE: Message from server: GETFORCE
  @ DRIVER MODE: Returning v,forces,stress,ensemble

     Writing output data file ./calc.save/
  @ DRIVER MODE: Message from server: EXIT
  @ DRIVE MODE: Exiting

     General routines

     Parallel routines

   This run was terminated on:   1:53:45  11Sep2021

   JOB DONE.