     Program PWSCF v.6.7GPU starts on 24Aug2021 at 11:40:22

     R & G space division:  proc/nbgrp/npool/nimage =      72
     Reading input from /storage/home/hcoda1/3/ntian30/research/carbon/CH2_vib/ads_slab/CH2NHH_a/out_0005/pw.inp
Warning: card &CELL ignored
Warning: card   CELL_DYNAMICS='IPI', ignored
Warning: card / ignored

     Current dimensions of program PWSCF are:
     Max number of different atomic species (ntypx) = 10
     Max number of k-points (npk) =  40000
     Max angular momentum in pseudopotentials (lmaxx) =  3
     Presently no symmetry can be used with electric field

     Message from routine cell_base_init:
     DEPRECATED: use true lattice parameter, not A to a.u. conversion factor

     IMPORTANT: XC functional enforced from input :
     Exchange-correlation= BEEF-VDW
                           (   1   4  43  14   2   0   0)
     Any further DFT definition will be discarded
     Please, verify this is what you really want

  @ DRIVER MODE: Connecting to
 qe_1139763_2641439.sched-torque.pace.gatech.eduacleazsd_scratch
  using UNIX socket
  @ DRIVER MODE: Message from server: STATUS
  @ DRIVER MODE: Message from server: INIT
  @ DRIVER MODE: Receiving replica           0          -1
  @ DRIVER MODE: Receiving encoded integer          25
  @ DRIVER MODE:  SCF:  T  FORCE:  T  STRESS:  F  VC:  F  ENSEMBLE:  F
  @ DRIVER MODE:  SCF:  T  FORCE:  T  STRESS:  F  VC:  F  ENSEMBLE:  F

     Using Slab Decomposition

     bravais-lattice index     =            0
     lattice parameter (alat)  =       1.8897  a.u.
     unit-cell volume          =    6658.9804 (a.u.)^3
     number of atoms/cell      =           53
     number of atomic types    =            5
     number of electrons       =       391.00
     number of Kohn-Sham states=          205
     kinetic-energy cutoff     =      29.3995  Ry
     charge density cutoff     =     293.9946  Ry
     scf convergence threshold =      7.3E-08
     mixing beta               =       0.0500
     number of iterations used =            8  plain     mixing
     Exchange-correlation= BEEF-VDW
                           (   1   4  43  14   2   0   0)

     celldm(1)=   1.889726  celldm(2)=   0.000000  celldm(3)=   0.000000
     celldm(4)=   0.000000  celldm(5)=   0.000000  celldm(6)=   0.000000

     crystal axes: (cart. coord. in units of alat)
               a(1) = (   6.579727   0.000000   0.000000 )
               a(2) = (  -0.000775   5.961596   0.000000 )
               a(3) = (   0.000000   0.000000  25.155947 )

     reciprocal axes: (cart. coord. in units 2 pi/alat)
               b(1) = (  0.151982  0.000020  0.000000 )
               b(2) = (  0.000000  0.167740  0.000000 )
               b(3) = (  0.000000  0.000000  0.039752 )

     PseudoPot. # 1 for Ti read from file:
     /storage/coda1/p-amedford6/0/shared/rich_project_chbe-medford/medford-share/data/pseudos_module/espresso/nninc/pbe/van/Ti.UPF
     MD5 check sum: 8e4df49b7f0d34bbd5052bf3f5ea0213
     Pseudo is Ultrasoft, Zval = 12.0
     Generated by new atomic code, or converted to UPF format
     Using radial grid of  851 points,  6 beta functions with:
                l(1) =   0
                l(2) =   0
                l(3) =   1
                l(4) =   1
                l(5) =   2
                l(6) =   2
     Q(r) pseudized with  8 coefficients,  rinner =    1.000   1.000   1.000
                                                       1.000   1.000

     PseudoPot. # 2 for O  read from file:
     /storage/coda1/p-amedford6/0/shared/rich_project_chbe-medford/medford-share/data/pseudos_module/espresso/nninc/pbe/van/O.UPF
     MD5 check sum: 78c19812648e8988a0fe644b0f25305e
     Pseudo is Ultrasoft, Zval =  6.0
     Generated by new atomic code, or converted to UPF format
     Using radial grid of  737 points,  4 beta functions with:
                l(1) =   0
                l(2) =   0
                l(3) =   1
                l(4) =   1
     Q(r) pseudized with  8 coefficients,  rinner =    0.800   0.800   0.800

     PseudoPot. # 3 for N  read from file:
     /storage/coda1/p-amedford6/0/shared/rich_project_chbe-medford/medford-share/data/pseudos_module/espresso/nninc/pbe/van/N.UPF
     MD5 check sum: 90d10febe142ad51ac9d5be1deb811c4
     Pseudo is Ultrasoft, Zval =  5.0
     Generated by new atomic code, or converted to UPF format
     Using radial grid of  729 points,  4 beta functions with:
                l(1) =   0
                l(2) =   0
                l(3) =   1
                l(4) =   1
     Q(r) pseudized with  8 coefficients,  rinner =    0.800   0.800   0.800

     PseudoPot. # 4 for C  read from file:
     /storage/coda1/p-amedford6/0/shared/rich_project_chbe-medford/medford-share/data/pseudos_module/espresso/nninc/pbe/van/C.UPF
     MD5 check sum: 1a69bf6b8db32088f5b2163dbdb77a27
     Pseudo is Ultrasoft, Zval =  4.0
     Generated by new atomic code, or converted to UPF format
     Using radial grid of  721 points,  4 beta functions with:
                l(1) =   0
                l(2) =   0
                l(3) =   1
                l(4) =   1
     Q(r) pseudized with  8 coefficients,  rinner =    0.800   0.800   0.800

     PseudoPot. # 5 for H  read from file:
     /storage/coda1/p-amedford6/0/shared/rich_project_chbe-medford/medford-share/data/pseudos_module/espresso/nninc/pbe/van/H.UPF
     MD5 check sum: b5ee9d7bfd3a09ee7748110bda690ff7
     Pseudo is Ultrasoft, Zval =  1.0
     Generated by new atomic code, or converted to UPF format
     Using radial grid of  615 points,  1 beta functions with:
                l(1) =   0
     Q(r) pseudized with  8 coefficients,  rinner =    0.800

     atomic species   valence    mass     pseudopotential
        Ti1           12.00    47.86700     Ti( 1.00)
        O1             6.00    15.99900     O ( 1.00)
        N1             5.00    14.00700     N ( 1.00)
        C1             4.00    12.01100     C ( 1.00)
        H1             1.00     1.00800     H ( 1.00)

     No symmetry found

   Cartesian axes

     site n.     atom                  positions (alat units)
         1           Ti1 tau(   1) = (   0.0004258   2.9801865   6.0000000  )
         2           Ti1 tau(   2) = (   3.2906075   1.4906267   6.0002472  )
         3           O1  tau(   3) = (   0.0006271   0.0005054   7.9858123  )
         4           O1  tau(   4) = (   3.2906025   0.0005020   7.3038282  )
         5           O1  tau(   5) = (   4.5942328   1.4918067   9.2879030  )
         6           O1  tau(   6) = (   1.9868534   1.4903216   9.2879459  )
         7           Ti1 tau(   7) = (   3.2907910   2.8959150   9.1758416  )
         8           Ti1 tau(   8) = (   0.0015273   1.4827037   9.2680791  )
         9           O1  tau(   9) = (   3.2941312   5.9515177  11.3840049  )
        10           O1  tau(  10) = (   0.0116148   5.9584955  10.6183126  )
        11           O1  tau(  11) = (   1.2915503   1.4777401  12.6967708  )
        12           O1  tau(  12) = (   5.3002239   1.4803738  12.6794006  )
        13           Ti1 tau(  13) = (   0.0161863   2.9610389  12.5056540  )
        14           Ti1 tau(  14) = (   3.3199580   1.4690355  12.5397617  )
        15           O1  tau(  15) = (   6.5577523   5.8663973  14.6994336  )
        16           O1  tau(  16) = (   3.3105950   5.9380289  14.0083265  )
        17           O1  tau(  17) = (   4.5355139   1.5078041  16.1868020  )
        18           O1  tau(  18) = (   2.0231344   1.4922588  16.1350940  )
        19           Ti1 tau(  19) = (   3.2781988   2.9761027  15.7713632  )
        20           Ti1 tau(  20) = (   0.0162001   1.2772015  15.8797579  )
        21           O1  tau(  21) = (   3.2904802   0.0005063   4.7018136  )
        22           O1  tau(  22) = (   6.5682446   0.1140876  17.2519115  )
        23           O1  tau(  23) = (   1.3043587   1.4918075   6.0039043  )
        24           O1  tau(  24) = (   5.2767064   1.4903225   6.0039473  )
        25           Ti1 tau(  25) = (   0.0000382   5.9609847   6.0000000  )
        26           Ti1 tau(  26) = (   3.2902200   4.4714249   6.0002472  )
        27           O1  tau(  27) = (   0.0002396   2.9813036   7.9858123  )
        28           O1  tau(  28) = (   3.2902150   2.9813002   7.3038282  )
        29           O1  tau(  29) = (   4.5938453   4.4726049   9.2879030  )
        30           O1  tau(  30) = (   1.9864658   4.4711199   9.2879459  )
        31           Ti1 tau(  31) = (   3.2891106   5.8743827   9.1763621  )
        32           Ti1 tau(  32) = (   0.0006254   4.4649316   9.2693709  )
        33           O1  tau(  33) = (   3.2958891   2.9587481  11.3780895  )
        34           O1  tau(  34) = (   0.0092240   2.9805883  10.6323155  )
        35           O1  tau(  35) = (   1.2947421   4.4484190  12.6652604  )
        36           O1  tau(  36) = (   5.2996063   4.4466420  12.6515021  )
        37           Ti1 tau(  37) = (   0.0283143   5.9336383  12.5061025  )
        38           Ti1 tau(  38) = (   3.3214233   4.4478814  12.5310514  )
        39           O1  tau(  39) = (   6.5589476   3.0029366  14.9874712  )
        40           O1  tau(  40) = (   3.3011147   2.9794859  13.9794371  )
        41           O1  tau(  41) = (   4.5155863   4.4560770  16.2359875  )
        42           O1  tau(  42) = (   2.0187475   4.4548860  16.2131175  )
        43           Ti1 tau(  43) = (   3.3138217   5.9556645  15.8088081  )
        44           Ti1 tau(  44) = (   0.0451788   4.5003401  16.0524233  )
        45           O1  tau(  45) = (   3.2900926   2.9813045   4.7018136  )
        46           O1  tau(  46) = (   1.3039711   4.4726057   6.0039043  )
        47           O1  tau(  47) = (   5.2763189   4.4711207   6.0039473  )
        48           N1  tau(  48) = (   6.2013940   3.4221407  18.2424812  )
        49           C1  tau(  49) = (   0.6861764   3.1362451  19.0985974  )
        50           H1  tau(  50) = (   1.2250757   3.9700495  19.5149693  )
        51           H1  tau(  51) = (   1.1126790   2.1486344  19.0481404  )
        52           H1  tau(  52) = (   5.7034377   4.2789310  18.4761913  )
        53           H1  tau(  53) = (   5.5430662   2.6552022  18.1284619  )

     number of k points=    10  Fermi-Dirac smearing, width (Ry)=  0.0073
                       cart. coord. in units 2pi/alat
        k(    1) = (   0.0000000   0.0000000   0.0000000), wk =   0.1250000
        k(    2) = (   0.0000000   0.0419351   0.0000000), wk =   0.2500000
        k(    3) = (   0.0000000  -0.0838702   0.0000000), wk =   0.1250000
        k(    4) = (   0.0379955   0.0000049   0.0000000), wk =   0.2500000
        k(    5) = (   0.0379955   0.0419400   0.0000000), wk =   0.2500000
        k(    6) = (   0.0379955  -0.0838652   0.0000000), wk =   0.2500000
        k(    7) = (   0.0379955  -0.0419301   0.0000000), wk =   0.2500000
        k(    8) = (  -0.0759910  -0.0000099   0.0000000), wk =   0.1250000
        k(    9) = (  -0.0759910   0.0419252   0.0000000), wk =   0.2500000
        k(   10) = (  -0.0759910  -0.0838800   0.0000000), wk =   0.1250000

     Initial potential from superposition of free atoms

     starting charge  374.99916, renormalised to  391.00000

     negative rho (up, down):  1.684E-02 0.000E+00

     %%%%%%%%%%%%%%%%%%%%%%%%%%%%%%%%%%%%%%%%%%%%%%%%%%%%%%%%%%%%%%%%%%%%%%%%
     %                                                                      %
     % You are using vdW-DF, which was implemented by the Thonhauser group. %
     % Please cite the following two papers that made this development      %
     % possible and the two reviews that describe the various versions:     %
     %                                                                      %
     %   T. Thonhauser et al., PRL 115, 136402 (2015).                      %
     %   T. Thonhauser et al., PRB 76, 125112 (2007).                       %
     %   K. Berland et al., Rep. Prog. Phys. 78, 066501 (2015).             %
     %   D.C. Langreth et al., J. Phys.: Condens. Matter 21, 084203 (2009). %
     %                                                                      %
     %                                                                      %
     % If you are calculating the stress with vdW-DF, please also cite:     %
     %                                                                      %
     %   R. Sabatini et al., J. Phys.: Condens. Matter 24, 424209 (2012).   %
     %                                                                      %
     %%%%%%%%%%%%%%%%%%%%%%%%%%%%%%%%%%%%%%%%%%%%%%%%%%%%%%%%%%%%%%%%%%%%%%%%

     Adding external electric field

     Computed dipole along edir(3) :
        Dipole               -6.9281 Ry au,        -17.6094 Debye
        Dipole field         -0.0131 Ry au,

        Potential amp.        1.2120 Ry
        Total length         46.3494 bohr

     Starting wfcs are  296 atomic wfcs
  @ DRIVER MODE: Message from server: STATUS
  @ DRIVER MODE: Message from server: POSDATA
  @ DRIVER MODE: Reading and sharing cell
  @ DRIVER MODE: Reading and sharing positions
  @ DRIVER MODE: Received positions

     Self-consistent Calculation

     iteration #  1     ecut=    29.40 Ry     beta= 0.05
     Davidson diagonalization with overlap
     c_bands:  1 eigenvalues not converged
     ethr =  1.00E-05,  avg # of iterations = 15.4

[...]

     total energy              =   -2713.46647187 Ry
     estimated scf accuracy    <    2282.44046130 Ry

[...]

     iteration #  3     ecut=    29.40 Ry     beta= 0.05
     Davidson diagonalization with overlap
     ethr =  1.00E-02,  avg # of iterations = 15.1

[...]

     iteration # 94     ecut=    29.40 Ry     beta= 0.05
     Davidson diagonalization with overlap
     ethr =  1.32E-10,  avg # of iterations =  9.9

[...]

     total energy              =   -2920.25691650 Ry
     estimated scf accuracy    <       0.00000020 Ry

     iteration # 97     ecut=    29.40 Ry     beta= 0.05
     Davidson diagonalization with overlap
     c_bands:  1 eigenvalues not converged
     ethr =  5.11E-11,  avg # of iterations = 13.8

     negative rho (up, down):  1.612E-02 0.000E+00

     Adding external electric field

     Computed dipole along edir(3) :
        Dipole                0.8823 Ry au,          2.2426 Debye
        Dipole field          0.0017 Ry au,

        Potential amp.       -0.1543 Ry
        Total length         46.3494 bohr

     End of self-consistent calculation

          k = 0.0000 0.0000 0.0000 ( 18029 PWs)   bands (ev):

   -55.7309 -55.6949 -55.6824 -55.6483 -55.6200 -55.6107 -55.5763 -55.5550
   -55.5474 -55.5205 -55.5141 -55.4805 -55.4730 -55.3107 -54.7143 -54.6803
   -32.2962 -32.1754 -32.0987 -32.0637 -32.0513 -32.0440 -32.0405 -32.0202
   -31.9714 -31.9654 -31.9425 -31.9366 -31.9274 -31.8999 -31.8845 -31.8822
   -31.8696 -31.8581 -31.8505 -31.8349 -31.8294 -31.7968 -31.7894 -31.7856
   -31.7574 -31.7521 -31.7428 -31.7395 -31.7338 -31.7295 -31.7134 -31.7117
   -31.7035 -31.7006 -31.6790 -31.6684 -31.6659 -31.6500 -31.6421 -31.6257
   -31.5314 -31.4787 -31.1239 -31.0293 -31.0072 -30.9402 -30.8534 -30.7426
   -16.6341 -16.5292 -16.2793 -16.1170 -16.0252 -15.9301 -15.7975 -15.7707
   -15.6547 -15.5783 -15.4362 -15.4030 -15.3889 -15.3683 -15.3492 -15.3355
   -15.2782 -15.2723 -15.2520 -15.2268 -15.2234 -15.1766 -15.1719 -15.1313
   -15.1074 -15.0506 -14.9764 -14.8924 -14.8195 -14.4919 -13.2172 -13.0997
    -9.4812  -6.8188  -4.8896  -3.8947  -3.7515  -3.6804  -3.6319  -3.6243
    -3.4827  -3.3081  -3.1613  -3.1457  -3.0792  -3.0025  -2.9349  -2.9213
    -2.8968  -2.7535  -2.7392  -2.6833  -2.6579  -2.5808  -2.5773  -2.5354
    -2.5165  -2.4802  -2.4760  -2.4477  -2.3036  -2.2985  -2.2506  -2.1976
    -2.1386  -2.1367  -2.0816  -2.0626  -2.0212  -2.0120  -2.0008  -1.9580
    -1.9545  -1.9212  -1.8238  -1.7560  -1.6283  -1.5918  -1.4463  -1.3718
    -1.3238  -1.3034  -1.2224  -1.2140  -1.1523  -1.1099  -1.1084  -1.0695
    -0.9575  -0.8732  -0.8223  -0.7653  -0.7296  -0.7147  -0.6299  -0.5315
    -0.5103  -0.4976  -0.4593  -0.3602  -0.3364  -0.2733  -0.2114  -0.1994
    -0.1863  -0.0979  -0.0631   0.0087   0.0606   0.0810   0.1561   0.1789
     0.2015   0.2073   0.2391   0.2536   0.3275   0.3450   0.3694   0.4571
     0.5785   0.8224   0.8786   0.8908   1.2076   1.2125   1.3081   1.4913
     1.8847   1.9331   3.3618   3.3794   3.4441   3.5123   3.5160   3.5794
     3.6030   3.8495   3.8688   3.8769   3.8948

[...]

          k = 0.0380-0.0419 0.0000 ( 17876 PWs)   bands (ev):

[...]

          k =-0.0760-0.0000 0.0000 ( 17886 PWs)   bands (ev):

[...]

          k =-0.0760-0.0839 0.0000 ( 17948 PWs)   bands (ev):

   -55.7143 -55.7113 -55.6653 -55.6652 -55.6157 -55.5943 -55.5927 -55.5515
   -55.5395 -55.5356 -55.4977 -55.4971 -55.4709 -55.3128 -54.6973 -54.6971
   -32.1019 -32.0992 -32.0082 -31.9905 -31.9904 -31.9874 -31.9757 -31.9568
   -31.9565 -31.9404 -31.9338 -31.9270 -31.9224 -31.8829 -31.8745 -31.8717
   -31.8674 -31.8625 -31.8583 -31.8534 -31.8398 -31.8204 -31.8089 -31.8079
   -31.7894 -31.7855 -31.7850 -31.7848 -31.7725 -31.7686 -31.7521 -31.7495
   -31.7482 -31.7380 -31.7307 -31.7279 -31.6929 -31.6779 -31.6774 -31.6582
   -31.5705 -31.5336 -31.0200 -31.0198 -30.9365 -30.9363 -30.8968 -30.8967
   -16.5898 -16.0438 -15.9536 -15.9156 -15.7682 -15.7304 -15.6948 -15.6823
   -15.5594 -15.5321 -15.5063 -15.4873 -15.4500 -15.4358 -15.4287 -15.3777
   -15.3491 -15.3301 -15.3244 -15.3125 -15.2499 -15.2419 -15.2380 -15.2310
   -15.1816 -15.1780 -15.0870 -15.0840 -15.0679 -14.7767 -13.2012 -13.2011
    -9.4828  -6.8008  -4.8702  -3.2222  -3.1927  -3.1686  -3.1265  -2.9865
    -2.9174  -2.9006  -2.8826  -2.8012  -2.7625  -2.7425  -2.7002  -2.6891
    -2.6387  -2.6103  -2.5832  -2.5684  -2.5634  -2.5478  -2.5270  -2.4904
    -2.4627  -2.4613  -2.4508  -2.4088  -2.3823  -2.3687  -2.3343  -2.3251
    -2.3171  -2.2888  -2.2268  -2.1198  -2.0983  -2.0626  -1.9679  -1.9398
    -1.9349  -1.8544  -1.8240  -1.7661  -1.7625  -1.7495  -1.6006  -1.5214
    -1.4800  -1.4773  -1.4543  -1.3269  -1.3186  -1.2335  -1.2112  -1.1994
    -1.1056  -1.0876  -1.0507  -1.0247  -0.9430  -0.9166  -0.8505  -0.7632
    -0.7256  -0.7185  -0.6882  -0.6853  -0.6359  -0.6244  -0.5431  -0.5014
    -0.4652  -0.4551  -0.4131  -0.2264  -0.2116  -0.1676  -0.0402   0.0086
     0.1393   0.1567   0.2216   0.2977   0.3304   0.3824   0.4189   0.5646
     0.5741   0.6109   0.6512   0.6607   0.7199   0.7290   1.6643   1.6650
     1.7529   1.7532   3.3838   3.6117   3.6185   3.6567   3.6794   3.8329
     3.8829   3.9219   3.9468   3.9515   3.9686

     the Fermi energy is     3.4301 ev

!    total energy              =   -2920.25691839 Ry
     estimated scf accuracy    <       0.00000003 Ry
     smearing contrib. (-TS)   =      -0.04292918 Ry
     internal energy E=F+TS    =   -2920.21398921 Ry

     The total energy is F=E-TS. E is the sum of the following terms:
     one-electron contribution =  -24046.27648254 Ry
     hartree contribution      =   12109.20026620 Ry
     xc contribution           =    -480.85128144 Ry
     ewald contribution        =    9497.71203953 Ry
     electric field correction =       0.00146904 Ry

     convergence has been achieved in  97 iterations

     Forces acting on atoms (cartesian axes, Ry/au):

     atom    1 type  1   force =     0.00008812   -0.00015996    0.09316696
     atom    2 type  1   force =    -0.00020588   -0.00025335   -0.17849904
     atom    3 type  2   force =     0.00003845   -0.00036540   -0.02007508
     atom    4 type  2   force =    -0.00001956   -0.00199577    0.05916608
     atom    5 type  2   force =    -0.01039981   -0.00113681    0.00789339
     atom    6 type  2   force =     0.01196072   -0.00052094    0.00731781
     atom    7 type  1   force =    -0.00041277    0.00230263   -0.01387903
     atom    8 type  1   force =     0.00003617   -0.00143896   -0.00476869
     atom    9 type  2   force =     0.00000406   -0.00028872   -0.00034484
     atom   10 type  2   force =    -0.00082704    0.00066338    0.00149478
     atom   11 type  2   force =     0.00011619   -0.00004132    0.00022996
     atom   12 type  2   force =    -0.00009236    0.00008652    0.00031106
     atom   13 type  1   force =    -0.00056761    0.00061663    0.00000647
     atom   14 type  1   force =     0.00025926    0.00020761    0.00014212
     atom   15 type  2   force =    -0.00019008    0.00070019    0.00020803
     atom   16 type  2   force =    -0.00016426   -0.00006751   -0.00018410
     atom   17 type  2   force =    -0.00038916   -0.00018799   -0.00028403
     atom   18 type  2   force =    -0.00006356   -0.00017394   -0.00060008
     atom   19 type  1   force =     0.00002290    0.00007169    0.00017456
     atom   20 type  1   force =    -0.00013268   -0.00003144    0.00039520
     atom   21 type  2   force =     0.00001446   -0.00001136    0.10398704
     atom   22 type  2   force =     0.00003628    0.00063099    0.00010689
     atom   23 type  2   force =    -0.07035847   -0.00010163   -0.02688884
     atom   24 type  2   force =     0.07017619    0.00032996   -0.02694738
     atom   25 type  1   force =    -0.00000292   -0.00012065    0.09257248
     atom   26 type  1   force =    -0.00018363   -0.00039831   -0.17852555
     atom   27 type  2   force =     0.00009636   -0.00027128   -0.01916371
     atom   28 type  2   force =     0.00002862   -0.00176308    0.05848874
     atom   29 type  2   force =    -0.01089093   -0.00133043    0.00842820
     atom   30 type  2   force =     0.01234708   -0.00099231    0.00777770
     atom   31 type  1   force =    -0.00022399    0.00598460   -0.01476034
     atom   32 type  1   force =     0.00006017    0.00098687   -0.00536396
     atom   33 type  2   force =    -0.00030525    0.00024077    0.00015058
     atom   34 type  2   force =    -0.00022251   -0.00291251    0.00006791
     atom   35 type  2   force =     0.00061716    0.00022724   -0.00005621
     atom   36 type  2   force =    -0.00066649    0.00018447   -0.00028313
     atom   37 type  1   force =    -0.00054910   -0.00049118    0.00001246
     atom   38 type  1   force =     0.00016399   -0.00049611    0.00018246
     atom   39 type  2   force =     0.00006341   -0.00011166    0.00003841
     atom   40 type  2   force =    -0.00001214    0.00045400   -0.00063115
     atom   41 type  2   force =    -0.00051628    0.00071252   -0.00067512
     atom   42 type  2   force =     0.00021806    0.00062388   -0.00035950
     atom   43 type  1   force =     0.00002256    0.00028679   -0.00047908
     atom   44 type  1   force =    -0.00055361   -0.00092234    0.00103883
     atom   45 type  2   force =     0.00000595   -0.00002526    0.10395513
     atom   46 type  2   force =    -0.07033544   -0.00005569   -0.02685309
     atom   47 type  2   force =     0.07017127    0.00037553   -0.02690216
     atom   48 type  3   force =     0.00404103    0.00384057    0.00691452
     atom   49 type  4   force =    -0.00263787   -0.00015309   -0.00477587
     atom   50 type  5   force =    -0.00001806    0.00013352   -0.00079999
     atom   51 type  5   force =    -0.00017172    0.00057720    0.00009518
     atom   52 type  5   force =     0.00150472   -0.00330361   -0.00142299
     atom   53 type  5   force =    -0.00097995   -0.00011496   -0.00079999

     Total force =     0.366568     Total SCF correction =     0.000355
  @ DRIVER MODE: Message from server: STATUS
  @ DRIVER MODE: Message from server: GETFORCE
  @ DRIVER MODE: Returning v,forces,stress,ensemble

     Writing output data file ./calc.save/
  @ DRIVER MODE: Message from server: EXIT
  @ DRIVE MODE: Exiting

     General routines

     Parallel routines

   This run was terminated on:  12: 7:11  24Aug2021

   JOB DONE.