     Program PWSCF v.6.7GPU starts on 10Sep2021 at 12:45:58

     R & G space division:  proc/nbgrp/npool/nimage =      10
     Reading input from /storage/home/hcoda1/3/ntian30/research/carbon/CxH_vib/CH_calc/ads_slab/CHNHNH_a/out_0007/pw.inp
Warning: card &CELL ignored
Warning: card   CELL_DYNAMICS='IPI', ignored
Warning: card / ignored

     Current dimensions of program PWSCF are:
     Max number of different atomic species (ntypx) = 10
     Max number of k-points (npk) =  40000
     Max angular momentum in pseudopotentials (lmaxx) =  3
     Presently no symmetry can be used with electric field

     Message from routine cell_base_init:
     DEPRECATED: use true lattice parameter, not A to a.u. conversion factor

     IMPORTANT: XC functional enforced from input :
     Exchange-correlation= BEEF-VDW
                           (   1   4  43  14   2   0   0)
     Any further DFT definition will be discarded
     Please, verify this is what you really want

  @ DRIVER MODE: Connecting to
 qe_1139763_2787518.sched-torque.pace.gatech.edupn56u4l7_scratch
  using UNIX socket
  @ DRIVER MODE: Message from server: STATUS
  @ DRIVER MODE: Message from server: INIT
  @ DRIVER MODE: Receiving replica           0          -1
  @ DRIVER MODE: Receiving encoded integer          25
  @ DRIVER MODE:  SCF:  T  FORCE:  T  STRESS:  F  VC:  F  ENSEMBLE:  F
  @ DRIVER MODE:  SCF:  T  FORCE:  T  STRESS:  F  VC:  F  ENSEMBLE:  F

     Using Slab Decomposition

     bravais-lattice index     =            0
     lattice parameter (alat)  =       1.8897  a.u.
     unit-cell volume          =    6658.9804 (a.u.)^3
     number of atoms/cell      =           53
     number of atomic types    =            5
     number of electrons       =       395.00
     number of Kohn-Sham states=          207
     kinetic-energy cutoff     =      29.3995  Ry
     charge density cutoff     =     293.9946  Ry
     scf convergence threshold =      7.3E-08
     mixing beta               =       0.0500
     number of iterations used =            8  plain     mixing
     Exchange-correlation= BEEF-VDW
                           (   1   4  43  14   2   0   0)

     celldm(1)=   1.889726  celldm(2)=   0.000000  celldm(3)=   0.000000
     celldm(4)=   0.000000  celldm(5)=   0.000000  celldm(6)=   0.000000

     crystal axes: (cart. coord. in units of alat)
               a(1) = (   6.579727   0.000000   0.000000 )
               a(2) = (  -0.000775   5.961596   0.000000 )
               a(3) = (   0.000000   0.000000  25.155947 )

     reciprocal axes: (cart. coord. in units 2 pi/alat)
               b(1) = (  0.151982  0.000020  0.000000 )
               b(2) = (  0.000000  0.167740  0.000000 )
               b(3) = (  0.000000  0.000000  0.039752 )

     PseudoPot. # 1 for Ti read from file:
     /storage/coda1/p-amedford6/0/shared/rich_project_chbe-medford/medford-share/data/pseudos_module/espresso/nninc/pbe/van/Ti.UPF
     MD5 check sum: 8e4df49b7f0d34bbd5052bf3f5ea0213
     Pseudo is Ultrasoft, Zval = 12.0
     Generated by new atomic code, or converted to UPF format
     Using radial grid of  851 points,  6 beta functions with:
                l(1) =   0
                l(2) =   0
                l(3) =   1
                l(4) =   1
                l(5) =   2
                l(6) =   2
     Q(r) pseudized with  8 coefficients,  rinner =    1.000   1.000   1.000
                                                       1.000   1.000

     PseudoPot. # 2 for O  read from file:
     /storage/coda1/p-amedford6/0/shared/rich_project_chbe-medford/medford-share/data/pseudos_module/espresso/nninc/pbe/van/O.UPF
     MD5 check sum: 78c19812648e8988a0fe644b0f25305e
     Pseudo is Ultrasoft, Zval =  6.0
     Generated by new atomic code, or converted to UPF format
     Using radial grid of  737 points,  4 beta functions with:
                l(1) =   0
                l(2) =   0
                l(3) =   1
                l(4) =   1
     Q(r) pseudized with  8 coefficients,  rinner =    0.800   0.800   0.800

     PseudoPot. # 3 for N  read from file:
     /storage/coda1/p-amedford6/0/shared/rich_project_chbe-medford/medford-share/data/pseudos_module/espresso/nninc/pbe/van/N.UPF
     MD5 check sum: 90d10febe142ad51ac9d5be1deb811c4
     Pseudo is Ultrasoft, Zval =  5.0
     Generated by new atomic code, or converted to UPF format
     Using radial grid of  729 points,  4 beta functions with:
                l(1) =   0
                l(2) =   0
                l(3) =   1
                l(4) =   1
     Q(r) pseudized with  8 coefficients,  rinner =    0.800   0.800   0.800

     PseudoPot. # 4 for C  read from file:
     /storage/coda1/p-amedford6/0/shared/rich_project_chbe-medford/medford-share/data/pseudos_module/espresso/nninc/pbe/van/C.UPF
     MD5 check sum: 1a69bf6b8db32088f5b2163dbdb77a27
     Pseudo is Ultrasoft, Zval =  4.0
     Generated by new atomic code, or converted to UPF format
     Using radial grid of  721 points,  4 beta functions with:
                l(1) =   0
                l(2) =   0
                l(3) =   1
                l(4) =   1
     Q(r) pseudized with  8 coefficients,  rinner =    0.800   0.800   0.800

     PseudoPot. # 5 for H  read from file:
     /storage/coda1/p-amedford6/0/shared/rich_project_chbe-medford/medford-share/data/pseudos_module/espresso/nninc/pbe/van/H.UPF
     MD5 check sum: b5ee9d7bfd3a09ee7748110bda690ff7
     Pseudo is Ultrasoft, Zval =  1.0
     Generated by new atomic code, or converted to UPF format
     Using radial grid of  615 points,  1 beta functions with:
                l(1) =   0
     Q(r) pseudized with  8 coefficients,  rinner =    0.800

     atomic species   valence    mass     pseudopotential
        Ti1           12.00    47.86700     Ti( 1.00)
        O1             6.00    15.99900     O ( 1.00)
        N1             5.00    14.00700     N ( 1.00)
        C1             4.00    12.01100     C ( 1.00)
        H1             1.00     1.00800     H ( 1.00)

     No symmetry found

   Cartesian axes

     site n.     atom                  positions (alat units)
         1           Ti1 tau(   1) = (   0.0004258   2.9801865   6.0000000  )
         2           Ti1 tau(   2) = (   3.2906075   1.4906267   6.0002472  )
         3           O1  tau(   3) = (   0.0006271   0.0005054   7.9858123  )
         4           O1  tau(   4) = (   3.2906025   0.0005020   7.3038282  )
         5           O1  tau(   5) = (   4.5942328   1.4918067   9.2879030  )
         6           O1  tau(   6) = (   1.9868534   1.4903216   9.2879459  )
         7           Ti1 tau(   7) = (   3.2907910   2.8959150   9.1758416  )
         8           Ti1 tau(   8) = (   0.0015273   1.4827037   9.2680791  )
         9           O1  tau(   9) = (   3.2974950   5.9468587  11.3331085  )
        10           O1  tau(  10) = (   0.0116148   5.9584955  10.6183126  )
        11           O1  tau(  11) = (   1.3019594   1.4757037  12.6170356  )
        12           O1  tau(  12) = (   5.2841045   1.4688878  12.6073194  )
        13           Ti1 tau(  13) = (   0.0658538   3.0089988  12.6217963  )
        14           Ti1 tau(  14) = (   3.3903573   1.4765488  12.4775701  )
        15           O1  tau(  15) = (   6.5762050   0.0002902  14.6414759  )
        16           O1  tau(  16) = (   3.3078303   5.9588356  13.9306596  )
        17           O1  tau(  17) = (   4.5399328   1.5113171  16.0740780  )
        18           O1  tau(  18) = (   2.0525891   1.5105181  16.0861438  )
        19           Ti1 tau(  19) = (   3.3041007   2.9930787  15.6963055  )
        20           Ti1 tau(  20) = (   0.0280933   1.5113244  15.8467906  )
        21           O1  tau(  21) = (   3.2904802   0.0005063   4.7018136  )
        22           O1  tau(  22) = (   0.0368235   0.0128086  17.1990618  )
        23           O1  tau(  23) = (   1.3043587   1.4918075   6.0039043  )
        24           O1  tau(  24) = (   5.2767064   1.4903225   6.0039473  )
        25           Ti1 tau(  25) = (   0.0000382   5.9609847   6.0000000  )
        26           Ti1 tau(  26) = (   3.2902200   4.4714249   6.0002472  )
        27           O1  tau(  27) = (   0.0002396   2.9813036   7.9858123  )
        28           O1  tau(  28) = (   3.2902150   2.9813002   7.3038282  )
        29           O1  tau(  29) = (   4.5938453   4.4726049   9.2879030  )
        30           O1  tau(  30) = (   1.9864658   4.4711199   9.2879459  )
        31           Ti1 tau(  31) = (   3.2891106   5.8743827   9.1763621  )
        32           Ti1 tau(  32) = (   0.0006254   4.4649316   9.2693709  )
        33           O1  tau(  33) = (   3.3000731   2.9737533  11.3293525  )
        34           O1  tau(  34) = (   0.0092240   2.9805883  10.6323155  )
        35           O1  tau(  35) = (   1.3001503   4.4664650  12.6348062  )
        36           O1  tau(  36) = (   5.2875254   4.4541756  12.6228532  )
        37           Ti1 tau(  37) = (   0.0765437   0.0243871  12.5594496  )
        38           Ti1 tau(  38) = (   3.3883988   4.4566399  12.4818539  )
        39           O1  tau(  39) = (   0.0169469   2.9261715  14.6451004  )
        40           O1  tau(  40) = (   3.3035743   2.9719493  13.9037931  )
        41           O1  tau(  41) = (   4.5445893   4.4635849  16.0933648  )
        42           O1  tau(  42) = (   2.0554864   4.4706235  16.0676963  )
        43           Ti1 tau(  43) = (   3.3300396   0.0018144  15.7250798  )
        44           Ti1 tau(  44) = (   0.0441581   4.6348571  16.0952712  )
        45           O1  tau(  45) = (   3.2900926   2.9813045   4.7018136  )
        46           O1  tau(  46) = (   1.3039711   4.4726057   6.0039043  )
        47           O1  tau(  47) = (   5.2763189   4.4711207   6.0039473  )
        48           N1  tau(  48) = (   1.0252718   2.8101955  18.5330041  )
        49           N1  tau(  49) = (   6.5602222   2.9467621  17.4444712  )
        50           C1  tau(  50) = (   1.2122298   3.5280882  19.5702009  )
        51           H1  tau(  51) = (   0.5037382   4.3646449  19.6222421  )
        52           H1  tau(  52) = (   1.5845460   1.9874866  18.3412699  )
        53           H1  tau(  53) = (   5.6894004   2.9582294  17.9538253  )

     number of k points=    10  Fermi-Dirac smearing, width (Ry)=  0.0073
                       cart. coord. in units 2pi/alat
        k(    1) = (   0.0000000   0.0000000   0.0000000), wk =   0.1250000
        k(    2) = (   0.0000000   0.0419351   0.0000000), wk =   0.2500000
        k(    3) = (   0.0000000  -0.0838702   0.0000000), wk =   0.1250000
        k(    4) = (   0.0379955   0.0000049   0.0000000), wk =   0.2500000
        k(    5) = (   0.0379955   0.0419400   0.0000000), wk =   0.2500000
        k(    6) = (   0.0379955  -0.0838652   0.0000000), wk =   0.2500000
        k(    7) = (   0.0379955  -0.0419301   0.0000000), wk =   0.2500000
        k(    8) = (  -0.0759910  -0.0000099   0.0000000), wk =   0.1250000
        k(    9) = (  -0.0759910   0.0419252   0.0000000), wk =   0.2500000
        k(   10) = (  -0.0759910  -0.0838800   0.0000000), wk =   0.1250000

     Initial potential from superposition of free atoms

     starting charge  378.99916, renormalised to  395.00000

     negative rho (up, down):  1.643E-02 0.000E+00

     %%%%%%%%%%%%%%%%%%%%%%%%%%%%%%%%%%%%%%%%%%%%%%%%%%%%%%%%%%%%%%%%%%%%%%%%
     %                                                                      %
     % You are using vdW-DF, which was implemented by the Thonhauser group. %
     % Please cite the following two papers that made this development      %
     % possible and the two reviews that describe the various versions:     %
     %                                                                      %
     %   T. Thonhauser et al., PRL 115, 136402 (2015).                      %
     %   T. Thonhauser et al., PRB 76, 125112 (2007).                       %
     %   K. Berland et al., Rep. Prog. Phys. 78, 066501 (2015).             %
     %   D.C. Langreth et al., J. Phys.: Condens. Matter 21, 084203 (2009). %
     %                                                                      %
     %                                                                      %
     % If you are calculating the stress with vdW-DF, please also cite:     %
     %                                                                      %
     %   R. Sabatini et al., J. Phys.: Condens. Matter 24, 424209 (2012).   %
     %                                                                      %
     %%%%%%%%%%%%%%%%%%%%%%%%%%%%%%%%%%%%%%%%%%%%%%%%%%%%%%%%%%%%%%%%%%%%%%%%

     Adding external electric field

     Computed dipole along edir(3) :
        Dipole               -8.5017 Ry au,        -21.6093 Debye
        Dipole field         -0.0160 Ry au,

        Potential amp.        1.4872 Ry
        Total length         46.3494 bohr

     Starting wfcs are  299 atomic wfcs
  @ DRIVER MODE: Message from server: STATUS
  @ DRIVER MODE: Message from server: POSDATA
  @ DRIVER MODE: Reading and sharing cell
  @ DRIVER MODE: Reading and sharing positions
  @ DRIVER MODE: Received positions

     Self-consistent Calculation

     iteration #  1     ecut=    29.40 Ry     beta= 0.05
     Davidson diagonalization with overlap
     c_bands:  1 eigenvalues not converged
     c_bands:  1 eigenvalues not converged
     c_bands:  2 eigenvalues not converged
     c_bands:  3 eigenvalues not converged
     c_bands:  3 eigenvalues not converged
     c_bands:  1 eigenvalues not converged
     c_bands:  1 eigenvalues not converged
     ethr =  1.00E-05,  avg # of iterations = 19.2

[...]

     total energy              =   -2621.19310304 Ry
     estimated scf accuracy    <    3530.25706274 Ry

[...]

     iteration #  3     ecut=    29.40 Ry     beta= 0.05
     Davidson diagonalization with overlap
     ethr =  1.00E-02,  avg # of iterations = 14.6

[...]

     iteration # 67     ecut=    29.40 Ry     beta= 0.05
     Davidson diagonalization with overlap
     c_bands:  1 eigenvalues not converged
     ethr =  3.70E-07,  avg # of iterations = 15.6

[...]

     total energy              =   -2939.04796610 Ry
     estimated scf accuracy    <       0.00000009 Ry

     iteration # 86     ecut=    29.40 Ry     beta= 0.05
     Davidson diagonalization with overlap
     ethr =  2.21E-11,  avg # of iterations = 11.7

     negative rho (up, down):  1.570E-02 0.000E+00

     Adding external electric field

     Computed dipole along edir(3) :
        Dipole                0.0452 Ry au,          0.1149 Debye
        Dipole field          0.0001 Ry au,

        Potential amp.       -0.0079 Ry
        Total length         46.3494 bohr

     End of self-consistent calculation

          k = 0.0000 0.0000 0.0000 ( 18029 PWs)   bands (ev):

   -56.2392 -56.2331 -56.2052 -56.1971 -56.1469 -56.0756 -56.0754 -56.0472
   -56.0400 -56.0132 -56.0114 -55.9778 -55.7830 -55.5183 -55.2161 -55.1821
   -32.7895 -32.7214 -32.5884 -32.5769 -32.5569 -32.5460 -32.5323 -32.5020
   -32.4816 -32.4795 -32.4540 -32.4417 -32.4143 -32.3913 -32.3857 -32.3742
   -32.3738 -32.3433 -32.3279 -32.2962 -32.2885 -32.2859 -32.2612 -32.2424
   -32.2365 -32.2346 -32.2345 -32.2216 -32.2143 -32.1975 -32.1916 -32.1892
   -32.1863 -32.1776 -32.1643 -32.1541 -32.1236 -32.0355 -31.9723 -31.7969
   -31.7799 -31.7191 -31.6233 -31.5349 -31.5125 -31.4398 -31.3533 -31.2425
   -17.2663 -16.9873 -16.7154 -16.5050 -16.3946 -16.3626 -16.2628 -16.0799
   -15.9563 -15.9257 -15.8260 -15.7985 -15.7753 -15.7633 -15.7421 -15.7302
   -15.6837 -15.6807 -15.6679 -15.6529 -15.5998 -15.5746 -15.5446 -15.4359
   -15.4293 -15.3965 -15.3713 -15.2949 -15.2884 -14.8259 -13.7187 -13.6023
   -12.7850  -8.6539  -5.3163  -4.3632  -4.2169  -4.1906  -4.1444  -4.0921
    -3.8729  -3.8104  -3.7465  -3.5965  -3.4678  -3.4261  -3.4135  -3.3973
    -3.3679  -3.1416  -3.1158  -3.0530  -3.0289  -3.0233  -3.0123  -3.0028
    -2.9808  -2.9646  -2.8907  -2.7877  -2.7124  -2.6654  -2.6179  -2.6063
    -2.5511  -2.5029  -2.4996  -2.4824  -2.4779  -2.4673  -2.4317  -2.4230
    -2.2869  -2.2252  -2.0916  -2.0564  -2.0357  -1.8879  -1.8462  -1.7502
    -1.6846  -1.6674  -1.6576  -1.6296  -1.5442  -1.5224  -1.4017  -1.3791
    -1.3384  -1.2693  -1.2545  -1.2330  -1.1304  -1.1149  -1.0105  -1.0028
    -0.9964  -0.9795  -0.9234  -0.7327  -0.7128  -0.6799  -0.6604  -0.6281
    -0.5512  -0.5208  -0.4296  -0.4169  -0.3586  -0.3397  -0.3143  -0.2648
    -0.2582  -0.2463  -0.2425  -0.2264  -0.0508   0.0106   0.0679   0.1186
     0.1340   0.2909   0.3411   0.4183   0.5044   0.7314   0.8058   0.8430
     0.8947   0.9980   1.3771   1.4227   2.4282   2.9016   2.9819   3.0318
     3.0422   3.1373   3.1428   3.3499   3.3716   3.3784   3.4415

[...]

          k = 0.0380-0.0419 0.0000 ( 17876 PWs)   bands (ev):

[...]

          k =-0.0760-0.0000 0.0000 ( 17886 PWs)   bands (ev):

[...]

          k =-0.0760-0.0839 0.0000 ( 17948 PWs)   bands (ev):

   -56.2225 -56.2217 -56.2158 -56.2142 -56.1424 -56.0800 -56.0621 -56.0533
   -56.0311 -56.0288 -55.9950 -55.9944 -55.7820 -55.5192 -55.1991 -55.1990
   -32.5945 -32.5917 -32.5370 -32.5363 -32.5251 -32.5181 -32.5172 -32.4983
   -32.4409 -32.4390 -32.4339 -32.4309 -32.4053 -32.3700 -32.3598 -32.3555
   -32.3482 -32.3438 -32.3423 -32.3419 -32.3410 -32.3341 -32.3319 -32.2834
   -32.2826 -32.2721 -32.2540 -32.2436 -32.2297 -32.2293 -32.2268 -32.2264
   -32.2098 -32.2091 -32.2013 -32.1989 -32.1270 -32.0378 -31.9675 -31.8537
   -31.7888 -31.7444 -31.5252 -31.5252 -31.4361 -31.4360 -31.3966 -31.3966
   -17.2477 -16.4385 -16.4069 -16.1810 -16.1705 -16.1557 -16.1527 -16.0147
   -15.9473 -15.9442 -15.9378 -15.9052 -15.8771 -15.8389 -15.7943 -15.7733
   -15.7727 -15.7608 -15.7541 -15.7012 -15.6960 -15.6744 -15.6674 -15.5649
   -15.5546 -15.5511 -15.4964 -15.4084 -15.2786 -15.0001 -13.7042 -13.7040
   -12.7958  -8.6593  -5.3143  -3.8621  -3.7295  -3.6923  -3.5266  -3.4096
    -3.4065  -3.3955  -3.3222  -3.1547  -3.1403  -3.1174  -3.0934  -3.0666
    -3.0664  -3.0514  -3.0460  -3.0274  -3.0029  -2.9674  -2.9280  -2.9249
    -2.9037  -2.8938  -2.8679  -2.8542  -2.8241  -2.8116  -2.7966  -2.7779
    -2.7597  -2.7444  -2.5872  -2.4709  -2.4375  -2.3755  -2.3671  -2.3470
    -2.3125  -2.3025  -2.2894  -2.2270  -2.1254  -1.9901  -1.9426  -1.9364
    -1.9040  -1.8240  -1.8114  -1.6666  -1.6519  -1.6241  -1.5857  -1.5333
    -1.5152  -1.4647  -1.4015  -1.3893  -1.3577  -1.3271  -1.2517  -1.2021
    -1.1994  -1.1823  -1.1211  -1.0321  -1.0274  -1.0088  -1.0017  -0.9514
    -0.8735  -0.8599  -0.8289  -0.7432  -0.7257  -0.6280  -0.5438  -0.3479
    -0.2593  -0.2119  -0.1665  -0.1323  -0.0295   0.0164   0.0326   0.0682
     0.0811   0.1285   0.1885   0.2935   0.3003   0.3619   0.4713   0.8083
     1.1695   1.1703   1.2424   1.2425   2.3859   3.1622   3.1709   3.2259
     3.2481   3.3986   3.4043   3.4287   3.4299   3.5508   3.5675

     the Fermi energy is     2.8963 ev

!    total energy              =   -2939.04797067 Ry
     estimated scf accuracy    <       0.00000004 Ry
     smearing contrib. (-TS)   =      -0.02286990 Ry
     internal energy E=F+TS    =   -2939.02510076 Ry

     The total energy is F=E-TS. E is the sum of the following terms:
     one-electron contribution =  -24314.73472768 Ry
     hartree contribution      =   12241.22525946 Ry
     xc contribution           =    -485.12847863 Ry
     ewald contribution        =    9619.61284223 Ry
     electric field correction =       0.00000386 Ry

     convergence has been achieved in  86 iterations

     Forces acting on atoms (cartesian axes, Ry/au):

     atom    1 type  1   force =     0.00025511   -0.00024448    0.09663434
     atom    2 type  1   force =    -0.00017104   -0.00052875   -0.17529737
     atom    3 type  2   force =    -0.00000570   -0.00007715   -0.02503367
     atom    4 type  2   force =     0.00005604   -0.00154277    0.05297379
     atom    5 type  2   force =    -0.01215772   -0.00104362    0.00344411
     atom    6 type  2   force =     0.01403435   -0.00028454    0.00273553
     atom    7 type  1   force =    -0.00094836    0.00048690   -0.01192038
     atom    8 type  1   force =     0.00043879    0.00876413    0.02926337
     atom    9 type  2   force =     0.00050716    0.00030790   -0.00017407
     atom   10 type  2   force =    -0.00090960   -0.00020385   -0.01712035
     atom   11 type  2   force =     0.00036778    0.00016582    0.00034262
     atom   12 type  2   force =    -0.00107966    0.00082615    0.00047404
     atom   13 type  1   force =     0.00145049    0.00080896    0.00008528
     atom   14 type  1   force =    -0.00122430    0.00034668   -0.00020676
     atom   15 type  2   force =    -0.00089664    0.00070532    0.00042888
     atom   16 type  2   force =     0.00030872   -0.00036192   -0.00022582
     atom   17 type  2   force =     0.00014544   -0.00001688   -0.00042479
     atom   18 type  2   force =    -0.00084014    0.00022426   -0.00013831
     atom   19 type  1   force =     0.00013161   -0.00056821    0.00000894
     atom   20 type  1   force =    -0.00028810    0.00032610    0.00078656
     atom   21 type  2   force =     0.00007874   -0.00006128    0.10318448
     atom   22 type  2   force =     0.00009414    0.00159266    0.00037415
     atom   23 type  2   force =    -0.07149096   -0.00015008   -0.02776221
     atom   24 type  2   force =     0.07143478    0.00027215   -0.02776481
     atom   25 type  1   force =     0.00007890   -0.00022405    0.09649139
     atom   26 type  1   force =    -0.00012020   -0.00034341   -0.17546916
     atom   27 type  2   force =     0.00006399   -0.00023928   -0.02406206
     atom   28 type  2   force =     0.00011715   -0.00128315    0.05274606
     atom   29 type  2   force =    -0.01226911    0.00002552    0.00301059
     atom   30 type  2   force =     0.01403492    0.00040394    0.00237877
     atom   31 type  1   force =    -0.00093853    0.00315447   -0.01286009
     atom   32 type  1   force =     0.00028733   -0.01002030    0.02995668
     atom   33 type  2   force =     0.00025298   -0.00014020    0.00047209
     atom   34 type  2   force =    -0.00003025   -0.00000493   -0.02440449
     atom   35 type  2   force =    -0.00033833    0.00022661   -0.00027929
     atom   36 type  2   force =    -0.00116568    0.00053229   -0.00009137
     atom   37 type  1   force =     0.00124230   -0.00091975    0.00055344
     atom   38 type  1   force =    -0.00088963   -0.00057257    0.00002179
     atom   39 type  2   force =    -0.00005040   -0.00056820    0.00046431
     atom   40 type  2   force =     0.00007590    0.00054829    0.00009278
     atom   41 type  2   force =    -0.00149593    0.00009975   -0.00046940
     atom   42 type  2   force =     0.00144244   -0.00038786   -0.00014646
     atom   43 type  1   force =    -0.00029921    0.00034033   -0.00044405
     atom   44 type  1   force =    -0.00035114   -0.00032432    0.00034300
     atom   45 type  2   force =     0.00005199   -0.00008795    0.10319488
     atom   46 type  2   force =    -0.07151742   -0.00016556   -0.02775126
     atom   47 type  2   force =     0.07148488    0.00033514   -0.02779066
     atom   48 type  3   force =    -0.00300226    0.00225011    0.00075538
     atom   49 type  3   force =     0.01609272   -0.00113047   -0.00642046
     atom   50 type  4   force =     0.00057849    0.00025135   -0.00149345
     atom   51 type  5   force =    -0.00009832    0.00069085   -0.00009459
     atom   52 type  5   force =     0.00004462   -0.00149246   -0.00133352
     atom   53 type  5   force =    -0.01257313   -0.00069767    0.00796160

     Total force =     0.369086     Total SCF correction =     0.000400
  @ DRIVER MODE: Message from server: STATUS
  @ DRIVER MODE: Message from server: GETFORCE
  @ DRIVER MODE: Returning v,forces,stress,ensemble

     Writing output data file ./calc.save/
  @ DRIVER MODE: Message from server: EXIT
  @ DRIVE MODE: Exiting

     General routines

     Parallel routines

   This run was terminated on:  13: 7:59  10Sep2021

   JOB DONE.