     Program PWSCF v.6.7GPU starts on  9Sep2021 at  2:18:34

     R & G space division:  proc/nbgrp/npool/nimage =      10
     Reading input from /storage/home/hcoda1/3/ntian30/research/carbon/CxH_vib/CH2_calc/ads_slab/CH2N_a/out_0017/pw.inp
Warning: card &CELL ignored
Warning: card   CELL_DYNAMICS='IPI', ignored
Warning: card / ignored

     Current dimensions of program PWSCF are:
     Max number of different atomic species (ntypx) = 10
     Max number of k-points (npk) =  40000
     Max angular momentum in pseudopotentials (lmaxx) =  3
     Presently no symmetry can be used with electric field

     Message from routine cell_base_init:
     DEPRECATED: use true lattice parameter, not A to a.u. conversion factor

     IMPORTANT: XC functional enforced from input :
     Exchange-correlation= BEEF-VDW
                           (   1   4  43  14   2   0   0)
     Any further DFT definition will be discarded
     Please, verify this is what you really want

  @ DRIVER MODE: Connecting to
 qe_1139763_2767392.sched-torque.pace.gatech.edu5a46j_m3_scratch
  using UNIX socket
  @ DRIVER MODE: Message from server: STATUS
  @ DRIVER MODE: Message from server: INIT
  @ DRIVER MODE: Receiving replica           0          -1
  @ DRIVER MODE: Receiving encoded integer          25
  @ DRIVER MODE:  SCF:  T  FORCE:  T  STRESS:  F  VC:  F  ENSEMBLE:  F
  @ DRIVER MODE:  SCF:  T  FORCE:  T  STRESS:  F  VC:  F  ENSEMBLE:  F

     Using Slab Decomposition

     bravais-lattice index     =            0
     lattice parameter (alat)  =       1.8897  a.u.
     unit-cell volume          =    6658.9804 (a.u.)^3
     number of atoms/cell      =           51
     number of atomic types    =            5
     number of electrons       =       389.00
     number of Kohn-Sham states=          204
     kinetic-energy cutoff     =      29.3995  Ry
     charge density cutoff     =     293.9946  Ry
     scf convergence threshold =      7.3E-08
     mixing beta               =       0.0500
     number of iterations used =            8  plain     mixing
     Exchange-correlation= BEEF-VDW
                           (   1   4  43  14   2   0   0)

     celldm(1)=   1.889726  celldm(2)=   0.000000  celldm(3)=   0.000000
     celldm(4)=   0.000000  celldm(5)=   0.000000  celldm(6)=   0.000000

     crystal axes: (cart. coord. in units of alat)
               a(1) = (   6.579727   0.000000   0.000000 )
               a(2) = (  -0.000775   5.961596   0.000000 )
               a(3) = (   0.000000   0.000000  25.155947 )

     reciprocal axes: (cart. coord. in units 2 pi/alat)
               b(1) = (  0.151982  0.000020  0.000000 )
               b(2) = (  0.000000  0.167740  0.000000 )
               b(3) = (  0.000000  0.000000  0.039752 )

     PseudoPot. # 1 for Ti read from file:
     /storage/coda1/p-amedford6/0/shared/rich_project_chbe-medford/medford-share/data/pseudos_module/espresso/nninc/pbe/van/Ti.UPF
     MD5 check sum: 8e4df49b7f0d34bbd5052bf3f5ea0213
     Pseudo is Ultrasoft, Zval = 12.0
     Generated by new atomic code, or converted to UPF format
     Using radial grid of  851 points,  6 beta functions with:
                l(1) =   0
                l(2) =   0
                l(3) =   1
                l(4) =   1
                l(5) =   2
                l(6) =   2
     Q(r) pseudized with  8 coefficients,  rinner =    1.000   1.000   1.000
                                                       1.000   1.000

     PseudoPot. # 2 for O  read from file:
     /storage/coda1/p-amedford6/0/shared/rich_project_chbe-medford/medford-share/data/pseudos_module/espresso/nninc/pbe/van/O.UPF
     MD5 check sum: 78c19812648e8988a0fe644b0f25305e
     Pseudo is Ultrasoft, Zval =  6.0
     Generated by new atomic code, or converted to UPF format
     Using radial grid of  737 points,  4 beta functions with:
                l(1) =   0
                l(2) =   0
                l(3) =   1
                l(4) =   1
     Q(r) pseudized with  8 coefficients,  rinner =    0.800   0.800   0.800

     PseudoPot. # 3 for N  read from file:
     /storage/coda1/p-amedford6/0/shared/rich_project_chbe-medford/medford-share/data/pseudos_module/espresso/nninc/pbe/van/N.UPF
     MD5 check sum: 90d10febe142ad51ac9d5be1deb811c4
     Pseudo is Ultrasoft, Zval =  5.0
     Generated by new atomic code, or converted to UPF format
     Using radial grid of  729 points,  4 beta functions with:
                l(1) =   0
                l(2) =   0
                l(3) =   1
                l(4) =   1
     Q(r) pseudized with  8 coefficients,  rinner =    0.800   0.800   0.800

     PseudoPot. # 4 for C  read from file:
     /storage/coda1/p-amedford6/0/shared/rich_project_chbe-medford/medford-share/data/pseudos_module/espresso/nninc/pbe/van/C.UPF
     MD5 check sum: 1a69bf6b8db32088f5b2163dbdb77a27
     Pseudo is Ultrasoft, Zval =  4.0
     Generated by new atomic code, or converted to UPF format
     Using radial grid of  721 points,  4 beta functions with:
                l(1) =   0
                l(2) =   0
                l(3) =   1
                l(4) =   1
     Q(r) pseudized with  8 coefficients,  rinner =    0.800   0.800   0.800

     PseudoPot. # 5 for H  read from file:
     /storage/coda1/p-amedford6/0/shared/rich_project_chbe-medford/medford-share/data/pseudos_module/espresso/nninc/pbe/van/H.UPF
     MD5 check sum: b5ee9d7bfd3a09ee7748110bda690ff7
     Pseudo is Ultrasoft, Zval =  1.0
     Generated by new atomic code, or converted to UPF format
     Using radial grid of  615 points,  1 beta functions with:
                l(1) =   0
     Q(r) pseudized with  8 coefficients,  rinner =    0.800

     atomic species   valence    mass     pseudopotential
        Ti1           12.00    47.86700     Ti( 1.00)
        O1             6.00    15.99900     O ( 1.00)
        N1             5.00    14.00700     N ( 1.00)
        C1             4.00    12.01100     C ( 1.00)
        H1             1.00     1.00800     H ( 1.00)

     No symmetry found

   Cartesian axes

     site n.     atom                  positions (alat units)
         1           Ti1 tau(   1) = (   0.0004258   2.9801865   6.0000000  )
         2           Ti1 tau(   2) = (   3.2906075   1.4906267   6.0002472  )
         3           O1  tau(   3) = (   0.0006271   0.0005054   7.9858123  )
         4           O1  tau(   4) = (   3.2906025   0.0005020   7.3038282  )
         5           O1  tau(   5) = (   4.5942328   1.4918067   9.2879030  )
         6           O1  tau(   6) = (   1.9868534   1.4903216   9.2879459  )
         7           Ti1 tau(   7) = (   3.2907910   2.8959150   9.1758416  )
         8           Ti1 tau(   8) = (   0.0015273   1.4827037   9.2680791  )
         9           O1  tau(   9) = (   3.3121109   0.0111249  11.3310253  )
        10           O1  tau(  10) = (   0.0116148   5.9584955  10.6183126  )
        11           O1  tau(  11) = (   1.3329579   1.5011098  12.6063046  )
        12           O1  tau(  12) = (   5.3158149   1.4916659  12.6245769  )
        13           Ti1 tau(  13) = (   6.5431557   2.9598450  12.6156978  )
        14           Ti1 tau(  14) = (   3.2273839   1.5049138  12.4779161  )
        15           O1  tau(  15) = (   0.0471551   0.0364395  14.6528705  )
        16           O1  tau(  16) = (   3.3160098   0.0207640  13.9215624  )
        17           O1  tau(  17) = (   4.5810600   1.5471256  16.0564497  )
        18           O1  tau(  18) = (   2.0947546   1.5446786  16.0656860  )
        19           Ti1 tau(  19) = (   3.3354243   3.0239694  15.7034691  )
        20           Ti1 tau(  20) = (   0.0419518   1.5622418  15.8401859  )
        21           O1  tau(  21) = (   3.2904802   0.0005063   4.7018136  )
        22           O1  tau(  22) = (   0.0415632   0.0558952  17.2248266  )
        23           O1  tau(  23) = (   1.3043587   1.4918075   6.0039043  )
        24           O1  tau(  24) = (   5.2767064   1.4903225   6.0039473  )
        25           Ti1 tau(  25) = (   0.0000382   5.9609847   6.0000000  )
        26           Ti1 tau(  26) = (   3.2902200   4.4714249   6.0002472  )
        27           O1  tau(  27) = (   0.0002396   2.9813036   7.9858123  )
        28           O1  tau(  28) = (   3.2902150   2.9813002   7.3038282  )
        29           O1  tau(  29) = (   4.5938453   4.4726049   9.2879030  )
        30           O1  tau(  30) = (   1.9864658   4.4711199   9.2879459  )
        31           Ti1 tau(  31) = (   3.2891106   5.8743827   9.1763621  )
        32           Ti1 tau(  32) = (   0.0006254   4.4649316   9.2693709  )
        33           O1  tau(  33) = (   3.3101407   2.9955762  11.3294870  )
        34           O1  tau(  34) = (   0.0092240   2.9805883  10.6323155  )
        35           O1  tau(  35) = (   1.3272401   4.4878838  12.6173354  )
        36           O1  tau(  36) = (   5.3164082   4.4812184  12.6342743  )
        37           Ti1 tau(  37) = (   6.5430856   5.9365306  12.5602028  )
        38           Ti1 tau(  38) = (   3.2246414   4.4845729  12.4831641  )
        39           O1  tau(  39) = (   0.0420920   2.9623338  14.6463429  )
        40           O1  tau(  40) = (   3.3182946   3.0055568  13.9055467  )
        41           O1  tau(  41) = (   4.5797692   4.5125808  16.0776662  )
        42           O1  tau(  42) = (   2.0972274   4.5146901  16.0918111  )
        43           Ti1 tau(  43) = (   3.3319946   0.0399457  15.7186693  )
        44           Ti1 tau(  44) = (   0.0407629   4.6953510  16.1098173  )
        45           O1  tau(  45) = (   3.2900926   2.9813045   4.7018136  )
        46           O1  tau(  46) = (   1.3039711   4.4726057   6.0039043  )
        47           O1  tau(  47) = (   5.2763189   4.4711207   6.0039473  )
        48           N1  tau(  48) = (   0.0554023   2.9932257  17.3910969  )
        49           C1  tau(  49) = (   0.1090839   2.9222626  18.6472186  )
        50           H1  tau(  50) = (   0.1225839   3.8204711  19.2673028  )
        51           H1  tau(  51) = (   0.1417253   1.9549180  19.1625725  )

     number of k points=    10  Fermi-Dirac smearing, width (Ry)=  0.0073
                       cart. coord. in units 2pi/alat
        k(    1) = (   0.0000000   0.0000000   0.0000000), wk =   0.1250000
        k(    2) = (   0.0000000   0.0419351   0.0000000), wk =   0.2500000
        k(    3) = (   0.0000000  -0.0838702   0.0000000), wk =   0.1250000
        k(    4) = (   0.0379955   0.0000049   0.0000000), wk =   0.2500000
        k(    5) = (   0.0379955   0.0419400   0.0000000), wk =   0.2500000
        k(    6) = (   0.0379955  -0.0838652   0.0000000), wk =   0.2500000
        k(    7) = (   0.0379955  -0.0419301   0.0000000), wk =   0.2500000
        k(    8) = (  -0.0759910  -0.0000099   0.0000000), wk =   0.1250000
        k(    9) = (  -0.0759910   0.0419252   0.0000000), wk =   0.2500000
        k(   10) = (  -0.0759910  -0.0838800   0.0000000), wk =   0.1250000

     Initial potential from superposition of free atoms

     starting charge  372.99918, renormalised to  389.00000

     negative rho (up, down):  1.814E-02 0.000E+00

     %%%%%%%%%%%%%%%%%%%%%%%%%%%%%%%%%%%%%%%%%%%%%%%%%%%%%%%%%%%%%%%%%%%%%%%%
     %                                                                      %
     % You are using vdW-DF, which was implemented by the Thonhauser group. %
     % Please cite the following two papers that made this development      %
     % possible and the two reviews that describe the various versions:     %
     %                                                                      %
     %   T. Thonhauser et al., PRL 115, 136402 (2015).                      %
     %   T. Thonhauser et al., PRB 76, 125112 (2007).                       %
     %   K. Berland et al., Rep. Prog. Phys. 78, 066501 (2015).             %
     %   D.C. Langreth et al., J. Phys.: Condens. Matter 21, 084203 (2009). %
     %                                                                      %
     %                                                                      %
     % If you are calculating the stress with vdW-DF, please also cite:     %
     %                                                                      %
     %   R. Sabatini et al., J. Phys.: Condens. Matter 24, 424209 (2012).   %
     %                                                                      %
     %%%%%%%%%%%%%%%%%%%%%%%%%%%%%%%%%%%%%%%%%%%%%%%%%%%%%%%%%%%%%%%%%%%%%%%%

     Adding external electric field

     Computed dipole along edir(3) :
        Dipole               -4.6848 Ry au,        -11.9076 Debye
        Dipole field         -0.0088 Ry au,

        Potential amp.        0.8195 Ry
        Total length         46.3494 bohr

     Starting wfcs are  294 atomic wfcs
  @ DRIVER MODE: Message from server: STATUS
  @ DRIVER MODE: Message from server: POSDATA
  @ DRIVER MODE: Reading and sharing cell
  @ DRIVER MODE: Reading and sharing positions
  @ DRIVER MODE: Received positions

     Self-consistent Calculation

     iteration #  1     ecut=    29.40 Ry     beta= 0.05
     Davidson diagonalization with overlap
     c_bands:  3 eigenvalues not converged
     c_bands:  1 eigenvalues not converged
     c_bands:  1 eigenvalues not converged
     c_bands:  2 eigenvalues not converged
     c_bands:  3 eigenvalues not converged
     c_bands:  2 eigenvalues not converged
     c_bands:  2 eigenvalues not converged
     ethr =  1.00E-05,  avg # of iterations = 19.8

[...]

     total energy              =   -2866.20240037 Ry
     estimated scf accuracy    <     589.94883628 Ry

     iteration #  2     ecut=    29.40 Ry     beta= 0.05
     Davidson diagonalization with overlap
     ethr =  1.00E-02,  avg # of iterations = 15.2

[...]

     iteration # 63     ecut=    29.40 Ry     beta= 0.05
     Davidson diagonalization with overlap
     c_bands:  1 eigenvalues not converged
     ethr =  2.19E-10,  avg # of iterations = 12.4

[...]

     total energy              =   -2917.92292820 Ry
     estimated scf accuracy    <       0.00000026 Ry

     iteration # 66     ecut=    29.40 Ry     beta= 0.05
     Davidson diagonalization with overlap
     ethr =  6.79E-11,  avg # of iterations = 11.6

     negative rho (up, down):  1.845E-02 0.000E+00

     Adding external electric field

     Computed dipole along edir(3) :
        Dipole                0.7713 Ry au,          1.9605 Debye
        Dipole field          0.0015 Ry au,

        Potential amp.       -0.1349 Ry
        Total length         46.3494 bohr

     End of self-consistent calculation

          k = 0.0000 0.0000 0.0000 ( 18029 PWs)   bands (ev):

   -55.9937 -55.9846 -55.9597 -55.9483 -55.8714 -55.8414 -55.8214 -55.8070
   -55.8026 -55.7686 -55.7664 -55.7328 -55.5194 -55.2467 -54.9710 -54.9370
   -32.5390 -32.4761 -32.3426 -32.3235 -32.3014 -32.2965 -32.2867 -32.2570
   -32.2364 -32.2113 -32.2045 -32.1824 -32.1648 -32.1459 -32.1377 -32.1245
   -32.1039 -32.0980 -32.0836 -32.0508 -32.0501 -32.0472 -32.0011 -31.9997
   -31.9984 -31.9970 -31.9906 -31.9827 -31.9688 -31.9564 -31.9482 -31.9419
   -31.9330 -31.9329 -31.9196 -31.9101 -31.8787 -31.7693 -31.7013 -31.5357
   -31.5014 -31.4587 -31.3782 -31.2899 -31.2674 -31.1949 -31.1084 -30.9973
   -16.7361 -16.4678 -16.2428 -16.1458 -16.1147 -15.9984 -15.8324 -15.7138
   -15.6631 -15.5650 -15.5512 -15.5298 -15.4961 -15.4654 -15.4632 -15.4370
   -15.4335 -15.4142 -15.4009 -15.3533 -15.3307 -15.2961 -15.1984 -15.1676
   -15.1279 -15.0999 -15.0586 -15.0493 -14.9274 -14.5615 -13.4735 -13.3571
    -7.5679  -4.3615  -4.1136  -4.0008  -3.9484  -3.8992  -3.8404  -3.6332
    -3.5425  -3.5182  -3.2241  -3.1776  -3.1601  -3.1476  -3.1092  -2.8936
    -2.8402  -2.8086  -2.7874  -2.7732  -2.7620  -2.7543  -2.7341  -2.7073
    -2.5939  -2.5382  -2.5348  -2.4118  -2.3840  -2.3268  -2.3058  -2.2589
    -2.2433  -2.2345  -2.2077  -2.1964  -2.1833  -2.1520  -2.0752  -1.9612
    -1.8110  -1.7917  -1.7563  -1.6304  -1.6010  -1.5396  -1.4494  -1.4336
    -1.4192  -1.3851  -1.3679  -1.2965  -1.1708  -1.1463  -1.1365  -1.0360
    -0.9893  -0.9709  -0.8743  -0.8390  -0.7692  -0.7577  -0.7465  -0.7094
    -0.5486  -0.4916  -0.4622  -0.3953  -0.3658  -0.3071  -0.2940  -0.2651
    -0.1828  -0.1305  -0.1102  -0.1041  -0.0553  -0.0190  -0.0022   0.0074
     0.0185   0.0326   0.2051   0.2782   0.2851   0.3640   0.3739   0.5350
     0.5955   0.6634   0.7714   0.9765   1.0509   1.1403   1.2434   1.4389
     1.6222   1.6678   3.1427   3.2264   3.2745   3.2840   3.3853   3.4221
     3.5959   3.6023   3.6164   3.6907

[...]

          k = 0.0380-0.0419 0.0000 ( 17876 PWs)   bands (ev):

[...]

          k =-0.0760-0.0000 0.0000 ( 17886 PWs)   bands (ev):

[...]

          k =-0.0760-0.0839 0.0000 ( 17948 PWs)   bands (ev):

   -55.9771 -55.9762 -55.9690 -55.9636 -55.8644 -55.8282 -55.8245 -55.8238
   -55.7862 -55.7846 -55.7505 -55.7489 -55.5184 -55.2476 -54.9540 -54.9538
   -32.3447 -32.3397 -32.2917 -32.2910 -32.2726 -32.2716 -32.2545 -32.2424
   -32.1943 -32.1882 -32.1820 -32.1753 -32.1384 -32.1200 -32.1150 -32.1137
   -32.1043 -32.0984 -32.0965 -32.0956 -32.0894 -32.0869 -32.0678 -32.0435
   -32.0400 -32.0295 -32.0198 -32.0062 -31.9852 -31.9848 -31.9821 -31.9806
   -31.9652 -31.9643 -31.9603 -31.9573 -31.8819 -31.7719 -31.6975 -31.6012
   -31.5030 -31.4796 -31.2802 -31.2801 -31.1910 -31.1908 -31.1517 -31.1517
   -16.1684 -16.1492 -15.9372 -15.9100 -15.9053 -15.8938 -15.7653 -15.7048
   -15.6885 -15.6866 -15.6077 -15.5861 -15.5646 -15.5371 -15.5254 -15.5131
   -15.5068 -15.4986 -15.4553 -15.4492 -15.4296 -15.4225 -15.3195 -15.3102
   -15.3062 -15.2500 -15.1763 -15.0377 -14.9446 -14.7297 -13.4589 -13.4588
    -7.5638  -4.3440  -3.6840  -3.4589  -3.4362  -3.1675  -3.1506  -3.1416
    -3.0813  -2.9087  -2.8928  -2.8698  -2.8489  -2.8202  -2.8184  -2.7973
    -2.7951  -2.7843  -2.7401  -2.7329  -2.7073  -2.6705  -2.6604  -2.6489
    -2.6404  -2.6165  -2.6062  -2.5643  -2.5347  -2.5276  -2.5127  -2.4891
    -2.3034  -2.2207  -2.1943  -2.1312  -2.1238  -2.0889  -2.0576  -2.0455
    -2.0295  -1.9788  -1.9012  -1.7267  -1.6939  -1.6758  -1.6181  -1.5892
    -1.5485  -1.4624  -1.3943  -1.3696  -1.3635  -1.3149  -1.2063  -1.1847
    -1.1708  -1.0970  -1.0617  -1.0441  -1.0020  -0.9872  -0.9540  -0.9487
    -0.8551  -0.8057  -0.7591  -0.7567  -0.7111  -0.6448  -0.6318  -0.6043
    -0.4954  -0.4765  -0.4061  -0.3775  -0.2759  -0.2081  -0.0098   0.0524
     0.0780   0.1363   0.2165   0.2974   0.3120   0.3258   0.3262   0.3737
     0.4422   0.5388   0.5481   0.6018   0.7066   1.3329   1.4147   1.4153
     1.4877   1.4877   3.4284   3.4383   3.4776   3.4994   3.6356   3.6511
     3.6740   3.6751   3.7303   3.8123

     the Fermi energy is     3.1404 ev

!    total energy              =   -2917.92294755 Ry
     estimated scf accuracy    <       0.00000005 Ry
     smearing contrib. (-TS)   =      -0.02181651 Ry
     internal energy E=F+TS    =   -2917.90113105 Ry

     The total energy is F=E-TS. E is the sum of the following terms:
     one-electron contribution =  -24778.71355228 Ry
     hartree contribution      =   12473.02960329 Ry
     xc contribution           =    -479.18947914 Ry
     ewald contribution        =    9866.97117442 Ry
     electric field correction =       0.00112268 Ry

     convergence has been achieved in  66 iterations

     Forces acting on atoms (cartesian axes, Ry/au):

     atom    1 type  1   force =     0.00017352   -0.00024122    0.09668230
     atom    2 type  1   force =     0.00006925   -0.00053199   -0.17541617
     atom    3 type  2   force =     0.00017918    0.00000650   -0.02478176
     atom    4 type  2   force =     0.00005733   -0.00133412    0.05292262
     atom    5 type  2   force =    -0.01177970    0.00012820    0.00258999
     atom    6 type  2   force =     0.01394791    0.00051563    0.00339303
     atom    7 type  1   force =     0.00129561    0.00070331   -0.01176389
     atom    8 type  1   force =    -0.00005095    0.00766570    0.02822149
     atom    9 type  2   force =    -0.00024061   -0.00023615   -0.00010141
     atom   10 type  2   force =    -0.00220704    0.00207245   -0.01526949
     atom   11 type  2   force =     0.00001503   -0.00009226    0.00023028
     atom   12 type  2   force =    -0.00004107    0.00014684   -0.00006058
     atom   13 type  1   force =    -0.00105190   -0.00025400   -0.00000686
     atom   14 type  1   force =    -0.00022194   -0.00026354    0.00057460
     atom   15 type  2   force =    -0.00030704   -0.00010707   -0.00024034
     atom   16 type  2   force =     0.00025390    0.00007647   -0.00052392
     atom   17 type  2   force =     0.00005053    0.00006731   -0.00020070
     atom   18 type  2   force =    -0.00012344    0.00031011   -0.00050325
     atom   19 type  1   force =    -0.00062782    0.00008613   -0.00036412
     atom   20 type  1   force =     0.00013620   -0.00083952    0.00022157
     atom   21 type  2   force =     0.00008631   -0.00004873    0.10325046
     atom   22 type  2   force =     0.00044444   -0.00030074    0.00006104
     atom   23 type  2   force =    -0.07150249   -0.00015813   -0.02769417
     atom   24 type  2   force =     0.07149684    0.00033250   -0.02777945
     atom   25 type  1   force =     0.00018458   -0.00023214    0.09619146
     atom   26 type  1   force =     0.00011409   -0.00029282   -0.17555686
     atom   27 type  2   force =     0.00022321   -0.00011468   -0.02386597
     atom   28 type  2   force =     0.00009044   -0.00110307    0.05286805
     atom   29 type  2   force =    -0.01198244    0.00068302    0.00234180
     atom   30 type  2   force =     0.01401663    0.00103174    0.00319273
     atom   31 type  1   force =     0.00114315    0.00334278   -0.01208502
     atom   32 type  1   force =    -0.00024510   -0.00973814    0.02865771
     atom   33 type  2   force =    -0.00017300    0.00031371   -0.00007635
     atom   34 type  2   force =    -0.00172960    0.00175544   -0.02356312
     atom   35 type  2   force =     0.00000920    0.00009154    0.00022820
     atom   36 type  2   force =     0.00055716    0.00012370    0.00021426
     atom   37 type  1   force =    -0.00100153   -0.00039421    0.00028208
     atom   38 type  1   force =     0.00023250   -0.00011433    0.00051533
     atom   39 type  2   force =    -0.00006006   -0.00052040   -0.00076021
     atom   40 type  2   force =    -0.00004364    0.00025943    0.00047372
     atom   41 type  2   force =    -0.00066087   -0.00046359   -0.00014096
     atom   42 type  2   force =    -0.00013256   -0.00074119   -0.00070381
     atom   43 type  1   force =    -0.00047394    0.00003777   -0.00014282
     atom   44 type  1   force =     0.00012672    0.00020740    0.00032583
     atom   45 type  2   force =     0.00006430   -0.00006817    0.10325446
     atom   46 type  2   force =    -0.07150617   -0.00008334   -0.02770998
     atom   47 type  2   force =     0.07152196    0.00033632   -0.02778704
     atom   48 type  3   force =     0.00093693   -0.00164153   -0.00126079
     atom   49 type  4   force =    -0.00153611   -0.00439735   -0.00459672
     atom   50 type  5   force =     0.00045858    0.00433033    0.00542830
     atom   51 type  5   force =    -0.00018647   -0.00031190    0.00083448

     Total force =     0.368129     Total SCF correction =     0.000528
  @ DRIVER MODE: Message from server: STATUS
  @ DRIVER MODE: Message from server: GETFORCE
  @ DRIVER MODE: Returning v,forces,stress,ensemble

     Writing output data file ./calc.save/
  @ DRIVER MODE: Message from server: EXIT
  @ DRIVE MODE: Exiting

     General routines

     Parallel routines

   This run was terminated on:   2:34:38   9Sep2021

   JOB DONE.