     Program PWSCF v.6.7GPU starts on 23Aug2021 at 23:22:43

     R & G space division:  proc/nbgrp/npool/nimage =       6
     Reading input from /storage/home/hcoda1/3/ntian30/research/carbon/CH2_vib/ads_slab/CH2N2_b/out_0023/pw.inp
Warning: card &CELL ignored
Warning: card   CELL_DYNAMICS='IPI', ignored
Warning: card / ignored

     Current dimensions of program PWSCF are:
     Max number of different atomic species (ntypx) = 10
     Max number of k-points (npk) =  40000
     Max angular momentum in pseudopotentials (lmaxx) =  3
     Presently no symmetry can be used with electric field

     Message from routine cell_base_init:
     DEPRECATED: use true lattice parameter, not A to a.u. conversion factor

     IMPORTANT: XC functional enforced from input :
     Exchange-correlation= BEEF-VDW
                           (   1   4  43  14   2   0   0)
     Any further DFT definition will be discarded
     Please, verify this is what you really want

  @ DRIVER MODE: Connecting to
 qe_1139763_2632805.sched-torque.pace.gatech.eduphvsvrmy_scratch
  using UNIX socket
  @ DRIVER MODE: Message from server: STATUS
  @ DRIVER MODE: Message from server: INIT
  @ DRIVER MODE: Receiving replica           0          -1
  @ DRIVER MODE: Receiving encoded integer          25
  @ DRIVER MODE:  SCF:  T  FORCE:  T  STRESS:  F  VC:  F  ENSEMBLE:  F
  @ DRIVER MODE:  SCF:  T  FORCE:  T  STRESS:  F  VC:  F  ENSEMBLE:  F

     Using Slab Decomposition

     bravais-lattice index     =            0
     lattice parameter (alat)  =       1.8897  a.u.
     unit-cell volume          =    6658.9804 (a.u.)^3
     number of atoms/cell      =           52
     number of atomic types    =            5
     number of electrons       =       394.00
     number of Kohn-Sham states=          207
     kinetic-energy cutoff     =      29.3995  Ry
     charge density cutoff     =     293.9946  Ry
     scf convergence threshold =      7.3E-08
     mixing beta               =       0.0500
     number of iterations used =            8  plain     mixing
     Exchange-correlation= BEEF-VDW
                           (   1   4  43  14   2   0   0)

     celldm(1)=   1.889726  celldm(2)=   0.000000  celldm(3)=   0.000000
     celldm(4)=   0.000000  celldm(5)=   0.000000  celldm(6)=   0.000000

     crystal axes: (cart. coord. in units of alat)
               a(1) = (   6.579727   0.000000   0.000000 )
               a(2) = (  -0.000775   5.961596   0.000000 )
               a(3) = (   0.000000   0.000000  25.155947 )

     reciprocal axes: (cart. coord. in units 2 pi/alat)
               b(1) = (  0.151982  0.000020  0.000000 )
               b(2) = (  0.000000  0.167740  0.000000 )
               b(3) = (  0.000000  0.000000  0.039752 )

     PseudoPot. # 1 for Ti read from file:
     /storage/coda1/p-amedford6/0/shared/rich_project_chbe-medford/medford-share/data/pseudos_module/espresso/nninc/pbe/van/Ti.UPF
     MD5 check sum: 8e4df49b7f0d34bbd5052bf3f5ea0213
     Pseudo is Ultrasoft, Zval = 12.0
     Generated by new atomic code, or converted to UPF format
     Using radial grid of  851 points,  6 beta functions with:
                l(1) =   0
                l(2) =   0
                l(3) =   1
                l(4) =   1
                l(5) =   2
                l(6) =   2
     Q(r) pseudized with  8 coefficients,  rinner =    1.000   1.000   1.000
                                                       1.000   1.000

     PseudoPot. # 2 for O  read from file:
     /storage/coda1/p-amedford6/0/shared/rich_project_chbe-medford/medford-share/data/pseudos_module/espresso/nninc/pbe/van/O.UPF
     MD5 check sum: 78c19812648e8988a0fe644b0f25305e
     Pseudo is Ultrasoft, Zval =  6.0
     Generated by new atomic code, or converted to UPF format
     Using radial grid of  737 points,  4 beta functions with:
                l(1) =   0
                l(2) =   0
                l(3) =   1
                l(4) =   1
     Q(r) pseudized with  8 coefficients,  rinner =    0.800   0.800   0.800

     PseudoPot. # 3 for N  read from file:
     /storage/coda1/p-amedford6/0/shared/rich_project_chbe-medford/medford-share/data/pseudos_module/espresso/nninc/pbe/van/N.UPF
     MD5 check sum: 90d10febe142ad51ac9d5be1deb811c4
     Pseudo is Ultrasoft, Zval =  5.0
     Generated by new atomic code, or converted to UPF format
     Using radial grid of  729 points,  4 beta functions with:
                l(1) =   0
                l(2) =   0
                l(3) =   1
                l(4) =   1
     Q(r) pseudized with  8 coefficients,  rinner =    0.800   0.800   0.800

     PseudoPot. # 4 for C  read from file:
     /storage/coda1/p-amedford6/0/shared/rich_project_chbe-medford/medford-share/data/pseudos_module/espresso/nninc/pbe/van/C.UPF
     MD5 check sum: 1a69bf6b8db32088f5b2163dbdb77a27
     Pseudo is Ultrasoft, Zval =  4.0
     Generated by new atomic code, or converted to UPF format
     Using radial grid of  721 points,  4 beta functions with:
                l(1) =   0
                l(2) =   0
                l(3) =   1
                l(4) =   1
     Q(r) pseudized with  8 coefficients,  rinner =    0.800   0.800   0.800

     PseudoPot. # 5 for H  read from file:
     /storage/coda1/p-amedford6/0/shared/rich_project_chbe-medford/medford-share/data/pseudos_module/espresso/nninc/pbe/van/H.UPF
     MD5 check sum: b5ee9d7bfd3a09ee7748110bda690ff7
     Pseudo is Ultrasoft, Zval =  1.0
     Generated by new atomic code, or converted to UPF format
     Using radial grid of  615 points,  1 beta functions with:
                l(1) =   0
     Q(r) pseudized with  8 coefficients,  rinner =    0.800

     atomic species   valence    mass     pseudopotential
        Ti1           12.00    47.86700     Ti( 1.00)
        O1             6.00    15.99900     O ( 1.00)
        N1             5.00    14.00700     N ( 1.00)
        C1             4.00    12.01100     C ( 1.00)
        H1             1.00     1.00800     H ( 1.00)

     No symmetry found

   Cartesian axes

     site n.     atom                  positions (alat units)
         1           Ti1 tau(   1) = (   0.0004258   2.9801865   6.0000000  )
         2           Ti1 tau(   2) = (   3.2906075   1.4906267   6.0002472  )
         3           O1  tau(   3) = (   0.0006271   0.0005054   7.9858123  )
         4           O1  tau(   4) = (   3.2906025   0.0005020   7.3038282  )
         5           O1  tau(   5) = (   4.5942328   1.4918067   9.2879030  )
         6           O1  tau(   6) = (   1.9868534   1.4903216   9.2879459  )
         7           Ti1 tau(   7) = (   3.2907910   2.8959150   9.1758416  )
         8           Ti1 tau(   8) = (   0.0015273   1.4827037   9.2680791  )
         9           O1  tau(   9) = (   3.2944872   5.9444814  11.3088555  )
        10           O1  tau(  10) = (   0.0116148   5.9584955  10.6183126  )
        11           O1  tau(  11) = (   1.2913257   1.4757505  12.6225222  )
        12           O1  tau(  12) = (   5.2743172   1.4729811  12.6021195  )
        13           Ti1 tau(  13) = (   0.0890023   2.9564894  12.7220187  )
        14           Ti1 tau(  14) = (   3.4221593   1.4702301  12.4648352  )
        15           O1  tau(  15) = (   0.0068176   5.9411714  14.5947238  )
        16           O1  tau(  16) = (   3.2944910   5.9492763  13.8828731  )
        17           O1  tau(  17) = (   4.5250581   1.4982466  16.0456249  )
        18           O1  tau(  18) = (   2.0665045   1.4881935  16.0281199  )
        19           Ti1 tau(  19) = (   3.2778778   2.9684174  15.6871799  )
        20           Ti1 tau(  20) = (   6.5490154   1.5309925  16.0314916  )
        21           O1  tau(  21) = (   3.2904802   0.0005063   4.7018136  )
        22           O1  tau(  22) = (   0.0123181   0.0076990  17.1679072  )
        23           O1  tau(  23) = (   1.3043587   1.4918075   6.0039043  )
        24           O1  tau(  24) = (   5.2767064   1.4903225   6.0039473  )
        25           Ti1 tau(  25) = (   0.0000382   5.9609847   6.0000000  )
        26           Ti1 tau(  26) = (   3.2902200   4.4714249   6.0002472  )
        27           O1  tau(  27) = (   0.0002396   2.9813036   7.9858123  )
        28           O1  tau(  28) = (   3.2902150   2.9813002   7.3038282  )
        29           O1  tau(  29) = (   4.5938453   4.4726049   9.2879030  )
        30           O1  tau(  30) = (   1.9864658   4.4711199   9.2879459  )
        31           Ti1 tau(  31) = (   3.2891106   5.8743827   9.1763621  )
        32           Ti1 tau(  32) = (   0.0006254   4.4649316   9.2693709  )
        33           O1  tau(  33) = (   3.2980042   2.9668427  11.3079272  )
        34           O1  tau(  34) = (   0.0092240   2.9805883  10.6323155  )
        35           O1  tau(  35) = (   1.2899229   4.4488879  12.6271902  )
        36           O1  tau(  36) = (   5.2743549   4.4545148  12.6090941  )
        37           Ti1 tau(  37) = (   0.1039690   5.9375691  12.6739196  )
        38           Ti1 tau(  38) = (   3.4213609   4.4493060  12.4702176  )
        39           O1  tau(  39) = (   6.5648181   2.9459624  14.6378081  )
        40           O1  tau(  40) = (   3.2943236   2.9658899  13.8785053  )
        41           O1  tau(  41) = (   4.5287159   4.4634493  16.0515226  )
        42           O1  tau(  42) = (   2.0597896   4.4749507  16.0164256  )
        43           Ti1 tau(  43) = (   3.2714021   5.9517381  15.6902239  )
        44           Ti1 tau(  44) = (   6.5616293   4.5902425  16.0297769  )
        45           O1  tau(  45) = (   3.2900926   2.9813045   4.7018136  )
        46           O1  tau(  46) = (   1.3039711   4.4726057   6.0039043  )
        47           O1  tau(  47) = (   5.2763189   4.4711207   6.0039473  )
        48           N1  tau(  48) = (   0.6459789   3.0609845  18.5091170  )
        49           N1  tau(  49) = (   0.0956274   2.9759187  17.3381616  )
        50           C1  tau(  50) = (   0.0579326   3.2697647  19.6266723  )
        51           H1  tau(  51) = (   5.5568954   3.3836083  19.6910695  )
        52           H1  tau(  52) = (   0.6727643   3.3288843  20.5134281  )

     number of k points=    10  Fermi-Dirac smearing, width (Ry)=  0.0073
                       cart. coord. in units 2pi/alat
        k(    1) = (   0.0000000   0.0000000   0.0000000), wk =   0.1250000
        k(    2) = (   0.0000000   0.0419351   0.0000000), wk =   0.2500000
        k(    3) = (   0.0000000  -0.0838702   0.0000000), wk =   0.1250000
        k(    4) = (   0.0379955   0.0000049   0.0000000), wk =   0.2500000
        k(    5) = (   0.0379955   0.0419400   0.0000000), wk =   0.2500000
        k(    6) = (   0.0379955  -0.0838652   0.0000000), wk =   0.2500000
        k(    7) = (   0.0379955  -0.0419301   0.0000000), wk =   0.2500000
        k(    8) = (  -0.0759910  -0.0000099   0.0000000), wk =   0.1250000
        k(    9) = (  -0.0759910   0.0419252   0.0000000), wk =   0.2500000
        k(   10) = (  -0.0759910  -0.0838800   0.0000000), wk =   0.1250000

     Initial potential from superposition of free atoms

     starting charge  377.99917, renormalised to  394.00000

     negative rho (up, down):  1.509E-02 0.000E+00

     %%%%%%%%%%%%%%%%%%%%%%%%%%%%%%%%%%%%%%%%%%%%%%%%%%%%%%%%%%%%%%%%%%%%%%%%
     %                                                                      %
     % You are using vdW-DF, which was implemented by the Thonhauser group. %
     % Please cite the following two papers that made this development      %
     % possible and the two reviews that describe the various versions:     %
     %                                                                      %
     %   T. Thonhauser et al., PRL 115, 136402 (2015).                      %
     %   T. Thonhauser et al., PRB 76, 125112 (2007).                       %
     %   K. Berland et al., Rep. Prog. Phys. 78, 066501 (2015).             %
     %   D.C. Langreth et al., J. Phys.: Condens. Matter 21, 084203 (2009). %
     %                                                                      %
     %                                                                      %
     % If you are calculating the stress with vdW-DF, please also cite:     %
     %                                                                      %
     %   R. Sabatini et al., J. Phys.: Condens. Matter 24, 424209 (2012).   %
     %                                                                      %
     %%%%%%%%%%%%%%%%%%%%%%%%%%%%%%%%%%%%%%%%%%%%%%%%%%%%%%%%%%%%%%%%%%%%%%%%

     Adding external electric field

     Computed dipole along edir(3) :
        Dipole               -7.6429 Ry au,        -19.4264 Debye
        Dipole field         -0.0144 Ry au,

        Potential amp.        1.3370 Ry
        Total length         46.3494 bohr

     Starting wfcs are  298 atomic wfcs
  @ DRIVER MODE: Message from server: STATUS
  @ DRIVER MODE: Message from server: POSDATA
  @ DRIVER MODE: Reading and sharing cell
  @ DRIVER MODE: Reading and sharing positions
  @ DRIVER MODE: Received positions

     Self-consistent Calculation

     iteration #  1     ecut=    29.40 Ry     beta= 0.05
     Davidson diagonalization with overlap
     c_bands:  1 eigenvalues not converged
     c_bands:  1 eigenvalues not converged
     c_bands:  1 eigenvalues not converged
     c_bands:  1 eigenvalues not converged
     c_bands:  1 eigenvalues not converged
     c_bands:  1 eigenvalues not converged
     ethr =  1.00E-05,  avg # of iterations = 18.6

[...]

     total energy              =   -2699.58354873 Ry
     estimated scf accuracy    <    2638.53881851 Ry

[...]

     iteration #  3     ecut=    29.40 Ry     beta= 0.05
     Davidson diagonalization with overlap
     ethr =  1.00E-02,  avg # of iterations = 15.0

[...]

     iteration # 64     ecut=    29.40 Ry     beta= 0.05
     Davidson diagonalization with overlap
     c_bands:  1 eigenvalues not converged
     ethr =  3.18E-08,  avg # of iterations =  8.4

[...]

     total energy              =   -2937.89155919 Ry
     estimated scf accuracy    <       0.00000009 Ry

     iteration # 91     ecut=    29.40 Ry     beta= 0.05
     Davidson diagonalization with overlap
     ethr =  2.40E-11,  avg # of iterations =  5.1

     negative rho (up, down):  1.607E-02 0.000E+00

     Adding external electric field

     Computed dipole along edir(3) :
        Dipole                0.5209 Ry au,          1.3241 Debye
        Dipole field          0.0010 Ry au,

        Potential amp.       -0.0911 Ry
        Total length         46.3494 bohr

     End of self-consistent calculation

          k = 0.0000 0.0000 0.0000 ( 18029 PWs)   bands (ev):

   -56.3139 -56.2800 -55.8949 -55.8917 -55.8590 -55.8577 -55.8290 -55.7953
   -55.6777 -55.6683 -55.6382 -55.6317 -55.1622 -55.1363 -55.1282 -55.0594
   -32.7699 -32.6060 -32.5787 -32.4729 -32.4363 -32.3934 -32.3796 -32.3567
   -32.3154 -32.1930 -32.1796 -32.1491 -32.1410 -32.1177 -32.1069 -32.0770
   -32.0612 -32.0605 -32.0573 -32.0302 -32.0264 -32.0221 -32.0212 -32.0075
   -31.9958 -31.9917 -31.9809 -31.9392 -31.9121 -31.9073 -31.8431 -31.8291
   -31.8143 -31.8017 -31.7871 -31.7420 -31.6621 -31.5639 -31.4889 -31.4657
   -31.3894 -31.3811 -31.3469 -31.3136 -31.2955 -31.2617 -31.1865 -31.1845
   -17.7326 -16.6865 -16.5302 -16.2516 -16.0263 -15.9990 -15.8623 -15.8289
   -15.8044 -15.7764 -15.6560 -15.6160 -15.5788 -15.4616 -15.4192 -15.4067
   -15.3893 -15.3695 -15.3637 -15.2754 -15.2523 -15.2353 -15.1839 -15.0884
   -15.0575 -15.0160 -14.8744 -14.8581 -14.7609 -14.5006 -13.6633 -13.5493
   -11.9321  -6.6285  -4.6211  -4.1544  -4.0953  -4.0180  -3.8652  -3.7821
    -3.5956  -3.5610  -3.4674  -3.2396  -3.1545  -3.1453  -3.0696  -3.0452
    -3.0347  -2.9427  -2.8754  -2.8439  -2.8216  -2.7997  -2.7425  -2.6642
    -2.6185  -2.5857  -2.5662  -2.5340  -2.4277  -2.3725  -2.3567  -2.3325
    -2.2738  -2.2587  -2.2350  -2.2302  -2.1941  -2.1819  -2.1021  -2.0689
    -1.9454  -1.8718  -1.7481  -1.7405  -1.6692  -1.6497  -1.6259  -1.4265
    -1.4024  -1.3277  -1.2925  -1.2365  -1.2103  -1.1588  -1.0953  -1.0611
    -0.9641  -0.9360  -0.9060  -0.8713  -0.8488  -0.8188  -0.7992  -0.7399
    -0.6922  -0.5166  -0.4754  -0.4413  -0.3454  -0.3312  -0.3009  -0.2628
    -0.2489  -0.1962  -0.1900  -0.1763  -0.1181  -0.1041  -0.0190   0.0480
     0.0541   0.1033   0.1774   0.2399   0.2762   0.3943   0.4429   0.5105
     0.6061   0.6142   0.6750   0.8251   0.8389   0.8593   0.8631   1.0717
     1.3192   1.4213   1.4632   1.5655   2.7696   2.9067   3.0157   3.2116
     3.3280   3.3474   3.5232   3.6633   3.7009   3.7578   3.7657

[...]

          k = 0.0380-0.0419 0.0000 ( 17876 PWs)   bands (ev):

[...]

          k =-0.0760-0.0000 0.0000 ( 17886 PWs)   bands (ev):

[...]

          k =-0.0760-0.0839 0.0000 ( 17948 PWs)   bands (ev):

   -56.2971 -56.2966 -55.8792 -55.8771 -55.8745 -55.8720 -55.8130 -55.8112
   -55.6672 -55.6558 -55.6486 -55.6441 -55.1452 -55.1449 -55.1321 -55.0635
   -32.5918 -32.5912 -32.5857 -32.5854 -32.4245 -32.4241 -32.2431 -32.2393
   -32.1822 -32.1766 -32.1539 -32.1518 -32.1357 -32.1327 -32.0927 -32.0889
   -32.0667 -32.0609 -32.0545 -32.0521 -32.0411 -32.0397 -32.0261 -32.0251
   -32.0151 -32.0020 -31.9809 -31.9721 -31.9467 -31.9359 -31.8865 -31.8801
   -31.8731 -31.8478 -31.8153 -31.8117 -31.5512 -31.4787 -31.4783 -31.4061
   -31.3776 -31.3774 -31.3584 -31.3420 -31.3385 -31.3383 -31.2691 -31.2441
   -17.7266 -16.0466 -16.0443 -16.0398 -16.0334 -15.9156 -15.9134 -15.7568
   -15.7548 -15.7285 -15.7231 -15.5781 -15.5547 -15.5133 -15.5125 -15.4724
   -15.4624 -15.3941 -15.3913 -15.3820 -15.3760 -15.3614 -15.3569 -15.3125
   -15.2713 -15.0327 -14.9599 -14.8999 -14.7849 -14.6911 -13.6518 -13.6518
   -11.9363  -6.6228  -4.5622  -4.0885  -3.3370  -3.3323  -3.1685  -3.1508
    -3.0969  -3.0957  -3.0156  -2.9713  -2.9702  -2.8550  -2.8328  -2.7918
    -2.7882  -2.7741  -2.7715  -2.7380  -2.7320  -2.7103  -2.7038  -2.6479
    -2.6331  -2.6263  -2.6212  -2.5486  -2.5048  -2.4768  -2.4440  -2.4101
    -2.3815  -2.2892  -2.2855  -2.2490  -2.2276  -2.1679  -2.1642  -2.1106
    -2.0753  -2.0082  -1.9987  -1.7871  -1.7405  -1.7312  -1.6812  -1.5944
    -1.5721  -1.4270  -1.3957  -1.3343  -1.3226  -1.2715  -1.2534  -1.2444
    -1.1573  -1.1495  -1.1410  -1.0653  -1.0570  -0.9960  -0.9595  -0.9272
    -0.8425  -0.8283  -0.7895  -0.7866  -0.7767  -0.7094  -0.6628  -0.5906
    -0.5423  -0.5289  -0.4099  -0.3608  -0.2959  -0.2313  -0.1889  -0.0849
    -0.0420  -0.0323   0.1772   0.1879   0.2324   0.3231   0.4435   0.4449
     0.4834   0.5748   0.5967   0.6222   0.6389   0.8365   0.9099   1.2390
     1.2401   1.2799   1.2803   1.5294   2.7289   3.4312   3.4322   3.4571
     3.4576   3.5936   3.6173   3.6538   3.6630   3.7464   3.7502

     the Fermi energy is     2.8561 ev

!    total energy              =   -2937.89156303 Ry
     estimated scf accuracy    <       0.00000007 Ry
     smearing contrib. (-TS)   =      -0.01396144 Ry
     internal energy E=F+TS    =   -2937.87760159 Ry

     The total energy is F=E-TS. E is the sum of the following terms:
     one-electron contribution =  -24294.39838964 Ry
     hartree contribution      =   12233.54185214 Ry
     xc contribution           =    -484.31413970 Ry
     ewald contribution        =    9607.29256350 Ry
     electric field correction =       0.00051211 Ry

     convergence has been achieved in  91 iterations

     Forces acting on atoms (cartesian axes, Ry/au):

     atom    1 type  1   force =     0.00011033   -0.00020858    0.10741474
     atom    2 type  1   force =    -0.00012186   -0.00062745   -0.16928578
     atom    3 type  2   force =    -0.00016067    0.00000433   -0.04192876
     atom    4 type  2   force =     0.00005539   -0.00093597    0.04202311
     atom    5 type  2   force =    -0.01490526    0.00021910   -0.00302147
     atom    6 type  2   force =     0.01654076    0.00103499   -0.00399788
     atom    7 type  1   force =    -0.00113077   -0.00212890    0.00239228
     atom    8 type  1   force =     0.00131788    0.00452870    0.07556941
     atom    9 type  2   force =     0.00004128    0.00010988    0.00044254
     atom   10 type  2   force =    -0.00132218    0.00009837   -0.04719198
     atom   11 type  2   force =    -0.00047211    0.00031668    0.00023916
     atom   12 type  2   force =    -0.00007551    0.00050106    0.00014796
     atom   13 type  1   force =     0.00045255   -0.00041256    0.00067712
     atom   14 type  1   force =    -0.00014352   -0.00011883   -0.00008169
     atom   15 type  2   force =    -0.00022966   -0.00019981    0.00019249
     atom   16 type  2   force =     0.00019413    0.00024211   -0.00014994
     atom   17 type  2   force =     0.00012737    0.00050327    0.00031290
     atom   18 type  2   force =    -0.00041324   -0.00005129   -0.00029201
     atom   19 type  1   force =     0.00016181    0.00076133   -0.00027508
     atom   20 type  1   force =     0.00018177    0.00008103    0.00005280
     atom   21 type  2   force =     0.00007247    0.00003885    0.10169062
     atom   22 type  2   force =    -0.00042474    0.00041146    0.00012989
     atom   23 type  2   force =    -0.07420087   -0.00003248   -0.02980736
     atom   24 type  2   force =     0.07415780    0.00041948   -0.02980835
     atom   25 type  1   force =     0.00025602   -0.00034492    0.10691743
     atom   26 type  1   force =    -0.00002682   -0.00037190   -0.16936076
     atom   27 type  2   force =    -0.00004127   -0.00029237   -0.04087108
     atom   28 type  2   force =     0.00011037   -0.00073375    0.04199635
     atom   29 type  2   force =    -0.01520997    0.00063562   -0.00331026
     atom   30 type  2   force =     0.01677249    0.00100961   -0.00428302
     atom   31 type  1   force =    -0.00133254    0.00038121    0.00215000
     atom   32 type  1   force =     0.00130778   -0.00711414    0.07619770
     atom   33 type  2   force =    -0.00005082    0.00016901    0.00016773
     atom   34 type  2   force =    -0.00146199   -0.00008036   -0.05549471
     atom   35 type  2   force =     0.00000926    0.00006153    0.00011987
     atom   36 type  2   force =    -0.00003146    0.00021888   -0.00014146
     atom   37 type  1   force =     0.00022524    0.00028139    0.00037500
     atom   38 type  1   force =     0.00011205    0.00023127   -0.00032959
     atom   39 type  2   force =    -0.00022955   -0.00004051   -0.00062719
     atom   40 type  2   force =     0.00007562    0.00026504    0.00016958
     atom   41 type  2   force =    -0.00041642    0.00023100   -0.00041885
     atom   42 type  2   force =     0.00017575    0.00021755    0.00023714
     atom   43 type  1   force =    -0.00015384    0.00061853    0.00019762
     atom   44 type  1   force =    -0.00020773    0.00017986   -0.00012650
     atom   45 type  2   force =     0.00006192    0.00000084    0.10169973
     atom   46 type  2   force =    -0.07418373    0.00001583   -0.02977858
     atom   47 type  2   force =     0.07414010    0.00044556   -0.02980015
     atom   48 type  3   force =     0.00173162    0.00056886   -0.00053553
     atom   49 type  3   force =     0.00029369   -0.00015066   -0.00061815
     atom   50 type  4   force =     0.00035774   -0.00138981   -0.00131991
     atom   51 type  5   force =    -0.00040256    0.00053487    0.00151293
     atom   52 type  5   force =    -0.00169408   -0.00010281   -0.00017006

     Total force =     0.389251     Total SCF correction =     0.000561
  @ DRIVER MODE: Message from server: STATUS
  @ DRIVER MODE: Message from server: GETFORCE
  @ DRIVER MODE: Returning v,forces,stress,ensemble

     Writing output data file ./calc.save/
  @ DRIVER MODE: Message from server: EXIT
  @ DRIVE MODE: Exiting

     General routines

     Parallel routines

   This run was terminated on:  23:56:40  23Aug2021

   JOB DONE.