     Program PWSCF v.6.7GPU starts on  2Aug2021 at 12:11:26

     R & G space division:  proc/nbgrp/npool/nimage =      16
     Reading input from /storage/home/hcoda1/3/ntian30/research/carbon/02Aug_spin_polarized/ads_slab/CH3N2H_a/02Aug_spin_polarized.log/pw.inp
Warning: card &CELL ignored
Warning: card   CELL_DYNAMICS='IPI', ignored
Warning: card / ignored

     Current dimensions of program PWSCF are:
     Max number of different atomic species (ntypx) = 10
     Max number of k-points (npk) =  40000
     Max angular momentum in pseudopotentials (lmaxx) =  3
     Presently no symmetry can be used with electric field

     Message from routine cell_base_init:
     DEPRECATED: use true lattice parameter, not A to a.u. conversion factor

     IMPORTANT: XC functional enforced from input :
     Exchange-correlation= BEEF-VDW
                           (   1   4  43  14   2   0   0)
     Any further DFT definition will be discarded
     Please, verify this is what you really want

  @ DRIVER MODE: Connecting to
 qe_1139763_2482592.sched-torque.pace.gatech.eduqey6g7e9_scratch
  using UNIX socket
  @ DRIVER MODE: Message from server: STATUS
  @ DRIVER MODE: Message from server: INIT
  @ DRIVER MODE: Receiving replica           0          -1
  @ DRIVER MODE: Receiving encoded integer          25
  @ DRIVER MODE:  SCF:  T  FORCE:  T  STRESS:  F  VC:  F  ENSEMBLE:  F
  @ DRIVER MODE:  SCF:  T  FORCE:  T  STRESS:  F  VC:  F  ENSEMBLE:  F

     Using Slab Decomposition

     bravais-lattice index     =            0
     lattice parameter (alat)  =       1.8897  a.u.
     unit-cell volume          =    6658.9804 (a.u.)^3
     number of atoms/cell      =           54
     number of atomic types    =            5
     number of electrons       =       396.00
     number of Kohn-Sham states=          208
     kinetic-energy cutoff     =      29.3995  Ry
     charge density cutoff     =     293.9946  Ry
     scf convergence threshold =      7.3E-08
     mixing beta               =       0.0500
     number of iterations used =            8  plain     mixing
     Exchange-correlation= BEEF-VDW
                           (   1   4  43  14   2   0   0)

     celldm(1)=   1.889726  celldm(2)=   0.000000  celldm(3)=   0.000000
     celldm(4)=   0.000000  celldm(5)=   0.000000  celldm(6)=   0.000000

     crystal axes: (cart. coord. in units of alat)
               a(1) = (   6.579727   0.000000   0.000000 )
               a(2) = (  -0.000775   5.961596   0.000000 )
               a(3) = (   0.000000   0.000000  25.155947 )

     reciprocal axes: (cart. coord. in units 2 pi/alat)
               b(1) = (  0.151982  0.000020  0.000000 )
               b(2) = (  0.000000  0.167740  0.000000 )
               b(3) = (  0.000000  0.000000  0.039752 )

     PseudoPot. # 1 for Ti read from file:
     /storage/coda1/p-amedford6/0/shared/rich_project_chbe-medford/medford-share/data/pseudos_module/espresso/nninc/pbe/van/Ti.UPF
     MD5 check sum: 8e4df49b7f0d34bbd5052bf3f5ea0213
     Pseudo is Ultrasoft, Zval = 12.0
     Generated by new atomic code, or converted to UPF format
     Using radial grid of  851 points,  6 beta functions with:
                l(1) =   0
                l(2) =   0
                l(3) =   1
                l(4) =   1
                l(5) =   2
                l(6) =   2
     Q(r) pseudized with  8 coefficients,  rinner =    1.000   1.000   1.000
                                                       1.000   1.000

     PseudoPot. # 2 for O  read from file:
     /storage/coda1/p-amedford6/0/shared/rich_project_chbe-medford/medford-share/data/pseudos_module/espresso/nninc/pbe/van/O.UPF
     MD5 check sum: 78c19812648e8988a0fe644b0f25305e
     Pseudo is Ultrasoft, Zval =  6.0
     Generated by new atomic code, or converted to UPF format
     Using radial grid of  737 points,  4 beta functions with:
                l(1) =   0
                l(2) =   0
                l(3) =   1
                l(4) =   1
     Q(r) pseudized with  8 coefficients,  rinner =    0.800   0.800   0.800

     PseudoPot. # 3 for N  read from file:
     /storage/coda1/p-amedford6/0/shared/rich_project_chbe-medford/medford-share/data/pseudos_module/espresso/nninc/pbe/van/N.UPF
     MD5 check sum: 90d10febe142ad51ac9d5be1deb811c4
     Pseudo is Ultrasoft, Zval =  5.0
     Generated by new atomic code, or converted to UPF format
     Using radial grid of  729 points,  4 beta functions with:
                l(1) =   0
                l(2) =   0
                l(3) =   1
                l(4) =   1
     Q(r) pseudized with  8 coefficients,  rinner =    0.800   0.800   0.800

     PseudoPot. # 4 for C  read from file:
     /storage/coda1/p-amedford6/0/shared/rich_project_chbe-medford/medford-share/data/pseudos_module/espresso/nninc/pbe/van/C.UPF
     MD5 check sum: 1a69bf6b8db32088f5b2163dbdb77a27
     Pseudo is Ultrasoft, Zval =  4.0
     Generated by new atomic code, or converted to UPF format
     Using radial grid of  721 points,  4 beta functions with:
                l(1) =   0
                l(2) =   0
                l(3) =   1
                l(4) =   1
     Q(r) pseudized with  8 coefficients,  rinner =    0.800   0.800   0.800

     PseudoPot. # 5 for H  read from file:
     /storage/coda1/p-amedford6/0/shared/rich_project_chbe-medford/medford-share/data/pseudos_module/espresso/nninc/pbe/van/H.UPF
     MD5 check sum: b5ee9d7bfd3a09ee7748110bda690ff7
     Pseudo is Ultrasoft, Zval =  1.0
     Generated by new atomic code, or converted to UPF format
     Using radial grid of  615 points,  1 beta functions with:
                l(1) =   0
     Q(r) pseudized with  8 coefficients,  rinner =    0.800

     atomic species   valence    mass     pseudopotential
        Ti1           12.00    47.86700     Ti( 1.00)
        O1             6.00    15.99900     O ( 1.00)
        N1             5.00    14.00700     N ( 1.00)
        C1             4.00    12.01100     C ( 1.00)
        H1             1.00     1.00800     H ( 1.00)

     Starting magnetic structure
     atomic species   magnetization
        Ti1          0.000
        O1           0.000
        N1           0.120
        C1           0.150
        H1           0.000

     No symmetry found

   Cartesian axes

     site n.     atom                  positions (alat units)
         1           Ti1 tau(   1) = (   0.0004258   2.9801865   6.0000000  )
         2           Ti1 tau(   2) = (   3.2906075   1.4906267   6.0002472  )
         3           O1  tau(   3) = (   0.0006271   0.0005054   7.9858123  )
         4           O1  tau(   4) = (   3.2906025   0.0005020   7.3038282  )
         5           O1  tau(   5) = (   4.5942328   1.4918067   9.2879030  )
         6           O1  tau(   6) = (   1.9868534   1.4903216   9.2879459  )
         7           Ti1 tau(   7) = (   3.2907910   2.8959150   9.1758416  )
         8           Ti1 tau(   8) = (   0.0015273   1.4827037   9.2680791  )
         9           O1  tau(   9) = (   3.3153866   0.0100378  11.3009599  )
        10           O1  tau(  10) = (   0.0116148   5.9584955  10.6183126  )
        11           O1  tau(  11) = (   1.3267532   1.5043871  12.5849387  )
        12           O1  tau(  12) = (   5.3245351   1.4910115  12.6448076  )
        13           Ti1 tau(  13) = (   6.5378457   3.0193816  12.7254437  )
        14           Ti1 tau(  14) = (   3.1946049   1.5086038  12.4568230  )
        15           O1  tau(  15) = (   0.1383676   5.9596376  14.6434507  )
        16           O1  tau(  16) = (   3.2603185   0.0277323  13.8467666  )
        17           O1  tau(  17) = (   4.6332792   1.5024581  15.9851914  )
        18           O1  tau(  18) = (   2.1414755   1.5375566  16.0145762  )
        19           Ti1 tau(  19) = (   3.4518145   3.0246055  15.6632519  )
        20           Ti1 tau(  20) = (   0.1327710   1.3839433  15.8223698  )
        21           O1  tau(  21) = (   3.2904802   0.0005063   4.7018136  )
        22           O1  tau(  22) = (   0.1230381   0.0374903  17.1985815  )
        23           O1  tau(  23) = (   1.3043587   1.4918075   6.0039043  )
        24           O1  tau(  24) = (   5.2767064   1.4903225   6.0039473  )
        25           Ti1 tau(  25) = (   0.0000382   5.9609847   6.0000000  )
        26           Ti1 tau(  26) = (   3.2902200   4.4714249   6.0002472  )
        27           O1  tau(  27) = (   0.0002396   2.9813036   7.9858123  )
        28           O1  tau(  28) = (   3.2902150   2.9813002   7.3038282  )
        29           O1  tau(  29) = (   4.5938453   4.4726049   9.2879030  )
        30           O1  tau(  30) = (   1.9864658   4.4711199   9.2879459  )
        31           Ti1 tau(  31) = (   3.2891106   5.8743827   9.1763621  )
        32           Ti1 tau(  32) = (   0.0006254   4.4649316   9.2693709  )
        33           O1  tau(  33) = (   3.3172858   2.9982472  11.3034356  )
        34           O1  tau(  34) = (   0.0092240   2.9805883  10.6323155  )
        35           O1  tau(  35) = (   1.3251135   4.4685901  12.5934282  )
        36           O1  tau(  36) = (   5.3234825   4.4944329  12.6492432  )
        37           Ti1 tau(  37) = (   6.5220140   0.0303352  12.5467485  )
        38           Ti1 tau(  38) = (   3.1989463   4.4881006  12.4565439  )
        39           O1  tau(  39) = (   0.0711420   2.9674760  14.6820163  )
        40           O1  tau(  40) = (   3.3119940   2.9910773  13.8612375  )
        41           O1  tau(  41) = (   4.6257688   4.5662963  15.7681301  )
        42           O1  tau(  42) = (   2.1855276   4.4690830  16.1262777  )
        43           Ti1 tau(  43) = (   3.3173475   0.0224957  15.6510253  )
        44           Ti1 tau(  44) = (   0.0166404   4.5138305  16.2113856  )
        45           O1  tau(  45) = (   3.2900926   2.9813045   4.7018136  )
        46           O1  tau(  46) = (   1.3039711   4.4726057   6.0039043  )
        47           O1  tau(  47) = (   5.2763189   4.4711207   6.0039473  )
        48           N1  tau(  48) = (   0.2690184   2.8869695  17.6077705  )
        49           C1  tau(  49) = (   1.2205396   2.7265249  18.7039127  )
        50           H1  tau(  50) = (   1.3216235   3.6677129  19.2546017  )
        51           H1  tau(  51) = (   0.8546839   1.9466933  19.3785364  )
        52           H1  tau(  52) = (   2.1911076   2.4215587  18.3273888  )
        53           N1  tau(  53) = (   5.6891710   3.4950710  17.8990567  )
        54           H1  tau(  54) = (   5.7260164   3.9556511  18.8189124  )

     number of k points=    10  Fermi-Dirac smearing, width (Ry)=  0.0073
                       cart. coord. in units 2pi/alat
        k(    1) = (   0.0000000   0.0000000   0.0000000), wk =   0.0625000
        k(    2) = (   0.0000000   0.0419351   0.0000000), wk =   0.1250000
        k(    3) = (   0.0000000  -0.0838702   0.0000000), wk =   0.0625000
        k(    4) = (   0.0379955   0.0000049   0.0000000), wk =   0.1250000
        k(    5) = (   0.0379955   0.0419400   0.0000000), wk =   0.1250000
        k(    6) = (   0.0379955  -0.0838652   0.0000000), wk =   0.1250000
        k(    7) = (   0.0379955  -0.0419301   0.0000000), wk =   0.1250000
[...]
     atom  20 (R=0.737)  charge=  8.0282  magn=  0.0037
     atom  21 (R=0.737)  charge=  4.8933  magn= -0.0003
     atom  22 (R=0.737)  charge=  4.9814  magn=  0.0058
     atom  23 (R=0.737)  charge=  5.0036  magn= -0.0000
     atom  24 (R=0.737)  charge=  5.0037  magn= -0.0000
     atom  25 (R=0.737)  charge=  8.0333  magn= -0.0002
     atom  26 (R=0.737)  charge=  8.0178  magn=  0.0002
     atom  27 (R=0.737)  charge=  5.0078  magn=  0.0001
     atom  28 (R=0.737)  charge=  5.0457  magn= -0.0000
     atom  29 (R=0.737)  charge=  5.0135  magn=  0.0000
     atom  30 (R=0.737)  charge=  5.0144  magn=  0.0000
     atom  31 (R=0.737)  charge=  8.0150  magn= -0.0000
     atom  32 (R=0.737)  charge=  8.0037  magn= -0.0003
     atom  33 (R=0.737)  charge=  5.0300  magn=  0.0001
     atom  34 (R=0.737)  charge=  4.9667  magn=  0.0002
     atom  35 (R=0.737)  charge=  5.0163  magn=  0.0002
     atom  36 (R=0.737)  charge=  5.0130  magn=  0.0002
     atom  37 (R=0.737)  charge=  8.0083  magn= -0.0015
     atom  38 (R=0.737)  charge=  8.0195  magn= -0.0007
     atom  39 (R=0.737)  charge=  4.9933  magn=  0.0009
     atom  40 (R=0.737)  charge=  5.0317  magn=  0.0008
     atom  41 (R=0.737)  charge=  5.0248  magn= -0.0004
     atom  42 (R=0.737)  charge=  4.9835  magn=  0.0053
     atom  43 (R=0.737)  charge=  8.0411  magn=  0.0003
     atom  44 (R=0.737)  charge=  8.0613  magn=  0.0784
     atom  45 (R=0.737)  charge=  4.8934  magn= -0.0002
     atom  46 (R=0.737)  charge=  5.0036  magn= -0.0000
     atom  47 (R=0.737)  charge=  5.0037  magn=  0.0000
     atom  48 (R=0.425)  charge=  1.3553  magn=  0.0645
     atom  49 (R=0.447)  charge=  0.8418  magn= -0.0024
     atom  50 (R=0.425)  charge=  0.4521  magn=  0.0033
     atom  51 (R=0.425)  charge=  0.4498  magn=  0.0042
     atom  52 (R=0.425)  charge=  0.4566  magn=  0.0002
     atom  53 (R=0.425)  charge=  1.3542  magn=  0.0768
     atom  54 (R=0.425)  charge=  0.4591  magn=  0.0015

     End of self-consistent calculation

 ------ SPIN UP ------------

          k = 0.0000 0.0000 0.0000 ( 18029 PWs)   bands (ev):

   -55.8644 -55.8304 -55.7751 -55.7366 -55.6519 -55.6258 -55.6178 -55.5915
   -55.5784 -55.5601 -55.5253 -55.5071 -55.2444 -54.9576 -54.8004 -54.7664
   -32.3387 -32.3219 -32.1581 -32.1525 -32.1453 -32.0855 -32.0728 -32.0505
   -32.0270 -32.0175 -32.0154 -31.9611 -31.9547 -31.9398 -31.9249 -31.9230
   -31.9048 -31.8889 -31.8719 -31.8642 -31.8603 -31.8191 -31.8062 -31.8046
   -31.8039 -31.7889 -31.7822 -31.7691 -31.7622 -31.7607 -31.7452 -31.7201
   -31.7139 -31.6990 -31.6906 -31.6728 -31.6246 -31.4899 -31.4637 -31.2823
   -31.2053 -31.1846 -31.1219 -31.1124 -31.0992 -31.0225 -30.9362 -30.8249
   -17.7117 -16.5290 -16.2778 -16.0017 -15.9053 -15.9047 -15.7760 -15.6296
   -15.5206 -15.4372 -15.3778 -15.3511 -15.3235 -15.2855 -15.2595 -15.2278
   -15.2211 -15.1854 -15.1490 -15.1465 -15.1184 -15.1029 -15.0699 -14.9756
   -14.9633 -14.9376 -14.8389 -14.7638 -14.6077 -14.4407 -13.3013 -13.1857
   -11.7519  -8.5625  -5.2350  -4.1759  -4.0610  -3.9074  -3.7574  -3.7339
    -3.6431  -3.4487  -3.3861  -3.3313  -3.0009  -2.9782  -2.9713  -2.9448
    -2.8734  -2.6700  -2.6431  -2.6272  -2.5904  -2.5757  -2.5595  -2.5430
    -2.5242  -2.5082  -2.4520  -2.3612  -2.2598  -2.2179  -2.2087  -2.1601
    -2.1568  -2.1010  -2.0537  -2.0363  -2.0151  -1.9843  -1.9652  -1.8792
    -1.8246  -1.8058  -1.7120  -1.5929  -1.5579  -1.4777  -1.4346  -1.4064
    -1.2550  -1.2512  -1.1973  -1.1883  -1.1056  -1.0875  -1.0779  -0.9332
    -0.8876  -0.8343  -0.8168  -0.7525  -0.6995  -0.6473  -0.6219  -0.5945
    -0.5743  -0.5676  -0.5385  -0.4106  -0.3005  -0.1990  -0.1697  -0.1502
    -0.1053  -0.0634  -0.0073   0.0238   0.0471   0.1039   0.1231   0.1433
     0.1620   0.1893   0.2430   0.2701   0.3076   0.4039   0.4931   0.5452
     0.5891   0.6357   0.7482   0.8529   0.8679   0.9503   1.0570   1.1668
     1.2225   1.4214   1.4219   1.7899   1.8336   2.7399   3.3032   3.3919
     3.4619   3.5451   3.5909   3.7456   3.7871   3.8241   3.8874   3.9371

[...]

          k =-0.0760-0.0000 0.0000 ( 17886 PWs)   bands (ev):

[...]

 ------ SPIN DOWN ----------

[...]

          k = 0.0380-0.0419 0.0000 ( 17876 PWs)   bands (ev):

[...]

          k =-0.0760-0.0839 0.0000 ( 17948 PWs)   bands (ev):

   -55.8488 -55.8464 -55.7638 -55.7505 -55.6376 -55.6361 -55.6124 -55.6059
   -55.5726 -55.5471 -55.5384 -55.5108 -55.2369 -54.8236 -54.7829 -54.7828
   -32.1549 -32.1535 -32.1447 -32.1426 -32.1294 -32.1181 -32.0249 -32.0124
   -32.0038 -31.9936 -31.9696 -31.9671 -31.9337 -31.9305 -31.9240 -31.9195
   -31.9151 -31.8897 -31.8827 -31.8800 -31.8624 -31.8589 -31.8497 -31.8361
   -31.8048 -31.8028 -31.7979 -31.7930 -31.7821 -31.7779 -31.7714 -31.7704
   -31.7672 -31.7614 -31.7559 -31.7158 -31.6124 -31.4769 -31.4619 -31.2991
   -31.1115 -31.1114 -31.0380 -31.0179 -31.0177 -30.9789 -30.9788 -30.9468
   -17.4641 -15.9511 -15.9340 -15.7557 -15.7175 -15.6826 -15.6707 -15.5660
   -15.5082 -15.5036 -15.4834 -15.3811 -15.3570 -15.3475 -15.3273 -15.3144
   -15.2826 -15.2483 -15.2445 -15.2395 -15.2251 -15.1987 -15.1311 -15.1125
   -15.1115 -15.1062 -14.9305 -14.8422 -14.6476 -14.6192 -13.2889 -13.2883
   -11.6078  -8.3629  -5.1513  -3.9815  -3.8771  -3.2500  -3.2298  -2.9858
    -2.9602  -2.9436  -2.8603  -2.7208  -2.7077  -2.6883  -2.6469  -2.6409
    -2.6254  -2.6219  -2.5985  -2.5692  -2.5325  -2.4960  -2.4685  -2.4596
    -2.4420  -2.4397  -2.4353  -2.4041  -2.3935  -2.3721  -2.3301  -2.2993
    -2.2794  -2.1969  -2.1009  -2.0158  -1.9498  -1.9298  -1.9081  -1.9064
    -1.8954  -1.8867  -1.7754  -1.6912  -1.6071  -1.5747  -1.4979  -1.4858
    -1.4503  -1.3983  -1.3484  -1.2778  -1.2294  -1.1449  -1.1289  -1.0949
    -1.0406  -0.9889  -0.9588  -0.9219  -0.9025  -0.8635  -0.7999  -0.7862
    -0.7800  -0.7115  -0.6859  -0.6115  -0.5886  -0.5504  -0.5385  -0.5172
    -0.4620  -0.3582  -0.3126  -0.2941  -0.2622  -0.2088  -0.0902  -0.0599
     0.1418   0.2292   0.2720   0.2996   0.3843   0.4477   0.5058   0.5086
     0.5497   0.6039   0.6487   0.7047   0.7571   0.7742   0.7861   1.0127
     1.0863   1.5912   1.5925   1.6517   1.6529   3.3321   3.7013   3.7305
     3.7434   3.7776   3.8299   3.8321   3.8521   3.8660   4.0083   4.0163

     the Fermi energy is     3.2819 ev

!    total energy              =   -2940.35463897 Ry
     estimated scf accuracy    <       0.00000007 Ry
     smearing contrib. (-TS)   =      -0.01968327 Ry
     internal energy E=F+TS    =   -2940.33495569 Ry

     The total energy is F=E-TS. E is the sum of the following terms:
     one-electron contribution =  -24599.05526448 Ry
     hartree contribution      =   12389.01474600 Ry
     xc contribution           =    -486.05919611 Ry
     ewald contribution        =    9755.76336843 Ry
     electric field correction =       0.00139046 Ry

     total magnetization       =     0.64 Bohr mag/cell
     absolute magnetization    =     0.71 Bohr mag/cell

     convergence has been achieved in  75 iterations

     Forces acting on atoms (cartesian axes, Ry/au):

     atom    1 type  1   force =     0.00015662   -0.00037436    0.09876127
     atom    2 type  1   force =     0.00004915   -0.00084465   -0.17339946
     atom    3 type  2   force =     0.00029222    0.00017094   -0.02866758
     atom    4 type  2   force =     0.00004270   -0.00099401    0.04820041
     atom    5 type  2   force =    -0.01156016   -0.00061712   -0.00039778
     atom    6 type  2   force =     0.01400707   -0.00015097    0.00109975
     atom    7 type  1   force =     0.00147189   -0.00044448   -0.00882834
     atom    8 type  1   force =    -0.00072228    0.02521669    0.04220025
     atom    9 type  2   force =    -0.00003182   -0.00046810    0.00002244
     atom   10 type  2   force =    -0.00293308    0.00190206   -0.01865213
     atom   11 type  2   force =    -0.00062435    0.00028113    0.00043650
     atom   12 type  2   force =     0.00039766    0.00010269    0.00037504
     atom   13 type  1   force =     0.00012173   -0.00012953   -0.00029609
     atom   14 type  1   force =     0.00040592   -0.00051031    0.00021495
     atom   15 type  2   force =    -0.00056556    0.00038705    0.00037376
     atom   16 type  2   force =     0.00005408   -0.00028524    0.00023704
     atom   17 type  2   force =    -0.00031514    0.00002978    0.00063020
     atom   18 type  2   force =     0.00013846    0.00004751   -0.00004746
     atom   19 type  1   force =    -0.00027437   -0.00003412   -0.00011774
     atom   20 type  1   force =    -0.00019231   -0.00053801    0.00006036
     atom   21 type  2   force =     0.00006978   -0.00003285    0.10259224
     atom   22 type  2   force =     0.00043775   -0.00024179    0.00035416
     atom   23 type  2   force =    -0.07244208   -0.00018725   -0.02830323
     atom   24 type  2   force =     0.07241743    0.00029266   -0.02833848
     atom   25 type  1   force =    -0.00009029   -0.00022619    0.09902789
     atom   26 type  1   force =     0.00002920   -0.00014817   -0.17330632
     atom   27 type  2   force =     0.00032262   -0.00019277   -0.02738854
     atom   28 type  2   force =     0.00010604   -0.00076208    0.04892425
     atom   29 type  2   force =    -0.01165449    0.00203496   -0.00092520
     atom   30 type  2   force =     0.01400785    0.00223749    0.00056447
     atom   31 type  1   force =     0.00160226    0.00180480   -0.01046430
     atom   32 type  1   force =    -0.00051648   -0.02714293    0.04359189
     atom   33 type  2   force =     0.00007226   -0.00001648    0.00003327
     atom   34 type  2   force =    -0.00413751    0.00192075   -0.03705823
     atom   35 type  2   force =     0.00023570   -0.00004162    0.00029355
     atom   36 type  2   force =    -0.00012184   -0.00028007    0.00023122
     atom   37 type  1   force =    -0.00051701   -0.00080527    0.00008521
     atom   38 type  1   force =    -0.00025010   -0.00046920    0.00026620
     atom   39 type  2   force =    -0.00008966    0.00035278    0.00085380
     atom   40 type  2   force =     0.00019146    0.00007369   -0.00002847
     atom   41 type  2   force =     0.00008905    0.00028385    0.00078574
     atom   42 type  2   force =    -0.00016830    0.00014955    0.00001719
     atom   43 type  1   force =    -0.00029445    0.00003524   -0.00018496
     atom   44 type  1   force =     0.00005112    0.00025778   -0.00023068
     atom   45 type  2   force =     0.00004799   -0.00007313    0.10265590
     atom   46 type  2   force =    -0.07244651   -0.00012181   -0.02828709
     atom   47 type  2   force =     0.07242139    0.00023851   -0.02831086
     atom   48 type  3   force =    -0.00042816   -0.00024410    0.00047638
     atom   49 type  4   force =     0.00007323   -0.00051479   -0.00021547
     atom   50 type  5   force =     0.00024404    0.00003897    0.00024309
     atom   51 type  5   force =    -0.00009220   -0.00024868   -0.00013586
     atom   52 type  5   force =     0.00018473   -0.00052959   -0.00007042
     atom   53 type  3   force =     0.00008953    0.00008762    0.00120035
     atom   54 type  5   force =     0.00063720   -0.00027680   -0.00115410

     Total force =     0.372692     Total SCF correction =     0.000658
  @ DRIVER MODE: Message from server: STATUS
  @ DRIVER MODE: Message from server: GETFORCE
  @ DRIVER MODE: Returning v,forces,stress,ensemble

     Writing output data file ./calc.save/
  @ DRIVER MODE: Message from server: STATUS
  @ DRIVER MODE: Message from server: INIT
  @ DRIVER MODE: Receiving replica           0           0
  @ DRIVER MODE: Receiving encoded integer           2
  @ DRIVER MODE:  SCF:  T  FORCE:  T  STRESS:  F  VC:  F  ENSEMBLE:  F
  @ DRIVER MODE:  SCF:  F  FORCE:  F  STRESS:  F  VC:  F  ENSEMBLE:  T
  @ DRIVER MODE: Message from server: STATUS
  @ DRIVER MODE: Message from server: POSDATA
  @ DRIVER MODE: Reading and sharing positions
  @ DRIVER MODE: Received positions
     NEW-OLD atomic charge density approx. for the potential

[...]

     Adding external electric field

     Computed dipole along edir(3) :
        Dipole                0.8584 Ry au,          2.1818 Debye
        Dipole field          0.0016 Ry au,

        Potential amp.       -0.1502 Ry
        Total length         46.3494 bohr

     Generating pointlists ...
  @ DRIVER MODE: BEEF-vdw

[...]

     negative rho (up, down):  8.727E-03 8.730E-03

     negative rho (up, down):  8.727E-03 8.730E-03
 BEEFens 2000 ensemble energies
             -0.348761754665807E+02
             -0.203395638319888E+01
             -0.718511699678563E+01
              0.242065927900600E+02
             -0.119758242118522E+02
             -0.927067325408353E+01
             -0.241829349952469E+02
             -0.505932786780174E+02
             -0.215748241302139E+02
             -0.227469630872070E+02
             -0.211333797808753E+02
              0.425979136103759E+01
              0.200784332002596E+01
             -0.106434601325665E+01
              0.173751307440324E+01
              0.266628547108093E+02
             -0.102726939886540E+02
             -0.725959277705530E+01
              0.118442158474414E+02
             -0.622693028128613E+02
              0.312361467229724E+02
             -0.134110005559259E+02
             -0.242085190874240E+01
             -0.562205404164479E+01
             -0.988662601704561E+00
             -0.214135584512933E+01
              0.482954976703541E+02
             -0.151216415746635E+02
             -0.402832086217450E+01
             -0.305716899701971E+02
              0.395007263788756E+02
             -0.436875527360289E+01
             -0.215055397352009E+02
              0.112796089110525E+02
             -0.206198166744144E+01
              0.131163602949204E+02
             -0.548264727150695E+00
              0.272515788805333E+01
              0.190656594933928E+02
             -0.549638526732835E+02
              0.306216787100767E+02
              0.816831788014569E+01
             -0.628654144879579E+01
             -0.175703700663219E+02
              0.694351442964401E+01
             -0.109890908266783E+02
              0.250631986034186E+02
              0.200024661093873E+02
             -0.128993680836518E+02
             -0.164830954803674E+02
             -0.174357438287687E+02
             -0.209087813201869E+02
              0.106226791474583E+02
             -0.272438239050020E+02
              0.833719086634045E+01
              0.347945459116598E+02
              0.401377830326145E+02
              0.186804075276865E+02
              0.833878830243506E+01
              0.174354822638678E+02
[...]
             -0.410472344736235E+02
              0.278939531750200E+01
             -0.146650775420202E+01
             -0.571834244078678E+01
              0.581134476384761E-01
             -0.365449990030403E+02
             -0.705840416536589E+01
              0.494644799894421E+01
              0.745115450613227E+01
              0.273931160474799E+02
             -0.239496635076707E+02
              0.312170521530207E+02
             -0.223624535635327E+02
              0.143714733821496E+02
              0.226351162761299E+02

 BEEF-vdW xc energy contributions
           1 :   -411.817983492327
           2 :    358.915707154126
           3 :   -273.452645044734
           4 :    184.106258513115
           5 :   -113.827723497580
           6 :    71.7879465428323
           7 :   -54.2611452107876
           8 :    51.0955569316556
           9 :   -52.7459915099557
          10 :    53.9259092098670
          11 :   -53.4287043259098
          12 :    51.8391776285802
          13 :   -49.6029837856183
          14 :    46.4668939390294
          15 :   -42.0700800993020
          16 :    36.6116738146125
          17 :   -31.0074183472298
          18 :    26.4238848781697
          19 :   -23.6864104508863
          20 :    22.9181192590958
          21 :   -23.6347163972316
          22 :    25.0755354907134
          23 :   -26.5479207774376
          24 :    27.5531591508301
          25 :   -27.7763374645305
          26 :    27.0307378752257
          27 :   -25.2880866961435
          28 :    22.7366862071806
          29 :   -19.8235081714142
          30 :    17.1558787762284
          31 :   -48.4560366854705
          32 :   -32.9407157599734
  @ DRIVER MODE: Message from server: STATUS
  @ DRIVER MODE: Message from server: GETFORCE
  @ DRIVER MODE: Returning v,forces,stress,ensemble
  @ DRIVE MODE: Returning Ensemble Energies

     Writing output data file ./calc.save/
  @ DRIVER MODE: Message from server: EXIT
  @ DRIVE MODE: Exiting

     General routines

     Parallel routines

   This run was terminated on:  12:46:51   2Aug2021

   JOB DONE.