     Program PWSCF v.6.7GPU starts on 24Aug2021 at 14:58:45

     R & G space division:  proc/nbgrp/npool/nimage =      72
     Reading input from /storage/home/hcoda1/3/ntian30/research/carbon/CH2_vib/ads_slab/CH2NH_a/out_0015/pw.inp
Warning: card &CELL ignored
Warning: card   CELL_DYNAMICS='IPI', ignored
Warning: card / ignored

     Current dimensions of program PWSCF are:
     Max number of different atomic species (ntypx) = 10
     Max number of k-points (npk) =  40000
     Max angular momentum in pseudopotentials (lmaxx) =  3
     Presently no symmetry can be used with electric field

     Message from routine cell_base_init:
     DEPRECATED: use true lattice parameter, not A to a.u. conversion factor

     IMPORTANT: XC functional enforced from input :
     Exchange-correlation= BEEF-VDW
                           (   1   4  43  14   2   0   0)
     Any further DFT definition will be discarded
     Please, verify this is what you really want

  @ DRIVER MODE: Connecting to
 qe_1139763_2641438.sched-torque.pace.gatech.edunw08nft6_scratch
  using UNIX socket
  @ DRIVER MODE: Message from server: STATUS
  @ DRIVER MODE: Message from server: INIT
  @ DRIVER MODE: Receiving replica           0          -1
  @ DRIVER MODE: Receiving encoded integer          25
  @ DRIVER MODE:  SCF:  T  FORCE:  T  STRESS:  F  VC:  F  ENSEMBLE:  F
  @ DRIVER MODE:  SCF:  T  FORCE:  T  STRESS:  F  VC:  F  ENSEMBLE:  F

     Using Slab Decomposition

     bravais-lattice index     =            0
     lattice parameter (alat)  =       1.8897  a.u.
     unit-cell volume          =    6658.9804 (a.u.)^3
     number of atoms/cell      =           52
     number of atomic types    =            5
     number of electrons       =       390.00
     number of Kohn-Sham states=          205
     kinetic-energy cutoff     =      29.3995  Ry
     charge density cutoff     =     293.9946  Ry
     scf convergence threshold =      7.3E-08
     mixing beta               =       0.0500
     number of iterations used =            8  plain     mixing
     Exchange-correlation= BEEF-VDW
                           (   1   4  43  14   2   0   0)

     celldm(1)=   1.889726  celldm(2)=   0.000000  celldm(3)=   0.000000
     celldm(4)=   0.000000  celldm(5)=   0.000000  celldm(6)=   0.000000

     crystal axes: (cart. coord. in units of alat)
               a(1) = (   6.579727   0.000000   0.000000 )
               a(2) = (  -0.000775   5.961596   0.000000 )
               a(3) = (   0.000000   0.000000  25.155947 )

     reciprocal axes: (cart. coord. in units 2 pi/alat)
               b(1) = (  0.151982  0.000020  0.000000 )
               b(2) = (  0.000000  0.167740  0.000000 )
               b(3) = (  0.000000  0.000000  0.039752 )

     PseudoPot. # 1 for Ti read from file:
     /storage/coda1/p-amedford6/0/shared/rich_project_chbe-medford/medford-share/data/pseudos_module/espresso/nninc/pbe/van/Ti.UPF
     MD5 check sum: 8e4df49b7f0d34bbd5052bf3f5ea0213
     Pseudo is Ultrasoft, Zval = 12.0
     Generated by new atomic code, or converted to UPF format
     Using radial grid of  851 points,  6 beta functions with:
                l(1) =   0
                l(2) =   0
                l(3) =   1
                l(4) =   1
                l(5) =   2
                l(6) =   2
     Q(r) pseudized with  8 coefficients,  rinner =    1.000   1.000   1.000
                                                       1.000   1.000

     PseudoPot. # 2 for O  read from file:
     /storage/coda1/p-amedford6/0/shared/rich_project_chbe-medford/medford-share/data/pseudos_module/espresso/nninc/pbe/van/O.UPF
     MD5 check sum: 78c19812648e8988a0fe644b0f25305e
     Pseudo is Ultrasoft, Zval =  6.0
     Generated by new atomic code, or converted to UPF format
     Using radial grid of  737 points,  4 beta functions with:
                l(1) =   0
                l(2) =   0
                l(3) =   1
                l(4) =   1
     Q(r) pseudized with  8 coefficients,  rinner =    0.800   0.800   0.800

     PseudoPot. # 3 for N  read from file:
     /storage/coda1/p-amedford6/0/shared/rich_project_chbe-medford/medford-share/data/pseudos_module/espresso/nninc/pbe/van/N.UPF
     MD5 check sum: 90d10febe142ad51ac9d5be1deb811c4
     Pseudo is Ultrasoft, Zval =  5.0
     Generated by new atomic code, or converted to UPF format
     Using radial grid of  729 points,  4 beta functions with:
                l(1) =   0
                l(2) =   0
                l(3) =   1
                l(4) =   1
     Q(r) pseudized with  8 coefficients,  rinner =    0.800   0.800   0.800

     PseudoPot. # 4 for C  read from file:
     /storage/coda1/p-amedford6/0/shared/rich_project_chbe-medford/medford-share/data/pseudos_module/espresso/nninc/pbe/van/C.UPF
     MD5 check sum: 1a69bf6b8db32088f5b2163dbdb77a27
     Pseudo is Ultrasoft, Zval =  4.0
     Generated by new atomic code, or converted to UPF format
     Using radial grid of  721 points,  4 beta functions with:
                l(1) =   0
                l(2) =   0
                l(3) =   1
                l(4) =   1
     Q(r) pseudized with  8 coefficients,  rinner =    0.800   0.800   0.800

     PseudoPot. # 5 for H  read from file:
     /storage/coda1/p-amedford6/0/shared/rich_project_chbe-medford/medford-share/data/pseudos_module/espresso/nninc/pbe/van/H.UPF
     MD5 check sum: b5ee9d7bfd3a09ee7748110bda690ff7
     Pseudo is Ultrasoft, Zval =  1.0
     Generated by new atomic code, or converted to UPF format
     Using radial grid of  615 points,  1 beta functions with:
                l(1) =   0
     Q(r) pseudized with  8 coefficients,  rinner =    0.800

     atomic species   valence    mass     pseudopotential
        Ti1           12.00    47.86700     Ti( 1.00)
        O1             6.00    15.99900     O ( 1.00)
        N1             5.00    14.00700     N ( 1.00)
        C1             4.00    12.01100     C ( 1.00)
        H1             1.00     1.00800     H ( 1.00)

     No symmetry found

   Cartesian axes

     site n.     atom                  positions (alat units)
         1           Ti1 tau(   1) = (   0.0004258   2.9801865   6.0000000  )
         2           Ti1 tau(   2) = (   3.2906075   1.4906267   6.0002472  )
         3           O1  tau(   3) = (   0.0006271   0.0005054   7.9858123  )
         4           O1  tau(   4) = (   3.2906025   0.0005020   7.3038282  )
         5           O1  tau(   5) = (   4.5942328   1.4918067   9.2879030  )
         6           O1  tau(   6) = (   1.9868534   1.4903216   9.2879459  )
         7           Ti1 tau(   7) = (   3.2907910   2.8959150   9.1758416  )
         8           Ti1 tau(   8) = (   0.0015273   1.4827037   9.2680791  )
         9           O1  tau(   9) = (   3.2859541   5.9290403  11.3715426  )
        10           O1  tau(  10) = (   0.0116148   5.9584955  10.6183126  )
        11           O1  tau(  11) = (   1.2917987   1.4688796  12.6526629  )
        12           O1  tau(  12) = (   5.2888266   1.4686376  12.6403033  )
        13           Ti1 tau(  13) = (   0.0074927   2.9495069  12.5376589  )
        14           Ti1 tau(  14) = (   3.2957121   1.4606513  12.5174744  )
        15           O1  tau(  15) = (   6.5702453   0.0264740  14.6787910  )
        16           O1  tau(  16) = (   3.3001739   5.9406727  13.9930656  )
        17           O1  tau(  17) = (   4.5367710   1.4643441  16.2106543  )
        18           O1  tau(  18) = (   2.0349547   1.4576396  16.1973481  )
        19           Ti1 tau(  19) = (   3.2821410   2.9383233  15.7467721  )
        20           Ti1 tau(  20) = (   6.5624771   1.3975196  16.0657228  )
        21           O1  tau(  21) = (   3.2904802   0.0005063   4.7018136  )
        22           O1  tau(  22) = (   0.0049924   5.8117904  17.2112648  )
        23           O1  tau(  23) = (   1.3043587   1.4918075   6.0039043  )
        24           O1  tau(  24) = (   5.2767064   1.4903225   6.0039473  )
        25           Ti1 tau(  25) = (   0.0000382   5.9609847   6.0000000  )
        26           Ti1 tau(  26) = (   3.2902200   4.4714249   6.0002472  )
        27           O1  tau(  27) = (   0.0002396   2.9813036   7.9858123  )
        28           O1  tau(  28) = (   3.2902150   2.9813002   7.3038282  )
        29           O1  tau(  29) = (   4.5938453   4.4726049   9.2879030  )
        30           O1  tau(  30) = (   1.9864658   4.4711199   9.2879459  )
        31           Ti1 tau(  31) = (   3.2891106   5.8743827   9.1763621  )
        32           Ti1 tau(  32) = (   0.0006254   4.4649316   9.2693709  )
        33           O1  tau(  33) = (   3.2878059   2.9597088  11.3652031  )
        34           O1  tau(  34) = (   0.0092240   2.9805883  10.6323155  )
        35           O1  tau(  35) = (   1.2887225   4.4431869  12.6829221  )
        36           O1  tau(  36) = (   5.2901277   4.4428847  12.6690855  )
        37           Ti1 tau(  37) = (   0.0035388   5.9380168  12.5099366  )
        38           Ti1 tau(  38) = (   3.2962120   4.4389810  12.5267566  )
        39           O1  tau(  39) = (   6.5655450   2.9014274  14.9049457  )
        40           O1  tau(  40) = (   3.2937888   2.9365130  13.9572806  )
        41           O1  tau(  41) = (   4.5374039   4.4072578  16.1608974  )
        42           O1  tau(  42) = (   2.0345115   4.4188705  16.1151926  )
        43           Ti1 tau(  43) = (   3.2925710   5.9161036  15.7896908  )
        44           Ti1 tau(  44) = (   0.0121651   4.6006060  15.8502786  )
        45           O1  tau(  45) = (   3.2900926   2.9813045   4.7018136  )
        46           O1  tau(  46) = (   1.3039711   4.4726057   6.0039043  )
        47           O1  tau(  47) = (   5.2763189   4.4711207   6.0039473  )
        48           N1  tau(  48) = (   6.5581919   2.6818180  17.9522317  )
        49           C1  tau(  49) = (   0.8403426   2.5546117  18.8965076  )
        50           H1  tau(  50) = (   0.6793733   2.9485088  19.8916666  )
        51           H1  tau(  51) = (   1.7584391   2.0155774  18.6961775  )
        52           H1  tau(  52) = (   5.7198555   3.1867788  18.2393814  )

     number of k points=    10  Fermi-Dirac smearing, width (Ry)=  0.0073
                       cart. coord. in units 2pi/alat
        k(    1) = (   0.0000000   0.0000000   0.0000000), wk =   0.1250000
        k(    2) = (   0.0000000   0.0419351   0.0000000), wk =   0.2500000
        k(    3) = (   0.0000000  -0.0838702   0.0000000), wk =   0.1250000
        k(    4) = (   0.0379955   0.0000049   0.0000000), wk =   0.2500000
        k(    5) = (   0.0379955   0.0419400   0.0000000), wk =   0.2500000
        k(    6) = (   0.0379955  -0.0838652   0.0000000), wk =   0.2500000
        k(    7) = (   0.0379955  -0.0419301   0.0000000), wk =   0.2500000
        k(    8) = (  -0.0759910  -0.0000099   0.0000000), wk =   0.1250000
        k(    9) = (  -0.0759910   0.0419252   0.0000000), wk =   0.2500000
        k(   10) = (  -0.0759910  -0.0838800   0.0000000), wk =   0.1250000

     Initial potential from superposition of free atoms

     starting charge  373.99917, renormalised to  390.00000

     negative rho (up, down):  1.699E-02 0.000E+00

     %%%%%%%%%%%%%%%%%%%%%%%%%%%%%%%%%%%%%%%%%%%%%%%%%%%%%%%%%%%%%%%%%%%%%%%%
     %                                                                      %
     % You are using vdW-DF, which was implemented by the Thonhauser group. %
     % Please cite the following two papers that made this development      %
     % possible and the two reviews that describe the various versions:     %
     %                                                                      %
     %   T. Thonhauser et al., PRL 115, 136402 (2015).                      %
     %   T. Thonhauser et al., PRB 76, 125112 (2007).                       %
     %   K. Berland et al., Rep. Prog. Phys. 78, 066501 (2015).             %
     %   D.C. Langreth et al., J. Phys.: Condens. Matter 21, 084203 (2009). %
     %                                                                      %
     %                                                                      %
     % If you are calculating the stress with vdW-DF, please also cite:     %
     %                                                                      %
     %   R. Sabatini et al., J. Phys.: Condens. Matter 24, 424209 (2012).   %
     %                                                                      %
     %%%%%%%%%%%%%%%%%%%%%%%%%%%%%%%%%%%%%%%%%%%%%%%%%%%%%%%%%%%%%%%%%%%%%%%%

     Adding external electric field

     Computed dipole along edir(3) :
        Dipole               -6.0480 Ry au,        -15.3725 Debye
        Dipole field         -0.0114 Ry au,

        Potential amp.        1.0580 Ry
        Total length         46.3494 bohr

     Starting wfcs are  295 atomic wfcs
  @ DRIVER MODE: Message from server: STATUS
  @ DRIVER MODE: Message from server: POSDATA
  @ DRIVER MODE: Reading and sharing cell
  @ DRIVER MODE: Reading and sharing positions
  @ DRIVER MODE: Received positions

     Self-consistent Calculation

     iteration #  1     ecut=    29.40 Ry     beta= 0.05
     Davidson diagonalization with overlap
     c_bands:  1 eigenvalues not converged
     c_bands:  1 eigenvalues not converged
     ethr =  1.00E-05,  avg # of iterations = 16.8

[...]

     total energy              =   -2758.77100890 Ry
     estimated scf accuracy    <    1760.40085703 Ry

     iteration #  2     ecut=    29.40 Ry     beta= 0.05
     Davidson diagonalization with overlap
     ethr =  1.00E-02,  avg # of iterations = 18.5

[...]

     iteration # 73     ecut=    29.40 Ry     beta= 0.05
     Davidson diagonalization with overlap
     c_bands:  1 eigenvalues not converged
     c_bands:  1 eigenvalues not converged
     ethr =  2.70E-10,  avg # of iterations = 13.5

[...]

     total energy              =   -2919.11585027 Ry
     estimated scf accuracy    <       0.00000009 Ry

     iteration # 78     ecut=    29.40 Ry     beta= 0.05
     Davidson diagonalization with overlap
     ethr =  2.43E-11,  avg # of iterations = 11.3

     negative rho (up, down):  1.722E-02 0.000E+00

     Adding external electric field

     Computed dipole along edir(3) :
        Dipole                1.2617 Ry au,          3.2068 Debye
        Dipole field          0.0024 Ry au,

        Potential amp.       -0.2207 Ry
        Total length         46.3494 bohr

     End of self-consistent calculation

          k = 0.0000 0.0000 0.0000 ( 18029 PWs)   bands (ev):

   -55.5453 -55.5086 -55.5069 -55.4728 -55.4375 -55.4206 -55.3832 -55.3604
   -55.3604 -55.3353 -55.3259 -55.3119 -55.3019 -55.1292 -54.5274 -54.4934
   -32.1120 -31.9978 -31.9082 -31.8666 -31.8602 -31.8496 -31.8400 -31.8350
   -31.7966 -31.7851 -31.7535 -31.7518 -31.7514 -31.7163 -31.6987 -31.6806
   -31.6753 -31.6674 -31.6613 -31.6574 -31.6193 -31.6160 -31.6008 -31.5905
   -31.5639 -31.5623 -31.5605 -31.5523 -31.5475 -31.5418 -31.5316 -31.5234
   -31.5136 -31.5125 -31.5093 -31.4816 -31.4746 -31.4679 -31.4638 -31.4451
   -31.3529 -31.2705 -30.9365 -30.8433 -30.8211 -30.7528 -30.6661 -30.5552
   -16.5474 -16.3411 -16.0749 -15.8982 -15.7944 -15.7342 -15.5979 -15.5217
   -15.4441 -15.3417 -15.2513 -15.1847 -15.1684 -15.1478 -15.1430 -15.0821
   -15.0787 -15.0538 -15.0371 -15.0356 -14.9811 -14.9737 -14.9420 -14.9298
   -14.9190 -14.8461 -14.7625 -14.6937 -14.6335 -14.2058 -13.0302 -12.9130
    -9.3153  -6.2824  -4.6845  -3.6998  -3.5465  -3.4522  -3.4411  -3.4190
    -3.2709  -3.1330  -2.9270  -2.8458  -2.8000  -2.7507  -2.7227  -2.7049
    -2.6205  -2.5197  -2.4444  -2.4002  -2.3750  -2.3616  -2.3512  -2.3239
    -2.3124  -2.2788  -2.2395  -2.1991  -2.0936  -2.0057  -1.9650  -1.9298
    -1.8730  -1.8622  -1.8354  -1.8291  -1.8224  -1.8005  -1.7622  -1.7524
    -1.7051  -1.5636  -1.5523  -1.4349  -1.3968  -1.2856  -1.1854  -1.1793
    -1.0928  -1.0897  -1.0210  -0.9670  -0.9363  -0.9284  -0.8778  -0.8291
    -0.7400  -0.6467  -0.5851  -0.5432  -0.5084  -0.4794  -0.4119  -0.3210
    -0.3158  -0.3054  -0.2029  -0.1238  -0.1015  -0.0486  -0.0165   0.0268
     0.0429   0.1533   0.1962   0.2375   0.2557   0.3345   0.3563   0.4118
     0.4171   0.4521   0.4614   0.5274   0.5746   0.5940   0.6440   0.6628
     0.8212   1.0738   1.0810   1.1287   1.4039   1.4341   1.4949   1.6799
     2.0703   2.1180   3.5544   3.6268   3.6919   3.7047   3.7463   3.7913
     3.9584   4.0392   4.0556   4.0600   4.0913

[...]

          k = 0.0380-0.0419 0.0000 ( 17876 PWs)   bands (ev):

[...]

          k =-0.0760-0.0000 0.0000 ( 17886 PWs)   bands (ev):

[...]

          k =-0.0760-0.0839 0.0000 ( 17948 PWs)   bands (ev):

   -55.5307 -55.5230 -55.4898 -55.4897 -55.4335 -55.4095 -55.3943 -55.3643
   -55.3442 -55.3415 -55.3190 -55.3186 -55.3103 -55.1308 -54.5103 -54.5103
   -31.9184 -31.9133 -31.8292 -31.8130 -31.8129 -31.8045 -31.7820 -31.7819
   -31.7581 -31.7518 -31.7447 -31.7429 -31.7376 -31.6995 -31.6778 -31.6744
   -31.6703 -31.6660 -31.6622 -31.6573 -31.6527 -31.6336 -31.6195 -31.6189
   -31.6093 -31.6093 -31.6066 -31.5895 -31.5770 -31.5739 -31.5633 -31.5575
   -31.5547 -31.5533 -31.5440 -31.5434 -31.5104 -31.4985 -31.4980 -31.4857
   -31.3577 -31.3518 -30.8338 -30.8338 -30.7491 -30.7489 -30.7095 -30.7095
   -16.5242 -15.7796 -15.7455 -15.7302 -15.5264 -15.5181 -15.5103 -15.4924
   -15.3319 -15.3182 -15.2916 -15.2755 -15.2438 -15.2403 -15.2100 -15.1771
   -15.1243 -15.1199 -15.1116 -15.1093 -15.0494 -15.0452 -15.0249 -14.9963
   -14.9943 -14.9882 -14.8933 -14.8913 -14.7186 -14.5259 -13.0145 -13.0145
    -9.3196  -6.2782  -4.6667  -3.0546  -2.9934  -2.9328  -2.7358  -2.7325
    -2.7017  -2.6192  -2.5499  -2.5379  -2.5115  -2.4828  -2.4802  -2.4324
    -2.3880  -2.3783  -2.3671  -2.3599  -2.3415  -2.3276  -2.2984  -2.2618
    -2.2529  -2.2223  -2.2081  -2.1837  -2.1818  -2.1455  -2.1217  -2.1073
    -2.0956  -2.0364  -1.9330  -1.8805  -1.7943  -1.7686  -1.7389  -1.7329
    -1.6507  -1.6242  -1.5966  -1.5565  -1.5435  -1.5094  -1.3067  -1.2770
    -1.2675  -1.2535  -1.2304  -1.0801  -1.0705  -1.0204  -0.9893  -0.9416
    -0.8845  -0.8486  -0.8339  -0.7516  -0.7209  -0.6765  -0.6375  -0.5144
    -0.5104  -0.5034  -0.5018  -0.4838  -0.3972  -0.3852  -0.3424  -0.3090
    -0.2679  -0.2537  -0.1886  -0.0066   0.0101   0.0764   0.1833   0.2773
     0.3719   0.4512   0.4713   0.5222   0.5650   0.5853   0.6645   0.7574
     0.7693   0.8377   0.8836   0.9247   0.9290   0.9341   1.8528   1.8534
     1.9380   1.9382   3.6773   3.8025   3.8230   3.8610   3.8791   4.0283
     4.0741   4.1119   4.1337   4.1360   4.2141

     the Fermi energy is     3.6098 ev

!    total energy              =   -2919.11585813 Ry
     estimated scf accuracy    <       0.00000006 Ry
     smearing contrib. (-TS)   =      -0.03731582 Ry
     internal energy E=F+TS    =   -2919.07854231 Ry

     The total energy is F=E-TS. E is the sum of the following terms:
     one-electron contribution =  -24307.29323650 Ry
     hartree contribution      =   12241.05675189 Ry
     xc contribution           =    -480.01804645 Ry
     ewald contribution        =    9627.17298481 Ry
     electric field correction =       0.00300395 Ry

     convergence has been achieved in  78 iterations

     Forces acting on atoms (cartesian axes, Ry/au):

     atom    1 type  1   force =     0.00005190   -0.00015660    0.09377021
     atom    2 type  1   force =    -0.00018283   -0.00018836   -0.17778995
     atom    3 type  2   force =     0.00002654   -0.00021931   -0.02113823
     atom    4 type  2   force =    -0.00001671   -0.00198792    0.05775629
     atom    5 type  2   force =    -0.01107284   -0.00164454    0.00748636
     atom    6 type  2   force =     0.01243454   -0.00097865    0.00636967
     atom    7 type  1   force =    -0.00048191    0.00245871   -0.01336305
     atom    8 type  1   force =     0.00030146    0.00295131    0.00275228
     atom    9 type  2   force =     0.00007497   -0.00008133    0.00013310
     atom   10 type  2   force =    -0.00176251   -0.00227541   -0.00368405
     atom   11 type  2   force =     0.00017470    0.00060416   -0.00028101
     atom   12 type  2   force =     0.00043579    0.00054065   -0.00009902
     atom   13 type  1   force =    -0.00071800   -0.00095376   -0.00028342
     atom   14 type  1   force =     0.00082403    0.00027197   -0.00049048
     atom   15 type  2   force =     0.00025296    0.00019806   -0.00004228
     atom   16 type  2   force =    -0.00008048    0.00034037   -0.00063557
     atom   17 type  2   force =     0.00002237    0.00011281    0.00030260
     atom   18 type  2   force =     0.00057405   -0.00000143    0.00015978
     atom   19 type  1   force =     0.00022226   -0.00096197    0.00041049
     atom   20 type  1   force =    -0.00003708    0.00058678    0.00035774
     atom   21 type  2   force =     0.00004379   -0.00002358    0.10383068
     atom   22 type  2   force =     0.00001371   -0.00063681    0.00004955
     atom   23 type  2   force =    -0.07058134   -0.00013957   -0.02705666
     atom   24 type  2   force =     0.07045998    0.00032740   -0.02710187
     atom   25 type  1   force =     0.00008783   -0.00018223    0.09356839
     atom   26 type  1   force =    -0.00009557   -0.00026996   -0.17783248
     atom   27 type  2   force =     0.00008320   -0.00045265   -0.02017452
     atom   28 type  2   force =     0.00002578   -0.00169099    0.05725083
     atom   29 type  2   force =    -0.01115895   -0.00114862    0.00694961
     atom   30 type  2   force =     0.01241048   -0.00080542    0.00581160
     atom   31 type  1   force =    -0.00038972    0.00467582   -0.01444121
     atom   32 type  1   force =     0.00037372   -0.00363237    0.00246136
     atom   33 type  2   force =    -0.00000541    0.00057955    0.00039472
     atom   34 type  2   force =    -0.00117799   -0.00058572   -0.00104848
     atom   35 type  2   force =     0.00040528    0.00025164    0.00021394
     atom   36 type  2   force =     0.00012571    0.00032404    0.00018222
     atom   37 type  1   force =    -0.00053232    0.00131150    0.00011282
     atom   38 type  1   force =     0.00087202    0.00007050   -0.00084561
     atom   39 type  2   force =     0.00012623    0.00046208    0.00027061
     atom   40 type  2   force =     0.00017986    0.00020479   -0.00055109
     atom   41 type  2   force =     0.00021649    0.00009450   -0.00071237
     atom   42 type  2   force =    -0.00006709    0.00006303   -0.00075571
     atom   43 type  1   force =    -0.00001163    0.00105470    0.00015481
     atom   44 type  1   force =    -0.00014780    0.00022823   -0.00059129
     atom   45 type  2   force =     0.00004583   -0.00003870    0.10379713
     atom   46 type  2   force =    -0.07060505   -0.00007199   -0.02705318
     atom   47 type  2   force =     0.07047815    0.00034427   -0.02708383
     atom   48 type  3   force =    -0.00063719    0.00019845   -0.00116749
     atom   49 type  4   force =    -0.00017595   -0.00284213   -0.00375759
     atom   50 type  5   force =    -0.00138602    0.00383134    0.00430683
     atom   51 type  5   force =    -0.00002227    0.00011513   -0.00008422
     atom   52 type  5   force =     0.00000300   -0.00023177   -0.00078898

     Total force =     0.365967     Total SCF correction =     0.000502
  @ DRIVER MODE: Message from server: STATUS
  @ DRIVER MODE: Message from server: GETFORCE
  @ DRIVER MODE: Returning v,forces,stress,ensemble

     Writing output data file ./calc.save/
  @ DRIVER MODE: Message from server: EXIT
  @ DRIVE MODE: Exiting

     General routines

     Parallel routines

   This run was terminated on:  15:19:10  24Aug2021

   JOB DONE.