     Program PWSCF v.6.7GPU starts on 15Sep2021 at 11:27: 2

     R & G space division:  proc/nbgrp/npool/nimage =      10
     Reading input from /storage/home/hcoda1/3/ntian30/research/carbon/CxH_vib/CH_calc/ads_slab/CHOH_d/out_0007/pw.inp
Warning: card &CELL ignored
Warning: card   CELL_DYNAMICS='IPI', ignored
Warning: card / ignored

     Current dimensions of program PWSCF are:
     Max number of different atomic species (ntypx) = 10
     Max number of k-points (npk) =  40000
     Max angular momentum in pseudopotentials (lmaxx) =  3
     Presently no symmetry can be used with electric field

     Message from routine cell_base_init:
     DEPRECATED: use true lattice parameter, not A to a.u. conversion factor

     IMPORTANT: XC functional enforced from input :
     Exchange-correlation= BEEF-VDW
                           (   1   4  43  14   2   0   0)
     Any further DFT definition will be discarded
     Please, verify this is what you really want

  @ DRIVER MODE: Connecting to
 qe_1139763_2850204.sched-torque.pace.gatech.edu9v_lwtf__scratch
  using UNIX socket
  @ DRIVER MODE: Message from server: STATUS
  @ DRIVER MODE: Message from server: INIT
  @ DRIVER MODE: Receiving replica           0          -1
  @ DRIVER MODE: Receiving encoded integer          25
  @ DRIVER MODE:  SCF:  T  FORCE:  T  STRESS:  F  VC:  F  ENSEMBLE:  F
  @ DRIVER MODE:  SCF:  T  FORCE:  T  STRESS:  F  VC:  F  ENSEMBLE:  F

     Using Slab Decomposition

     bravais-lattice index     =            0
     lattice parameter (alat)  =       1.8897  a.u.
     unit-cell volume          =    6658.9804 (a.u.)^3
     number of atoms/cell      =           51
     number of atomic types    =            4
     number of electrons       =       390.00
     number of Kohn-Sham states=          205
     kinetic-energy cutoff     =      29.3995  Ry
     charge density cutoff     =     293.9946  Ry
     scf convergence threshold =      7.3E-08
     mixing beta               =       0.0500
     number of iterations used =            8  plain     mixing
     Exchange-correlation= BEEF-VDW
                           (   1   4  43  14   2   0   0)

     celldm(1)=   1.889726  celldm(2)=   0.000000  celldm(3)=   0.000000
     celldm(4)=   0.000000  celldm(5)=   0.000000  celldm(6)=   0.000000

     crystal axes: (cart. coord. in units of alat)
               a(1) = (   6.579727   0.000000   0.000000 )
               a(2) = (  -0.000775   5.961596   0.000000 )
               a(3) = (   0.000000   0.000000  25.155947 )

     reciprocal axes: (cart. coord. in units 2 pi/alat)
               b(1) = (  0.151982  0.000020  0.000000 )
               b(2) = (  0.000000  0.167740  0.000000 )
               b(3) = (  0.000000  0.000000  0.039752 )

     PseudoPot. # 1 for Ti read from file:
     /storage/coda1/p-amedford6/0/shared/rich_project_chbe-medford/medford-share/data/pseudos_module/espresso/nninc/pbe/van/Ti.UPF
     MD5 check sum: 8e4df49b7f0d34bbd5052bf3f5ea0213
     Pseudo is Ultrasoft, Zval = 12.0
     Generated by new atomic code, or converted to UPF format
     Using radial grid of  851 points,  6 beta functions with:
                l(1) =   0
                l(2) =   0
                l(3) =   1
                l(4) =   1
                l(5) =   2
                l(6) =   2
     Q(r) pseudized with  8 coefficients,  rinner =    1.000   1.000   1.000
                                                       1.000   1.000

     PseudoPot. # 2 for O  read from file:
     /storage/coda1/p-amedford6/0/shared/rich_project_chbe-medford/medford-share/data/pseudos_module/espresso/nninc/pbe/van/O.UPF
     MD5 check sum: 78c19812648e8988a0fe644b0f25305e
     Pseudo is Ultrasoft, Zval =  6.0
     Generated by new atomic code, or converted to UPF format
     Using radial grid of  737 points,  4 beta functions with:
                l(1) =   0
                l(2) =   0
                l(3) =   1
                l(4) =   1
     Q(r) pseudized with  8 coefficients,  rinner =    0.800   0.800   0.800

     PseudoPot. # 3 for C  read from file:
     /storage/coda1/p-amedford6/0/shared/rich_project_chbe-medford/medford-share/data/pseudos_module/espresso/nninc/pbe/van/C.UPF
     MD5 check sum: 1a69bf6b8db32088f5b2163dbdb77a27
     Pseudo is Ultrasoft, Zval =  4.0
     Generated by new atomic code, or converted to UPF format
     Using radial grid of  721 points,  4 beta functions with:
                l(1) =   0
                l(2) =   0
                l(3) =   1
                l(4) =   1
     Q(r) pseudized with  8 coefficients,  rinner =    0.800   0.800   0.800

     PseudoPot. # 4 for H  read from file:
     /storage/coda1/p-amedford6/0/shared/rich_project_chbe-medford/medford-share/data/pseudos_module/espresso/nninc/pbe/van/H.UPF
     MD5 check sum: b5ee9d7bfd3a09ee7748110bda690ff7
     Pseudo is Ultrasoft, Zval =  1.0
     Generated by new atomic code, or converted to UPF format
     Using radial grid of  615 points,  1 beta functions with:
                l(1) =   0
     Q(r) pseudized with  8 coefficients,  rinner =    0.800

     atomic species   valence    mass     pseudopotential
        Ti1           12.00    47.86700     Ti( 1.00)
        O1             6.00    15.99900     O ( 1.00)
        C1             4.00    12.01100     C ( 1.00)
        H1             1.00     1.00800     H ( 1.00)

     No symmetry found

   Cartesian axes

     site n.     atom                  positions (alat units)
         1           Ti1 tau(   1) = (   0.0004258   2.9801865   6.0000000  )
         2           Ti1 tau(   2) = (   3.2906075   1.4906267   6.0002472  )
         3           O1  tau(   3) = (   0.0006271   0.0005054   7.9858123  )
         4           O1  tau(   4) = (   3.2906025   0.0005020   7.3038282  )
         5           O1  tau(   5) = (   4.5942328   1.4918067   9.2879030  )
         6           O1  tau(   6) = (   1.9868534   1.4903216   9.2879459  )
         7           Ti1 tau(   7) = (   3.2907309   2.9776765   9.1658812  )
         8           Ti1 tau(   8) = (   0.0000975   1.4630848   9.2758602  )
         9           O1  tau(   9) = (   3.2992614   5.9483050  11.3479409  )
        10           O1  tau(  10) = (   0.0007063   5.9515697  10.5933799  )
        11           O1  tau(  11) = (   1.2886368   1.4758772  12.6169360  )
        12           O1  tau(  12) = (   5.2821765   1.4725572  12.6321404  )
        13           Ti1 tau(  13) = (   0.0439011   2.9969894  12.8193871  )
        14           Ti1 tau(  14) = (   3.3815342   1.4778063  12.4828959  )
        15           O1  tau(  15) = (   0.0352585   5.9375929  14.6168471  )
        16           O1  tau(  16) = (   3.2809659   0.0029960  13.9351646  )
        17           O1  tau(  17) = (   4.5639172   1.5021510  16.0678584  )
        18           O1  tau(  18) = (   2.0588050   1.5241738  16.1323679  )
        19           Ti1 tau(  19) = (   3.3289217   2.9983165  15.7225387  )
        20           Ti1 tau(  20) = (   0.0567091   1.5532474  16.1006893  )
        21           O1  tau(  21) = (   3.2904802   0.0005063   4.7018136  )
        22           O1  tau(  22) = (   0.0083150   5.8936170  17.2391820  )
        23           O1  tau(  23) = (   1.3043587   1.4918075   6.0039043  )
        24           O1  tau(  24) = (   5.2767064   1.4903225   6.0039473  )
        25           Ti1 tau(  25) = (   0.0000382   5.9609847   6.0000000  )
        26           Ti1 tau(  26) = (   3.2902200   4.4714249   6.0002472  )
        27           O1  tau(  27) = (   0.0002396   2.9813036   7.9858123  )
        28           O1  tau(  28) = (   3.2902150   2.9813002   7.3038282  )
        29           O1  tau(  29) = (   4.5938453   4.4726049   9.2879030  )
        30           O1  tau(  30) = (   1.9864658   4.4711199   9.2879459  )
        31           Ti1 tau(  31) = (   3.2906741   5.9584693   9.1623309  )
        32           Ti1 tau(  32) = (   0.0020182   4.4105903   9.4029630  )
        33           O1  tau(  33) = (   3.2963946   2.9714859  11.3431964  )
        34           O1  tau(  34) = (  -0.0003580   2.9688738  10.5596877  )
        35           O1  tau(  35) = (   1.2880207   4.4560207  12.6239755  )
        36           O1  tau(  36) = (   5.2744328   4.4398676  12.6388197  )
        37           Ti1 tau(  37) = (   0.0843456   0.0234473  12.6131129  )
        38           Ti1 tau(  38) = (   3.3736736   4.4543396  12.4891683  )
        39           O1  tau(  39) = (   0.0394168   2.9432389  14.6713939  )
        40           O1  tau(  40) = (   3.2833495   2.9670780  13.9230463  )
        41           O1  tau(  41) = (   4.5592427   4.4833083  16.0293399  )
        42           O1  tau(  42) = (   2.0780377   4.4655606  16.1075158  )
        43           Ti1 tau(  43) = (   3.3267552   0.0098278  15.7307941  )
        44           Ti1 tau(  44) = (   0.0353388   4.6693566  15.9825682  )
        45           O1  tau(  45) = (   3.2900926   2.9813045   4.7018136  )
        46           C1  tau(  46) = (   6.5364748   2.8130622  17.7364117  )
        47           O1  tau(  47) = (   1.3039711   4.4726057   6.0039043  )
        48           O1  tau(  48) = (   5.2763189   4.4711207   6.0039473  )
        49           H1  tau(  49) = (   0.8522447   3.0922372  18.2894884  )
        50           O1  tau(  50) = (   5.4077661   2.9637287  18.5068037  )
        51           H1  tau(  51) = (   5.6109787   3.4346953  19.3318178  )

     number of k points=    10  Fermi-Dirac smearing, width (Ry)=  0.0073
                       cart. coord. in units 2pi/alat
        k(    1) = (   0.0000000   0.0000000   0.0000000), wk =   0.1250000
        k(    2) = (   0.0000000   0.0419351   0.0000000), wk =   0.2500000
        k(    3) = (   0.0000000  -0.0838702   0.0000000), wk =   0.1250000
        k(    4) = (   0.0379955   0.0000049   0.0000000), wk =   0.2500000
        k(    5) = (   0.0379955   0.0419400   0.0000000), wk =   0.2500000
        k(    6) = (   0.0379955  -0.0838652   0.0000000), wk =   0.2500000
        k(    7) = (   0.0379955  -0.0419301   0.0000000), wk =   0.2500000
        k(    8) = (  -0.0759910  -0.0000099   0.0000000), wk =   0.1250000
        k(    9) = (  -0.0759910   0.0419252   0.0000000), wk =   0.2500000
        k(   10) = (  -0.0759910  -0.0838800   0.0000000), wk =   0.1250000

     Initial potential from superposition of free atoms

     starting charge  373.99919, renormalised to  390.00000

     negative rho (up, down):  1.919E-02 0.000E+00

     %%%%%%%%%%%%%%%%%%%%%%%%%%%%%%%%%%%%%%%%%%%%%%%%%%%%%%%%%%%%%%%%%%%%%%%%
     %                                                                      %
     % You are using vdW-DF, which was implemented by the Thonhauser group. %
     % Please cite the following two papers that made this development      %
     % possible and the two reviews that describe the various versions:     %
     %                                                                      %
     %   T. Thonhauser et al., PRL 115, 136402 (2015).                      %
     %   T. Thonhauser et al., PRB 76, 125112 (2007).                       %
     %   K. Berland et al., Rep. Prog. Phys. 78, 066501 (2015).             %
     %   D.C. Langreth et al., J. Phys.: Condens. Matter 21, 084203 (2009). %
     %                                                                      %
     %                                                                      %
     % If you are calculating the stress with vdW-DF, please also cite:     %
     %                                                                      %
     %   R. Sabatini et al., J. Phys.: Condens. Matter 24, 424209 (2012).   %
     %                                                                      %
     %%%%%%%%%%%%%%%%%%%%%%%%%%%%%%%%%%%%%%%%%%%%%%%%%%%%%%%%%%%%%%%%%%%%%%%%

     Adding external electric field

     Computed dipole along edir(3) :
        Dipole               -4.8494 Ry au,        -12.3260 Debye
        Dipole field         -0.0092 Ry au,

        Potential amp.        0.8483 Ry
        Total length         46.3494 bohr

     Starting wfcs are  294 atomic wfcs
  @ DRIVER MODE: Message from server: STATUS
  @ DRIVER MODE: Message from server: POSDATA
  @ DRIVER MODE: Reading and sharing cell
  @ DRIVER MODE: Reading and sharing positions
  @ DRIVER MODE: Received positions

     Self-consistent Calculation

     iteration #  1     ecut=    29.40 Ry     beta= 0.05
     Davidson diagonalization with overlap
     c_bands:  4 eigenvalues not converged
     c_bands:  3 eigenvalues not converged
     c_bands:  3 eigenvalues not converged
     c_bands:  2 eigenvalues not converged
     c_bands:  2 eigenvalues not converged
     c_bands:  3 eigenvalues not converged
     c_bands:  1 eigenvalues not converged
     ethr =  1.00E-05,  avg # of iterations = 19.3

[...]

     total energy              =   -2871.33198306 Ry
     estimated scf accuracy    <     672.78016062 Ry

     iteration #  2     ecut=    29.40 Ry     beta= 0.05
     Davidson diagonalization with overlap
     ethr =  1.00E-02,  avg # of iterations = 15.7

[...]

     iteration # 33     ecut=    29.40 Ry     beta= 0.05
     Davidson diagonalization with overlap
     c_bands:  2 eigenvalues not converged
     ethr =  5.21E-07,  avg # of iterations = 14.4

[...]

     total energy              =   -2930.03897149 Ry
     estimated scf accuracy    <       0.00000010 Ry

     iteration # 54     ecut=    29.40 Ry     beta= 0.05
     Davidson diagonalization with overlap
     ethr =  2.52E-11,  avg # of iterations =  6.7

     negative rho (up, down):  1.868E-02 0.000E+00

     Adding external electric field

     Computed dipole along edir(3) :
        Dipole                0.8331 Ry au,          2.1175 Debye
        Dipole field          0.0016 Ry au,

        Potential amp.       -0.1457 Ry
        Total length         46.3494 bohr

     End of self-consistent calculation

          k = 0.0000 0.0000 0.0000 ( 18029 PWs)   bands (ev):

   -56.0426 -56.0069 -55.9847 -55.9485 -55.9056 -55.8363 -55.8360 -55.7464
   -55.7302 -55.7041 -55.6960 -55.5669 -55.1265 -55.0487 -54.9798 -54.9458
   -32.5376 -32.4933 -32.3472 -32.3211 -32.3059 -32.3030 -32.2899 -32.2306
   -32.2121 -32.2014 -32.2006 -32.1848 -32.1668 -32.1567 -32.1346 -32.1291
   -32.1203 -32.1183 -32.1171 -32.0486 -32.0222 -32.0147 -31.9941 -31.9766
   -31.9630 -31.9563 -31.9545 -31.9480 -31.9179 -31.9141 -31.8727 -31.8674
   -31.8253 -31.7805 -31.7636 -31.7548 -31.6142 -31.4980 -31.4128 -31.3904
   -31.3872 -31.2965 -31.2736 -31.2039 -31.1819 -31.1178 -31.0813 -31.0068
   -19.4323 -16.6930 -16.3830 -16.2266 -16.0775 -16.0725 -15.9688 -15.6993
   -15.6384 -15.5248 -15.5169 -15.5091 -15.4804 -15.4727 -15.4537 -15.4350
   -15.4103 -15.3966 -15.3889 -15.3490 -15.3008 -15.2232 -15.2013 -15.1477
   -15.1058 -15.1022 -15.0661 -14.9192 -14.9049 -14.5947 -13.4803 -13.3636
    -8.8155  -5.9149  -4.0609  -3.9033  -3.8730  -3.8565  -3.7364  -3.5040
    -3.4409  -3.1554  -3.1089  -3.1026  -3.0965  -3.0158  -2.9449  -2.8659
    -2.7996  -2.7545  -2.7260  -2.7202  -2.7142  -2.7108  -2.6715  -2.6418
    -2.5665  -2.5173  -2.4374  -2.3894  -2.3690  -2.3414  -2.3395  -2.3013
    -2.2173  -2.2120  -2.1617  -2.1538  -2.0869  -2.0708  -2.0364  -1.9744
    -1.8053  -1.7693  -1.7320  -1.6888  -1.6286  -1.4126  -1.3908  -1.3821
    -1.3546  -1.3236  -1.2711  -1.2568  -1.1292  -1.0942  -1.0435  -1.0169
    -0.9468  -0.9232  -0.8318  -0.8099  -0.7556  -0.7409  -0.6983  -0.6831
    -0.6346  -0.4483  -0.3981  -0.3560  -0.3228  -0.2829  -0.2314  -0.2286
    -0.1688  -0.1226  -0.1127  -0.1040  -0.0103   0.0178   0.0323   0.0506
     0.0576   0.1566   0.1683   0.2381   0.2985   0.4720   0.4762   0.6081
     0.6423   0.6723   0.7071   0.8341   0.9621   1.0437   1.1771   1.2260
     1.6330   1.7001   2.8959   3.1816   3.2634   3.3220   3.3423   3.4197
     3.5724   3.6287   3.6658   3.6889   3.7257

[...]

          k = 0.0380-0.0419 0.0000 ( 17876 PWs)   bands (ev):

[...]

          k =-0.0760-0.0000 0.0000 ( 17886 PWs)   bands (ev):

[...]

          k =-0.0760-0.0839 0.0000 ( 17948 PWs)   bands (ev):

   -56.0305 -56.0190 -55.9684 -55.9647 -55.9010 -55.8404 -55.8331 -55.7495
   -55.7142 -55.7116 -55.7021 -55.5690 -55.1229 -55.0522 -54.9632 -54.9623
   -32.3418 -32.3392 -32.3161 -32.3111 -32.3042 -32.2957 -32.2761 -32.2438
   -32.1956 -32.1922 -32.1891 -32.1673 -32.1635 -32.1588 -32.1580 -32.1274
   -32.1175 -32.1004 -32.0683 -32.0504 -32.0448 -32.0269 -32.0265 -32.0198
   -32.0062 -31.9749 -31.9654 -31.9616 -31.9606 -31.9221 -31.9115 -31.9086
   -31.8879 -31.8788 -31.7936 -31.7699 -31.5341 -31.4964 -31.4091 -31.3926
   -31.2868 -31.2858 -31.2690 -31.2005 -31.1999 -31.1613 -31.1605 -31.0850
   -19.4317 -16.1370 -16.1222 -15.8727 -15.8652 -15.7868 -15.7507 -15.6787
   -15.6774 -15.6611 -15.6425 -15.6129 -15.5757 -15.5343 -15.5148 -15.5002
   -15.4748 -15.4691 -15.4496 -15.4055 -15.3953 -15.2625 -15.2527 -15.2471
   -15.2430 -15.2093 -15.1597 -15.1269 -15.0777 -14.6942 -13.4659 -13.4644
    -8.8221  -5.9230  -3.4305  -3.4156  -3.0984  -3.0932  -3.0252  -2.9898
    -2.9112  -2.8919  -2.8330  -2.8166  -2.7934  -2.7922  -2.7846  -2.7606
    -2.7040  -2.6890  -2.6855  -2.6494  -2.6294  -2.5955  -2.5669  -2.5572
    -2.5364  -2.5343  -2.4981  -2.4812  -2.4725  -2.4597  -2.4464  -2.4377
    -2.3015  -2.1975  -2.1724  -2.1256  -2.0500  -2.0450  -2.0310  -2.0065
    -1.9721  -1.9585  -1.9248  -1.8455  -1.6882  -1.6744  -1.6513  -1.6144
    -1.5091  -1.4664  -1.3739  -1.3015  -1.2519  -1.2189  -1.1731  -1.1590
    -1.1448  -1.1122  -1.0655  -0.9934  -0.9569  -0.9396  -0.9283  -0.9041
    -0.8160  -0.7883  -0.7674  -0.7351  -0.7059  -0.6056  -0.5746  -0.5402
    -0.5108  -0.4755  -0.4197  -0.3936  -0.2923  -0.2910   0.0482   0.0665
     0.0813   0.1363   0.2054   0.3064   0.3377   0.3837   0.4797   0.5143
     0.5689   0.6013   0.6212   0.6744   0.6876   0.7076   1.4115   1.4121
     1.4931   1.5003   3.0921   3.4335   3.4616   3.4888   3.5320   3.6579
     3.6725   3.6792   3.6975   3.8925   3.9185

     the Fermi energy is     3.1170 ev

!    total energy              =   -2930.03903884 Ry
     estimated scf accuracy    <       0.00000003 Ry
     smearing contrib. (-TS)   =      -0.02064885 Ry
     internal energy E=F+TS    =   -2930.01838999 Ry

     The total energy is F=E-TS. E is the sum of the following terms:
     one-electron contribution =  -24523.71679075 Ry
     hartree contribution      =   12346.88896114 Ry
     xc contribution           =    -481.12778896 Ry
     ewald contribution        =    9727.93591888 Ry
     electric field correction =       0.00130970 Ry

     convergence has been achieved in  54 iterations

     Forces acting on atoms (cartesian axes, Ry/au):

     atom    1 type  1   force =    -0.00006358    0.00194578    0.12137883
     atom    2 type  1   force =    -0.00014780    0.00020887   -0.17635137
     atom    3 type  2   force =    -0.00008671    0.00551245   -0.04188637
     atom    4 type  2   force =     0.00009490    0.00023684    0.04678159
     atom    5 type  2   force =    -0.02225050   -0.00182864    0.00393931
     atom    6 type  2   force =     0.02249607   -0.00138697    0.00399235
     atom    7 type  1   force =    -0.00063660    0.00238155   -0.00663868
     atom    8 type  1   force =     0.00068076   -0.00172416    0.00448975
     atom    9 type  2   force =     0.00005591    0.00035227   -0.00020499
     atom   10 type  2   force =     0.00006085    0.00101787    0.00005480
     atom   11 type  2   force =     0.00026931    0.00130913   -0.00033588
     atom   12 type  2   force =     0.00022825    0.00130805   -0.00064864
     atom   13 type  1   force =     0.00011842   -0.00013588   -0.00038736
     atom   14 type  1   force =     0.00002927    0.00011572    0.00064610
     atom   15 type  2   force =     0.00003950   -0.00064456   -0.00015209
     atom   16 type  2   force =     0.00022276   -0.00012126    0.00193693
     atom   17 type  2   force =    -0.00093799    0.00037970   -0.00026997
     atom   18 type  2   force =     0.00049405    0.00020829   -0.00018382
     atom   19 type  1   force =    -0.00013240   -0.00101979   -0.00052037
     atom   20 type  1   force =    -0.00046320   -0.00046670   -0.00040024
     atom   21 type  2   force =     0.00002645    0.00004814    0.10351694
     atom   22 type  2   force =    -0.00025754    0.00068830   -0.00020251
     atom   23 type  2   force =    -0.06997079    0.00048381   -0.03150816
     atom   24 type  2   force =     0.06988164    0.00093256   -0.03151770
     atom   25 type  1   force =     0.00026871   -0.00189612    0.12786255
     atom   26 type  1   force =    -0.00018359   -0.00059118   -0.17575357
     atom   27 type  2   force =    -0.00004375   -0.00352181   -0.03804202
     atom   28 type  2   force =     0.00004936   -0.00033250    0.04765530
     atom   29 type  2   force =    -0.02394212   -0.00045888    0.00449657
     atom   30 type  2   force =     0.02412882    0.00012197    0.00467729
     atom   31 type  1   force =    -0.00083695   -0.00335180   -0.00587018
     atom   32 type  1   force =    -0.00001554   -0.00004937   -0.00082061
     atom   33 type  2   force =     0.00006315   -0.00015931    0.00032965
     atom   34 type  2   force =     0.00005749   -0.00062698   -0.00012180
     atom   35 type  2   force =    -0.00018228   -0.00021198   -0.00018164
     atom   36 type  2   force =     0.00070041    0.00019258   -0.00065421
     atom   37 type  1   force =     0.00071234   -0.00039771    0.00120496
     atom   38 type  1   force =    -0.00005997   -0.00031731    0.00037270
     atom   39 type  2   force =     0.00007337   -0.00033095   -0.00055730
     atom   40 type  2   force =     0.00018953    0.00051073    0.00153824
     atom   41 type  2   force =    -0.00023061   -0.00023429   -0.00021331
     atom   42 type  2   force =    -0.00018869   -0.00025424   -0.00002687
     atom   43 type  1   force =    -0.00057919    0.00021925   -0.00090153
     atom   44 type  1   force =    -0.00053496    0.00084627   -0.00070542
     atom   45 type  2   force =     0.00005286    0.00011522    0.10352143
     atom   46 type  3   force =    -0.00694916   -0.00132793   -0.00231569
     atom   47 type  2   force =    -0.07047729   -0.00082895   -0.03147494
     atom   48 type  2   force =     0.07041146   -0.00036286   -0.03153764
     atom   49 type  4   force =     0.00847656    0.00242215    0.00313953
     atom   50 type  2   force =    -0.00106187    0.00062554   -0.00009465
     atom   51 type  4   force =     0.00035093    0.00039910   -0.00105528

     Total force =     0.385252     Total SCF correction =     0.000558
  @ DRIVER MODE: Message from server: STATUS
  @ DRIVER MODE: Message from server: GETFORCE
  @ DRIVER MODE: Returning v,forces,stress,ensemble

     Writing output data file ./calc.save/
  @ DRIVER MODE: Message from server: EXIT
  @ DRIVE MODE: Exiting

     General routines

     Parallel routines

   This run was terminated on:  11:40:49  15Sep2021

   JOB DONE.