     Program PWSCF v.6.7GPU starts on  9Sep2021 at  2:35: 4

     R & G space division:  proc/nbgrp/npool/nimage =      10
     Reading input from /storage/home/hcoda1/3/ntian30/research/carbon/CxH_vib/CH_calc/ads_slab/CHO_a/out_0017/pw.inp
Warning: card &CELL ignored
Warning: card   CELL_DYNAMICS='IPI', ignored
Warning: card / ignored

     Current dimensions of program PWSCF are:
     Max number of different atomic species (ntypx) = 10
     Max number of k-points (npk) =  40000
     Max angular momentum in pseudopotentials (lmaxx) =  3
     Presently no symmetry can be used with electric field

     Message from routine cell_base_init:
     DEPRECATED: use true lattice parameter, not A to a.u. conversion factor

     IMPORTANT: XC functional enforced from input :
     Exchange-correlation= BEEF-VDW
                           (   1   4  43  14   2   0   0)
     Any further DFT definition will be discarded
     Please, verify this is what you really want

  @ DRIVER MODE: Connecting to
 qe_1139763_2767379.sched-torque.pace.gatech.edu3hdu_oop_scratch
  using UNIX socket
  @ DRIVER MODE: Message from server: STATUS
  @ DRIVER MODE: Message from server: INIT
  @ DRIVER MODE: Receiving replica           0          -1
  @ DRIVER MODE: Receiving encoded integer          25
  @ DRIVER MODE:  SCF:  T  FORCE:  T  STRESS:  F  VC:  F  ENSEMBLE:  F
  @ DRIVER MODE:  SCF:  T  FORCE:  T  STRESS:  F  VC:  F  ENSEMBLE:  F

     Using Slab Decomposition

     bravais-lattice index     =            0
     lattice parameter (alat)  =       1.8897  a.u.
     unit-cell volume          =    6658.9804 (a.u.)^3
     number of atoms/cell      =           50
     number of atomic types    =            4
     number of electrons       =       389.00
     number of Kohn-Sham states=          204
     kinetic-energy cutoff     =      29.3995  Ry
     charge density cutoff     =     293.9946  Ry
     scf convergence threshold =      7.3E-08
     mixing beta               =       0.0500
     number of iterations used =            8  plain     mixing
     Exchange-correlation= BEEF-VDW
                           (   1   4  43  14   2   0   0)

     celldm(1)=   1.889726  celldm(2)=   0.000000  celldm(3)=   0.000000
     celldm(4)=   0.000000  celldm(5)=   0.000000  celldm(6)=   0.000000

     crystal axes: (cart. coord. in units of alat)
               a(1) = (   6.579727   0.000000   0.000000 )
               a(2) = (  -0.000775   5.961596   0.000000 )
               a(3) = (   0.000000   0.000000  25.155947 )

     reciprocal axes: (cart. coord. in units 2 pi/alat)
               b(1) = (  0.151982  0.000020  0.000000 )
               b(2) = (  0.000000  0.167740  0.000000 )
               b(3) = (  0.000000  0.000000  0.039752 )

     PseudoPot. # 1 for O  read from file:
     /storage/coda1/p-amedford6/0/shared/rich_project_chbe-medford/medford-share/data/pseudos_module/espresso/nninc/pbe/van/O.UPF
     MD5 check sum: 78c19812648e8988a0fe644b0f25305e
     Pseudo is Ultrasoft, Zval =  6.0
     Generated by new atomic code, or converted to UPF format
     Using radial grid of  737 points,  4 beta functions with:
                l(1) =   0
                l(2) =   0
                l(3) =   1
                l(4) =   1
     Q(r) pseudized with  8 coefficients,  rinner =    0.800   0.800   0.800

     PseudoPot. # 2 for Ti read from file:
     /storage/coda1/p-amedford6/0/shared/rich_project_chbe-medford/medford-share/data/pseudos_module/espresso/nninc/pbe/van/Ti.UPF
     MD5 check sum: 8e4df49b7f0d34bbd5052bf3f5ea0213
     Pseudo is Ultrasoft, Zval = 12.0
     Generated by new atomic code, or converted to UPF format
     Using radial grid of  851 points,  6 beta functions with:
                l(1) =   0
                l(2) =   0
                l(3) =   1
                l(4) =   1
                l(5) =   2
                l(6) =   2
     Q(r) pseudized with  8 coefficients,  rinner =    1.000   1.000   1.000
                                                       1.000   1.000

     PseudoPot. # 3 for C  read from file:
     /storage/coda1/p-amedford6/0/shared/rich_project_chbe-medford/medford-share/data/pseudos_module/espresso/nninc/pbe/van/C.UPF
     MD5 check sum: 1a69bf6b8db32088f5b2163dbdb77a27
     Pseudo is Ultrasoft, Zval =  4.0
     Generated by new atomic code, or converted to UPF format
     Using radial grid of  721 points,  4 beta functions with:
                l(1) =   0
                l(2) =   0
                l(3) =   1
                l(4) =   1
     Q(r) pseudized with  8 coefficients,  rinner =    0.800   0.800   0.800

     PseudoPot. # 4 for H  read from file:
     /storage/coda1/p-amedford6/0/shared/rich_project_chbe-medford/medford-share/data/pseudos_module/espresso/nninc/pbe/van/H.UPF
     MD5 check sum: b5ee9d7bfd3a09ee7748110bda690ff7
     Pseudo is Ultrasoft, Zval =  1.0
     Generated by new atomic code, or converted to UPF format
     Using radial grid of  615 points,  1 beta functions with:
                l(1) =   0
     Q(r) pseudized with  8 coefficients,  rinner =    0.800

     atomic species   valence    mass     pseudopotential
        O1             6.00    15.99900     O ( 1.00)
        Ti1           12.00    47.86700     Ti( 1.00)
        C1             4.00    12.01100     C ( 1.00)
        H1             1.00     1.00800     H ( 1.00)

     No symmetry found

   Cartesian axes

     site n.     atom                  positions (alat units)
         1           O1  tau(   1) = (   3.2904802   0.0005063   4.7018136  )
         2           O1  tau(   2) = (   3.2900926   2.9813045   4.7018136  )
         3           Ti1 tau(   3) = (   0.0004258   2.9801865   6.0000000  )
         4           Ti1 tau(   4) = (   0.0000382   5.9609847   6.0000000  )
         5           Ti1 tau(   5) = (   3.2906075   1.4906267   6.0002472  )
         6           Ti1 tau(   6) = (   3.2902200   4.4714249   6.0002472  )
         7           O1  tau(   7) = (   1.3043587   1.4918075   6.0039043  )
         8           O1  tau(   8) = (   1.3039711   4.4726057   6.0039043  )
         9           O1  tau(   9) = (   5.2767064   1.4903225   6.0039473  )
        10           O1  tau(  10) = (   5.2763189   4.4711207   6.0039473  )
        11           O1  tau(  11) = (   3.2906025   0.0005020   7.3038282  )
        12           O1  tau(  12) = (   3.2902150   2.9813002   7.3038282  )
        13           O1  tau(  13) = (   0.0006271   0.0005054   7.9858123  )
        14           O1  tau(  14) = (   0.0002396   2.9813036   7.9858123  )
        15           Ti1 tau(  15) = (   3.2969808   0.0564913   9.1534998  )
        16           Ti1 tau(  16) = (   3.3141337   3.0327768   9.1571505  )
        17           Ti1 tau(  17) = (   0.0233175   4.5369896   9.2585411  )
        18           Ti1 tau(  18) = (   0.0198836   1.6172415   9.3624336  )
        19           O1  tau(  19) = (   4.5942328   1.4918067   9.2879030  )
        20           O1  tau(  20) = (   4.5938453   4.4726049   9.2879030  )
        21           O1  tau(  21) = (   1.9868534   1.4903216   9.2879459  )
        22           O1  tau(  22) = (   1.9864658   4.4711199   9.2879459  )
        23           O1  tau(  23) = (   0.0063158   0.0123177  10.6034754  )
        24           O1  tau(  24) = (   0.0044132   2.9941235  10.5786081  )
        25           O1  tau(  25) = (   3.2970120   2.9984392  11.3520126  )
        26           O1  tau(  26) = (   3.2962737   0.0176366  11.3543537  )
        27           Ti1 tau(  27) = (   0.0302790   0.0280999  12.4961607  )
        28           Ti1 tau(  28) = (   3.3312859   4.4933669  12.4927350  )
        29           Ti1 tau(  29) = (   3.3314798   1.5140231  12.4973429  )
        30           Ti1 tau(  30) = (   0.0296678   3.0111287  12.7911082  )
        31           O1  tau(  31) = (   1.2935131   4.4896988  12.6418387  )
        32           O1  tau(  32) = (   1.2923886   1.5080263  12.6414434  )
        33           O1  tau(  33) = (   5.2919490   4.4892252  12.6414299  )
        34           O1  tau(  34) = (   5.2935099   1.5067266  12.6404615  )
        35           O1  tau(  35) = (   3.2972132   2.9952276  13.9333167  )
        36           O1  tau(  36) = (   3.2969292   0.0217920  13.9560627  )
        37           O1  tau(  37) = (   0.0109375   0.0110981  14.6876342  )
        38           O1  tau(  38) = (   0.0109565   3.0062585  14.7134293  )
        39           Ti1 tau(  39) = (   3.3068652   2.9980133  15.7272348  )
        40           Ti1 tau(  40) = (   3.3088638   0.0192678  15.7517854  )
        41           Ti1 tau(  41) = (   0.0288418   4.5446802  15.9499200  )
        42           Ti1 tau(  42) = (   0.0223207   1.3431340  16.0223868  )
        43           O1  tau(  43) = (   4.5495857   4.4747881  16.0802101  )
        44           O1  tau(  44) = (   4.5538725   1.5135375  16.1032510  )
        45           O1  tau(  45) = (   2.0418931   1.5171625  16.1093315  )
        46           O1  tau(  46) = (   2.0408760   4.4691196  16.0910022  )
        47           O1  tau(  47) = (   0.0096378   0.0051088  17.2033978  )
        48           O1  tau(  48) = (   6.5496506   3.0476207  17.4767105  )
        49           C1  tau(  49) = (   6.4067813   3.0303407  18.7370298  )
        50           H1  tau(  50) = (   6.4030715   1.9712591  19.0929599  )

     number of k points=    10  Fermi-Dirac smearing, width (Ry)=  0.0073
                       cart. coord. in units 2pi/alat
        k(    1) = (   0.0000000   0.0000000   0.0000000), wk =   0.1250000
        k(    2) = (   0.0000000   0.0419351   0.0000000), wk =   0.2500000
        k(    3) = (   0.0000000  -0.0838702   0.0000000), wk =   0.1250000
        k(    4) = (   0.0379955   0.0000049   0.0000000), wk =   0.2500000
        k(    5) = (   0.0379955   0.0419400   0.0000000), wk =   0.2500000
        k(    6) = (   0.0379955  -0.0838652   0.0000000), wk =   0.2500000
        k(    7) = (   0.0379955  -0.0419301   0.0000000), wk =   0.2500000
        k(    8) = (  -0.0759910  -0.0000099   0.0000000), wk =   0.1250000
        k(    9) = (  -0.0759910   0.0419252   0.0000000), wk =   0.2500000
        k(   10) = (  -0.0759910  -0.0838800   0.0000000), wk =   0.1250000

     Initial potential from superposition of free atoms

     starting charge  372.99920, renormalised to  389.00000

     negative rho (up, down):  1.926E-02 0.000E+00

     %%%%%%%%%%%%%%%%%%%%%%%%%%%%%%%%%%%%%%%%%%%%%%%%%%%%%%%%%%%%%%%%%%%%%%%%
     %                                                                      %
     % You are using vdW-DF, which was implemented by the Thonhauser group. %
     % Please cite the following two papers that made this development      %
     % possible and the two reviews that describe the various versions:     %
     %                                                                      %
     %   T. Thonhauser et al., PRL 115, 136402 (2015).                      %
     %   T. Thonhauser et al., PRB 76, 125112 (2007).                       %
     %   K. Berland et al., Rep. Prog. Phys. 78, 066501 (2015).             %
     %   D.C. Langreth et al., J. Phys.: Condens. Matter 21, 084203 (2009). %
     %                                                                      %
     %                                                                      %
     % If you are calculating the stress with vdW-DF, please also cite:     %
     %                                                                      %
     %   R. Sabatini et al., J. Phys.: Condens. Matter 24, 424209 (2012).   %
     %                                                                      %
     %%%%%%%%%%%%%%%%%%%%%%%%%%%%%%%%%%%%%%%%%%%%%%%%%%%%%%%%%%%%%%%%%%%%%%%%

     Adding external electric field

     Computed dipole along edir(3) :
        Dipole               -4.4805 Ry au,        -11.3882 Debye
        Dipole field         -0.0085 Ry au,

        Potential amp.        0.7838 Ry
        Total length         46.3494 bohr

     Starting wfcs are  293 atomic wfcs
  @ DRIVER MODE: Message from server: STATUS
  @ DRIVER MODE: Message from server: POSDATA
  @ DRIVER MODE: Reading and sharing cell
  @ DRIVER MODE: Reading and sharing positions
  @ DRIVER MODE: Received positions

     Self-consistent Calculation

     iteration #  1     ecut=    29.40 Ry     beta= 0.05
     Davidson diagonalization with overlap
     c_bands:  1 eigenvalues not converged
     c_bands:  5 eigenvalues not converged
     c_bands:  5 eigenvalues not converged
     c_bands:  3 eigenvalues not converged
     c_bands:  3 eigenvalues not converged
     c_bands:  1 eigenvalues not converged
     c_bands:  3 eigenvalues not converged
     c_bands:  3 eigenvalues not converged
     c_bands:  3 eigenvalues not converged
     c_bands:  1 eigenvalues not converged
     ethr =  1.00E-05,  avg # of iterations = 22.0

[...]

     total energy              =   -2877.70845052 Ry
     estimated scf accuracy    <     587.26112537 Ry

     iteration #  2     ecut=    29.40 Ry     beta= 0.05
     Davidson diagonalization with overlap
     ethr =  1.00E-02,  avg # of iterations = 14.1

[...]

     iteration # 55     ecut=    29.40 Ry     beta= 0.05
     Davidson diagonalization with overlap
     c_bands:  2 eigenvalues not converged
     c_bands:  1 eigenvalues not converged
     c_bands:  1 eigenvalues not converged
     ethr =  5.23E-11,  avg # of iterations = 18.0

[...]

     total energy              =   -2928.82036083 Ry
     estimated scf accuracy    <       0.00000009 Ry

     iteration # 57     ecut=    29.40 Ry     beta= 0.05
     Davidson diagonalization with overlap
     ethr =  2.25E-11,  avg # of iterations =  3.6

     negative rho (up, down):  1.793E-02 0.000E+00

     Adding external electric field

     Computed dipole along edir(3) :
        Dipole                0.1802 Ry au,          0.4579 Debye
        Dipole field          0.0003 Ry au,

        Potential amp.       -0.0315 Ry
        Total length         46.3494 bohr

     End of self-consistent calculation

          k = 0.0000 0.0000 0.0000 ( 18029 PWs)   bands (ev):

   -56.3069 -56.2939 -56.2703 -56.2577 -56.2055 -56.1936 -56.1608 -56.1402
   -56.1268 -56.0920 -56.0779 -56.0442 -55.9960 -55.9753 -55.3333 -55.2992
   -32.8605 -32.7790 -32.6835 -32.6684 -32.6478 -32.6158 -32.6028 -32.5845
   -32.5567 -32.5405 -32.5391 -32.5118 -32.5091 -32.4751 -32.4657 -32.4555
   -32.4398 -32.4286 -32.4276 -32.4008 -32.3801 -32.3724 -32.3702 -32.3604
   -32.3452 -32.3366 -32.3333 -32.3312 -32.3139 -32.3087 -32.3031 -32.2996
   -32.2615 -32.2513 -32.2289 -32.2217 -32.2116 -32.1990 -32.1828 -32.1651
   -32.1647 -32.1628 -31.7435 -31.6455 -31.6233 -31.5601 -31.4741 -31.3628
   -19.8908 -17.0660 -16.7808 -16.6286 -16.4987 -16.4513 -16.3189 -16.1774
   -16.0881 -16.0103 -15.9610 -15.9215 -15.8909 -15.8806 -15.8605 -15.8413
   -15.8395 -15.8290 -15.7586 -15.7550 -15.7214 -15.7050 -15.7019 -15.6051
   -15.5427 -15.4814 -15.4365 -15.3622 -15.3260 -15.2553 -13.8341 -13.7157
    -8.2741  -5.0598  -4.4143  -4.2450  -4.2135  -4.2076  -4.1342  -3.9159
    -3.8626  -3.6475  -3.6098  -3.4923  -3.4680  -3.4568  -3.4172  -3.3608
    -3.2734  -3.1477  -3.1449  -3.1346  -3.1276  -3.1143  -3.0773  -3.0549
    -3.0490  -3.0126  -2.9210  -2.8295  -2.8261  -2.7297  -2.7027  -2.6852
    -2.6262  -2.6166  -2.5841  -2.5641  -2.5532  -2.5316  -2.4872  -2.4646
    -2.3844  -2.2834  -2.1624  -2.1067  -2.0248  -1.9861  -1.8580  -1.8010
    -1.7449  -1.7197  -1.6718  -1.6428  -1.6032  -1.5729  -1.5386  -1.4652
    -1.3463  -1.3444  -1.2461  -1.1705  -1.1380  -1.1104  -1.0577  -1.0433
    -1.0352  -0.9317  -0.7996  -0.7910  -0.7822  -0.6921  -0.6493  -0.6315
    -0.5486  -0.5427  -0.5068  -0.4840  -0.4577  -0.3793  -0.3704  -0.3228
    -0.3068  -0.2794  -0.1655  -0.1157  -0.1036  -0.0628  -0.0204   0.1678
     0.1796   0.3214   0.3992   0.5923   0.6912   0.7460   0.8601   1.2791
     1.3374   2.6190   2.8674   2.8946   2.9254   2.9636   3.0064   3.1171
     3.2261   3.3067   3.3229   3.3552

[...]

          k = 0.0380-0.0419 0.0000 ( 17876 PWs)   bands (ev):

[...]

          k =-0.0760-0.0000 0.0000 ( 17886 PWs)   bands (ev):

[...]

          k =-0.0760-0.0839 0.0000 ( 17948 PWs)   bands (ev):

   -56.2953 -56.2817 -56.2767 -56.2747 -56.2005 -56.1799 -56.1745 -56.1449
   -56.1246 -56.0889 -56.0634 -56.0590 -55.9982 -55.9778 -55.3169 -55.3156
   -32.6645 -32.6609 -32.6027 -32.6004 -32.5892 -32.5875 -32.5847 -32.5670
   -32.5601 -32.5127 -32.5114 -32.5026 -32.4971 -32.4703 -32.4423 -32.4382
   -32.4250 -32.4230 -32.4198 -32.4112 -32.4108 -32.3989 -32.3874 -32.3850
   -32.3836 -32.3792 -32.3735 -32.3521 -32.3438 -32.3292 -32.3165 -32.3163
   -32.3156 -32.2918 -32.2722 -32.2704 -32.2681 -32.2578 -32.2198 -32.2151
   -32.2062 -32.1719 -31.6367 -31.6352 -31.5569 -31.5559 -31.5177 -31.5166
   -19.8830 -16.4936 -16.4630 -16.3575 -16.2365 -16.2237 -16.1930 -16.1504
   -16.0946 -16.0430 -16.0377 -15.9878 -15.9664 -15.9647 -15.9243 -15.8894
   -15.8411 -15.8331 -15.8268 -15.8224 -15.7716 -15.7669 -15.7268 -15.7003
   -15.6928 -15.6545 -15.6527 -15.5740 -15.5000 -15.4593 -13.8181 -13.8157
    -8.2739  -5.0106  -3.7846  -3.7438  -3.6426  -3.6103  -3.4541  -3.4443
    -3.3995  -3.3347  -3.2790  -3.2256  -3.1980  -3.1726  -3.1568  -3.1411
    -3.1313  -3.1203  -3.1098  -3.0560  -3.0496  -3.0121  -2.9940  -2.9607
    -2.9461  -2.9399  -2.9238  -2.8943  -2.8807  -2.8701  -2.8640  -2.8539
    -2.7516  -2.6701  -2.6318  -2.5659  -2.5137  -2.4593  -2.4421  -2.4236
    -2.3878  -2.3722  -2.3559  -2.2172  -2.1879  -2.0533  -2.0416  -2.0223
    -2.0023  -1.9154  -1.8780  -1.7717  -1.7551  -1.7495  -1.6597  -1.6269
    -1.5658  -1.5501  -1.4747  -1.4324  -1.4095  -1.3337  -1.2827  -1.2705
    -1.2193  -1.2004  -1.1141  -1.0733  -1.0679  -1.0488  -0.9945  -0.9654
    -0.8854  -0.8680  -0.8480  -0.7555  -0.6911  -0.6656  -0.4822  -0.3198
    -0.3115  -0.2735  -0.1833  -0.1300  -0.0858  -0.0350  -0.0330   0.0471
     0.1007   0.1935   0.2110   0.2169   0.2918   1.0497   1.0510   1.1421
     1.1531   2.5323   3.0442   3.0879   3.1139   3.1812   3.3101   3.3343
     3.3478   3.3569   3.3716   3.4784

     the Fermi energy is     2.8437 ev

!    total energy              =   -2928.82041935 Ry
     estimated scf accuracy    <       0.00000005 Ry
     smearing contrib. (-TS)   =      -0.02915320 Ry
     internal energy E=F+TS    =   -2928.79126615 Ry

     The total energy is F=E-TS. E is the sum of the following terms:
     one-electron contribution =  -24718.48151268 Ry
     hartree contribution      =   12439.14026499 Ry
     xc contribution           =    -480.34453636 Ry
     ewald contribution        =    9830.89445664 Ry
     electric field correction =       0.00006126 Ry

     convergence has been achieved in  57 iterations

     Forces acting on atoms (cartesian axes, Ry/au):

     atom    1 type  1   force =    -0.00009075    0.00005672    0.10423114
     atom    2 type  1   force =    -0.00009008    0.00006620    0.10432647
     atom    3 type  2   force =    -0.00022909   -0.00191559    0.10279372
     atom    4 type  2   force =    -0.00013487    0.00161993    0.11445776
     atom    5 type  2   force =    -0.00027946    0.00044584   -0.18037268
     atom    6 type  2   force =    -0.00018964   -0.00001909   -0.18075289
     atom    7 type  1   force =    -0.06892455    0.00069029   -0.02917035
     atom    8 type  1   force =    -0.06847710   -0.00126013   -0.02922509
     atom    9 type  1   force =     0.06856431    0.00119236   -0.02923631
     atom   10 type  1   force =     0.06819485   -0.00088122   -0.02930675
     atom   11 type  1   force =     0.00018021    0.00061720    0.04601008
     atom   12 type  1   force =     0.00045133    0.00080967    0.04735574
     atom   13 type  1   force =     0.00022619   -0.00580208   -0.03325996
     atom   14 type  1   force =     0.00032572    0.00433753   -0.02637668
     atom   15 type  2   force =     0.00024776   -0.00054869   -0.00007522
     atom   16 type  2   force =     0.00041332    0.00038920    0.00029718
     atom   17 type  2   force =    -0.00027423   -0.00073203   -0.00078594
     atom   18 type  2   force =    -0.00040618   -0.00093638   -0.00125206
     atom   19 type  1   force =    -0.01836219    0.00019036    0.00432605
     atom   20 type  1   force =    -0.01688145    0.00156553    0.00359355
     atom   21 type  1   force =     0.01895904   -0.00059601    0.00445360
     atom   22 type  1   force =     0.01762165    0.00156071    0.00358520
     atom   23 type  1   force =     0.00001867    0.00013640   -0.00073945
     atom   24 type  1   force =     0.00004695    0.00027328    0.00100119
     atom   25 type  1   force =     0.00000177   -0.00008844   -0.00003021
     atom   26 type  1   force =    -0.00006632   -0.00024670   -0.00056313
     atom   27 type  2   force =    -0.00007678    0.00037301    0.00137443
     atom   28 type  2   force =    -0.00006997   -0.00028831    0.00069827
     atom   29 type  2   force =     0.00004648    0.00017860    0.00042669
     atom   30 type  2   force =    -0.00000699   -0.00033526    0.00118405
     atom   31 type  1   force =    -0.00003987   -0.00043492    0.00004276
     atom   32 type  1   force =     0.00000854    0.00016878    0.00013938
     atom   33 type  1   force =     0.00017910   -0.00039519   -0.00006832
     atom   34 type  1   force =     0.00006946    0.00011315    0.00004505
     atom   35 type  1   force =    -0.00018472   -0.00013120   -0.00023027
     atom   36 type  1   force =    -0.00018947   -0.00063785    0.00080768
     atom   37 type  1   force =     0.00018681   -0.00066232    0.00102625
     atom   38 type  1   force =    -0.00018772    0.00030540   -0.00087992
     atom   39 type  2   force =    -0.00007918   -0.00025118    0.00025879
     atom   40 type  2   force =     0.00020665   -0.00041260   -0.00042075
     atom   41 type  2   force =    -0.00016704    0.00017523    0.00044487
     atom   42 type  2   force =    -0.00003803    0.00048381   -0.00047578
     atom   43 type  1   force =     0.00083572   -0.00015799    0.00019319
     atom   44 type  1   force =    -0.00041358    0.00004455   -0.00049519
     atom   45 type  1   force =    -0.00012939    0.00010468   -0.00028161
     atom   46 type  1   force =    -0.00129339    0.00003411    0.00024036
     atom   47 type  1   force =    -0.00010196   -0.00019321    0.00028131
     atom   48 type  1   force =    -0.00032667    0.00233942   -0.00121493
     atom   49 type  3   force =     0.00120116    0.00100552   -0.00193340
     atom   50 type  4   force =    -0.00027502   -0.00235111    0.00355214

     Total force =     0.374793     Total SCF correction =     0.000529
  @ DRIVER MODE: Message from server: STATUS
  @ DRIVER MODE: Message from server: GETFORCE
  @ DRIVER MODE: Returning v,forces,stress,ensemble

     Writing output data file ./calc.save/
  @ DRIVER MODE: Message from server: EXIT
  @ DRIVE MODE: Exiting

     General routines

     Parallel routines

   This run was terminated on:   2:49:30   9Sep2021

   JOB DONE.