     Program PWSCF v.6.7GPU starts on 10Sep2021 at  0:30:21

     R & G space division:  proc/nbgrp/npool/nimage =      10
     Reading input from /storage/home/hcoda1/3/ntian30/research/carbon/CxH_vib/CH3_calc/ads_slab/CH3N2OH_l/out_0013/pw.inp
Warning: card &CELL ignored
Warning: card   CELL_DYNAMICS='IPI', ignored
Warning: card / ignored

     Current dimensions of program PWSCF are:
     Max number of different atomic species (ntypx) = 10
     Max number of k-points (npk) =  40000
     Max angular momentum in pseudopotentials (lmaxx) =  3
     Presently no symmetry can be used with electric field

     Message from routine cell_base_init:
     DEPRECATED: use true lattice parameter, not A to a.u. conversion factor

     IMPORTANT: XC functional enforced from input :
     Exchange-correlation= BEEF-VDW
                           (   1   4  43  14   2   0   0)
     Any further DFT definition will be discarded
     Please, verify this is what you really want

  @ DRIVER MODE: Connecting to
 qe_1139763_2779712.sched-torque.pace.gatech.eduemwka09z_scratch
  using UNIX socket
  @ DRIVER MODE: Message from server: STATUS
  @ DRIVER MODE: Message from server: INIT
  @ DRIVER MODE: Receiving replica           0          -1
  @ DRIVER MODE: Receiving encoded integer          25
  @ DRIVER MODE:  SCF:  T  FORCE:  T  STRESS:  F  VC:  F  ENSEMBLE:  F
  @ DRIVER MODE:  SCF:  T  FORCE:  T  STRESS:  F  VC:  F  ENSEMBLE:  F

     Using Slab Decomposition

     bravais-lattice index     =            0
     lattice parameter (alat)  =       1.8897  a.u.
     unit-cell volume          =    6658.9804 (a.u.)^3
     number of atoms/cell      =           55
     number of atomic types    =            5
     number of electrons       =       402.00
     number of Kohn-Sham states=          211
     kinetic-energy cutoff     =      29.3995  Ry
     charge density cutoff     =     293.9946  Ry
     scf convergence threshold =      7.3E-08
     mixing beta               =       0.0500
     number of iterations used =            8  plain     mixing
     Exchange-correlation= BEEF-VDW
                           (   1   4  43  14   2   0   0)

     celldm(1)=   1.889726  celldm(2)=   0.000000  celldm(3)=   0.000000
     celldm(4)=   0.000000  celldm(5)=   0.000000  celldm(6)=   0.000000

     crystal axes: (cart. coord. in units of alat)
               a(1) = (   6.579727   0.000000   0.000000 )
               a(2) = (  -0.000775   5.961596   0.000000 )
               a(3) = (   0.000000   0.000000  25.155947 )

     reciprocal axes: (cart. coord. in units 2 pi/alat)
               b(1) = (  0.151982  0.000020  0.000000 )
               b(2) = (  0.000000  0.167740  0.000000 )
               b(3) = (  0.000000  0.000000  0.039752 )

     PseudoPot. # 1 for Ti read from file:
     /storage/coda1/p-amedford6/0/shared/rich_project_chbe-medford/medford-share/data/pseudos_module/espresso/nninc/pbe/van/Ti.UPF
     MD5 check sum: 8e4df49b7f0d34bbd5052bf3f5ea0213
     Pseudo is Ultrasoft, Zval = 12.0
     Generated by new atomic code, or converted to UPF format
     Using radial grid of  851 points,  6 beta functions with:
                l(1) =   0
                l(2) =   0
                l(3) =   1
                l(4) =   1
                l(5) =   2
                l(6) =   2
     Q(r) pseudized with  8 coefficients,  rinner =    1.000   1.000   1.000
                                                       1.000   1.000

     PseudoPot. # 2 for O  read from file:
     /storage/coda1/p-amedford6/0/shared/rich_project_chbe-medford/medford-share/data/pseudos_module/espresso/nninc/pbe/van/O.UPF
     MD5 check sum: 78c19812648e8988a0fe644b0f25305e
     Pseudo is Ultrasoft, Zval =  6.0
     Generated by new atomic code, or converted to UPF format
     Using radial grid of  737 points,  4 beta functions with:
                l(1) =   0
                l(2) =   0
                l(3) =   1
                l(4) =   1
     Q(r) pseudized with  8 coefficients,  rinner =    0.800   0.800   0.800

     PseudoPot. # 3 for N  read from file:
     /storage/coda1/p-amedford6/0/shared/rich_project_chbe-medford/medford-share/data/pseudos_module/espresso/nninc/pbe/van/N.UPF
     MD5 check sum: 90d10febe142ad51ac9d5be1deb811c4
     Pseudo is Ultrasoft, Zval =  5.0
     Generated by new atomic code, or converted to UPF format
     Using radial grid of  729 points,  4 beta functions with:
                l(1) =   0
                l(2) =   0
                l(3) =   1
                l(4) =   1
     Q(r) pseudized with  8 coefficients,  rinner =    0.800   0.800   0.800

     PseudoPot. # 4 for C  read from file:
     /storage/coda1/p-amedford6/0/shared/rich_project_chbe-medford/medford-share/data/pseudos_module/espresso/nninc/pbe/van/C.UPF
     MD5 check sum: 1a69bf6b8db32088f5b2163dbdb77a27
     Pseudo is Ultrasoft, Zval =  4.0
     Generated by new atomic code, or converted to UPF format
     Using radial grid of  721 points,  4 beta functions with:
                l(1) =   0
                l(2) =   0
                l(3) =   1
                l(4) =   1
     Q(r) pseudized with  8 coefficients,  rinner =    0.800   0.800   0.800

     PseudoPot. # 5 for H  read from file:
     /storage/coda1/p-amedford6/0/shared/rich_project_chbe-medford/medford-share/data/pseudos_module/espresso/nninc/pbe/van/H.UPF
     MD5 check sum: b5ee9d7bfd3a09ee7748110bda690ff7
     Pseudo is Ultrasoft, Zval =  1.0
     Generated by new atomic code, or converted to UPF format
     Using radial grid of  615 points,  1 beta functions with:
                l(1) =   0
     Q(r) pseudized with  8 coefficients,  rinner =    0.800

     atomic species   valence    mass     pseudopotential
        Ti1           12.00    47.86700     Ti( 1.00)
        O1             6.00    15.99900     O ( 1.00)
        N1             5.00    14.00700     N ( 1.00)
        C1             4.00    12.01100     C ( 1.00)
        H1             1.00     1.00800     H ( 1.00)

     No symmetry found

   Cartesian axes

     site n.     atom                  positions (alat units)
         1           Ti1 tau(   1) = (   0.0004258   2.9801865   6.0000000  )
         2           Ti1 tau(   2) = (   3.2906075   1.4906267   6.0002472  )
         3           O1  tau(   3) = (   0.0006271   0.0005054   7.9858123  )
         4           O1  tau(   4) = (   3.2906025   0.0005020   7.3038282  )
         5           O1  tau(   5) = (   4.5942328   1.4918067   9.2879030  )
         6           O1  tau(   6) = (   1.9868534   1.4903216   9.2879459  )
         7           Ti1 tau(   7) = (   3.2907910   2.8959150   9.1758416  )
         8           Ti1 tau(   8) = (   0.0015273   1.4827037   9.2680791  )
         9           O1  tau(   9) = (   3.3074573   5.9346435  11.2963613  )
        10           O1  tau(  10) = (   0.0116148   5.9584955  10.6183126  )
        11           O1  tau(  11) = (   1.3055178   1.4819292  12.6272398  )
        12           O1  tau(  12) = (   5.3158762   1.4804127  12.6185516  )
        13           Ti1 tau(  13) = (   0.0186029   2.8424156  12.6464711  )
        14           Ti1 tau(  14) = (   3.3167612   1.2924093  12.6669032  )
        15           O1  tau(  15) = (   0.0012442   5.9356390  14.6370070  )
        16           O1  tau(  16) = (   3.3127944   0.0275565  13.9018093  )
        17           O1  tau(  17) = (   4.5765900   1.5157235  16.0894388  )
        18           O1  tau(  18) = (   2.0422450   1.5317946  16.0210879  )
        19           Ti1 tau(  19) = (   3.3088329   2.9810726  15.6636066  )
        20           Ti1 tau(  20) = (   0.0236821   1.4688588  15.8133175  )
        21           O1  tau(  21) = (   3.2904802   0.0005063   4.7018136  )
        22           O1  tau(  22) = (   0.0676014   5.9495730  17.1734943  )
        23           O1  tau(  23) = (   1.3043587   1.4918075   6.0039043  )
        24           O1  tau(  24) = (   5.2767064   1.4903225   6.0039473  )
        25           Ti1 tau(  25) = (   0.0000382   5.9609847   6.0000000  )
        26           Ti1 tau(  26) = (   3.2902200   4.4714249   6.0002472  )
        27           O1  tau(  27) = (   0.0002396   2.9813036   7.9858123  )
        28           O1  tau(  28) = (   3.2902150   2.9813002   7.3038282  )
        29           O1  tau(  29) = (   4.5938453   4.4726049   9.2879030  )
        30           O1  tau(  30) = (   1.9864658   4.4711199   9.2879459  )
        31           Ti1 tau(  31) = (   3.2891106   5.8743827   9.1763621  )
        32           Ti1 tau(  32) = (   0.0006254   4.4649316   9.2693709  )
        33           O1  tau(  33) = (   3.3041982   3.0170362  11.2630756  )
        34           O1  tau(  34) = (   0.0092240   2.9805883  10.6323155  )
        35           O1  tau(  35) = (   1.3098214   4.4601496  12.6289764  )
        36           O1  tau(  36) = (   5.3139316   4.4642116  12.6209765  )
        37           Ti1 tau(  37) = (   0.0286784   5.8202107  12.5681754  )
        38           Ti1 tau(  38) = (   3.3194384   4.3879401  12.4232525  )
        39           O1  tau(  39) = (   6.5763552   2.9401740  14.6754030  )
        40           O1  tau(  40) = (   3.3328261   2.9762691  13.8808942  )
        41           O1  tau(  41) = (   4.5658580   4.4380642  16.1332302  )
        42           O1  tau(  42) = (   2.0359873   4.4031365  16.0422930  )
        43           Ti1 tau(  43) = (   3.3255947   5.9578944  16.3175027  )
        44           Ti1 tau(  44) = (   0.0374668   4.6230282  16.0307208  )
        45           O1  tau(  45) = (   3.2900926   2.9813045   4.7018136  )
        46           O1  tau(  46) = (   1.3039711   4.4726057   6.0039043  )
        47           O1  tau(  47) = (   5.2763189   4.4711207   6.0039473  )
        48           N1  tau(  48) = (   0.1245995   2.6662279  18.6673576  )
        49           N1  tau(  49) = (   0.0476076   2.8693738  17.4835824  )
        50           C1  tau(  50) = (   0.1195945   3.7926219  19.6405614  )
        51           H1  tau(  51) = (   6.3015398   4.7065717  19.2118634  )
        52           H1  tau(  52) = (   6.1525190   3.4626129  20.5140504  )
        53           H1  tau(  53) = (   1.1733748   3.9370966  19.9287387  )
        54           O1  tau(  54) = (   3.0981659   0.0197753  18.1302257  )
        55           H1  tau(  55) = (   2.1972620   0.2293568  18.4309947  )

     number of k points=    10  Fermi-Dirac smearing, width (Ry)=  0.0073
                       cart. coord. in units 2pi/alat
        k(    1) = (   0.0000000   0.0000000   0.0000000), wk =   0.1250000
        k(    2) = (   0.0000000   0.0419351   0.0000000), wk =   0.2500000
        k(    3) = (   0.0000000  -0.0838702   0.0000000), wk =   0.1250000
        k(    4) = (   0.0379955   0.0000049   0.0000000), wk =   0.2500000
        k(    5) = (   0.0379955   0.0419400   0.0000000), wk =   0.2500000
        k(    6) = (   0.0379955  -0.0838652   0.0000000), wk =   0.2500000
        k(    7) = (   0.0379955  -0.0419301   0.0000000), wk =   0.2500000
        k(    8) = (  -0.0759910  -0.0000099   0.0000000), wk =   0.1250000
        k(    9) = (  -0.0759910   0.0419252   0.0000000), wk =   0.2500000
        k(   10) = (  -0.0759910  -0.0838800   0.0000000), wk =   0.1250000

     Initial potential from superposition of free atoms

     starting charge  385.99915, renormalised to  402.00000

     negative rho (up, down):  1.432E-02 0.000E+00

     %%%%%%%%%%%%%%%%%%%%%%%%%%%%%%%%%%%%%%%%%%%%%%%%%%%%%%%%%%%%%%%%%%%%%%%%
     %                                                                      %
     % You are using vdW-DF, which was implemented by the Thonhauser group. %
     % Please cite the following two papers that made this development      %
     % possible and the two reviews that describe the various versions:     %
     %                                                                      %
     %   T. Thonhauser et al., PRL 115, 136402 (2015).                      %
     %   T. Thonhauser et al., PRB 76, 125112 (2007).                       %
     %   K. Berland et al., Rep. Prog. Phys. 78, 066501 (2015).             %
     %   D.C. Langreth et al., J. Phys.: Condens. Matter 21, 084203 (2009). %
     %                                                                      %
     %                                                                      %
     % If you are calculating the stress with vdW-DF, please also cite:     %
     %                                                                      %
     %   R. Sabatini et al., J. Phys.: Condens. Matter 24, 424209 (2012).   %
     %                                                                      %
     %%%%%%%%%%%%%%%%%%%%%%%%%%%%%%%%%%%%%%%%%%%%%%%%%%%%%%%%%%%%%%%%%%%%%%%%

     Adding external electric field

     Computed dipole along edir(3) :
        Dipole              -11.9923 Ry au,        -30.4815 Debye
        Dipole field         -0.0226 Ry au,

        Potential amp.        2.0979 Ry
        Total length         46.3494 bohr

     Starting wfcs are  304 atomic wfcs
  @ DRIVER MODE: Message from server: STATUS
  @ DRIVER MODE: Message from server: POSDATA
  @ DRIVER MODE: Reading and sharing cell
  @ DRIVER MODE: Reading and sharing positions
  @ DRIVER MODE: Received positions

     Self-consistent Calculation

     iteration #  1     ecut=    29.40 Ry     beta= 0.05
     Davidson diagonalization with overlap
     c_bands:  3 eigenvalues not converged
     c_bands:  5 eigenvalues not converged
     c_bands:  5 eigenvalues not converged
     c_bands:  4 eigenvalues not converged
     c_bands:  1 eigenvalues not converged
     c_bands:  4 eigenvalues not converged
     c_bands:  2 eigenvalues not converged
     c_bands:  5 eigenvalues not converged
     c_bands:  4 eigenvalues not converged
     ethr =  1.00E-05,  avg # of iterations = 23.6

[...]

     total energy              =   -2400.49540077 Ry
     estimated scf accuracy    <    6448.57444141 Ry

     iteration #  2     ecut=    29.40 Ry     beta= 0.05
     Davidson diagonalization with overlap
     ethr =  1.00E-02,  avg # of iterations = 23.3

[...]

     iteration # 50     ecut=    29.40 Ry     beta= 0.05
     Davidson diagonalization with overlap
     c_bands:  1 eigenvalues not converged
     ethr =  3.25E-06,  avg # of iterations =  3.8

[...]

     total energy              =   -2972.75595491 Ry
     estimated scf accuracy    <       0.00000011 Ry

     iteration # 75     ecut=    29.40 Ry     beta= 0.05
     Davidson diagonalization with overlap
     ethr =  2.63E-11,  avg # of iterations =  5.1

     negative rho (up, down):  1.507E-02 0.000E+00

     Adding external electric field

     Computed dipole along edir(3) :
        Dipole                0.5653 Ry au,          1.4369 Debye
        Dipole field          0.0011 Ry au,

        Potential amp.       -0.0989 Ry
        Total length         46.3494 bohr

     End of self-consistent calculation

          k = 0.0000 0.0000 0.0000 ( 18029 PWs)   bands (ev):

   -56.2724 -56.2386 -55.8658 -55.8308 -55.6096 -55.5941 -55.5518 -55.4020
   -55.3543 -55.3446 -55.2309 -55.1809 -55.0699 -55.0423 -55.0387 -55.0047
   -32.7226 -32.5649 -32.5382 -32.4306 -32.3468 -32.3452 -32.3381 -32.0914
   -32.0850 -32.0610 -32.0103 -32.0047 -31.9755 -31.9020 -31.8951 -31.8569
   -31.8324 -31.8304 -31.8183 -31.7743 -31.7552 -31.7478 -31.7152 -31.7144
   -31.6848 -31.6727 -31.6145 -31.5616 -31.5560 -31.5434 -31.5401 -31.5116
   -31.4901 -31.4349 -31.4298 -31.4152 -31.3904 -31.3723 -31.3487 -31.3280
   -31.3030 -31.2804 -31.2800 -31.2725 -31.2579 -31.2537 -31.1692 -31.0572
   -18.9007 -16.5645 -16.3763 -16.2250 -15.9907 -15.8430 -15.7585 -15.7021
   -15.7006 -15.5811 -15.5451 -15.4519 -15.3631 -15.2942 -15.2623 -15.2586
   -15.1653 -15.1034 -15.0541 -15.0315 -15.0004 -14.9803 -14.9665 -14.8875
   -14.8787 -14.8546 -14.8103 -14.6898 -14.6268 -14.3278 -14.3091 -13.5362
   -13.4241 -11.5253  -6.9601  -4.4275  -4.0921  -4.0735  -4.0517  -3.8766
    -3.7763  -3.5689  -3.4516  -3.2664  -3.2493  -3.1495  -2.9839  -2.9756
    -2.9224  -2.8518  -2.7731  -2.7040  -2.6604  -2.6493  -2.5555  -2.4982
    -2.4966  -2.4837  -2.4393  -2.4072  -2.3212  -2.2751  -2.2634  -2.2260
    -2.1814  -2.1327  -2.1287  -2.0807  -2.0574  -1.9950  -1.9322  -1.8955
    -1.8830  -1.7980  -1.7481  -1.7101  -1.6393  -1.5911  -1.5766  -1.5746
    -1.5218  -1.3274  -1.2873  -1.2621  -1.2407  -1.0981  -1.0545  -1.0196
    -0.9554  -0.9389  -0.8492  -0.8229  -0.8061  -0.7808  -0.7100  -0.6969
    -0.6614  -0.6329  -0.4460  -0.4113  -0.3401  -0.3317  -0.2628  -0.2303
    -0.1972  -0.1572  -0.1259  -0.0721  -0.0596  -0.0062   0.0404   0.0685
     0.2096   0.2406   0.3237   0.3319   0.3350   0.3572   0.4346   0.4687
     0.5412   0.5934   0.5995   0.6508   0.7391   0.7786   0.8934   0.9628
     0.9860   1.0080   1.0432   1.0965   1.2164   1.5080   1.5330   1.5718
     2.7058   2.9534   3.0839   3.2306   3.3851   3.4890   3.7976   3.8150
     3.8519   3.8977   3.9423

[...]

          k = 0.0380-0.0419 0.0000 ( 17876 PWs)   bands (ev):

[...]

          k =-0.0760-0.0000 0.0000 ( 17886 PWs)   bands (ev):

[...]

          k =-0.0760-0.0839 0.0000 ( 17948 PWs)   bands (ev):

   -56.2555 -56.2554 -55.8532 -55.8432 -55.6041 -55.5933 -55.5572 -55.3947
   -55.3614 -55.3452 -55.2292 -55.1789 -55.0715 -55.0443 -55.0222 -55.0210
   -32.5505 -32.5504 -32.5387 -32.5385 -32.3827 -32.3824 -32.1723 -32.1632
   -32.0467 -32.0385 -32.0366 -32.0322 -31.9127 -31.8756 -31.8598 -31.8290
   -31.8263 -31.8249 -31.8167 -31.7844 -31.7714 -31.7250 -31.7122 -31.6973
   -31.6351 -31.6323 -31.6270 -31.6006 -31.5965 -31.5933 -31.5536 -31.5479
   -31.4820 -31.4357 -31.4192 -31.4168 -31.3902 -31.3620 -31.3611 -31.3426
   -31.3316 -31.2896 -31.2837 -31.2764 -31.2504 -31.2490 -31.2121 -31.2112
   -18.8978 -16.3610 -15.9752 -15.9670 -15.8361 -15.8306 -15.6578 -15.6459
   -15.6003 -15.5525 -15.5214 -15.4873 -15.3596 -15.3343 -15.2641 -15.2388
   -15.2045 -15.1795 -15.1555 -15.1501 -15.1137 -15.0716 -15.0218 -15.0169
   -14.9679 -14.9663 -14.8414 -14.7652 -14.6874 -14.5099 -14.4629 -13.5274
   -13.5269 -11.5233  -6.9747  -4.3755  -4.0907  -4.0437  -3.8607  -3.1392
    -3.0974  -2.9719  -2.9463  -2.8710  -2.8334  -2.7635  -2.7051  -2.6829
    -2.6700  -2.6590  -2.5941  -2.5652  -2.5599  -2.5179  -2.5028  -2.4958
    -2.4578  -2.4025  -2.3838  -2.3619  -2.3552  -2.3503  -2.2715  -2.2013
    -2.1991  -2.1795  -2.1465  -2.1143  -2.0347  -2.0293  -1.9858  -1.9518
    -1.9207  -1.8295  -1.7900  -1.7561  -1.7001  -1.6445  -1.5846  -1.5800
    -1.5134  -1.4665  -1.3541  -1.3310  -1.3116  -1.2694  -1.2322  -1.1923
    -1.1261  -1.1037  -1.0499  -1.0458  -1.0318  -1.0092  -0.8973  -0.8568
    -0.7648  -0.7246  -0.7010  -0.6769  -0.6345  -0.6271  -0.5562  -0.5332
    -0.4949  -0.4698  -0.4038  -0.3983  -0.3639  -0.2990  -0.1925  -0.0342
     0.0610   0.1033   0.1256   0.1441   0.1897   0.2990   0.3048   0.3795
     0.4514   0.4644   0.4820   0.5110   0.6570   0.7344   0.8417   0.8639
     0.9126   0.9608   1.0204   1.0887   1.3771   1.3846   1.3881   1.3887
     2.7179   3.5044   3.5068   3.5351   3.5462   3.7325   3.7347   3.7523
     3.8977   3.9264   3.9978

     the Fermi energy is     2.8895 ev

!    total energy              =   -2972.75598852 Ry
     estimated scf accuracy    <       0.00000004 Ry
     smearing contrib. (-TS)   =      -0.01286928 Ry
     internal energy E=F+TS    =   -2972.74311924 Ry

     The total energy is F=E-TS. E is the sum of the following terms:
     one-electron contribution =  -23636.60205558 Ry
     hartree contribution      =   11911.33818263 Ry
     xc contribution           =    -493.08147225 Ry
     ewald contribution        =    9245.60162289 Ry
     electric field correction =       0.00060308 Ry

     convergence has been achieved in  75 iterations

     Forces acting on atoms (cartesian axes, Ry/au):

     atom    1 type  1   force =    -0.00001243   -0.00036826    0.10684954
     atom    2 type  1   force =    -0.00004345    0.00020007   -0.16491557
     atom    3 type  2   force =     0.00005646    0.00001963   -0.03812872
     atom    4 type  2   force =     0.00006681   -0.00064039    0.03454107
     atom    5 type  2   force =    -0.00367172   -0.00218386   -0.00717142
     atom    6 type  2   force =     0.00569946   -0.00176898   -0.00684480
     atom    7 type  1   force =     0.00025393   -0.00517216    0.03715031
     atom    8 type  1   force =    -0.00001876    0.01089762    0.05885289
     atom    9 type  2   force =    -0.00043534    0.00029649   -0.00083414
     atom   10 type  2   force =    -0.00076327   -0.00040246   -0.04429371
     atom   11 type  2   force =     0.00030187   -0.00021500    0.00031437
     atom   12 type  2   force =    -0.00064789   -0.00054671   -0.00004624
     atom   13 type  1   force =     0.00004479    0.00033038    0.00052742
     atom   14 type  1   force =    -0.00024549   -0.00007557    0.00054174
     atom   15 type  2   force =    -0.00018846   -0.00036732   -0.00112638
     atom   16 type  2   force =     0.00032870    0.00007296    0.00049019
     atom   17 type  2   force =     0.00010583    0.00040117    0.00018428
     atom   18 type  2   force =     0.00038616    0.00046512   -0.00053911
     atom   19 type  1   force =    -0.00049365   -0.00052894   -0.00034451
     atom   20 type  1   force =     0.00020506   -0.00012841    0.00067376
     atom   21 type  2   force =     0.00004457    0.00021400    0.10036209
     atom   22 type  2   force =     0.00003216   -0.00082138    0.00010395
     atom   23 type  2   force =    -0.07694935   -0.00000640   -0.03001414
     atom   24 type  2   force =     0.07681809    0.00041796   -0.03007413
     atom   25 type  1   force =     0.00005547   -0.00041322    0.10687131
     atom   26 type  1   force =    -0.00016753   -0.00138209   -0.16527616
     atom   27 type  2   force =     0.00012606   -0.00063720   -0.03657542
     atom   28 type  2   force =     0.00003967    0.00111658    0.03012213
     atom   29 type  2   force =    -0.00205426    0.00418020   -0.01014366
     atom   30 type  2   force =     0.00412189    0.00462785   -0.00972207
     atom   31 type  1   force =     0.00024011    0.00322422    0.02267711
     atom   32 type  1   force =    -0.00015439   -0.01396707    0.05890665
     atom   33 type  2   force =    -0.00013763   -0.00118573   -0.00030016
     atom   34 type  2   force =    -0.00070429   -0.00007683   -0.05475698
     atom   35 type  2   force =    -0.00105600    0.00020445    0.00019959
     atom   36 type  2   force =     0.00051613   -0.00001114   -0.00022232
     atom   37 type  1   force =    -0.00014261   -0.00078136    0.00001153
     atom   38 type  1   force =    -0.00057603    0.00000206    0.00007304
     atom   39 type  2   force =    -0.00029677    0.00054250   -0.00006555
     atom   40 type  2   force =    -0.00024386   -0.00046566    0.00013014
     atom   41 type  2   force =    -0.00095049    0.00008171   -0.00013437
     atom   42 type  2   force =    -0.00023133    0.00010738    0.00062667
     atom   43 type  1   force =     0.00076330    0.00102144   -0.00007609
     atom   44 type  1   force =    -0.00020741    0.00153715    0.00069442
     atom   45 type  2   force =     0.00003716    0.00000174    0.10016733
     atom   46 type  2   force =    -0.07698496    0.00003307   -0.03004387
     atom   47 type  2   force =     0.07687273    0.00045990   -0.03010809
     atom   48 type  3   force =    -0.00168277   -0.00048960    0.00173440
     atom   49 type  3   force =     0.00014555    0.00079186   -0.00098572
     atom   50 type  4   force =     0.01968633    0.00084738   -0.00101372
     atom   51 type  5   force =    -0.00362493    0.00278153   -0.00113963
     atom   52 type  5   force =    -0.00469628   -0.00184749    0.00394429
     atom   53 type  5   force =    -0.01026817   -0.00089552   -0.00182871
     atom   54 type  2   force =     0.00106187   -0.00041641   -0.00120043
     atom   55 type  5   force =    -0.00036063    0.00091876    0.00117559

     Total force =     0.380487     Total SCF correction =     0.000469
  @ DRIVER MODE: Message from server: STATUS
  @ DRIVER MODE: Message from server: GETFORCE
  @ DRIVER MODE: Returning v,forces,stress,ensemble

     Writing output data file ./calc.save/
  @ DRIVER MODE: Message from server: EXIT
  @ DRIVE MODE: Exiting

     General routines

     Parallel routines

   This run was terminated on:   0:51:19  10Sep2021

   JOB DONE.