     Program PWSCF v.6.7GPU starts on 15Sep2021 at 17:40:36

     R & G space division:  proc/nbgrp/npool/nimage =      10
     Reading input from /storage/home/hcoda1/3/ntian30/research/carbon/CxH_vib/H2O_calc/ads_slab/CHN2HH2O_a/out_0007/pw.inp
Warning: card &CELL ignored
Warning: card   CELL_DYNAMICS='IPI', ignored
Warning: card / ignored

     Current dimensions of program PWSCF are:
     Max number of different atomic species (ntypx) = 10
     Max number of k-points (npk) =  40000
     Max angular momentum in pseudopotentials (lmaxx) =  3
     Presently no symmetry can be used with electric field

     Message from routine cell_base_init:
     DEPRECATED: use true lattice parameter, not A to a.u. conversion factor

     IMPORTANT: XC functional enforced from input :
     Exchange-correlation= BEEF-VDW
                           (   1   4  43  14   2   0   0)
     Any further DFT definition will be discarded
     Please, verify this is what you really want

  @ DRIVER MODE: Connecting to
 qe_1139763_2852626.sched-torque.pace.gatech.eduqrv_kvb1_scratch
  using UNIX socket
  @ DRIVER MODE: Message from server: STATUS
  @ DRIVER MODE: Message from server: INIT
  @ DRIVER MODE: Receiving replica           0          -1
  @ DRIVER MODE: Receiving encoded integer          25
  @ DRIVER MODE:  SCF:  T  FORCE:  T  STRESS:  F  VC:  F  ENSEMBLE:  F
  @ DRIVER MODE:  SCF:  T  FORCE:  T  STRESS:  F  VC:  F  ENSEMBLE:  F

     Using Slab Decomposition

     bravais-lattice index     =            0
     lattice parameter (alat)  =       1.8897  a.u.
     unit-cell volume          =    6658.9804 (a.u.)^3
     number of atoms/cell      =           55
     number of atomic types    =            5
     number of electrons       =       402.00
     number of Kohn-Sham states=          211
     kinetic-energy cutoff     =      29.3995  Ry
     charge density cutoff     =     293.9946  Ry
     scf convergence threshold =      7.3E-08
     mixing beta               =       0.0500
     number of iterations used =            8  plain     mixing
     Exchange-correlation= BEEF-VDW
                           (   1   4  43  14   2   0   0)

     celldm(1)=   1.889726  celldm(2)=   0.000000  celldm(3)=   0.000000
     celldm(4)=   0.000000  celldm(5)=   0.000000  celldm(6)=   0.000000

     crystal axes: (cart. coord. in units of alat)
               a(1) = (   6.579727   0.000000   0.000000 )
               a(2) = (  -0.000775   5.961596   0.000000 )
               a(3) = (   0.000000   0.000000  25.155947 )

     reciprocal axes: (cart. coord. in units 2 pi/alat)
               b(1) = (  0.151982  0.000020  0.000000 )
               b(2) = (  0.000000  0.167740  0.000000 )
               b(3) = (  0.000000  0.000000  0.039752 )

     PseudoPot. # 1 for Ti read from file:
     /storage/coda1/p-amedford6/0/shared/rich_project_chbe-medford/medford-share/data/pseudos_module/espresso/nninc/pbe/van/Ti.UPF
     MD5 check sum: 8e4df49b7f0d34bbd5052bf3f5ea0213
     Pseudo is Ultrasoft, Zval = 12.0
     Generated by new atomic code, or converted to UPF format
     Using radial grid of  851 points,  6 beta functions with:
                l(1) =   0
                l(2) =   0
                l(3) =   1
                l(4) =   1
                l(5) =   2
                l(6) =   2
     Q(r) pseudized with  8 coefficients,  rinner =    1.000   1.000   1.000
                                                       1.000   1.000

     PseudoPot. # 2 for O  read from file:
     /storage/coda1/p-amedford6/0/shared/rich_project_chbe-medford/medford-share/data/pseudos_module/espresso/nninc/pbe/van/O.UPF
     MD5 check sum: 78c19812648e8988a0fe644b0f25305e
     Pseudo is Ultrasoft, Zval =  6.0
     Generated by new atomic code, or converted to UPF format
     Using radial grid of  737 points,  4 beta functions with:
                l(1) =   0
                l(2) =   0
                l(3) =   1
                l(4) =   1
     Q(r) pseudized with  8 coefficients,  rinner =    0.800   0.800   0.800

     PseudoPot. # 3 for N  read from file:
     /storage/coda1/p-amedford6/0/shared/rich_project_chbe-medford/medford-share/data/pseudos_module/espresso/nninc/pbe/van/N.UPF
     MD5 check sum: 90d10febe142ad51ac9d5be1deb811c4
     Pseudo is Ultrasoft, Zval =  5.0
     Generated by new atomic code, or converted to UPF format
     Using radial grid of  729 points,  4 beta functions with:
                l(1) =   0
                l(2) =   0
                l(3) =   1
                l(4) =   1
     Q(r) pseudized with  8 coefficients,  rinner =    0.800   0.800   0.800

     PseudoPot. # 4 for C  read from file:
     /storage/coda1/p-amedford6/0/shared/rich_project_chbe-medford/medford-share/data/pseudos_module/espresso/nninc/pbe/van/C.UPF
     MD5 check sum: 1a69bf6b8db32088f5b2163dbdb77a27
     Pseudo is Ultrasoft, Zval =  4.0
     Generated by new atomic code, or converted to UPF format
     Using radial grid of  721 points,  4 beta functions with:
                l(1) =   0
                l(2) =   0
                l(3) =   1
                l(4) =   1
     Q(r) pseudized with  8 coefficients,  rinner =    0.800   0.800   0.800

     PseudoPot. # 5 for H  read from file:
     /storage/coda1/p-amedford6/0/shared/rich_project_chbe-medford/medford-share/data/pseudos_module/espresso/nninc/pbe/van/H.UPF
     MD5 check sum: b5ee9d7bfd3a09ee7748110bda690ff7
     Pseudo is Ultrasoft, Zval =  1.0
     Generated by new atomic code, or converted to UPF format
     Using radial grid of  615 points,  1 beta functions with:
                l(1) =   0
     Q(r) pseudized with  8 coefficients,  rinner =    0.800

     atomic species   valence    mass     pseudopotential
        Ti1           12.00    47.86700     Ti( 1.00)
        O1             6.00    15.99900     O ( 1.00)
        N1             5.00    14.00700     N ( 1.00)
        C1             4.00    12.01100     C ( 1.00)
        H1             1.00     1.00800     H ( 1.00)

     No symmetry found

   Cartesian axes

     site n.     atom                  positions (alat units)
         1           Ti1 tau(   1) = (   0.0004258   2.9801865   6.0000000  )
         2           Ti1 tau(   2) = (   3.2906075   1.4906267   6.0002472  )
         3           O1  tau(   3) = (   0.0006271   0.0005054   7.9858123  )
         4           O1  tau(   4) = (   3.2906025   0.0005020   7.3038282  )
         5           O1  tau(   5) = (   4.5942328   1.4918067   9.2879030  )
         6           O1  tau(   6) = (   1.9868534   1.4903216   9.2879459  )
         7           Ti1 tau(   7) = (   3.2907910   2.8959150   9.1758416  )
         8           Ti1 tau(   8) = (   0.0015273   1.4827037   9.2680791  )
         9           O1  tau(   9) = (   3.2768631   0.0039008  11.3091060  )
        10           O1  tau(  10) = (   0.0116148   5.9584955  10.6183126  )
        11           O1  tau(  11) = (   1.2710838   1.4709840  12.6395574  )
        12           O1  tau(  12) = (   5.2772223   1.5075092  12.6020671  )
        13           Ti1 tau(  13) = (   0.0276258   2.9086511  12.7028215  )
        14           Ti1 tau(  14) = (   3.3492493   1.4375301  12.4845766  )
        15           O1  tau(  15) = (   6.5006329   5.9509897  14.6081112  )
        16           O1  tau(  16) = (   3.3450391   0.0041935  13.9069437  )
        17           O1  tau(  17) = (   4.5555219   1.5659029  16.0522165  )
        18           O1  tau(  18) = (   1.9836904   1.4119734  15.8927236  )
        19           Ti1 tau(  19) = (   3.2827818   2.9316656  15.8555152  )
        20           Ti1 tau(  20) = (   6.5629331   1.3437128  15.9803530  )
        21           O1  tau(  21) = (   3.2904802   0.0005063   4.7018136  )
        22           O1  tau(  22) = (   6.5074089   5.9525318  17.1494500  )
        23           O1  tau(  23) = (   1.3043587   1.4918075   6.0039043  )
        24           O1  tau(  24) = (   5.2767064   1.4903225   6.0039473  )
        25           Ti1 tau(  25) = (   0.0000382   5.9609847   6.0000000  )
        26           Ti1 tau(  26) = (   3.2902200   4.4714249   6.0002472  )
        27           O1  tau(  27) = (   0.0002396   2.9813036   7.9858123  )
        28           O1  tau(  28) = (   3.2902150   2.9813002   7.3038282  )
        29           O1  tau(  29) = (   4.5938453   4.4726049   9.2879030  )
        30           O1  tau(  30) = (   1.9864658   4.4711199   9.2879459  )
        31           Ti1 tau(  31) = (   3.2891106   5.8743827   9.1763621  )
        32           Ti1 tau(  32) = (   0.0006254   4.4649316   9.2693709  )
        33           O1  tau(  33) = (   3.2854303   2.9668816  11.2996989  )
        34           O1  tau(  34) = (   0.0092240   2.9805883  10.6323155  )
        35           O1  tau(  35) = (   1.2743094   4.4851408  12.6236879  )
        36           O1  tau(  36) = (   5.2782958   4.4707264  12.5946799  )
        37           Ti1 tau(  37) = (   0.0481499   5.8920156  12.5607908  )
        38           Ti1 tau(  38) = (   3.3544845   4.3749597  12.5572158  )
        39           O1  tau(  39) = (   6.5410016   3.0017514  14.6365314  )
        40           O1  tau(  40) = (   3.2441134   3.0029108  13.8718978  )
        41           O1  tau(  41) = (   4.5385932   4.4028810  16.0550583  )
        42           O1  tau(  42) = (   1.9619458   4.5383001  15.8611175  )
        43           Ti1 tau(  43) = (   3.2178196   5.9097812  15.7399460  )
        44           Ti1 tau(  44) = (   6.5330930   4.4908980  15.8705378  )
        45           O1  tau(  45) = (   3.2900926   2.9813045   4.7018136  )
        46           O1  tau(  46) = (   1.3039711   4.4726057   6.0039043  )
        47           O1  tau(  47) = (   5.2763189   4.4711207   6.0039473  )
        48           N1  tau(  48) = (   1.2867840   3.0293760  18.3347772  )
        49           C1  tau(  49) = (   2.4903166   3.0326976  17.9707196  )
        50           H1  tau(  50) = (   3.2053588   3.1791635  18.8000936  )
        51           N1  tau(  51) = (   0.2138509   2.9871109  17.4421441  )
        52           H1  tau(  52) = (   5.9621615   2.9869774  18.0311354  )
        53           O1  tau(  53) = (   3.4290693   5.9360351  18.0748810  )
        54           H1  tau(  54) = (   4.3780305   0.1327944  18.2306609  )
        55           H1  tau(  55) = (   2.9458904   0.7245148  18.4607207  )

     number of k points=    10  Fermi-Dirac smearing, width (Ry)=  0.0073
                       cart. coord. in units 2pi/alat
        k(    1) = (   0.0000000   0.0000000   0.0000000), wk =   0.1250000
        k(    2) = (   0.0000000   0.0419351   0.0000000), wk =   0.2500000
        k(    3) = (   0.0000000  -0.0838702   0.0000000), wk =   0.1250000
        k(    4) = (   0.0379955   0.0000049   0.0000000), wk =   0.2500000
        k(    5) = (   0.0379955   0.0419400   0.0000000), wk =   0.2500000
        k(    6) = (   0.0379955  -0.0838652   0.0000000), wk =   0.2500000
        k(    7) = (   0.0379955  -0.0419301   0.0000000), wk =   0.2500000
        k(    8) = (  -0.0759910  -0.0000099   0.0000000), wk =   0.1250000
        k(    9) = (  -0.0759910   0.0419252   0.0000000), wk =   0.2500000
        k(   10) = (  -0.0759910  -0.0838800   0.0000000), wk =   0.1250000

     Initial potential from superposition of free atoms

     starting charge  385.99915, renormalised to  402.00000

     negative rho (up, down):  1.831E-02 0.000E+00

     %%%%%%%%%%%%%%%%%%%%%%%%%%%%%%%%%%%%%%%%%%%%%%%%%%%%%%%%%%%%%%%%%%%%%%%%
     %                                                                      %
     % You are using vdW-DF, which was implemented by the Thonhauser group. %
     % Please cite the following two papers that made this development      %
     % possible and the two reviews that describe the various versions:     %
     %                                                                      %
     %   T. Thonhauser et al., PRL 115, 136402 (2015).                      %
     %   T. Thonhauser et al., PRB 76, 125112 (2007).                       %
     %   K. Berland et al., Rep. Prog. Phys. 78, 066501 (2015).             %
     %   D.C. Langreth et al., J. Phys.: Condens. Matter 21, 084203 (2009). %
     %                                                                      %
     %                                                                      %
     % If you are calculating the stress with vdW-DF, please also cite:     %
     %                                                                      %
     %   R. Sabatini et al., J. Phys.: Condens. Matter 24, 424209 (2012).   %
     %                                                                      %
     %%%%%%%%%%%%%%%%%%%%%%%%%%%%%%%%%%%%%%%%%%%%%%%%%%%%%%%%%%%%%%%%%%%%%%%%

     Adding external electric field

     Computed dipole along edir(3) :
        Dipole              -11.0899 Ry au,        -28.1877 Debye
        Dipole field         -0.0209 Ry au,

        Potential amp.        1.9400 Ry
        Total length         46.3494 bohr

     Starting wfcs are  304 atomic wfcs
  @ DRIVER MODE: Message from server: STATUS
  @ DRIVER MODE: Message from server: POSDATA
  @ DRIVER MODE: Reading and sharing cell
  @ DRIVER MODE: Reading and sharing positions
  @ DRIVER MODE: Received positions

     Self-consistent Calculation

     iteration #  1     ecut=    29.40 Ry     beta= 0.05
     Davidson diagonalization with overlap
     c_bands:  4 eigenvalues not converged
     c_bands:  1 eigenvalues not converged
     c_bands:  3 eigenvalues not converged
     c_bands:  4 eigenvalues not converged
     c_bands:  1 eigenvalues not converged
     c_bands:  2 eigenvalues not converged
     c_bands:  1 eigenvalues not converged
     c_bands:  1 eigenvalues not converged
     c_bands:  5 eigenvalues not converged
     c_bands:  5 eigenvalues not converged
     ethr =  1.00E-05,  avg # of iterations = 26.0

[...]

     total energy              =   -2403.81917897 Ry
     estimated scf accuracy    <    6374.04121217 Ry

     iteration #  2     ecut=    29.40 Ry     beta= 0.05
     Davidson diagonalization with overlap
     ethr =  1.00E-02,  avg # of iterations = 25.2

[...]

     iteration # 46     ecut=    29.40 Ry     beta= 0.05
     Davidson diagonalization with overlap
     c_bands:  1 eigenvalues not converged
     ethr =  5.93E-07,  avg # of iterations =  5.4

[...]

     total energy              =   -2972.69089578 Ry
     estimated scf accuracy    <       0.00000009 Ry

     iteration # 76     ecut=    29.40 Ry     beta= 0.05
     Davidson diagonalization with overlap
     ethr =  2.16E-11,  avg # of iterations =  2.5

     negative rho (up, down):  1.793E-02 0.000E+00

     Adding external electric field

     Computed dipole along edir(3) :
        Dipole                0.3720 Ry au,          0.9455 Debye
        Dipole field          0.0007 Ry au,

        Potential amp.       -0.0651 Ry
        Total length         46.3494 bohr

     End of self-consistent calculation

          k = 0.0000 0.0000 0.0000 ( 18029 PWs)   bands (ev):

   -56.3330 -56.2991 -55.9332 -55.8995 -55.7457 -55.7092 -55.5592 -55.5561
   -55.5447 -55.5218 -55.5113 -55.4521 -55.2539 -55.2412 -55.1380 -55.1041
   -32.7867 -32.6256 -32.5988 -32.4910 -32.4105 -32.4083 -32.3981 -32.2346
   -32.1507 -32.1467 -32.0881 -32.0754 -32.0660 -32.0385 -32.0330 -31.9799
   -31.9686 -31.9599 -31.9269 -31.9097 -31.9029 -31.8596 -31.8488 -31.8424
   -31.8190 -31.7800 -31.7566 -31.7295 -31.7267 -31.7072 -31.7055 -31.7028
   -31.6900 -31.6675 -31.6503 -31.6392 -31.5525 -31.5367 -31.5141 -31.4995
   -31.4705 -31.4685 -31.4451 -31.4415 -31.3549 -31.3345 -31.2699 -31.1582
   -18.7570 -16.9906 -16.6514 -16.3418 -16.1442 -15.9567 -15.8993 -15.8325
   -15.7788 -15.6580 -15.6023 -15.5693 -15.4984 -15.3930 -15.3712 -15.3517
   -15.2953 -15.2863 -15.2660 -15.2373 -15.1824 -15.1532 -15.1294 -15.0552
   -15.0335 -15.0176 -14.9017 -14.8305 -14.8027 -14.7701 -14.5216 -13.6366
   -13.5236 -12.3380  -6.7190  -6.5351  -4.1524  -4.0919  -3.9005  -3.7809
    -3.6623  -3.6146  -3.4718  -3.4121  -3.3580  -3.2722  -3.1141  -3.0812
    -3.0067  -2.9580  -2.9195  -2.8589  -2.8020  -2.7538  -2.7177  -2.6376
    -2.6272  -2.6143  -2.5965  -2.5716  -2.5605  -2.4483  -2.3567  -2.3400
    -2.3115  -2.2672  -2.2478  -2.2373  -2.1845  -2.1602  -2.0753  -2.0648
    -2.0201  -1.9615  -1.9177  -1.8059  -1.7963  -1.7204  -1.6951  -1.6520
    -1.5264  -1.4000  -1.3683  -1.3244  -1.3110  -1.2268  -1.1974  -1.1740
    -1.0761  -1.0609  -1.0184  -0.9971  -0.8707  -0.8464  -0.7961  -0.7921
    -0.7661  -0.6732  -0.6304  -0.5168  -0.4749  -0.4283  -0.4181  -0.3454
    -0.3128  -0.2673  -0.2187  -0.1671  -0.1639  -0.1362  -0.0565  -0.0128
     0.0322   0.0802   0.1167   0.2069   0.2572   0.2901   0.3060   0.3966
     0.4421   0.4567   0.5216   0.5907   0.6404   0.7069   0.7517   0.8662
     0.8858   0.9018   0.9787   1.1076   1.4122   1.4390   1.4793   1.6379
     2.6576   2.8898   3.0104   3.1731   3.3199   3.3673   3.6293   3.6879
     3.7350   3.7688   3.8391

[...]

          k = 0.0380-0.0419 0.0000 ( 17876 PWs)   bands (ev):

[...]

          k =-0.0760-0.0000 0.0000 ( 17886 PWs)   bands (ev):

[...]

          k =-0.0760-0.0839 0.0000 ( 17948 PWs)   bands (ev):

   -56.3166 -56.3154 -55.9181 -55.9144 -55.7343 -55.7205 -55.5567 -55.5424
   -55.5359 -55.5300 -55.5267 -55.4507 -55.2551 -55.2422 -55.1210 -55.1210
   -32.6117 -32.6104 -32.6028 -32.6022 -32.4433 -32.4421 -32.2337 -32.2296
   -32.1237 -32.1203 -32.1105 -32.1032 -32.0344 -32.0243 -31.9628 -31.9524
   -31.9430 -31.9404 -31.8965 -31.8885 -31.8641 -31.8627 -31.8569 -31.8283
   -31.8118 -31.7824 -31.7723 -31.7553 -31.7529 -31.7458 -31.7434 -31.7282
   -31.7235 -31.7147 -31.7051 -31.6361 -31.6102 -31.5568 -31.5268 -31.5115
   -31.4750 -31.4580 -31.4579 -31.3510 -31.3509 -31.3360 -31.3125 -31.3124
   -18.7546 -16.9710 -16.0559 -16.0434 -15.9254 -15.9203 -15.7422 -15.7232
   -15.6920 -15.6673 -15.6333 -15.5472 -15.4825 -15.4731 -15.4662 -15.4048
   -15.3591 -15.3482 -15.3286 -15.3022 -15.2790 -15.2532 -15.1587 -15.1325
   -15.1300 -15.0995 -15.0172 -15.0070 -14.9466 -14.8056 -14.7411 -13.6266
   -13.6262 -12.3590  -6.7081  -6.4503  -4.0090  -3.8451  -3.2274  -3.1906
    -3.1670  -3.0579  -3.0317  -2.9584  -2.8632  -2.8463  -2.8288  -2.7966
    -2.7691  -2.7610  -2.7470  -2.7072  -2.6553  -2.6350  -2.6197  -2.6102
    -2.6042  -2.6002  -2.5641  -2.5359  -2.4775  -2.4702  -2.4405  -2.4157
    -2.3905  -2.3129  -2.3053  -2.2807  -2.2802  -2.2337  -2.1285  -2.1107
    -2.1026  -2.0603  -2.0052  -1.9293  -1.8404  -1.7994  -1.7348  -1.6778
    -1.6181  -1.5899  -1.5786  -1.4787  -1.4184  -1.4105  -1.3589  -1.3097
    -1.2338  -1.1923  -1.1545  -1.1407  -1.1274  -1.0958  -1.0462  -0.9823
    -0.8687  -0.8442  -0.8315  -0.7669  -0.7623  -0.7530  -0.6484  -0.6162
    -0.5634  -0.5392  -0.5182  -0.4819  -0.4501  -0.3805  -0.2870  -0.2407
    -0.1135  -0.1018  -0.0427   0.0090   0.0203   0.0986   0.2017   0.2260
     0.3614   0.3751   0.4072   0.5368   0.6104   0.6590   0.6777   0.7996
     0.8202   0.8550   1.0238   1.2720   1.2764   1.2957   1.2968   1.5891
     2.6364   3.4288   3.4310   3.4606   3.4627   3.6717   3.6853   3.7617
     3.7967   3.8872   3.9088

     the Fermi energy is     2.8316 ev

!    total energy              =   -2972.69091318 Ry
     estimated scf accuracy    <       0.00000005 Ry
     smearing contrib. (-TS)   =      -0.01351872 Ry
     internal energy E=F+TS    =   -2972.67739446 Ry

     The total energy is F=E-TS. E is the sum of the following terms:
     one-electron contribution =  -24587.00233807 Ry
     hartree contribution      =   12385.55814385 Ry
     xc contribution           =    -493.18393738 Ry
     ewald contribution        =    9721.95047601 Ry
     electric field correction =       0.00026114 Ry

     convergence has been achieved in  76 iterations

     Forces acting on atoms (cartesian axes, Ry/au):

     atom    1 type  1   force =    -0.00000957   -0.00028279    0.10598052
     atom    2 type  1   force =    -0.00022545   -0.00076707   -0.16699365
     atom    3 type  2   force =    -0.00002439   -0.00013615   -0.03875379
     atom    4 type  2   force =    -0.00009908   -0.00038286    0.03660126
     atom    5 type  2   force =    -0.00758228   -0.00013199   -0.00571973
     atom    6 type  2   force =     0.00859577    0.00077650   -0.00740757
     atom    7 type  1   force =    -0.00079351   -0.00145155    0.01949750
     atom    8 type  1   force =     0.00110059    0.01829065    0.06290063
     atom    9 type  2   force =    -0.00008064   -0.00018906    0.00056081
     atom   10 type  2   force =    -0.00264804    0.00202856   -0.04734799
     atom   11 type  2   force =    -0.00022599   -0.00000744    0.00018048
     atom   12 type  2   force =     0.00035577   -0.00012498    0.00014139
     atom   13 type  1   force =     0.00006858   -0.00012177   -0.00078104
     atom   14 type  1   force =    -0.00049036   -0.00003877   -0.00022271
     atom   15 type  2   force =     0.00022143    0.00007182   -0.00014285
     atom   16 type  2   force =    -0.00014754   -0.00030285    0.00084755
     atom   17 type  2   force =    -0.00004892   -0.00023229    0.00061787
     atom   18 type  2   force =     0.00015583   -0.00002245   -0.00015666
     atom   19 type  1   force =    -0.00029086    0.00028907    0.00065947
     atom   20 type  1   force =     0.00026899    0.00041884   -0.00011468
     atom   21 type  2   force =     0.00004937   -0.00002062    0.10089172
     atom   22 type  2   force =     0.00030015    0.00024533    0.00072380
     atom   23 type  2   force =    -0.07576642   -0.00011785   -0.02984713
     atom   24 type  2   force =     0.07565673    0.00033707   -0.02985786
     atom   25 type  1   force =     0.00020067   -0.00055950    0.10634096
     atom   26 type  1   force =    -0.00006690   -0.00026639   -0.16741994
     atom   27 type  2   force =    -0.00006438   -0.00031910   -0.03740674
     atom   28 type  2   force =     0.00007170   -0.00046160    0.03706017
     atom   29 type  2   force =    -0.00855258    0.00126119   -0.00511495
     atom   30 type  2   force =     0.00950724    0.00122330   -0.00683293
     atom   31 type  1   force =    -0.00129902   -0.00008027    0.02581517
     atom   32 type  1   force =     0.00115787   -0.02139090    0.06347428
     atom   33 type  2   force =    -0.00001677    0.00026457    0.00018490
     atom   34 type  2   force =    -0.00008084    0.00090381   -0.05917304
     atom   35 type  2   force =    -0.00007537    0.00008387   -0.00007646
     atom   36 type  2   force =    -0.00013990    0.00035721   -0.00009276
     atom   37 type  1   force =     0.00002816   -0.00030874   -0.00030492
     atom   38 type  1   force =    -0.00041771   -0.00002999   -0.00042227
     atom   39 type  2   force =    -0.00021185    0.00041430    0.00076368
     atom   40 type  2   force =     0.00040876    0.00004747    0.00022673
     atom   41 type  2   force =    -0.00021927    0.00030520    0.00012230
     atom   42 type  2   force =     0.00049518    0.00026443    0.00016583
     atom   43 type  1   force =    -0.00035759   -0.00000847   -0.00054523
     atom   44 type  1   force =     0.00050891   -0.00008701   -0.00048446
     atom   45 type  2   force =     0.00002550   -0.00000052    0.10091974
     atom   46 type  2   force =    -0.07577648   -0.00010706   -0.02980489
     atom   47 type  2   force =     0.07564557    0.00032263   -0.02984065
     atom   48 type  3   force =    -0.01909438    0.00024268    0.00491848
     atom   49 type  4   force =     0.02776093    0.00201346    0.00116195
     atom   50 type  5   force =    -0.00461459   -0.00234619   -0.00539865
     atom   51 type  3   force =    -0.00278674   -0.00010817   -0.00063573
     atom   52 type  5   force =    -0.00006943    0.00033038    0.00005032
     atom   53 type  2   force =    -0.00070436    0.00018878   -0.00067964
     atom   54 type  5   force =    -0.00021316    0.00011256    0.00040041
     atom   55 type  5   force =     0.00061069   -0.00038929    0.00037100

     Total force =     0.384982     Total SCF correction =     0.000469
  @ DRIVER MODE: Message from server: STATUS
  @ DRIVER MODE: Message from server: GETFORCE
  @ DRIVER MODE: Returning v,forces,stress,ensemble

     Writing output data file ./calc.save/
  @ DRIVER MODE: Message from server: EXIT
  @ DRIVE MODE: Exiting

     General routines

     Parallel routines

   This run was terminated on:  18: 0: 6  15Sep2021

   JOB DONE.