     Program PWSCF v.6.7GPU starts on 22Sep2021 at 15:38: 5

     R & G space division:  proc/nbgrp/npool/nimage =      10
     Reading input from /storage/home/hcoda1/3/ntian30/research/carbon/CxH_vib/CH_calc/ads_slab/CHN2OH_a/out_0015/pw.inp
Warning: card &CELL ignored
Warning: card   CELL_DYNAMICS='IPI', ignored
Warning: card / ignored

     Current dimensions of program PWSCF are:
     Max number of different atomic species (ntypx) = 10
     Max number of k-points (npk) =  40000
     Max angular momentum in pseudopotentials (lmaxx) =  3
     Presently no symmetry can be used with electric field

     Message from routine cell_base_init:
     DEPRECATED: use true lattice parameter, not A to a.u. conversion factor

     IMPORTANT: XC functional enforced from input :
     Exchange-correlation= BEEF-VDW
                           (   1   4  43  14   2   0   0)
     Any further DFT definition will be discarded
     Please, verify this is what you really want

  @ DRIVER MODE: Connecting to
 qe_1139763_2934093.sched-torque.pace.gatech.edud2k28emy_scratch
  using UNIX socket
  @ DRIVER MODE: Message from server: STATUS
  @ DRIVER MODE: Message from server: INIT
  @ DRIVER MODE: Receiving replica           0          -1
  @ DRIVER MODE: Receiving encoded integer          25
  @ DRIVER MODE:  SCF:  T  FORCE:  T  STRESS:  F  VC:  F  ENSEMBLE:  F
  @ DRIVER MODE:  SCF:  T  FORCE:  T  STRESS:  F  VC:  F  ENSEMBLE:  F

     Using Slab Decomposition

     bravais-lattice index     =            0
     lattice parameter (alat)  =       1.8897  a.u.
     unit-cell volume          =    6658.9804 (a.u.)^3
     number of atoms/cell      =           53
     number of atomic types    =            5
     number of electrons       =       400.00
     number of Kohn-Sham states=          210
     kinetic-energy cutoff     =      29.3995  Ry
     charge density cutoff     =     293.9946  Ry
     scf convergence threshold =      7.3E-08
     mixing beta               =       0.0500
     number of iterations used =            8  plain     mixing
     Exchange-correlation= BEEF-VDW
                           (   1   4  43  14   2   0   0)

     celldm(1)=   1.889726  celldm(2)=   0.000000  celldm(3)=   0.000000
     celldm(4)=   0.000000  celldm(5)=   0.000000  celldm(6)=   0.000000

     crystal axes: (cart. coord. in units of alat)
               a(1) = (   6.579727   0.000000   0.000000 )
               a(2) = (  -0.000775   5.961596   0.000000 )
               a(3) = (   0.000000   0.000000  25.155947 )

     reciprocal axes: (cart. coord. in units 2 pi/alat)
               b(1) = (  0.151982  0.000020  0.000000 )
               b(2) = (  0.000000  0.167740  0.000000 )
               b(3) = (  0.000000  0.000000  0.039752 )

     PseudoPot. # 1 for Ti read from file:
     /storage/coda1/p-amedford6/0/shared/rich_project_chbe-medford/medford-share/data/pseudos_module/espresso/nninc/pbe/van/Ti.UPF
     MD5 check sum: 8e4df49b7f0d34bbd5052bf3f5ea0213
     Pseudo is Ultrasoft, Zval = 12.0
     Generated by new atomic code, or converted to UPF format
     Using radial grid of  851 points,  6 beta functions with:
                l(1) =   0
                l(2) =   0
                l(3) =   1
                l(4) =   1
                l(5) =   2
                l(6) =   2
     Q(r) pseudized with  8 coefficients,  rinner =    1.000   1.000   1.000
                                                       1.000   1.000

     PseudoPot. # 2 for O  read from file:
     /storage/coda1/p-amedford6/0/shared/rich_project_chbe-medford/medford-share/data/pseudos_module/espresso/nninc/pbe/van/O.UPF
     MD5 check sum: 78c19812648e8988a0fe644b0f25305e
     Pseudo is Ultrasoft, Zval =  6.0
     Generated by new atomic code, or converted to UPF format
     Using radial grid of  737 points,  4 beta functions with:
                l(1) =   0
                l(2) =   0
                l(3) =   1
                l(4) =   1
     Q(r) pseudized with  8 coefficients,  rinner =    0.800   0.800   0.800

     PseudoPot. # 3 for N  read from file:
     /storage/coda1/p-amedford6/0/shared/rich_project_chbe-medford/medford-share/data/pseudos_module/espresso/nninc/pbe/van/N.UPF
     MD5 check sum: 90d10febe142ad51ac9d5be1deb811c4
     Pseudo is Ultrasoft, Zval =  5.0
     Generated by new atomic code, or converted to UPF format
     Using radial grid of  729 points,  4 beta functions with:
                l(1) =   0
                l(2) =   0
                l(3) =   1
                l(4) =   1
     Q(r) pseudized with  8 coefficients,  rinner =    0.800   0.800   0.800

     PseudoPot. # 4 for C  read from file:
     /storage/coda1/p-amedford6/0/shared/rich_project_chbe-medford/medford-share/data/pseudos_module/espresso/nninc/pbe/van/C.UPF
     MD5 check sum: 1a69bf6b8db32088f5b2163dbdb77a27
     Pseudo is Ultrasoft, Zval =  4.0
     Generated by new atomic code, or converted to UPF format
     Using radial grid of  721 points,  4 beta functions with:
                l(1) =   0
                l(2) =   0
                l(3) =   1
                l(4) =   1
     Q(r) pseudized with  8 coefficients,  rinner =    0.800   0.800   0.800

     PseudoPot. # 5 for H  read from file:
     /storage/coda1/p-amedford6/0/shared/rich_project_chbe-medford/medford-share/data/pseudos_module/espresso/nninc/pbe/van/H.UPF
     MD5 check sum: b5ee9d7bfd3a09ee7748110bda690ff7
     Pseudo is Ultrasoft, Zval =  1.0
     Generated by new atomic code, or converted to UPF format
     Using radial grid of  615 points,  1 beta functions with:
                l(1) =   0
     Q(r) pseudized with  8 coefficients,  rinner =    0.800

     atomic species   valence    mass     pseudopotential
        Ti1           12.00    47.86700     Ti( 1.00)
        O1             6.00    15.99900     O ( 1.00)
        N1             5.00    14.00700     N ( 1.00)
        C1             4.00    12.01100     C ( 1.00)
        H1             1.00     1.00800     H ( 1.00)

     No symmetry found

   Cartesian axes

     site n.     atom                  positions (alat units)
         1           Ti1 tau(   1) = (   0.0004258   2.9801865   6.0000000  )
         2           Ti1 tau(   2) = (   3.2906075   1.4906267   6.0002472  )
         3           O1  tau(   3) = (   0.0006271   0.0005054   7.9858123  )
         4           O1  tau(   4) = (   3.2906025   0.0005020   7.3038282  )
         5           O1  tau(   5) = (   4.5942328   1.4918067   9.2879030  )
         6           O1  tau(   6) = (   1.9868534   1.4903216   9.2879459  )
         7           Ti1 tau(   7) = (   3.2907910   2.8959150   9.1758416  )
         8           Ti1 tau(   8) = (   0.0015273   1.4827037   9.2680791  )
         9           O1  tau(   9) = (   3.2947431   5.9554071  11.2675382  )
        10           O1  tau(  10) = (   0.0116148   5.9584955  10.6183126  )
        11           O1  tau(  11) = (   1.2939190   1.5012022  12.6324650  )
        12           O1  tau(  12) = (   5.3075194   1.4952059  12.6199201  )
        13           Ti1 tau(  13) = (   0.0106221   2.8553259  12.7114016  )
        14           Ti1 tau(  14) = (   3.3038960   1.3182849  12.6556579  )
        15           O1  tau(  15) = (   6.5780848   0.0092190  14.6493773  )
        16           O1  tau(  16) = (   3.3025004   0.0387551  13.8658611  )
        17           O1  tau(  17) = (   4.5583283   1.5306594  16.0644060  )
        18           O1  tau(  18) = (   2.0361898   1.5392772  16.0217891  )
        19           Ti1 tau(  19) = (   3.3091865   3.0111069  15.6373089  )
        20           Ti1 tau(  20) = (   0.0377650   1.3505479  16.0707495  )
        21           O1  tau(  21) = (   3.2904802   0.0005063   4.7018136  )
        22           O1  tau(  22) = (   0.0439016   5.9493915  17.1867805  )
        23           O1  tau(  23) = (   1.3043587   1.4918075   6.0039043  )
        24           O1  tau(  24) = (   5.2767064   1.4903225   6.0039473  )
        25           Ti1 tau(  25) = (   0.0000382   5.9609847   6.0000000  )
        26           Ti1 tau(  26) = (   3.2902200   4.4714249   6.0002472  )
        27           O1  tau(  27) = (   0.0002396   2.9813036   7.9858123  )
        28           O1  tau(  28) = (   3.2902150   2.9813002   7.3038282  )
        29           O1  tau(  29) = (   4.5938453   4.4726049   9.2879030  )
        30           O1  tau(  30) = (   1.9864658   4.4711199   9.2879459  )
        31           Ti1 tau(  31) = (   3.2891106   5.8743827   9.1763621  )
        32           Ti1 tau(  32) = (   0.0006254   4.4649316   9.2693709  )
        33           O1  tau(  33) = (   3.2958776   3.0336607  11.2353185  )
        34           O1  tau(  34) = (   0.0092240   2.9805883  10.6323155  )
        35           O1  tau(  35) = (   1.3000586   4.4853303  12.6229424  )
        36           O1  tau(  36) = (   5.2993189   4.4901910  12.6110906  )
        37           Ti1 tau(  37) = (   0.0093010   5.8444503  12.6145921  )
        38           Ti1 tau(  38) = (   3.2999333   4.4129019  12.4053696  )
        39           O1  tau(  39) = (   6.5685983   3.0141634  14.6646344  )
        40           O1  tau(  40) = (   3.3157979   2.9893391  13.8470085  )
        41           O1  tau(  41) = (   4.5469136   4.4558096  16.0384726  )
        42           O1  tau(  42) = (   2.0285042   4.4377151  15.9822253  )
        43           Ti1 tau(  43) = (   3.3362675   0.0317196  16.2890182  )
        44           Ti1 tau(  44) = (   0.0499865   4.4862307  15.8577502  )
        45           O1  tau(  45) = (   3.2900926   2.9813045   4.7018136  )
        46           O1  tau(  46) = (   1.3039711   4.4726057   6.0039043  )
        47           O1  tau(  47) = (   5.2763189   4.4711207   6.0039473  )
        48           N1  tau(  48) = (   0.0045878   3.1533891  18.5964175  )
        49           N1  tau(  49) = (   0.0147781   3.0160983  17.3860304  )
        50           C1  tau(  50) = (   0.1535999   3.2996653  19.7680592  )
        51           H1  tau(  51) = (   6.1193577   3.4501394  20.6313668  )
        52           O1  tau(  52) = (   3.1701150   5.9596689  18.1025665  )
        53           H1  tau(  53) = (   2.2867615   0.0439400  18.5018857  )

     number of k points=    10  Fermi-Dirac smearing, width (Ry)=  0.0073
                       cart. coord. in units 2pi/alat
        k(    1) = (   0.0000000   0.0000000   0.0000000), wk =   0.1250000
        k(    2) = (   0.0000000   0.0419351   0.0000000), wk =   0.2500000
        k(    3) = (   0.0000000  -0.0838702   0.0000000), wk =   0.1250000
        k(    4) = (   0.0379955   0.0000049   0.0000000), wk =   0.2500000
        k(    5) = (   0.0379955   0.0419400   0.0000000), wk =   0.2500000
        k(    6) = (   0.0379955  -0.0838652   0.0000000), wk =   0.2500000
        k(    7) = (   0.0379955  -0.0419301   0.0000000), wk =   0.2500000
        k(    8) = (  -0.0759910  -0.0000099   0.0000000), wk =   0.1250000
        k(    9) = (  -0.0759910   0.0419252   0.0000000), wk =   0.2500000
        k(   10) = (  -0.0759910  -0.0838800   0.0000000), wk =   0.1250000

     Initial potential from superposition of free atoms

     starting charge  383.99917, renormalised to  400.00000

     negative rho (up, down):  1.461E-02 0.000E+00

     %%%%%%%%%%%%%%%%%%%%%%%%%%%%%%%%%%%%%%%%%%%%%%%%%%%%%%%%%%%%%%%%%%%%%%%%
     %                                                                      %
     % You are using vdW-DF, which was implemented by the Thonhauser group. %
     % Please cite the following two papers that made this development      %
     % possible and the two reviews that describe the various versions:     %
     %                                                                      %
     %   T. Thonhauser et al., PRL 115, 136402 (2015).                      %
     %   T. Thonhauser et al., PRB 76, 125112 (2007).                       %
     %   K. Berland et al., Rep. Prog. Phys. 78, 066501 (2015).             %
     %   D.C. Langreth et al., J. Phys.: Condens. Matter 21, 084203 (2009). %
     %                                                                      %
     %                                                                      %
     % If you are calculating the stress with vdW-DF, please also cite:     %
     %                                                                      %
     %   R. Sabatini et al., J. Phys.: Condens. Matter 24, 424209 (2012).   %
     %                                                                      %
     %%%%%%%%%%%%%%%%%%%%%%%%%%%%%%%%%%%%%%%%%%%%%%%%%%%%%%%%%%%%%%%%%%%%%%%%

     Adding external electric field

     Computed dipole along edir(3) :
        Dipole              -10.4151 Ry au,        -26.4725 Debye
        Dipole field         -0.0197 Ry au,

        Potential amp.        1.8220 Ry
        Total length         46.3494 bohr

     Starting wfcs are  302 atomic wfcs
  @ DRIVER MODE: Message from server: STATUS
  @ DRIVER MODE: Message from server: POSDATA
  @ DRIVER MODE: Reading and sharing cell
  @ DRIVER MODE: Reading and sharing positions
  @ DRIVER MODE: Received positions

     Self-consistent Calculation

     iteration #  1     ecut=    29.40 Ry     beta= 0.05
     Davidson diagonalization with overlap
     c_bands:  1 eigenvalues not converged
     c_bands:  1 eigenvalues not converged
     c_bands:  1 eigenvalues not converged
     c_bands:  1 eigenvalues not converged
     c_bands:  3 eigenvalues not converged
     c_bands:  2 eigenvalues not converged
     c_bands:  3 eigenvalues not converged
     c_bands:  2 eigenvalues not converged
     c_bands:  4 eigenvalues not converged
     c_bands:  2 eigenvalues not converged
     ethr =  1.00E-05,  avg # of iterations = 20.0

[...]

     total energy              =   -2482.75371305 Ry
     estimated scf accuracy    <    5425.63296100 Ry

     iteration #  2     ecut=    29.40 Ry     beta= 0.05
     Davidson diagonalization with overlap
     ethr =  1.00E-02,  avg # of iterations = 23.0

[...]

     iteration # 48     ecut=    29.40 Ry     beta= 0.05
     Davidson diagonalization with overlap
     c_bands:  1 eigenvalues not converged
     ethr =  1.44E-06,  avg # of iterations =  8.3

[...]

     total energy              =   -2970.22402914 Ry
     estimated scf accuracy    <       0.00000011 Ry

     iteration # 74     ecut=    29.40 Ry     beta= 0.05
     Davidson diagonalization with overlap
     ethr =  2.17E-11,  avg # of iterations =  4.1

     negative rho (up, down):  1.522E-02 0.000E+00

     Adding external electric field

     Computed dipole along edir(3) :
        Dipole                0.3087 Ry au,          0.7845 Debye
        Dipole field          0.0006 Ry au,

        Potential amp.       -0.0540 Ry
        Total length         46.3494 bohr

     End of self-consistent calculation

          k = 0.0000 0.0000 0.0000 ( 18029 PWs)   bands (ev):

   -56.8416 -56.8080 -56.0012 -55.9661 -55.7416 -55.6772 -55.4109 -55.3865
   -55.3771 -55.3712 -55.3066 -55.2546 -55.2524 -55.2427 -55.0616 -55.0542
   -33.2631 -33.1170 -33.0889 -33.0173 -32.9268 -32.8898 -32.4856 -32.2219
   -32.2196 -32.1912 -32.1422 -32.1402 -32.1115 -31.9732 -31.9612 -31.9088
   -31.8822 -31.8674 -31.8415 -31.7922 -31.7570 -31.7408 -31.7352 -31.7326
   -31.7190 -31.6543 -31.6499 -31.6207 -31.6160 -31.6060 -31.5973 -31.5354
   -31.5233 -31.5054 -31.5033 -31.4785 -31.4746 -31.4573 -31.4455 -31.4237
   -31.4172 -31.3971 -31.3221 -31.3051 -31.3048 -31.2727 -31.2707 -31.2588
   -19.0069 -16.9628 -16.4389 -16.1856 -16.1693 -16.0767 -16.0469 -16.0356
   -15.9551 -15.7604 -15.6987 -15.6268 -15.6057 -15.5109 -15.3861 -15.2896
   -15.1603 -15.0852 -15.0216 -15.0122 -15.0020 -14.9820 -14.8681 -14.8643
   -14.8596 -14.8167 -14.7708 -14.6124 -14.5251 -14.3644 -14.3304 -13.9085
   -13.8011 -13.6386  -6.2776  -5.0456  -4.5322  -3.9497  -3.9115  -3.8444
    -3.7381  -3.5782  -3.5676  -3.4389  -3.3719  -3.2486  -3.2378  -3.2217
    -3.1545  -3.1360  -2.9892  -2.9407  -2.9251  -2.8205  -2.7897  -2.6362
    -2.6101  -2.5153  -2.4661  -2.4320  -2.3761  -2.3497  -2.2748  -2.2678
    -2.2489  -2.1616  -2.1610  -2.1286  -2.0493  -2.0373  -1.9685  -1.9208
    -1.8818  -1.8231  -1.7980  -1.7241  -1.7206  -1.5993  -1.5174  -1.4761
    -1.4325  -1.4234  -1.3633  -1.3082  -1.1983  -1.1721  -1.0822  -1.0370
    -1.0243  -0.9741  -0.8853  -0.8574  -0.7885  -0.7158  -0.6976  -0.6121
    -0.5832  -0.5595  -0.4533  -0.4344  -0.3796  -0.3537  -0.3228  -0.3110
    -0.2332  -0.1165  -0.1020  -0.0375   0.0121   0.0405   0.1327   0.2250
     0.2720   0.3224   0.3516   0.3701   0.4462   0.4737   0.4960   0.5478
     0.5772   0.6106   0.6156   0.7198   0.7508   0.8141   0.8725   0.8925
     1.0013   1.0388   1.0975   1.1476   1.1886   1.5311   1.6318   1.8784
     2.4461   2.6125   2.8886   3.0210   3.3457   3.4326   3.4409   3.4469
     3.6841   3.8211

[...]

          k = 0.0380-0.0419 0.0000 ( 17876 PWs)   bands (ev):

[...]

          k =-0.0760-0.0000 0.0000 ( 17886 PWs)   bands (ev):

[...]

          k =-0.0760-0.0839 0.0000 ( 17948 PWs)   bands (ev):

   -56.8253 -56.8242 -55.9889 -55.9783 -55.7367 -55.6820 -55.3945 -55.3933
   -55.3826 -55.3697 -55.3104 -55.2532 -55.2508 -55.2442 -55.0629 -55.0555
   -33.1033 -33.1022 -33.0808 -33.0796 -32.9710 -32.9702 -32.3103 -32.3018
   -32.1839 -32.1718 -32.1690 -32.1620 -32.0440 -32.0003 -31.9666 -31.9574
   -31.9098 -31.9046 -31.7461 -31.7452 -31.7141 -31.6617 -31.6588 -31.6507
   -31.6426 -31.6299 -31.6154 -31.6138 -31.6090 -31.6014 -31.5876 -31.5767
   -31.5760 -31.5750 -31.5462 -31.5208 -31.5063 -31.4946 -31.4601 -31.4529
   -31.4487 -31.4422 -31.4104 -31.3785 -31.3268 -31.2939 -31.2747 -31.2615
   -19.0043 -16.3290 -16.3263 -16.2709 -16.2693 -16.1659 -16.0298 -16.0241
   -15.7763 -15.7465 -15.5514 -15.5110 -15.4620 -15.4083 -15.3701 -15.3678
   -15.2294 -15.2179 -15.1139 -15.0351 -15.0137 -14.9810 -14.9698 -14.9483
   -14.9426 -14.8711 -14.7863 -14.7240 -14.7100 -14.5424 -14.4639 -13.9057
   -13.9049 -13.6431  -6.2762  -5.0136  -3.9511  -3.7711  -3.6017  -3.3942
    -3.3917  -3.3867  -3.3789  -3.1499  -3.1393  -2.9656  -2.9591  -2.9333
    -2.8724  -2.8607  -2.7543  -2.6860  -2.6805  -2.6713  -2.6463  -2.6202
    -2.6146  -2.5509  -2.4942  -2.3868  -2.3634  -2.3284  -2.3081  -2.2940
    -2.1748  -2.1482  -2.1370  -2.1078  -2.0926  -2.0801  -2.0433  -2.0186
    -1.8652  -1.8269  -1.7182  -1.7038  -1.6834  -1.6400  -1.6229  -1.6016
    -1.5755  -1.5411  -1.5366  -1.4500  -1.4264  -1.3695  -1.2866  -1.2089
    -1.1604  -1.1481  -1.0862  -1.0347  -0.9249  -0.9005  -0.8650  -0.8451
    -0.8166  -0.7584  -0.7281  -0.6229  -0.5373  -0.5067  -0.4853  -0.4802
    -0.4455  -0.4121  -0.3897  -0.2753  -0.2631  -0.2481  -0.1493  -0.0544
     0.0291   0.0897   0.1049   0.1834   0.2792   0.3239   0.3889   0.4523
     0.4947   0.5100   0.6826   0.7315   0.8544   0.8789   0.9107   0.9730
     0.9871   0.9916   1.0137   1.0226   1.0519   1.1308   1.5516   1.7939
     3.0333   3.0361   3.0923   3.0984   3.4021   3.4055   3.5109   3.5135
     3.7956   3.8071

     the Fermi energy is     2.2219 ev

!    total energy              =   -2970.22404137 Ry
     estimated scf accuracy    <       0.00000005 Ry
     smearing contrib. (-TS)   =      -0.00327663 Ry
     internal energy E=F+TS    =   -2970.22076474 Ry

     The total energy is F=E-TS. E is the sum of the following terms:
     one-electron contribution =  -23874.94081638 Ry
     hartree contribution      =   12028.65127712 Ry
     xc contribution           =    -491.46079917 Ry
     ewald contribution        =    9367.52939392 Ry
     electric field correction =       0.00017978 Ry

     convergence has been achieved in  74 iterations

     Forces acting on atoms (cartesian axes, Ry/au):

     atom    1 type  1   force =     0.00006165   -0.00042559    0.12337904
     atom    2 type  1   force =    -0.00004364    0.00024959   -0.15538165
     atom    3 type  2   force =     0.00000908   -0.00007034   -0.06316405
     atom    4 type  2   force =     0.00000898    0.00024120    0.01792790
     atom    5 type  2   force =    -0.00300660   -0.00168044   -0.01288343
     atom    6 type  2   force =     0.00468667   -0.00105947   -0.01335449
     atom    7 type  1   force =    -0.00007400   -0.00671257    0.05747323
     atom    8 type  1   force =     0.00032817    0.01201878    0.09290885
     atom    9 type  2   force =    -0.00005534   -0.00007618   -0.00011469
     atom   10 type  2   force =    -0.00146636    0.00206213   -0.05861653
     atom   11 type  2   force =    -0.00001519    0.00037006   -0.00010499
     atom   12 type  2   force =    -0.00008018    0.00058846   -0.00004020
     atom   13 type  1   force =    -0.00017747    0.00091970   -0.00018116
     atom   14 type  1   force =    -0.00008314    0.00063932   -0.00042721
     atom   15 type  2   force =     0.00001044   -0.00063717   -0.00055520
     atom   16 type  2   force =    -0.00013263    0.00008289   -0.00105914
     atom   17 type  2   force =    -0.00010175   -0.00053679   -0.00034441
     atom   18 type  2   force =    -0.00006861    0.00040893   -0.00042055
     atom   19 type  1   force =     0.00039317   -0.00023199    0.00115373
     atom   20 type  1   force =    -0.00043922    0.00079803    0.00026644
     atom   21 type  2   force =     0.00003381    0.00021449    0.09797689
     atom   22 type  2   force =     0.00043772   -0.00007283    0.00090456
     atom   23 type  2   force =    -0.08220119    0.00004449   -0.03274611
     atom   24 type  2   force =     0.08208445    0.00048340   -0.03282069
     atom   25 type  1   force =     0.00009717   -0.00059782    0.12339268
     atom   26 type  1   force =    -0.00015756   -0.00150542   -0.15594120
     atom   27 type  2   force =     0.00006865   -0.00069307   -0.06138995
     atom   28 type  2   force =     0.00002094    0.00205702    0.01318892
     atom   29 type  2   force =    -0.00128957    0.00546857   -0.01605872
     atom   30 type  2   force =     0.00295744    0.00580010   -0.01650435
     atom   31 type  1   force =    -0.00011485    0.00211443    0.04130859
     atom   32 type  1   force =     0.00052764   -0.01544613    0.09259064
     atom   33 type  2   force =    -0.00021117   -0.00073630   -0.00056435
     atom   34 type  2   force =    -0.00141153    0.00202984   -0.07248259
     atom   35 type  2   force =     0.00020189   -0.00081021    0.00005268
     atom   36 type  2   force =    -0.00024713   -0.00092378    0.00009864
     atom   37 type  1   force =    -0.00023457   -0.00111374   -0.00024115
     atom   38 type  1   force =    -0.00008037   -0.00150298    0.00069934
     atom   39 type  2   force =     0.00036246   -0.00048722    0.00003144
     atom   40 type  2   force =    -0.00003576   -0.00068296   -0.00128787
     atom   41 type  2   force =     0.00031297    0.00025690    0.00012724
     atom   42 type  2   force =     0.00004622    0.00037319    0.00058244
     atom   43 type  1   force =    -0.00013268   -0.00003432    0.00071404
     atom   44 type  1   force =    -0.00024785    0.00006847   -0.00070698
     atom   45 type  2   force =     0.00002654    0.00002410    0.09775631
     atom   46 type  2   force =    -0.08226693   -0.00001428   -0.03277950
     atom   47 type  2   force =     0.08211942    0.00043500   -0.03279357
     atom   48 type  3   force =    -0.00069646   -0.00223484   -0.00388015
     atom   49 type  3   force =     0.00022788    0.00096201    0.00000159
     atom   50 type  4   force =     0.00023049    0.00189147    0.00472962
     atom   51 type  5   force =     0.00000691   -0.00094782   -0.00041962
     atom   52 type  2   force =    -0.00038480   -0.00043520   -0.00010654
     atom   53 type  5   force =     0.00019580   -0.00093312    0.00010623

     Total force =     0.412353     Total SCF correction =     0.000522
  @ DRIVER MODE: Message from server: STATUS
  @ DRIVER MODE: Message from server: GETFORCE
  @ DRIVER MODE: Returning v,forces,stress,ensemble

     Writing output data file ./calc.save/
  @ DRIVER MODE: Message from server: EXIT
  @ DRIVE MODE: Exiting

     General routines

     Parallel routines

   This run was terminated on:  15:57:45  22Sep2021

   JOB DONE.