     Program PWSCF v.6.7GPU starts on 24Sep2021 at 13:43:59

     R & G space division:  proc/nbgrp/npool/nimage =       8
     Reading input from /storage/home/hcoda1/3/ntian30/research/carbon/CxH_vib/H2O_calc/ads_slab/CH2NHNH2HO_a/out_0059/pw.inp
Warning: card &CELL ignored
Warning: card   CELL_DYNAMICS='IPI', ignored
Warning: card / ignored

     Current dimensions of program PWSCF are:
     Max number of different atomic species (ntypx) = 10
     Max number of k-points (npk) =  40000
     Max angular momentum in pseudopotentials (lmaxx) =  3
     Presently no symmetry can be used with electric field

     Message from routine cell_base_init:
     DEPRECATED: use true lattice parameter, not A to a.u. conversion factor

     IMPORTANT: XC functional enforced from input :
     Exchange-correlation= BEEF-VDW
                           (   1   4  43  14   2   0   0)
     Any further DFT definition will be discarded
     Please, verify this is what you really want

  @ DRIVER MODE: Connecting to
 qe_1139763_2947313.sched-torque.pace.gatech.edu0dl0q22c_scratch
  using UNIX socket
  @ DRIVER MODE: Message from server: STATUS
  @ DRIVER MODE: Message from server: INIT
  @ DRIVER MODE: Receiving replica           0          -1
  @ DRIVER MODE: Receiving encoded integer          25
  @ DRIVER MODE:  SCF:  T  FORCE:  T  STRESS:  F  VC:  F  ENSEMBLE:  F
  @ DRIVER MODE:  SCF:  T  FORCE:  T  STRESS:  F  VC:  F  ENSEMBLE:  F

     Using Slab Decomposition

     bravais-lattice index     =            0
     lattice parameter (alat)  =       1.8897  a.u.
     unit-cell volume          =    6658.9804 (a.u.)^3
     number of atoms/cell      =           57
     number of atomic types    =            5
     number of electrons       =       404.00
     number of Kohn-Sham states=          212
     kinetic-energy cutoff     =      29.3995  Ry
     charge density cutoff     =     293.9946  Ry
     scf convergence threshold =      7.3E-08
     mixing beta               =       0.0500
     number of iterations used =            8  plain     mixing
     Exchange-correlation= BEEF-VDW
                           (   1   4  43  14   2   0   0)

     celldm(1)=   1.889726  celldm(2)=   0.000000  celldm(3)=   0.000000
     celldm(4)=   0.000000  celldm(5)=   0.000000  celldm(6)=   0.000000

     crystal axes: (cart. coord. in units of alat)
               a(1) = (   6.579727   0.000000   0.000000 )
               a(2) = (  -0.000775   5.961596   0.000000 )
               a(3) = (   0.000000   0.000000  25.155947 )

     reciprocal axes: (cart. coord. in units 2 pi/alat)
               b(1) = (  0.151982  0.000020  0.000000 )
               b(2) = (  0.000000  0.167740  0.000000 )
               b(3) = (  0.000000  0.000000  0.039752 )

     PseudoPot. # 1 for Ti read from file:
     /storage/coda1/p-amedford6/0/shared/rich_project_chbe-medford/medford-share/data/pseudos_module/espresso/nninc/pbe/van/Ti.UPF
     MD5 check sum: 8e4df49b7f0d34bbd5052bf3f5ea0213
     Pseudo is Ultrasoft, Zval = 12.0
     Generated by new atomic code, or converted to UPF format
     Using radial grid of  851 points,  6 beta functions with:
                l(1) =   0
                l(2) =   0
                l(3) =   1
                l(4) =   1
                l(5) =   2
                l(6) =   2
     Q(r) pseudized with  8 coefficients,  rinner =    1.000   1.000   1.000
                                                       1.000   1.000

     PseudoPot. # 2 for O  read from file:
     /storage/coda1/p-amedford6/0/shared/rich_project_chbe-medford/medford-share/data/pseudos_module/espresso/nninc/pbe/van/O.UPF
     MD5 check sum: 78c19812648e8988a0fe644b0f25305e
     Pseudo is Ultrasoft, Zval =  6.0
     Generated by new atomic code, or converted to UPF format
     Using radial grid of  737 points,  4 beta functions with:
                l(1) =   0
                l(2) =   0
                l(3) =   1
                l(4) =   1
     Q(r) pseudized with  8 coefficients,  rinner =    0.800   0.800   0.800

     PseudoPot. # 3 for N  read from file:
     /storage/coda1/p-amedford6/0/shared/rich_project_chbe-medford/medford-share/data/pseudos_module/espresso/nninc/pbe/van/N.UPF
     MD5 check sum: 90d10febe142ad51ac9d5be1deb811c4
     Pseudo is Ultrasoft, Zval =  5.0
     Generated by new atomic code, or converted to UPF format
     Using radial grid of  729 points,  4 beta functions with:
                l(1) =   0
                l(2) =   0
                l(3) =   1
                l(4) =   1
     Q(r) pseudized with  8 coefficients,  rinner =    0.800   0.800   0.800

     PseudoPot. # 4 for C  read from file:
     /storage/coda1/p-amedford6/0/shared/rich_project_chbe-medford/medford-share/data/pseudos_module/espresso/nninc/pbe/van/C.UPF
     MD5 check sum: 1a69bf6b8db32088f5b2163dbdb77a27
     Pseudo is Ultrasoft, Zval =  4.0
     Generated by new atomic code, or converted to UPF format
     Using radial grid of  721 points,  4 beta functions with:
                l(1) =   0
                l(2) =   0
                l(3) =   1
                l(4) =   1
     Q(r) pseudized with  8 coefficients,  rinner =    0.800   0.800   0.800

     PseudoPot. # 5 for H  read from file:
     /storage/coda1/p-amedford6/0/shared/rich_project_chbe-medford/medford-share/data/pseudos_module/espresso/nninc/pbe/van/H.UPF
     MD5 check sum: b5ee9d7bfd3a09ee7748110bda690ff7
     Pseudo is Ultrasoft, Zval =  1.0
     Generated by new atomic code, or converted to UPF format
     Using radial grid of  615 points,  1 beta functions with:
                l(1) =   0
     Q(r) pseudized with  8 coefficients,  rinner =    0.800

     atomic species   valence    mass     pseudopotential
        Ti1           12.00    47.86700     Ti( 1.00)
        O1             6.00    15.99900     O ( 1.00)
        N1             5.00    14.00700     N ( 1.00)
        C1             4.00    12.01100     C ( 1.00)
        H1             1.00     1.00800     H ( 1.00)

     No symmetry found

   Cartesian axes

     site n.     atom                  positions (alat units)
         1           Ti1 tau(   1) = (   0.0004258   2.9801865   6.0000000  )
         2           Ti1 tau(   2) = (   3.2906075   1.4906267   6.0002472  )
         3           O1  tau(   3) = (   0.0006271   0.0005054   7.9858123  )
         4           O1  tau(   4) = (   3.2906025   0.0005020   7.3038282  )
         5           O1  tau(   5) = (   4.5942328   1.4918067   9.2879030  )
         6           O1  tau(   6) = (   1.9868534   1.4903216   9.2879459  )
         7           Ti1 tau(   7) = (   3.2907910   2.8959150   9.1758416  )
         8           Ti1 tau(   8) = (   0.0015273   1.4827037   9.2680791  )
         9           O1  tau(   9) = (   3.2769995   5.9424463  11.3879711  )
        10           O1  tau(  10) = (   0.0116148   5.9584955  10.6183126  )
        11           O1  tau(  11) = (   1.2559300   1.4809235  12.6914295  )
        12           O1  tau(  12) = (   5.2914439   1.4888754  12.6824943  )
        13           Ti1 tau(  13) = (   6.5693074   2.9549812  12.5071532  )
        14           Ti1 tau(  14) = (   3.2720578   1.2926143  12.7373905  )
        15           O1  tau(  15) = (   6.5263330   5.9075480  14.6758232  )
        16           O1  tau(  16) = (   3.2750150   0.0724425  14.0538047  )
        17           O1  tau(  17) = (   4.5404297   1.6145126  16.1214498  )
        18           O1  tau(  18) = (   1.9612862   1.5681812  16.1371236  )
        19           Ti1 tau(  19) = (   3.2615978   3.0295928  15.7214328  )
        20           Ti1 tau(  20) = (   6.4910920   1.3289874  15.8500745  )
        21           O1  tau(  21) = (   3.2904802   0.0005063   4.7018136  )
        22           O1  tau(  22) = (   6.5149858   0.1606772  17.2625446  )
        23           O1  tau(  23) = (   1.3043587   1.4918075   6.0039043  )
        24           O1  tau(  24) = (   5.2767064   1.4903225   6.0039473  )
        25           Ti1 tau(  25) = (   0.0000382   5.9609847   6.0000000  )
        26           Ti1 tau(  26) = (   3.2902200   4.4714249   6.0002472  )
        27           O1  tau(  27) = (   0.0002396   2.9813036   7.9858123  )
        28           O1  tau(  28) = (   3.2902150   2.9813002   7.3038282  )
        29           O1  tau(  29) = (   4.5938453   4.4726049   9.2879030  )
        30           O1  tau(  30) = (   1.9864658   4.4711199   9.2879459  )
        31           Ti1 tau(  31) = (   3.2891106   5.8743827   9.1763621  )
        32           Ti1 tau(  32) = (   0.0006254   4.4649316   9.2693709  )
        33           O1  tau(  33) = (   3.2749377   2.9871965  11.3337082  )
        34           O1  tau(  34) = (   0.0092240   2.9805883  10.6323155  )
        35           O1  tau(  35) = (   1.2597673   4.4587344  12.6634223  )
        36           O1  tau(  36) = (   5.2866262   4.4511231  12.6493885  )
        37           Ti1 tau(  37) = (   6.5604603   5.9292220  12.4937940  )
        38           Ti1 tau(  38) = (   3.2724722   4.3622713  12.4512132  )
        39           O1  tau(  39) = (   6.5737517   3.0258615  14.9025115  )
        40           O1  tau(  40) = (   3.2593133   3.0063273  13.9441864  )
        41           O1  tau(  41) = (   4.5441350   4.4310557  16.1689449  )
        42           O1  tau(  42) = (   1.9655774   4.4762250  16.2070539  )
        43           Ti1 tau(  43) = (   3.1776431   0.0563557  16.2565842  )
        44           Ti1 tau(  44) = (   6.5216753   4.5226504  15.9439936  )
        45           O1  tau(  45) = (   3.2900926   2.9813045   4.7018136  )
        46           O1  tau(  46) = (   1.3039711   4.4726057   6.0039043  )
        47           O1  tau(  47) = (   5.2763189   4.4711207   6.0039473  )
        48           N1  tau(  48) = (   0.8157702   2.5297039  18.7633901  )
        49           N1  tau(  49) = (   6.4302604   3.3580032  18.1334362  )
        50           C1  tau(  50) = (   1.9549655   3.0231469  19.2293773  )
        51           H1  tau(  51) = (   2.0901252   4.0892486  19.3254668  )
        52           H1  tau(  52) = (   2.7239663   2.3052050  19.4587972  )
        53           H1  tau(  53) = (   0.7490178   1.5515861  18.4517582  )
        54           H1  tau(  54) = (   6.4535031   4.2829477  18.5696568  )
        55           H1  tau(  55) = (   5.5068980   2.9516776  18.2836589  )
        56           O1  tau(  56) = (   3.3967406   0.0908776  18.1493316  )
        57           H1  tau(  57) = (   4.3453859   0.1513423  18.3440861  )

     number of k points=    10  Fermi-Dirac smearing, width (Ry)=  0.0073
                       cart. coord. in units 2pi/alat
        k(    1) = (   0.0000000   0.0000000   0.0000000), wk =   0.1250000
        k(    2) = (   0.0000000   0.0419351   0.0000000), wk =   0.2500000
        k(    3) = (   0.0000000  -0.0838702   0.0000000), wk =   0.1250000
        k(    4) = (   0.0379955   0.0000049   0.0000000), wk =   0.2500000
        k(    5) = (   0.0379955   0.0419400   0.0000000), wk =   0.2500000
        k(    6) = (   0.0379955  -0.0838652   0.0000000), wk =   0.2500000
        k(    7) = (   0.0379955  -0.0419301   0.0000000), wk =   0.2500000
        k(    8) = (  -0.0759910  -0.0000099   0.0000000), wk =   0.1250000
        k(    9) = (  -0.0759910   0.0419252   0.0000000), wk =   0.2500000
        k(   10) = (  -0.0759910  -0.0838800   0.0000000), wk =   0.1250000

     Initial potential from superposition of free atoms

     starting charge  387.99913, renormalised to  404.00000

     negative rho (up, down):  1.609E-02 0.000E+00

     %%%%%%%%%%%%%%%%%%%%%%%%%%%%%%%%%%%%%%%%%%%%%%%%%%%%%%%%%%%%%%%%%%%%%%%%
     %                                                                      %
     % You are using vdW-DF, which was implemented by the Thonhauser group. %
     % Please cite the following two papers that made this development      %
     % possible and the two reviews that describe the various versions:     %
     %                                                                      %
     %   T. Thonhauser et al., PRL 115, 136402 (2015).                      %
     %   T. Thonhauser et al., PRB 76, 125112 (2007).                       %
     %   K. Berland et al., Rep. Prog. Phys. 78, 066501 (2015).             %
     %   D.C. Langreth et al., J. Phys.: Condens. Matter 21, 084203 (2009). %
     %                                                                      %
     %                                                                      %
     % If you are calculating the stress with vdW-DF, please also cite:     %
     %                                                                      %
     %   R. Sabatini et al., J. Phys.: Condens. Matter 24, 424209 (2012).   %
     %                                                                      %
     %%%%%%%%%%%%%%%%%%%%%%%%%%%%%%%%%%%%%%%%%%%%%%%%%%%%%%%%%%%%%%%%%%%%%%%%

     Adding external electric field

     Computed dipole along edir(3) :
        Dipole              -13.8421 Ry au,        -35.1831 Debye
        Dipole field         -0.0261 Ry au,

        Potential amp.        2.4215 Ry
        Total length         46.3494 bohr

     Starting wfcs are  306 atomic wfcs
  @ DRIVER MODE: Message from server: STATUS
  @ DRIVER MODE: Message from server: POSDATA
  @ DRIVER MODE: Reading and sharing cell
  @ DRIVER MODE: Reading and sharing positions
  @ DRIVER MODE: Received positions

     Self-consistent Calculation

     iteration #  1     ecut=    29.40 Ry     beta= 0.05
     Davidson diagonalization with overlap
     c_bands:  1 eigenvalues not converged
     c_bands:  2 eigenvalues not converged
     c_bands:  1 eigenvalues not converged
     c_bands:  1 eigenvalues not converged
     c_bands:  1 eigenvalues not converged
     c_bands:  1 eigenvalues not converged
     c_bands:  5 eigenvalues not converged
     c_bands:  3 eigenvalues not converged
     ethr =  1.00E-05,  avg # of iterations = 32.8

[...]

     total energy              =   -2231.90370484 Ry
     estimated scf accuracy    <    8425.94037255 Ry

     iteration #  2     ecut=    29.40 Ry     beta= 0.05
     Davidson diagonalization with overlap
     ethr =  1.00E-02,  avg # of iterations = 27.9

[...]

     iteration # 73     ecut=    29.40 Ry     beta= 0.05
     Davidson diagonalization with overlap
     c_bands:  1 eigenvalues not converged
     c_bands:  1 eigenvalues not converged
     c_bands:  3 eigenvalues not converged
     c_bands:  1 eigenvalues not converged
     ethr =  4.29E-09,  avg # of iterations = 18.2

[...]

     total energy              =   -2975.15014127 Ry
     estimated scf accuracy    <       0.00000016 Ry

     iteration # 85     ecut=    29.40 Ry     beta= 0.05
     Davidson diagonalization with overlap
     ethr =  3.96E-11,  avg # of iterations =  8.7

     negative rho (up, down):  1.525E-02 0.000E+00

     Adding external electric field

     Computed dipole along edir(3) :
        Dipole                1.1778 Ry au,          2.9937 Debye
        Dipole field          0.0022 Ry au,

        Potential amp.       -0.2060 Ry
        Total length         46.3494 bohr

     End of self-consistent calculation

          k = 0.0000 0.0000 0.0000 ( 18029 PWs)   bands (ev):

   -55.4173 -55.3355 -55.3014 -55.2308 -55.1926 -55.1820 -55.1672 -55.1658
   -55.1507 -55.1313 -55.1029 -55.0318 -55.0245 -54.9974 -54.3298 -54.2957
   -31.8234 -31.7737 -31.7441 -31.7166 -31.6697 -31.6695 -31.6344 -31.6254
   -31.6218 -31.6097 -31.5809 -31.5431 -31.5056 -31.4884 -31.4725 -31.4649
   -31.4485 -31.4451 -31.4440 -31.4099 -31.3930 -31.3816 -31.3765 -31.3723
   -31.3678 -31.3614 -31.3582 -31.3366 -31.3306 -31.3274 -31.3271 -31.3037
   -31.2955 -31.2918 -31.2797 -31.2555 -31.2381 -31.2337 -31.2115 -31.2013
   -31.1987 -31.1946 -30.7369 -30.6478 -30.6255 -30.5540 -30.4675 -30.3560
   -19.3749 -16.2844 -16.0517 -15.8858 -15.6701 -15.6244 -15.5334 -15.3712
   -15.2591 -15.1887 -15.0804 -15.0046 -14.9315 -14.8956 -14.8864 -14.8729
   -14.8676 -14.8165 -14.8077 -14.7938 -14.7834 -14.7731 -14.7663 -14.7320
   -14.6979 -14.6495 -14.6111 -14.4945 -14.4560 -14.4195 -14.2972 -14.2765
   -12.8287 -12.7119 -10.1888  -7.8215  -6.5647  -5.3917  -4.1898  -3.8069
    -3.6630  -3.3936  -3.2851  -3.2534  -3.1906  -3.1587  -2.9042  -2.8049
    -2.7859  -2.6496  -2.5308  -2.4843  -2.4237  -2.3532  -2.3217  -2.2987
    -2.2734  -2.2175  -2.1530  -2.1393  -2.1262  -2.0493  -2.0449  -1.9708
    -1.9209  -1.9084  -1.8038  -1.7318  -1.6998  -1.6866  -1.6751  -1.6583
    -1.6337  -1.6266  -1.6028  -1.5410  -1.4750  -1.4659  -1.4008  -1.3745
    -1.1035  -1.0388  -0.9730  -0.9436  -0.8671  -0.8280  -0.8110  -0.7877
    -0.7440  -0.7410  -0.7197  -0.6606  -0.5612  -0.5064  -0.4774  -0.4564
    -0.4037  -0.2904  -0.2709  -0.1590  -0.1307  -0.1239  -0.0842  -0.0363
     0.0056   0.0446   0.1063   0.1764   0.2268   0.2776   0.3096   0.3358
     0.3761   0.4113   0.4719   0.5495   0.5734   0.6180   0.6479   0.6681
     0.6777   0.7342   0.7511   0.8392   0.9197   0.9309   1.0294   1.0603
     1.1099   1.2964   1.3328   1.6324   1.6787   1.6967   1.8852   2.2664
     2.3128   3.7316   3.8558   3.8861   3.8963   3.9351   3.9685   4.0241
     4.2188   4.2302   4.3420   4.4222

[...]

          k = 0.0380-0.0419 0.0000 ( 17876 PWs)   bands (ev):

[...]

          k =-0.0760-0.0000 0.0000 ( 17886 PWs)   bands (ev):

[...]

          k =-0.0760-0.0839 0.0000 ( 17948 PWs)   bands (ev):

   -55.4165 -55.3187 -55.3181 -55.2195 -55.2037 -55.1796 -55.1681 -55.1483
   -55.1479 -55.1444 -55.1097 -55.0266 -55.0205 -55.0086 -54.3132 -54.3122
   -31.6858 -31.6752 -31.6568 -31.6388 -31.6384 -31.6226 -31.6110 -31.6104
   -31.5698 -31.5384 -31.5226 -31.4977 -31.4883 -31.4799 -31.4687 -31.4556
   -31.4542 -31.4486 -31.4454 -31.4385 -31.4379 -31.4289 -31.4127 -31.4053
   -31.4005 -31.3834 -31.3690 -31.3686 -31.3624 -31.3599 -31.3553 -31.3449
   -31.3305 -31.3265 -31.3252 -31.3217 -31.2878 -31.2863 -31.2475 -31.2415
   -31.2156 -31.2071 -30.6386 -30.6378 -30.5502 -30.5490 -30.5112 -30.5104
   -19.3703 -16.2566 -15.7558 -15.4873 -15.3619 -15.3500 -15.2286 -15.2127
   -15.1502 -15.1419 -15.1126 -15.0994 -15.0888 -15.0445 -15.0161 -14.9320
   -14.9166 -14.8756 -14.8722 -14.8264 -14.8241 -14.8225 -14.8007 -14.7792
   -14.7737 -14.7482 -14.7234 -14.6851 -14.6717 -14.5346 -14.4425 -14.3992
   -12.8138 -12.8133 -10.1600  -7.7878  -6.5567  -5.4749  -4.1484  -3.8270
    -3.6205  -2.8429  -2.6999  -2.5984  -2.4886  -2.4564  -2.4078  -2.3588
    -2.3451  -2.3134  -2.2419  -2.2132  -2.1981  -2.1620  -2.1610  -2.1379
    -2.1281  -2.1082  -2.0802  -2.0602  -2.0503  -2.0439  -2.0170  -2.0015
    -1.9869  -1.9618  -1.9339  -1.9131  -1.8995  -1.8919  -1.8418  -1.7363
    -1.6472  -1.5684  -1.5320  -1.5062  -1.4938  -1.4473  -1.4339  -1.4232
    -1.3867  -1.3633  -1.2294  -1.2076  -1.0691  -1.0137  -0.9799  -0.9341
    -0.8801  -0.8718  -0.8546  -0.8148  -0.7751  -0.6430  -0.6114  -0.5769
    -0.5086  -0.4456  -0.3585  -0.3442  -0.3202  -0.3027  -0.2671  -0.2480
    -0.2337  -0.2042  -0.1751  -0.0966  -0.0624  -0.0499  -0.0311   0.0676
     0.1666   0.2066   0.2698   0.3395   0.3813   0.4057   0.4346   0.6202
     0.6501   0.7938   0.8023   0.8069   0.9522   0.9523   1.0005   1.0485
     1.0797   1.1218   1.1507   1.1656   1.2006   2.0555   2.0639   2.1330
     2.1332   3.7683   3.9334   4.1565   4.1792   4.2378   4.2489   4.2799
     4.3056   4.3347   4.3754   4.3950

     the Fermi energy is     3.7814 ev

!    total energy              =   -2975.15014735 Ry
     estimated scf accuracy    <       0.00000005 Ry
     smearing contrib. (-TS)   =      -0.03329681 Ry
     internal energy E=F+TS    =   -2975.11685054 Ry

     The total energy is F=E-TS. E is the sum of the following terms:
     one-electron contribution =  -23380.29519882 Ry
     hartree contribution      =   11787.38775360 Ry
     xc contribution           =    -494.90550508 Ry
     ewald contribution        =    9112.69348177 Ry
     electric field correction =       0.00261799 Ry

     convergence has been achieved in  85 iterations

     Forces acting on atoms (cartesian axes, Ry/au):

     atom    1 type  1   force =     0.00028437   -0.00020009    0.09345622
     atom    2 type  1   force =    -0.00005621    0.00053398   -0.17634298
     atom    3 type  2   force =     0.00004362   -0.00029696   -0.02069903
     atom    4 type  2   force =     0.00001723   -0.00222539    0.05686914
     atom    5 type  2   force =    -0.00785898   -0.00263573    0.00512851
     atom    6 type  2   force =     0.00892521   -0.00211734    0.00324800
     atom    7 type  1   force =    -0.00077990   -0.00333309    0.00576070
     atom    8 type  1   force =     0.00086463    0.00107680   -0.00173276
     atom    9 type  2   force =    -0.00018693    0.00014360    0.00005085
     atom   10 type  2   force =    -0.00341793    0.00105687   -0.00644272
     atom   11 type  2   force =     0.00017593   -0.00013262    0.00032082
     atom   12 type  2   force =    -0.00011068   -0.00022770    0.00004559
     atom   13 type  1   force =     0.00000421   -0.00005835   -0.00020664
     atom   14 type  1   force =     0.00053356   -0.00040688   -0.00022871
     atom   15 type  2   force =    -0.00002854   -0.00098817   -0.00044653
     atom   16 type  2   force =     0.00021146    0.00065124    0.00074749
     atom   17 type  2   force =    -0.00126278    0.00029938   -0.00033381
     atom   18 type  2   force =     0.00131970    0.00000187   -0.00071322
     atom   19 type  1   force =    -0.00001940    0.00060462   -0.00006136
     atom   20 type  1   force =     0.00060198    0.00030332   -0.00064338
     atom   21 type  2   force =     0.00011719    0.00005162    0.10360685
     atom   22 type  2   force =     0.00001245    0.00006963    0.00072536
     atom   23 type  2   force =    -0.07137552   -0.00016689   -0.02702729
     atom   24 type  2   force =     0.07137113    0.00028098   -0.02705917
     atom   25 type  1   force =     0.00007308   -0.00017744    0.09322488
     atom   26 type  1   force =     0.00008491   -0.00126268   -0.17654173
     atom   27 type  2   force =     0.00007725   -0.00014930   -0.01947409
     atom   28 type  2   force =     0.00001803   -0.00059876    0.05223045
     atom   29 type  2   force =    -0.00742823    0.00176733    0.00488832
     atom   30 type  2   force =     0.00835885    0.00235187    0.00299201
     atom   31 type  1   force =    -0.00097863    0.00885937   -0.00435867
     atom   32 type  1   force =     0.00094369   -0.00222321   -0.00239331
     atom   33 type  2   force =    -0.00022333   -0.00134782   -0.00065244
     atom   34 type  2   force =    -0.00214382   -0.00210402   -0.00764288
     atom   35 type  2   force =    -0.00002168    0.00016130    0.00027632
     atom   36 type  2   force =     0.00018284    0.00015577    0.00021692
     atom   37 type  1   force =     0.00002998   -0.00030592    0.00013494
     atom   38 type  1   force =     0.00035148    0.00049291    0.00019188
     atom   39 type  2   force =    -0.00001245    0.00073345   -0.00017884
     atom   40 type  2   force =     0.00021636   -0.00016183    0.00044237
     atom   41 type  2   force =    -0.00044249   -0.00007725    0.00024828
     atom   42 type  2   force =     0.00082225   -0.00024276    0.00005548
     atom   43 type  1   force =    -0.00010941   -0.00071069   -0.00051435
     atom   44 type  1   force =     0.00013244    0.00086862    0.00021166
     atom   45 type  2   force =     0.00010176   -0.00008976    0.10336462
     atom   46 type  2   force =    -0.07141509   -0.00003837   -0.02706462
     atom   47 type  2   force =     0.07139213    0.00037773   -0.02709725
     atom   48 type  3   force =    -0.00075104    0.00001275   -0.00008655
     atom   49 type  3   force =     0.00042940    0.00055559    0.00041003
     atom   50 type  4   force =     0.00039601    0.00034021    0.00000273
     atom   51 type  5   force =     0.00053067   -0.00093046   -0.00046508
     atom   52 type  5   force =    -0.00007215    0.00009420   -0.00009111
     atom   53 type  5   force =    -0.00015795    0.00047512    0.00003676
     atom   54 type  5   force =    -0.00018301    0.00023456   -0.00034513
     atom   55 type  5   force =     0.00001406    0.00038933    0.00054067
     atom   56 type  2   force =    -0.00288972    0.00067114   -0.00148078
     atom   57 type  5   force =     0.00328799   -0.00040566    0.00089660

     Total force =     0.363152     Total SCF correction =     0.000966
  @ DRIVER MODE: Message from server: STATUS
  @ DRIVER MODE: Message from server: GETFORCE
  @ DRIVER MODE: Returning v,forces,stress,ensemble

     Writing output data file ./calc.save/
  @ DRIVER MODE: Message from server: EXIT
  @ DRIVE MODE: Exiting

     General routines

     Parallel routines

   This run was terminated on:  14:16:16  24Sep2021

   JOB DONE.