     Program PWSCF v.7.0 starts on 16Aug2022 at 14:45:17

     R & G space division:  proc/nbgrp/npool/nimage =       6

     Reading input from /storage/coda1/p-amedford6/0/ntian30/BEEF_carbon_assisted/ACS_sus_calc/ads_slab/N2/BEEF_carbon_assisted.log/pw.inp
Warning: card &CELL ignored
Warning: card   CELL_DYNAMICS='IPI', ignored
Warning: card / ignored

     Current dimensions of program PWSCF are:
     Max number of different atomic species (ntypx) = 10
     Max number of k-points (npk) =  40000
     Max angular momentum in pseudopotentials (lmaxx) =  4
     Presently no symmetry can be used with electric field

     Message from routine cell_base_init:
     DEPRECATED: use true lattice parameter, not A to a.u. conversion factor

     IMPORTANT: XC functional enforced from input :
     Exchange-correlation= BEEF-VDW
                           (   1   4  43  14   2   0   0)
     Any further DFT definition will be discarded
     Please, verify this is what you really want

  @ DRIVER MODE: Connecting to
 qe_1139763_4802581.sched-torque.pace.gatech.edu4o5yprdi_scratch
  using UNIX socket
  @ DRIVER MODE: Message from server: STATUS
  @ DRIVER MODE: Message from server: INIT
  @ DRIVER MODE: Receiving replica           0          -1
  @ DRIVER MODE: Receiving parameter string
 lscf : 1, lforce : 1, lstress : 0, lmovecell : 0, lensemb : 0,

     Using Slab Decomposition

     bravais-lattice index     =            0
     lattice parameter (alat)  =       1.8897  a.u.
     unit-cell volume          =    6658.9804 (a.u.)^3
     number of atoms/cell      =           49
     number of atomic types    =            3
     number of electrons       =       388.00
     number of Kohn-Sham states=          204
     kinetic-energy cutoff     =      29.3995  Ry
     charge density cutoff     =     293.9946  Ry
     scf convergence threshold =      7.3E-08
     mixing beta               =       0.0500
     number of iterations used =            8  plain     mixing
     energy convergence thresh.=      1.0E-04
     force convergence thresh. =      1.0E-03
     Exchange-correlation= BEEF-VDW
                           (   1   4  43  14   2   0   0)
     nstep                     =           50

     celldm(1)=   1.889726  celldm(2)=   0.000000  celldm(3)=   0.000000
     celldm(4)=   0.000000  celldm(5)=   0.000000  celldm(6)=   0.000000

     crystal axes: (cart. coord. in units of alat)
               a(1) = (   6.579727   0.000000   0.000000 )
               a(2) = (  -0.000775   5.961596   0.000000 )
               a(3) = (   0.000000   0.000000  25.155947 )

     reciprocal axes: (cart. coord. in units 2 pi/alat)
               b(1) = (  0.151982  0.000020  0.000000 )
               b(2) = (  0.000000  0.167740  0.000000 )
               b(3) = (  0.000000  0.000000  0.039752 )

     PseudoPot. # 1 for Ti read from file:
     /storage/coda1/p-amedford6/0/shared/rich_project_chbe-medford/medford-share/data/pseudos_module/espresso/nninc/pbe/van/Ti.UPF
     MD5 check sum: 8e4df49b7f0d34bbd5052bf3f5ea0213
     Pseudo is Ultrasoft, Zval = 12.0
     Generated by new atomic code, or converted to UPF format
     Using radial grid of  851 points,  6 beta functions with:
                l(1) =   0
                l(2) =   0
                l(3) =   1
                l(4) =   1
                l(5) =   2
                l(6) =   2
     Q(r) pseudized with  8 coefficients,  rinner =    1.000   1.000   1.000
                                                       1.000   1.000

     PseudoPot. # 2 for O  read from file:
     /storage/coda1/p-amedford6/0/shared/rich_project_chbe-medford/medford-share/data/pseudos_module/espresso/nninc/pbe/van/O.UPF
     MD5 check sum: 78c19812648e8988a0fe644b0f25305e
     Pseudo is Ultrasoft, Zval =  6.0
     Generated by new atomic code, or converted to UPF format
     Using radial grid of  737 points,  4 beta functions with:
                l(1) =   0
                l(2) =   0
                l(3) =   1
                l(4) =   1
     Q(r) pseudized with  8 coefficients,  rinner =    0.800   0.800   0.800

     PseudoPot. # 3 for N  read from file:
     /storage/coda1/p-amedford6/0/shared/rich_project_chbe-medford/medford-share/data/pseudos_module/espresso/nninc/pbe/van/N.UPF
     MD5 check sum: 90d10febe142ad51ac9d5be1deb811c4
     Pseudo is Ultrasoft, Zval =  5.0
     Generated by new atomic code, or converted to UPF format
     Using radial grid of  729 points,  4 beta functions with:
                l(1) =   0
                l(2) =   0
                l(3) =   1
                l(4) =   1
     Q(r) pseudized with  8 coefficients,  rinner =    0.800   0.800   0.800

     atomic species   valence    mass     pseudopotential
        Ti1           12.00    47.86700     Ti( 1.00)
        O1             6.00    15.99900     O ( 1.00)
        N1             5.00    14.00700     N ( 1.00)

     Starting magnetic structure
     atomic species   magnetization
        Ti1          0.083
        O1           0.167
        N1           0.200

     No symmetry found

   Cartesian axes

     site n.     atom                  positions (alat units)
         1           Ti1 tau(   1) = (   0.0004258   2.9801865   6.0000000  )
         2           Ti1 tau(   2) = (   3.2906075   1.4906267   6.0002472  )
         3           O1  tau(   3) = (   0.0006271   0.0005054   7.9858123  )
         4           O1  tau(   4) = (   3.2906025   0.0005020   7.3038282  )
         5           O1  tau(   5) = (   4.5942328   1.4918067   9.2879030  )
         6           O1  tau(   6) = (   1.9868534   1.4903216   9.2879459  )
         7           Ti1 tau(   7) = (   3.2908115   2.9770768   9.1558106  )
         8           Ti1 tau(   8) = (   0.0014744   1.4899521   9.2574773  )
         9           O1  tau(   9) = (   3.2881910   5.9516080  11.3945402  )
        10           O1  tau(  10) = (  -0.0003163   5.9583821  10.6097302  )
        11           O1  tau(  11) = (   1.2852796   1.4845524  12.6702349  )
        12           O1  tau(  12) = (   5.2939406   1.4843235  12.6686536  )
        13           Ti1 tau(  13) = (   6.5787960   2.9666663  12.5005329  )
        14           Ti1 tau(  14) = (   3.2867911   1.4810929  12.5380613  )
        15           O1  tau(  15) = (   6.5784438   5.9555467  14.6881035  )
        16           O1  tau(  16) = (   3.2900815   5.9490801  14.0192640  )
        17           O1  tau(  17) = (   4.5550846   1.4910540  16.1905095  )
        18           O1  tau(  18) = (   2.0267255   1.4911840  16.1885357  )
        19           Ti1 tau(  19) = (   3.2920947   2.9632608  15.7783766  )
        20           Ti1 tau(  20) = (   0.0012713   1.3437142  15.9485351  )
        21           O1  tau(  21) = (   3.2904802   0.0005063   4.7018136  )
        22           O1  tau(  22) = (   0.0010154   5.9436293  17.2207844  )
        23           O1  tau(  23) = (   1.3043587   1.4918075   6.0039043  )
        24           O1  tau(  24) = (   5.2767064   1.4903225   6.0039473  )
        25           Ti1 tau(  25) = (   0.0000382   5.9609847   6.0000000  )
        26           Ti1 tau(  26) = (   3.2902200   4.4714249   6.0002472  )
        27           O1  tau(  27) = (   0.0002396   2.9813036   7.9858123  )
        28           O1  tau(  28) = (   3.2902150   2.9813002   7.3038282  )
        29           O1  tau(  29) = (   4.5938453   4.4726049   9.2879030  )
        30           O1  tau(  30) = (   1.9864658   4.4711199   9.2879459  )
        31           Ti1 tau(  31) = (   3.2904075   5.9576890   9.1543145  )
        32           Ti1 tau(  32) = (   0.0010733   4.4688904   9.2576998  )
        33           O1  tau(  33) = (   3.2885442   2.9721716  11.3880939  )
        34           O1  tau(  34) = (   0.0004144   2.9779705  10.6294865  )
        35           O1  tau(  35) = (   1.2846651   4.4573380  12.6727508  )
        36           O1  tau(  36) = (   5.2936233   4.4572296  12.6712295  )
        37           Ti1 tau(  37) = (   6.5756527   5.9477167  12.4782878  )
        38           Ti1 tau(  38) = (   3.2865705   4.4596354  12.5399379  )
        39           O1  tau(  39) = (   6.5788522   2.9667014  14.9890502  )
        40           O1  tau(  40) = (   3.2903707   2.9673551  13.9858356  )
        41           O1  tau(  41) = (   4.5543970   4.4428783  16.1860255  )
        42           O1  tau(  42) = (   2.0267162   4.4429101  16.1842223  )
        43           Ti1 tau(  43) = (   3.2900514   5.9435888  15.8195923  )
        44           Ti1 tau(  44) = (   0.0007397   4.6011056  15.9424949  )
        45           O1  tau(  45) = (   3.2900926   2.9813045   4.7018136  )
        46           O1  tau(  46) = (   1.3039711   4.4726057   6.0039043  )
        47           O1  tau(  47) = (   5.2763189   4.4711207   6.0039473  )
        48           N1  tau(  48) = (   0.1199037   2.9187272  19.5607373  )
        49           N1  tau(  49) = (   0.0588536   2.9354595  18.4591164  )

     number of k points=    10  Fermi-Dirac smearing, width (Ry)=  0.0073
                       cart. coord. in units 2pi/alat
        k(    1) = (   0.0000000   0.0000000   0.0000000), wk =   0.0625000
        k(    2) = (   0.0000000   0.0419351   0.0000000), wk =   0.1250000
        k(    3) = (   0.0000000  -0.0838702   0.0000000), wk =   0.0625000
        k(    4) = (   0.0379955   0.0000049   0.0000000), wk =   0.1250000
        k(    5) = (   0.0379955   0.0419400   0.0000000), wk =   0.1250000
        k(    6) = (   0.0379955  -0.0838652   0.0000000), wk =   0.1250000
        k(    7) = (   0.0379955  -0.0419301   0.0000000), wk =   0.1250000
        k(    8) = (  -0.0759910  -0.0000099   0.0000000), wk =   0.0625000
        k(    9) = (  -0.0759910   0.0419252   0.0000000), wk =   0.1250000
        k(   10) = (  -0.0759910  -0.0838800   0.0000000), wk =   0.0625000

     Initial potential from superposition of free atoms

     starting charge     371.9992, renormalised to     388.0000

     negative rho (up, down):  1.013E-02 8.568E-03

     %%%%%%%%%%%%%%%%%%%%%%%%%%%%%%%%%%%%%%%%%%%%%%%%%%%%%%%%%%%%%%%%%%%%%%%%
     %                                                                      %
     % You are using vdW-DF, which was implemented by the Thonhauser group. %
     % Please cite the following two papers that made this development      %
     % possible and the two reviews that describe the various versions:     %
     %                                                                      %
     %   T. Thonhauser et al., PRL 115, 136402 (2015).                      %
     %   T. Thonhauser et al., PRB 76, 125112 (2007).                       %
     %   K. Berland et al., Rep. Prog. Phys. 78, 066501 (2015).             %
     %   D.C. Langreth et al., J. Phys.: Condens. Matter 21, 084203 (2009). %
     %                                                                      %
     %                                                                      %
     % If you are calculating the stress with vdW-DF, please also cite:     %
     %                                                                      %
[...]
     atom   4 (R=0.739)  charge=  5.0685  magn= -0.0013
     atom   5 (R=0.739)  charge=  5.0283  magn= -0.0030
     atom   6 (R=0.739)  charge=  5.0285  magn= -0.0030
     atom   7 (R=0.739)  charge=  8.0389  magn=  0.0082
     atom   8 (R=0.739)  charge=  8.0421  magn=  0.0891
     atom   9 (R=0.739)  charge=  5.0355  magn= -0.0013
     atom  10 (R=0.739)  charge=  5.0427  magn= -0.0058
     atom  11 (R=0.739)  charge=  5.0271  magn= -0.0023
     atom  12 (R=0.739)  charge=  5.0271  magn= -0.0023
     atom  13 (R=0.739)  charge=  8.0476  magn=  0.0233
     atom  14 (R=0.739)  charge=  8.0433  magn=  0.0100
     atom  15 (R=0.739)  charge=  5.0428  magn= -0.0007
     atom  16 (R=0.739)  charge=  5.0309  magn= -0.0006
     atom  17 (R=0.739)  charge=  5.0105  magn= -0.0002
     atom  18 (R=0.739)  charge=  5.0105  magn= -0.0002
     atom  19 (R=0.739)  charge=  8.0733  magn=  0.0028
     atom  20 (R=0.739)  charge=  8.0803  magn=  0.0033
     atom  21 (R=0.739)  charge=  4.9081  magn= -0.0040
     atom  22 (R=0.739)  charge=  4.9909  magn= -0.0000
     atom  23 (R=0.739)  charge=  5.0221  magn= -0.0111
     atom  24 (R=0.739)  charge=  5.0222  magn= -0.0111
     atom  25 (R=0.739)  charge=  8.0604  magn=  0.1086
     atom  26 (R=0.739)  charge=  8.0395  magn=  0.0053
     atom  27 (R=0.739)  charge=  5.0288  magn= -0.0128
     atom  28 (R=0.739)  charge=  5.0682  magn= -0.0013
     atom  29 (R=0.739)  charge=  5.0283  magn= -0.0030
     atom  30 (R=0.739)  charge=  5.0285  magn= -0.0030
     atom  31 (R=0.739)  charge=  8.0393  magn=  0.0082
     atom  32 (R=0.739)  charge=  8.0421  magn=  0.0889
     atom  33 (R=0.739)  charge=  5.0342  magn= -0.0014
     atom  34 (R=0.739)  charge=  5.0346  magn= -0.0061
     atom  35 (R=0.739)  charge=  5.0273  magn= -0.0023
     atom  36 (R=0.739)  charge=  5.0273  magn= -0.0023
     atom  37 (R=0.739)  charge=  8.0450  magn=  0.0234
     atom  38 (R=0.739)  charge=  8.0433  magn=  0.0100
     atom  39 (R=0.739)  charge=  5.0230  magn= -0.0007
     atom  40 (R=0.739)  charge=  5.0442  magn= -0.0006
     atom  41 (R=0.739)  charge=  5.0107  magn= -0.0002
     atom  42 (R=0.739)  charge=  5.0107  magn= -0.0002
     atom  43 (R=0.739)  charge=  8.0721  magn=  0.0027
     atom  44 (R=0.739)  charge=  8.0815  magn=  0.0032
     atom  45 (R=0.739)  charge=  4.9081  magn= -0.0040
     atom  46 (R=0.739)  charge=  5.0221  magn= -0.0111
     atom  47 (R=0.739)  charge=  5.0222  magn= -0.0111
     atom  48 (R=0.455)  charge=  1.6164  magn=  0.0000
     atom  49 (R=0.455)  charge=  1.6276  magn=  0.0000

     End of self-consistent calculation

 ------ SPIN UP ------------

          k = 0.0000 0.0000 0.0000 ( 18029 PWs)   bands (ev):

   -55.9293 -55.9184 -55.8953 -55.8825 -55.8030 -55.7952 -55.7681 -55.7549
   -55.7482 -55.7396 -55.7181 -55.7170 -55.7136 -55.6778 -54.9656 -54.9315
   -32.4773 -32.4241 -32.3785 -32.2803 -32.2694 -32.2337 -32.2236 -32.2222
   -32.2171 -32.1873 -32.1466 -32.1300 -32.1130 -32.0968 -32.0952 -32.0913
   -32.0638 -32.0568 -32.0560 -32.0403 -32.0376 -32.0324 -32.0162 -32.0097
   -32.0021 -32.0000 -31.9812 -31.9801 -31.9600 -31.9350 -31.9297 -31.9084
   -31.8969 -31.8964 -31.8950 -31.8891 -31.8864 -31.8742 -31.8697 -31.8440
   -31.8357 -31.7550 -31.3759 -31.2751 -31.2529 -31.1947 -31.1084 -30.9947
   -21.8302 -16.7364 -16.4958 -16.3644 -16.2378 -16.1170 -16.0197 -15.9258
   -15.8512 -15.7686 -15.6320 -15.5994 -15.5597 -15.5358 -15.5138 -15.5107
   -15.5019 -15.4395 -15.4348 -15.4158 -15.4020 -15.3881 -15.3680 -15.3340
   -15.2832 -15.2204 -15.1387 -15.0511 -14.9945 -14.6843 -13.4568 -13.3369
    -7.2664  -4.9730  -4.9659  -4.0760  -4.0270  -3.9211  -3.8388  -3.8242
    -3.7381  -3.6737  -3.4697  -3.3957  -3.3570  -3.2046  -3.1565  -3.1053
    -3.0576  -2.9660  -2.9003  -2.8916  -2.7973  -2.7800  -2.7797  -2.7609
    -2.6792  -2.6676  -2.6346  -2.6270  -2.5998  -2.4929  -2.3776  -2.3406
    -2.2914  -2.2798  -2.2605  -2.2424  -2.2165  -2.1849  -2.1608  -2.1517
    -2.0976  -2.0951  -1.9429  -1.8067  -1.7723  -1.6870  -1.6139  -1.5076
    -1.4701  -1.4291  -1.3685  -1.3550  -1.3020  -1.2888  -1.2492  -1.1624
    -1.0775  -1.0302  -0.9389  -0.9157  -0.8544  -0.8160  -0.7624  -0.6899
    -0.6791  -0.6514  -0.5616  -0.5177  -0.4068  -0.4030  -0.3800  -0.3643
    -0.3032  -0.2438  -0.1423  -0.1139  -0.1110  -0.0942   0.0073   0.0341
     0.0377   0.0483   0.0750   0.1236   0.1877   0.2368   0.2729   0.4244
     0.6477   0.6545   0.7081   0.9502   1.0265   1.0680   1.2247   1.6590
     1.7093   3.1055   3.2170   3.2334   3.2649   3.3445   3.3582   3.6463
     3.6901   3.7187   3.7341   3.7463

[...]

          k =-0.0760-0.0000 0.0000 ( 17886 PWs)   bands (ev):

[...]

 ------ SPIN DOWN ----------

[...]

          k = 0.0380-0.0419 0.0000 ( 17876 PWs)   bands (ev):

[...]

          k =-0.0760-0.0839 0.0000 ( 17948 PWs)   bands (ev):

   -55.8830 -55.8825 -55.7875 -55.7472 -55.7408 -55.7274 -55.7203 -55.7181
   -55.7181 -55.7179 -55.7131 -55.6786 -55.5765 -55.5762 -54.9388 -54.9388
   -32.3431 -32.2732 -32.2724 -32.1800 -32.1577 -32.1131 -32.1127 -32.0980
   -32.0968 -32.0954 -32.0937 -32.0543 -32.0332 -32.0318 -32.0314 -32.0286
   -32.0191 -32.0174 -32.0169 -32.0051 -32.0050 -31.9915 -31.9907 -31.9836
   -31.9821 -31.9776 -31.9408 -31.9326 -31.9235 -31.9226 -31.9092 -31.8947
   -31.8831 -31.8826 -31.8812 -31.8518 -31.8439 -31.8436 -31.8195 -31.8194
   -31.7512 -31.7509 -31.2539 -31.2539 -31.1833 -31.1832 -31.1415 -31.1414
   -21.8300 -16.4179 -16.1103 -16.0698 -15.9474 -15.9419 -15.8662 -15.8507
   -15.7436 -15.6964 -15.6874 -15.6860 -15.6296 -15.6261 -15.6071 -15.5972
   -15.5208 -15.5107 -15.4879 -15.4840 -15.4203 -15.4165 -15.4137 -15.4091
   -15.3722 -15.3720 -15.3358 -15.3326 -15.2227 -15.0556 -13.4454 -13.4454
    -7.2706  -4.9688  -4.9678  -3.9923  -3.4378  -3.3816  -3.3271  -3.1555
    -3.0936  -3.0861  -3.0389  -2.9950  -2.9260  -2.9006  -2.8918  -2.8094
    -2.8032  -2.8007  -2.8003  -2.7362  -2.7175  -2.6870  -2.6774  -2.6258
    -2.6213  -2.5901  -2.5871  -2.5659  -2.5595  -2.5514  -2.5356  -2.5039
    -2.4881  -2.4288  -2.4276  -2.2832  -2.2743  -2.2220  -2.1366  -2.1342
    -2.0505  -2.0321  -1.9963  -1.9622  -1.9064  -1.9004  -1.7295  -1.7015
    -1.6980  -1.6430  -1.5570  -1.5251  -1.4826  -1.4581  -1.4050  -1.3600
    -1.2556  -1.2266  -1.2111  -1.1011  -1.0975  -1.0315  -0.9390  -0.8996
    -0.8932  -0.8864  -0.8725  -0.8437  -0.8422  -0.7440  -0.6842  -0.6411
    -0.6298  -0.6188  -0.4273  -0.3668  -0.3427  -0.2333  -0.1945   0.0017
     0.0110   0.0341   0.1505   0.1508   0.1653   0.2236   0.3512   0.3559
     0.4179   0.4602   0.4883   0.5175   0.5198   1.4131   1.4142   1.5247
     1.5251   3.3499   3.4457   3.4516   3.5238   3.6469   3.6549   3.7477
     3.7710   3.7950   3.7981   3.9120

     the Fermi energy is     3.2501 ev

!    total energy              =   -2924.04961088 Ry
     estimated scf accuracy    <       0.00000006 Ry
     smearing contrib. (-TS)   =      -0.03517355 Ry
     internal energy E=F+TS    =   -2924.01443733 Ry

     total magnetization       =     0.66 Bohr mag/cell
     absolute magnetization    =     0.93 Bohr mag/cell

     convergence has been achieved in 140 iterations

     Forces acting on atoms (cartesian axes, Ry/au):

     atom    1 type  1   force =     0.00007343    0.00005306    0.09006717
     atom    2 type  1   force =    -0.00002392    0.00036658   -0.18485468
     atom    3 type  2   force =     0.00007501   -0.00045952   -0.02312411
     atom    4 type  2   force =     0.00002011   -0.00009132    0.05214794
     atom    5 type  2   force =    -0.01412635   -0.00062322    0.00588212
     atom    6 type  2   force =     0.01399820   -0.00014770    0.00579032
     atom    7 type  1   force =     0.00012056   -0.00004674    0.00033460
     atom    8 type  1   force =     0.00001254    0.00012740   -0.00066198
     atom    9 type  2   force =     0.00006072    0.00011602   -0.00023008
     atom   10 type  2   force =    -0.00000143    0.00007575    0.00174139
     atom   11 type  2   force =     0.00003017    0.00023183    0.00014786
     atom   12 type  2   force =    -0.00004612    0.00023228    0.00023087
     atom   13 type  1   force =     0.00002900    0.00028824   -0.00140424
     atom   14 type  1   force =    -0.00006489    0.00010693   -0.00122490
     atom   15 type  2   force =     0.00009086   -0.00037654   -0.00024702
     atom   16 type  2   force =    -0.00005077    0.00022056   -0.00011859
     atom   17 type  2   force =    -0.00014505   -0.00015574    0.00017940
     atom   18 type  2   force =     0.00022927   -0.00020392    0.00022866
     atom   19 type  1   force =     0.00011582    0.00005041    0.00050582
     atom   20 type  1   force =    -0.00006402    0.00017372    0.00170704
     atom   21 type  2   force =     0.00006864    0.00014893    0.10530970
     atom   22 type  2   force =     0.00001684    0.00006401   -0.00096911
     atom   23 type  2   force =    -0.06740741   -0.00013091   -0.02619098
     atom   24 type  2   force =     0.06733343    0.00030423   -0.02623260
     atom   25 type  1   force =     0.00008854    0.00005177    0.09039279
     atom   26 type  1   force =    -0.00006747   -0.00029814   -0.18480971
     atom   27 type  2   force =     0.00006360   -0.00048491   -0.02197430
     atom   28 type  2   force =     0.00002170   -0.00008372    0.05199613
     atom   29 type  2   force =    -0.01413244   -0.00058126    0.00581764
     atom   30 type  2   force =     0.01399821   -0.00006696    0.00572891
     atom   31 type  1   force =     0.00008110    0.00006581    0.00023137
     atom   32 type  1   force =     0.00001147   -0.00005618   -0.00070701
     atom   33 type  2   force =     0.00006784   -0.00005880    0.00020938
     atom   34 type  2   force =    -0.00000820   -0.00004115    0.00096104
     atom   35 type  2   force =    -0.00005217    0.00000204    0.00010173
     atom   36 type  2   force =     0.00006826    0.00000345    0.00017121
     atom   37 type  1   force =     0.00007615    0.00009888    0.00004875
     atom   38 type  1   force =    -0.00007103   -0.00015009   -0.00138269
     atom   39 type  2   force =     0.00010001    0.00030095    0.00008042
     atom   40 type  2   force =     0.00004464    0.00000370    0.00021862
     atom   41 type  2   force =     0.00011953    0.00004028    0.00020341
     atom   42 type  2   force =    -0.00004792    0.00000879    0.00026741
     atom   43 type  1   force =     0.00001910    0.00047467    0.00070838
     atom   44 type  1   force =    -0.00008696   -0.00019455    0.00146472
     atom   45 type  2   force =     0.00006596    0.00014356    0.10526977
     atom   46 type  2   force =    -0.06741056   -0.00017700   -0.02618861
     atom   47 type  2   force =     0.06733258    0.00025323   -0.02623144
     atom   48 type  3   force =    -0.00016903    0.00046583    0.00007544
     atom   49 type  3   force =    -0.00045756   -0.00004453   -0.00166799

     Total force =     0.367525     Total SCF correction =     0.000742
  @ DRIVER MODE: Message from server: STATUS
  @ DRIVER MODE: Message from server: GETFORCE
  @ DRIVER MODE: Returning v,forces,stress

     Writing config to output data dir ./calc.save/
  @ DRIVER MODE: Message from server: STATUS
  @ DRIVER MODE: Message from server: INIT
  @ DRIVER MODE: Receiving replica           0           0
  @ DRIVER MODE: Receiving parameter string
 lscf : 0, lforce : 0, lstress : 0, lmovecell : 0, lensemb : 1,
  @ DRIVER MODE: Message from server: STATUS
  @ DRIVER MODE: Message from server: POSDATA
  @ DRIVER MODE: Reading and sharing cell
  @ DRIVER MODE: Reading and sharing positions
  @ DRIVER MODE: Received positions
     NEW-OLD atomic charge density approx. for the potential

[...]

     Adding external electric field

     Computed dipole along edir(3) :
        Dipole                0.7077 Ry au,          1.7988 Debye
        Dipole field          0.0013 Ry au,

        Potential amp.       -0.1238 Ry
        Total length         46.3494 bohr

     Generating pointlists ...
  @ DRIVER MODE: BEEF-vdw

[...]

     negative rho (up, down):  9.233E-03 9.234E-03

     negative rho (up, down):  9.233E-03 9.234E-03
 BEEFens 2000 ensemble energies
             -0.343983487494494E+02
             -0.201006571279461E+01
             -0.709781476566528E+01
              0.238755475894040E+02
             -0.118326516001310E+02
             -0.914479217548697E+01
             -0.238510170215573E+02
             -0.499088214678936E+02
             -0.213417690738470E+02
             -0.224518674010947E+02
             -0.208332749151915E+02
              0.422449995668301E+01
              0.198057658273629E+01
             -0.104132823977760E+01
              0.170944381246765E+01
              0.263081446756174E+02
             -0.101340234656585E+02
             -0.717579580716131E+01
              0.116382888107460E+02
             -0.614548483084301E+02
              0.307915408341038E+02
             -0.132348444702917E+02
             -0.238242563650747E+01
             -0.556097343516805E+01
             -0.984614070777411E+00
             -0.212641891352048E+01
              0.476547889055890E+02
             -0.149043905827990E+02
             -0.398816258386563E+01
             -0.301242966988046E+02
              0.389731980327366E+02
             -0.433511669967784E+01
             -0.211854140601758E+02
              0.111597902392392E+02
             -0.204132528543715E+01
              0.128913564798804E+02
             -0.552474464741067E+00
              0.274204876810803E+01
              0.187588301250155E+02
             -0.542391271666774E+02
              0.302102038441150E+02
              0.807176754896858E+01
             -0.620228271848012E+01
             -0.173593574500168E+02
              0.684561223192861E+01
             -0.108645155518551E+02
              0.246822055673121E+02
              0.197526784416445E+02
             -0.127428432011964E+02
             -0.162441581352797E+02
             -0.171610244908770E+02
             -0.206359402969880E+02
              0.104503896143655E+02
             -0.268708919415626E+02
              0.822277470517577E+01
              0.343549275303369E+02
              0.395699873509223E+02
              0.184549872610425E+02
              0.824074691082630E+01
              0.171961630218033E+02
[...]
             -0.404787581576206E+02
              0.274689303445956E+01
             -0.144333237320293E+01
             -0.563643084575108E+01
              0.532294583269390E-01
             -0.360511316762406E+02
             -0.698703744084644E+01
              0.486852442869096E+01
              0.734807034653095E+01
              0.269957346979401E+02
             -0.236030702966591E+02
              0.308409037505744E+02
             -0.220646741819024E+02
              0.141661539332954E+02
              0.223117799877776E+02

 BEEF-vdW xc energy contributions
           1 :   -406.114913445535
           2 :    353.834202978463
           3 :   -269.529226398922
           4 :    181.584062736213
           5 :   -112.535465603008
           6 :    71.2507672166989
           7 :   -53.9888663797609
           8 :    50.8252371270795
           9 :   -52.4717868792668
          10 :    53.7554616766026
          11 :   -53.4259900632115
          12 :    51.9644933157539
          13 :   -49.7584671899543
          14 :    46.5742996950099
          15 :   -42.1051673379276
          16 :    36.5839173806614
          17 :   -30.9394915254494
          18 :    26.3510606811645
          19 :   -23.6541928399881
          20 :    22.9616996447434
          21 :   -23.7611962318664
          22 :    25.2707841252063
          23 :   -26.7877758364276
          24 :    27.7881821122969
          25 :   -27.9241833768364
          26 :    27.0089964156264
          27 :   -25.0642584416427
          28 :    22.3474275312489
          29 :   -19.3537412625336
          30 :    16.7010633881687
          31 :   -47.5966637500795
          32 :   -32.3010759579906
  @ DRIVER MODE: Message from server: STATUS
  @ DRIVER MODE: Message from server: GETFORCE
  @ DRIVER MODE: Returning v,forces,stress
  @ DRIVE MODE: Returning Ensemble Energies
  @ DRIVE MODE: Returning Ensemble Energies
  @ DRIVE MODE: Returning Ensemble Energies
  @ DRIVE MODE: Returning Ensemble Energies
  @ DRIVE MODE: Returning Ensemble Energies

     Writing config to output data dir ./calc.save/
  @ DRIVE MODE: Returning Ensemble Energies
  @ DRIVER MODE: Message from server: EXIT
  @ DRIVE MODE: Exiting

     General routines

     Parallel routines

   This run was terminated on:  17:10:30  16Aug2022

   JOB DONE.