     Program PWSCF v.6.7GPU starts on 28Sep2021 at 15: 5:18

     R & G space division:  proc/nbgrp/npool/nimage =       8
     Reading input from /storage/home/hcoda1/3/ntian30/research/carbon/CxH_vib/H2O_calc/ads_slab/CH3OHN2H2O_a/out_0043/pw.inp
Warning: card &CELL ignored
Warning: card   CELL_DYNAMICS='IPI', ignored
Warning: card / ignored

     Current dimensions of program PWSCF are:
     Max number of different atomic species (ntypx) = 10
     Max number of k-points (npk) =  40000
     Max angular momentum in pseudopotentials (lmaxx) =  3
     Presently no symmetry can be used with electric field

     Message from routine cell_base_init:
     DEPRECATED: use true lattice parameter, not A to a.u. conversion factor

     IMPORTANT: XC functional enforced from input :
     Exchange-correlation= BEEF-VDW
                           (   1   4  43  14   2   0   0)
     Any further DFT definition will be discarded
     Please, verify this is what you really want

  @ DRIVER MODE: Connecting to
 qe_1139763_3000313.sched-torque.pace.gatech.edup831u4od_scratch
  using UNIX socket
  @ DRIVER MODE: Message from server: STATUS
  @ DRIVER MODE: Message from server: INIT
  @ DRIVER MODE: Receiving replica           0          -1
  @ DRIVER MODE: Receiving encoded integer          25
  @ DRIVER MODE:  SCF:  T  FORCE:  T  STRESS:  F  VC:  F  ENSEMBLE:  F
  @ DRIVER MODE:  SCF:  T  FORCE:  T  STRESS:  F  VC:  F  ENSEMBLE:  F

     Using Slab Decomposition

     bravais-lattice index     =            0
     lattice parameter (alat)  =       1.8897  a.u.
     unit-cell volume          =    6658.9804 (a.u.)^3
     number of atoms/cell      =           58
     number of atomic types    =            5
     number of electrons       =       410.00
     number of Kohn-Sham states=          215
     kinetic-energy cutoff     =      29.3995  Ry
     charge density cutoff     =     293.9946  Ry
     scf convergence threshold =      7.3E-08
     mixing beta               =       0.0500
     number of iterations used =            8  plain     mixing
     Exchange-correlation= BEEF-VDW
                           (   1   4  43  14   2   0   0)

     celldm(1)=   1.889726  celldm(2)=   0.000000  celldm(3)=   0.000000
     celldm(4)=   0.000000  celldm(5)=   0.000000  celldm(6)=   0.000000

     crystal axes: (cart. coord. in units of alat)
               a(1) = (   6.579727   0.000000   0.000000 )
               a(2) = (  -0.000775   5.961596   0.000000 )
               a(3) = (   0.000000   0.000000  25.155947 )

     reciprocal axes: (cart. coord. in units 2 pi/alat)
               b(1) = (  0.151982  0.000020  0.000000 )
               b(2) = (  0.000000  0.167740  0.000000 )
               b(3) = (  0.000000  0.000000  0.039752 )

     PseudoPot. # 1 for Ti read from file:
     /storage/coda1/p-amedford6/0/shared/rich_project_chbe-medford/medford-share/data/pseudos_module/espresso/nninc/pbe/van/Ti.UPF
     MD5 check sum: 8e4df49b7f0d34bbd5052bf3f5ea0213
     Pseudo is Ultrasoft, Zval = 12.0
     Generated by new atomic code, or converted to UPF format
     Using radial grid of  851 points,  6 beta functions with:
                l(1) =   0
                l(2) =   0
                l(3) =   1
                l(4) =   1
                l(5) =   2
                l(6) =   2
     Q(r) pseudized with  8 coefficients,  rinner =    1.000   1.000   1.000
                                                       1.000   1.000

     PseudoPot. # 2 for O  read from file:
     /storage/coda1/p-amedford6/0/shared/rich_project_chbe-medford/medford-share/data/pseudos_module/espresso/nninc/pbe/van/O.UPF
     MD5 check sum: 78c19812648e8988a0fe644b0f25305e
     Pseudo is Ultrasoft, Zval =  6.0
     Generated by new atomic code, or converted to UPF format
     Using radial grid of  737 points,  4 beta functions with:
                l(1) =   0
                l(2) =   0
                l(3) =   1
                l(4) =   1
     Q(r) pseudized with  8 coefficients,  rinner =    0.800   0.800   0.800

     PseudoPot. # 3 for C  read from file:
     /storage/coda1/p-amedford6/0/shared/rich_project_chbe-medford/medford-share/data/pseudos_module/espresso/nninc/pbe/van/C.UPF
     MD5 check sum: 1a69bf6b8db32088f5b2163dbdb77a27
     Pseudo is Ultrasoft, Zval =  4.0
     Generated by new atomic code, or converted to UPF format
     Using radial grid of  721 points,  4 beta functions with:
                l(1) =   0
                l(2) =   0
                l(3) =   1
                l(4) =   1
     Q(r) pseudized with  8 coefficients,  rinner =    0.800   0.800   0.800

     PseudoPot. # 4 for H  read from file:
     /storage/coda1/p-amedford6/0/shared/rich_project_chbe-medford/medford-share/data/pseudos_module/espresso/nninc/pbe/van/H.UPF
     MD5 check sum: b5ee9d7bfd3a09ee7748110bda690ff7
     Pseudo is Ultrasoft, Zval =  1.0
     Generated by new atomic code, or converted to UPF format
     Using radial grid of  615 points,  1 beta functions with:
                l(1) =   0
     Q(r) pseudized with  8 coefficients,  rinner =    0.800

     PseudoPot. # 5 for N  read from file:
     /storage/coda1/p-amedford6/0/shared/rich_project_chbe-medford/medford-share/data/pseudos_module/espresso/nninc/pbe/van/N.UPF
     MD5 check sum: 90d10febe142ad51ac9d5be1deb811c4
     Pseudo is Ultrasoft, Zval =  5.0
     Generated by new atomic code, or converted to UPF format
     Using radial grid of  729 points,  4 beta functions with:
                l(1) =   0
                l(2) =   0
                l(3) =   1
                l(4) =   1
     Q(r) pseudized with  8 coefficients,  rinner =    0.800   0.800   0.800

     atomic species   valence    mass     pseudopotential
        Ti1           12.00    47.86700     Ti( 1.00)
        O1             6.00    15.99900     O ( 1.00)
        C1             4.00    12.01100     C ( 1.00)
        H1             1.00     1.00800     H ( 1.00)
        N1             5.00    14.00700     N ( 1.00)

     No symmetry found

   Cartesian axes

     site n.     atom                  positions (alat units)
         1           Ti1 tau(   1) = (   0.0004258   2.9801865   6.0000000  )
         2           Ti1 tau(   2) = (   3.2906075   1.4906267   6.0002472  )
         3           O1  tau(   3) = (   0.0006271   0.0005054   7.9858123  )
         4           O1  tau(   4) = (   3.2906025   0.0005020   7.3038282  )
         5           O1  tau(   5) = (   4.5942328   1.4918067   9.2879030  )
         6           O1  tau(   6) = (   1.9868534   1.4903216   9.2879459  )
         7           Ti1 tau(   7) = (   3.3250738   2.9918783   9.1599549  )
         8           Ti1 tau(   8) = (   0.0412716   1.4903975   9.2658274  )
         9           O1  tau(   9) = (   3.2852344   0.0116916  11.3753809  )
        10           O1  tau(  10) = (   6.5701620   0.0027176  10.6052010  )
        11           O1  tau(  11) = (   1.2758103   1.4969824  12.6410148  )
        12           O1  tau(  12) = (   5.2796941   1.4985041  12.6691897  )
        13           Ti1 tau(  13) = (   6.5531116   2.9870417  12.5348353  )
        14           Ti1 tau(  14) = (   3.2504356   1.4995581  12.5215122  )
        15           O1  tau(  15) = (   0.0383206   0.0046779  14.6787597  )
        16           O1  tau(  16) = (   3.2537876   0.0095675  14.0320577  )
        17           O1  tau(  17) = (   4.5855444   1.5609978  16.0639115  )
        18           O1  tau(  18) = (   2.0343745   1.5440679  16.2001998  )
        19           Ti1 tau(  19) = (   3.3058624   3.0043567  15.7064231  )
        20           Ti1 tau(  20) = (   6.5549511   1.4266458  15.8675638  )
        21           O1  tau(  21) = (   3.2904802   0.0005063   4.7018136  )
        22           O1  tau(  22) = (   6.4974171   0.0126247  17.2237355  )
        23           O1  tau(  23) = (   1.3043587   1.4918075   6.0039043  )
        24           O1  tau(  24) = (   5.2767064   1.4903225   6.0039473  )
        25           Ti1 tau(  25) = (   0.0000382   5.9609847   6.0000000  )
        26           Ti1 tau(  26) = (   3.2902200   4.4714249   6.0002472  )
        27           O1  tau(  27) = (   0.0002396   2.9813036   7.9858123  )
        28           O1  tau(  28) = (   3.2902150   2.9813002   7.3038282  )
        29           O1  tau(  29) = (   4.5938453   4.4726049   9.2879030  )
        30           O1  tau(  30) = (   1.9864658   4.4711199   9.2879459  )
        31           Ti1 tau(  31) = (   3.3194574   0.0113313   9.1541029  )
        32           Ti1 tau(  32) = (   0.0414074   4.4589881   9.2683624  )
        33           O1  tau(  33) = (   3.2821265   2.9896323  11.3676027  )
        34           O1  tau(  34) = (   6.5712111   2.9825298  10.6251173  )
        35           O1  tau(  35) = (   1.2751242   4.4805681  12.6359318  )
        36           O1  tau(  36) = (   5.2791817   4.4782367  12.6627471  )
        37           Ti1 tau(  37) = (   6.5506445   0.0032150  12.4806913  )
        38           Ti1 tau(  38) = (   3.2507345   4.4881811  12.5195668  )
        39           O1  tau(  39) = (   0.0469291   2.9928743  14.8464778  )
        40           O1  tau(  40) = (   3.2514374   2.9975957  13.9281162  )
        41           O1  tau(  41) = (   4.5866068   4.4203933  16.0984022  )
        42           O1  tau(  42) = (   2.0418857   4.4579080  16.2200674  )
        43           Ti1 tau(  43) = (   3.2648600   0.0292614  15.8571223  )
        44           Ti1 tau(  44) = (   6.5763064   4.6169283  15.9626260  )
        45           O1  tau(  45) = (   3.2900926   2.9813045   4.7018136  )
        46           O1  tau(  46) = (   1.3039711   4.4726057   6.0039043  )
        47           O1  tau(  47) = (   5.2763189   4.4711207   6.0039473  )
        48           C1  tau(  48) = (   6.0301898   2.9050411  18.9351799  )
        49           O1  tau(  49) = (   0.1575529   2.9516393  17.6723866  )
        50           H1  tau(  50) = (   4.9714676   2.8818909  18.6991823  )
        51           H1  tau(  51) = (   1.1132637   2.8218831  17.8130049  )
        52           H1  tau(  52) = (   6.2985093   1.9952365  19.4696065  )
        53           H1  tau(  53) = (   6.2732381   3.7939772  19.5169533  )
        54           N1  tau(  54) = (   4.8840950   3.1052494  22.6850861  )
        55           N1  tau(  55) = (   4.2580757   3.3403818  21.7970487  )
        56           O1  tau(  56) = (   3.8772584   0.1141246  18.3039653  )
        57           H1  tau(  57) = (   4.8407149   0.0692883  18.0716375  )
        58           H1  tau(  58) = (   3.6680196   5.2122673  18.6877519  )

     number of k points=    10  Fermi-Dirac smearing, width (Ry)=  0.0073
                       cart. coord. in units 2pi/alat
        k(    1) = (   0.0000000   0.0000000   0.0000000), wk =   0.1250000
        k(    2) = (   0.0000000   0.0419351   0.0000000), wk =   0.2500000
        k(    3) = (   0.0000000  -0.0838702   0.0000000), wk =   0.1250000
        k(    4) = (   0.0379955   0.0000049   0.0000000), wk =   0.2500000
        k(    5) = (   0.0379955   0.0419400   0.0000000), wk =   0.2500000
        k(    6) = (   0.0379955  -0.0838652   0.0000000), wk =   0.2500000
        k(    7) = (   0.0379955  -0.0419301   0.0000000), wk =   0.2500000
        k(    8) = (  -0.0759910  -0.0000099   0.0000000), wk =   0.1250000
        k(    9) = (  -0.0759910   0.0419252   0.0000000), wk =   0.2500000
        k(   10) = (  -0.0759910  -0.0838800   0.0000000), wk =   0.1250000

     Initial potential from superposition of free atoms

     starting charge  393.99913, renormalised to  410.00000

     negative rho (up, down):  9.547E-03 0.000E+00

     %%%%%%%%%%%%%%%%%%%%%%%%%%%%%%%%%%%%%%%%%%%%%%%%%%%%%%%%%%%%%%%%%%%%%%%%
     %                                                                      %
     % You are using vdW-DF, which was implemented by the Thonhauser group. %
     % Please cite the following two papers that made this development      %
     % possible and the two reviews that describe the various versions:     %
     %                                                                      %
     %   T. Thonhauser et al., PRL 115, 136402 (2015).                      %
     %   T. Thonhauser et al., PRB 76, 125112 (2007).                       %
     %   K. Berland et al., Rep. Prog. Phys. 78, 066501 (2015).             %
     %   D.C. Langreth et al., J. Phys.: Condens. Matter 21, 084203 (2009). %
     %                                                                      %
     %                                                                      %
     % If you are calculating the stress with vdW-DF, please also cite:     %
     %                                                                      %
     %   R. Sabatini et al., J. Phys.: Condens. Matter 24, 424209 (2012).   %
     %                                                                      %
     %%%%%%%%%%%%%%%%%%%%%%%%%%%%%%%%%%%%%%%%%%%%%%%%%%%%%%%%%%%%%%%%%%%%%%%%

     Adding external electric field

     Computed dipole along edir(3) :
        Dipole              -20.0784 Ry au,        -51.0342 Debye
        Dipole field         -0.0379 Ry au,

        Potential amp.        3.5124 Ry
        Total length         46.3494 bohr

     Starting wfcs are  310 atomic wfcs
  @ DRIVER MODE: Message from server: STATUS
  @ DRIVER MODE: Message from server: POSDATA
  @ DRIVER MODE: Reading and sharing cell
  @ DRIVER MODE: Reading and sharing positions
  @ DRIVER MODE: Received positions

     Self-consistent Calculation

     iteration #  1     ecut=    29.40 Ry     beta= 0.05
     Davidson diagonalization with overlap
     c_bands:  1 eigenvalues not converged
     c_bands:  1 eigenvalues not converged
     c_bands:  5 eigenvalues not converged
     c_bands:  1 eigenvalues not converged
     c_bands:  4 eigenvalues not converged
     c_bands:  3 eigenvalues not converged
     ethr =  1.00E-05,  avg # of iterations = 32.1

[...]

     total energy              =   -2098.66664124 Ry
     estimated scf accuracy    <   10668.22079196 Ry

     iteration #  2     ecut=    29.40 Ry     beta= 0.05
     Davidson diagonalization with overlap
     ethr =  1.00E-02,  avg # of iterations = 30.5

[...]

     iteration # 87     ecut=    29.40 Ry     beta= 0.05
     Davidson diagonalization with overlap
     c_bands:  1 eigenvalues not converged
     ethr =  4.41E-11,  avg # of iterations = 11.2

[...]

     total energy              =   -3007.66305037 Ry
     estimated scf accuracy    <       0.00000008 Ry

     iteration # 90     ecut=    29.40 Ry     beta= 0.05
     Davidson diagonalization with overlap
     ethr =  1.98E-11,  avg # of iterations = 15.8

     negative rho (up, down):  1.048E-02 0.000E+00

     Adding external electric field

     Computed dipole along edir(3) :
        Dipole                1.2104 Ry au,          3.0764 Debye
        Dipole field          0.0023 Ry au,

        Potential amp.       -0.2117 Ry
        Total length         46.3494 bohr

     End of self-consistent calculation

          k = 0.0000 0.0000 0.0000 ( 18029 PWs)   bands (ev):

   -54.9497 -54.9257 -54.9137 -54.8913 -54.8761 -54.8706 -54.8439 -54.8240
   -54.7966 -54.7940 -54.7595 -54.7387 -54.7075 -54.7047 -54.0140 -53.9799
   -31.5155 -31.4886 -31.4215 -31.3285 -31.2696 -31.2637 -31.2516 -31.2497
   -31.2142 -31.1795 -31.1700 -31.1683 -31.1641 -31.1408 -31.1340 -31.1284
   -31.1114 -31.0934 -31.0875 -31.0857 -31.0791 -31.0713 -31.0486 -31.0424
   -31.0418 -31.0357 -31.0209 -31.0189 -31.0182 -30.9822 -30.9651 -30.9449
   -30.9435 -30.9425 -30.9345 -30.9323 -30.9232 -30.8931 -30.8789 -30.8743
   -30.8699 -30.8503 -30.4260 -30.3237 -30.3021 -30.2421 -30.1558 -30.0448
   -21.4899 -19.8118 -18.2773 -15.7824 -15.5362 -15.3967 -15.2993 -15.1764
   -15.0460 -14.9723 -14.8518 -14.7799 -14.6848 -14.6714 -14.6539 -14.6312
   -14.6002 -14.5739 -14.5169 -14.5121 -14.4572 -14.4538 -14.4433 -14.4323
   -14.3997 -14.3817 -14.3530 -14.3441 -14.1814 -14.1159 -14.0563 -13.9095
   -12.5145 -12.3952 -10.8213  -6.8697  -6.5549  -6.0353  -4.8281  -4.7090
    -4.6636  -4.6136  -3.4982  -3.1156  -2.9648  -2.9258  -2.9053  -2.8858
    -2.7562  -2.6653  -2.6335  -2.4778  -2.3866  -2.2505  -2.2226  -2.1916
    -2.1526  -2.0855  -2.0292  -1.9420  -1.9133  -1.8718  -1.8530  -1.8298
    -1.8150  -1.7867  -1.7574  -1.6845  -1.6479  -1.5626  -1.5449  -1.4557
    -1.4065  -1.3979  -1.3553  -1.2924  -1.2890  -1.2787  -1.2369  -1.2237
    -1.2162  -1.2062  -1.1983  -1.0340  -0.9930  -0.9576  -0.8349  -0.7260
    -0.6320  -0.6208  -0.5201  -0.5066  -0.4424  -0.4384  -0.3999  -0.3604
    -0.2981  -0.2008  -0.1405  -0.0945  -0.0836   0.0268   0.0934   0.1090
     0.1704   0.2439   0.2588   0.2803   0.3113   0.3976   0.4647   0.5072
     0.5423   0.6058   0.6156   0.6637   0.6920   0.7338   0.8184   0.8720
     0.8767   0.9628   0.9803   0.9930   1.0189   1.0242   1.1226   1.1575
     1.2004   1.2287   1.3802   1.4171   1.6059   1.6420   1.9016   2.0001
     2.0119   2.1732   2.5978   2.6523   4.1405   4.2085   4.2451   4.2522
     4.2667   4.3463   4.6286   4.6337   4.6490   4.6606   4.6684

[...]

          k = 0.0380-0.0419 0.0000 ( 17876 PWs)   bands (ev):

[...]

          k =-0.0760-0.0000 0.0000 ( 17886 PWs)   bands (ev):

[...]

          k =-0.0760-0.0839 0.0000 ( 17948 PWs)   bands (ev):

   -54.9326 -54.9306 -54.9102 -54.9066 -54.8714 -54.8659 -54.8366 -54.8315
   -54.8039 -54.7790 -54.7742 -54.7231 -54.7204 -54.7092 -53.9969 -53.9969
   -31.4014 -31.3244 -31.3142 -31.2382 -31.2347 -31.2118 -31.2048 -31.2030
   -31.1961 -31.1733 -31.1587 -31.1568 -31.1489 -31.1432 -31.1236 -31.1101
   -31.0949 -31.0930 -31.0837 -31.0826 -31.0806 -31.0797 -31.0743 -31.0686
   -31.0437 -31.0389 -31.0345 -31.0292 -31.0288 -31.0264 -31.0255 -31.0252
   -31.0246 -30.9963 -30.9876 -30.9770 -30.9758 -30.9483 -30.9459 -30.9100
   -30.9068 -30.8925 -30.3146 -30.3146 -30.2388 -30.2384 -30.1990 -30.1989
   -21.4898 -19.8082 -18.2763 -15.3571 -15.2441 -15.0785 -14.9701 -14.9603
   -14.9315 -14.8717 -14.8286 -14.7972 -14.7574 -14.7470 -14.7179 -14.7003
   -14.6955 -14.6373 -14.5538 -14.5482 -14.5344 -14.4989 -14.4722 -14.4582
   -14.4562 -14.4418 -14.4048 -14.4030 -14.3839 -14.3727 -14.3149 -14.2205
   -12.4965 -12.4959 -10.8240  -6.8688  -6.5571  -6.0377  -4.8218  -4.7110
    -4.6627  -4.6043  -3.4898  -2.7662  -2.5419  -2.5115  -2.4382  -2.2718
    -2.1932  -2.1722  -2.0963  -2.0726  -2.0370  -1.9590  -1.9552  -1.9203
    -1.8809  -1.8569  -1.8508  -1.8327  -1.8130  -1.7801  -1.7603  -1.7377
    -1.7255  -1.7098  -1.6643  -1.6555  -1.6197  -1.6161  -1.6008  -1.5891
    -1.5696  -1.5594  -1.4763  -1.4491  -1.4078  -1.3220  -1.3071  -1.1779
    -1.1721  -1.1219  -1.0898  -1.0507  -1.0324  -1.0084  -0.9849  -0.9527
    -0.9228  -0.7521  -0.7310  -0.6864  -0.6350  -0.6282  -0.5568  -0.5417
    -0.4866  -0.4543  -0.3645  -0.3238  -0.2845  -0.1759  -0.1492  -0.1368
     0.0019   0.0077   0.0519   0.0535   0.0972   0.1345   0.1488   0.1540
     0.2296   0.2611   0.2974   0.3233   0.3474   0.5263   0.5616   0.6209
     0.7121   0.7280   0.9077   0.9375   0.9809   1.0616   1.1229   1.1776
     1.1993   1.3093   1.3147   1.3387   1.4296   1.4780   1.4792   1.5093
     2.3631   2.3661   2.4668   2.4696   4.2654   4.3959   4.4021   4.4818
     4.5562   4.6480   4.6483   4.6630   4.6935   4.7009   4.7032

     the Fermi energy is     4.1966 ev

!    total energy              =   -3007.66305412 Ry
     estimated scf accuracy    <       0.00000006 Ry
     smearing contrib. (-TS)   =      -0.03687376 Ry
     internal energy E=F+TS    =   -3007.62618036 Ry

     The total energy is F=E-TS. E is the sum of the following terms:
     one-electron contribution =  -22338.66416313 Ry
     hartree contribution      =   11271.02741358 Ry
     xc contribution           =    -502.06799904 Ry
     ewald contribution        =    8562.07580365 Ry
     electric field correction =       0.00276458 Ry

     convergence has been achieved in  90 iterations

     Forces acting on atoms (cartesian axes, Ry/au):

     atom    1 type  1   force =    -0.00027409   -0.00001306    0.09251737
     atom    2 type  1   force =    -0.00013516    0.00114686   -0.18325307
     atom    3 type  2   force =     0.00054971   -0.00040321   -0.02390093
     atom    4 type  2   force =     0.00079639    0.00021025    0.05085244
     atom    5 type  2   force =    -0.01548464   -0.00013937    0.00437112
     atom    6 type  2   force =     0.01420425   -0.00032456    0.00505377
     atom    7 type  1   force =    -0.00011829    0.00020876    0.00005325
     atom    8 type  1   force =    -0.00008101    0.00017328   -0.00000211
     atom    9 type  2   force =     0.00007131    0.00004249    0.00012878
     atom   10 type  2   force =     0.00000075    0.00001936   -0.00004634
     atom   11 type  2   force =     0.00016495    0.00001686   -0.00014959
     atom   12 type  2   force =     0.00004663    0.00003507   -0.00007472
     atom   13 type  1   force =     0.00016556    0.00011623   -0.00001557
     atom   14 type  1   force =     0.00026439    0.00015574   -0.00010169
     atom   15 type  2   force =     0.00028369    0.00039580   -0.00002358
     atom   16 type  2   force =     0.00015704   -0.00001640    0.00012606
     atom   17 type  2   force =    -0.00001836    0.00011623    0.00003762
     atom   18 type  2   force =     0.00025791   -0.00002876    0.00018579
     atom   19 type  1   force =     0.00009506   -0.00012854    0.00025785
     atom   20 type  1   force =     0.00017770   -0.00007772    0.00007391
     atom   21 type  2   force =     0.00002739    0.00001459    0.10487725
     atom   22 type  2   force =    -0.00019527   -0.00006718   -0.00019615
     atom   23 type  2   force =    -0.06803088   -0.00011255   -0.02684580
     atom   24 type  2   force =     0.06789299    0.00034409   -0.02688743
     atom   25 type  1   force =    -0.00011096   -0.00002161    0.09597284
     atom   26 type  1   force =    -0.00011437   -0.00144045   -0.18316315
     atom   27 type  2   force =     0.00049894   -0.00019370   -0.02269974
     atom   28 type  2   force =     0.00086361    0.00018182    0.05125053
     atom   29 type  2   force =    -0.01540353    0.00050305    0.00454472
     atom   30 type  2   force =     0.01416000    0.00078032    0.00524293
     atom   31 type  1   force =    -0.00010528    0.00005354    0.00000060
     atom   32 type  1   force =    -0.00008170    0.00015928   -0.00003971
     atom   33 type  2   force =     0.00012557   -0.00002655    0.00018084
     atom   34 type  2   force =     0.00000061    0.00007403    0.00003207
     atom   35 type  2   force =     0.00012139   -0.00000185   -0.00004615
     atom   36 type  2   force =     0.00009138   -0.00000347    0.00007726
     atom   37 type  1   force =     0.00015073    0.00006584   -0.00009883
     atom   38 type  1   force =     0.00014802   -0.00002898    0.00003930
     atom   39 type  2   force =     0.00016808   -0.00009933   -0.00026723
     atom   40 type  2   force =     0.00002200   -0.00018207   -0.00002347
     atom   41 type  2   force =     0.00018058    0.00001320   -0.00004534
     atom   42 type  2   force =     0.00000702    0.00005497    0.00003339
     atom   43 type  1   force =    -0.00005429   -0.00018649    0.00143441
     atom   44 type  1   force =     0.00004752    0.00017228    0.00063961
     atom   45 type  2   force =     0.00003518    0.00002193    0.10481223
     atom   46 type  2   force =    -0.06804169   -0.00050856   -0.02683435
     atom   47 type  2   force =     0.06790248   -0.00008683   -0.02691333
     atom   48 type  3   force =    -0.00022295   -0.00007190    0.00003044
     atom   49 type  2   force =    -0.00014785   -0.00012224   -0.00022783
     atom   50 type  4   force =    -0.00008953   -0.00042465    0.00009414
     atom   51 type  4   force =     0.00004976   -0.00011073    0.00015257
     atom   52 type  4   force =     0.00029315   -0.00030806    0.00006322
     atom   53 type  4   force =     0.00008955    0.00011094   -0.00018291
     atom   54 type  5   force =    -0.01791407    0.00640547   -0.02514175
     atom   55 type  5   force =     0.01739337   -0.00643830    0.02421371
     atom   56 type  2   force =     0.00135027    0.00051012   -0.00106457
     atom   57 type  4   force =    -0.00111808   -0.00043508    0.00034988
     atom   58 type  4   force =    -0.00111292   -0.00010021    0.00054545

     Total force =     0.370763     Total SCF correction =     0.000797
  @ DRIVER MODE: Message from server: STATUS
  @ DRIVER MODE: Message from server: GETFORCE
  @ DRIVER MODE: Returning v,forces,stress,ensemble

     Writing output data file ./calc.save/
  @ DRIVER MODE: Message from server: EXIT
  @ DRIVE MODE: Exiting

     General routines

     Parallel routines

   This run was terminated on:  15:37: 5  28Sep2021

   JOB DONE.