     Program PWSCF v.6.7GPU starts on 23Sep2021 at  0:52:53

     R & G space division:  proc/nbgrp/npool/nimage =      10
     Reading input from /storage/home/hcoda1/3/ntian30/research/carbon/CxH_vib/H2O_calc/ads_slab/CH3NHO_a/out_0028/pw.inp
Warning: card &CELL ignored
Warning: card   CELL_DYNAMICS='IPI', ignored
Warning: card / ignored

     Current dimensions of program PWSCF are:
     Max number of different atomic species (ntypx) = 10
     Max number of k-points (npk) =  40000
     Max angular momentum in pseudopotentials (lmaxx) =  3
     Presently no symmetry can be used with electric field

     Message from routine cell_base_init:
     DEPRECATED: use true lattice parameter, not A to a.u. conversion factor

     IMPORTANT: XC functional enforced from input :
     Exchange-correlation= BEEF-VDW
                           (   1   4  43  14   2   0   0)
     Any further DFT definition will be discarded
     Please, verify this is what you really want

  @ DRIVER MODE: Connecting to
 qe_1139763_2937319.sched-torque.pace.gatech.edusq5w938d_scratch
  using UNIX socket
  @ DRIVER MODE: Message from server: STATUS
  @ DRIVER MODE: Message from server: INIT
  @ DRIVER MODE: Receiving replica           0          -1
  @ DRIVER MODE: Receiving encoded integer          25
  @ DRIVER MODE:  SCF:  T  FORCE:  T  STRESS:  F  VC:  F  ENSEMBLE:  F
  @ DRIVER MODE:  SCF:  T  FORCE:  T  STRESS:  F  VC:  F  ENSEMBLE:  F

     Using Slab Decomposition

     bravais-lattice index     =            0
     lattice parameter (alat)  =       1.8897  a.u.
     unit-cell volume          =    6658.9804 (a.u.)^3
     number of atoms/cell      =           54
     number of atomic types    =            5
     number of electrons       =       397.00
     number of Kohn-Sham states=          208
     kinetic-energy cutoff     =      29.3995  Ry
     charge density cutoff     =     293.9946  Ry
     scf convergence threshold =      7.3E-08
     mixing beta               =       0.0500
     number of iterations used =            8  plain     mixing
     Exchange-correlation= BEEF-VDW
                           (   1   4  43  14   2   0   0)

     celldm(1)=   1.889726  celldm(2)=   0.000000  celldm(3)=   0.000000
     celldm(4)=   0.000000  celldm(5)=   0.000000  celldm(6)=   0.000000

     crystal axes: (cart. coord. in units of alat)
               a(1) = (   6.579727   0.000000   0.000000 )
               a(2) = (  -0.000775   5.961596   0.000000 )
               a(3) = (   0.000000   0.000000  25.155947 )

     reciprocal axes: (cart. coord. in units 2 pi/alat)
               b(1) = (  0.151982  0.000020  0.000000 )
               b(2) = (  0.000000  0.167740  0.000000 )
               b(3) = (  0.000000  0.000000  0.039752 )

     PseudoPot. # 1 for Ti read from file:
     /storage/coda1/p-amedford6/0/shared/rich_project_chbe-medford/medford-share/data/pseudos_module/espresso/nninc/pbe/van/Ti.UPF
     MD5 check sum: 8e4df49b7f0d34bbd5052bf3f5ea0213
     Pseudo is Ultrasoft, Zval = 12.0
     Generated by new atomic code, or converted to UPF format
     Using radial grid of  851 points,  6 beta functions with:
                l(1) =   0
                l(2) =   0
                l(3) =   1
                l(4) =   1
                l(5) =   2
                l(6) =   2
     Q(r) pseudized with  8 coefficients,  rinner =    1.000   1.000   1.000
                                                       1.000   1.000

     PseudoPot. # 2 for O  read from file:
     /storage/coda1/p-amedford6/0/shared/rich_project_chbe-medford/medford-share/data/pseudos_module/espresso/nninc/pbe/van/O.UPF
     MD5 check sum: 78c19812648e8988a0fe644b0f25305e
     Pseudo is Ultrasoft, Zval =  6.0
     Generated by new atomic code, or converted to UPF format
     Using radial grid of  737 points,  4 beta functions with:
                l(1) =   0
                l(2) =   0
                l(3) =   1
                l(4) =   1
     Q(r) pseudized with  8 coefficients,  rinner =    0.800   0.800   0.800

     PseudoPot. # 3 for N  read from file:
     /storage/coda1/p-amedford6/0/shared/rich_project_chbe-medford/medford-share/data/pseudos_module/espresso/nninc/pbe/van/N.UPF
     MD5 check sum: 90d10febe142ad51ac9d5be1deb811c4
     Pseudo is Ultrasoft, Zval =  5.0
     Generated by new atomic code, or converted to UPF format
     Using radial grid of  729 points,  4 beta functions with:
                l(1) =   0
                l(2) =   0
                l(3) =   1
                l(4) =   1
     Q(r) pseudized with  8 coefficients,  rinner =    0.800   0.800   0.800

     PseudoPot. # 4 for C  read from file:
     /storage/coda1/p-amedford6/0/shared/rich_project_chbe-medford/medford-share/data/pseudos_module/espresso/nninc/pbe/van/C.UPF
     MD5 check sum: 1a69bf6b8db32088f5b2163dbdb77a27
     Pseudo is Ultrasoft, Zval =  4.0
     Generated by new atomic code, or converted to UPF format
     Using radial grid of  721 points,  4 beta functions with:
                l(1) =   0
                l(2) =   0
                l(3) =   1
                l(4) =   1
     Q(r) pseudized with  8 coefficients,  rinner =    0.800   0.800   0.800

     PseudoPot. # 5 for H  read from file:
     /storage/coda1/p-amedford6/0/shared/rich_project_chbe-medford/medford-share/data/pseudos_module/espresso/nninc/pbe/van/H.UPF
     MD5 check sum: b5ee9d7bfd3a09ee7748110bda690ff7
     Pseudo is Ultrasoft, Zval =  1.0
     Generated by new atomic code, or converted to UPF format
     Using radial grid of  615 points,  1 beta functions with:
                l(1) =   0
     Q(r) pseudized with  8 coefficients,  rinner =    0.800

     atomic species   valence    mass     pseudopotential
        Ti1           12.00    47.86700     Ti( 1.00)
        O1             6.00    15.99900     O ( 1.00)
        N1             5.00    14.00700     N ( 1.00)
        C1             4.00    12.01100     C ( 1.00)
        H1             1.00     1.00800     H ( 1.00)

     No symmetry found

   Cartesian axes

     site n.     atom                  positions (alat units)
         1           Ti1 tau(   1) = (   0.0004258   2.9801865   6.0000000  )
         2           Ti1 tau(   2) = (   3.2906075   1.4906267   6.0002472  )
         3           O1  tau(   3) = (   0.0006271   0.0005054   7.9858123  )
         4           O1  tau(   4) = (   3.2906025   0.0005020   7.3038282  )
         5           O1  tau(   5) = (   4.5942328   1.4918067   9.2879030  )
         6           O1  tau(   6) = (   1.9868534   1.4903216   9.2879459  )
         7           Ti1 tau(   7) = (   3.2907910   2.8959150   9.1758416  )
         8           Ti1 tau(   8) = (   0.0015273   1.4827037   9.2680791  )
         9           O1  tau(   9) = (   3.2880966   5.9442215  11.2779904  )
        10           O1  tau(  10) = (   0.0116148   5.9584955  10.6183126  )
        11           O1  tau(  11) = (   1.2901275   1.4920942  12.6240107  )
        12           O1  tau(  12) = (   5.2966278   1.4852543  12.6143030  )
        13           Ti1 tau(  13) = (   0.0031916   3.1007002  12.7073671  )
        14           Ti1 tau(  14) = (   3.2978183   1.3116672  12.6600973  )
        15           O1  tau(  15) = (   6.5743189   0.0224225  14.6379036  )
        16           O1  tau(  16) = (   3.2931419   0.0435670  13.8892854  )
        17           O1  tau(  17) = (   4.5409235   1.5821231  16.0748620  )
        18           O1  tau(  18) = (   2.0417342   1.5698890  16.0900686  )
        19           Ti1 tau(  19) = (   3.2746960   3.0378214  15.6558348  )
        20           Ti1 tau(  20) = (   6.4705883   1.5381531  15.9030332  )
        21           O1  tau(  21) = (   3.2904802   0.0005063   4.7018136  )
        22           O1  tau(  22) = (   6.5584422   0.0457650  17.1906971  )
        23           O1  tau(  23) = (   1.3043587   1.4918075   6.0039043  )
        24           O1  tau(  24) = (   5.2767064   1.4903225   6.0039473  )
        25           Ti1 tau(  25) = (   0.0000382   5.9609847   6.0000000  )
        26           Ti1 tau(  26) = (   3.2902200   4.4714249   6.0002472  )
        27           O1  tau(  27) = (   0.0002396   2.9813036   7.9858123  )
        28           O1  tau(  28) = (   3.2902150   2.9813002   7.3038282  )
        29           O1  tau(  29) = (   4.5938453   4.4726049   9.2879030  )
        30           O1  tau(  30) = (   1.9864658   4.4711199   9.2879459  )
        31           Ti1 tau(  31) = (   3.2891106   5.8743827   9.1763621  )
        32           Ti1 tau(  32) = (   0.0006254   4.4649316   9.2693709  )
        33           O1  tau(  33) = (   3.2918970   3.0256722  11.2465752  )
        34           O1  tau(  34) = (   0.0092240   2.9805883  10.6323155  )
        35           O1  tau(  35) = (   1.2932338   4.4650182  12.6342030  )
        36           O1  tau(  36) = (   5.2897350   4.4662865  12.6224893  )
        37           Ti1 tau(  37) = (   0.0112454   0.1207271  12.6557084  )
        38           Ti1 tau(  38) = (   3.2993242   4.4067673  12.4119285  )
        39           O1  tau(  39) = (   6.5542949   2.9732608  14.6543823  )
        40           O1  tau(  40) = (   3.2957262   2.9928748  13.8751945  )
        41           O1  tau(  41) = (   4.5169628   4.4726675  16.1294972  )
        42           O1  tau(  42) = (   2.0179035   4.4711894  16.0655614  )
        43           Ti1 tau(  43) = (   3.1791666   0.0518155  16.3463265  )
        44           Ti1 tau(  44) = (   6.5235282   4.6410908  16.0777984  )
        45           O1  tau(  45) = (   3.2900926   2.9813045   4.7018136  )
        46           O1  tau(  46) = (   1.3039711   4.4726057   6.0039043  )
        47           O1  tau(  47) = (   5.2763189   4.4711207   6.0039473  )
        48           N1  tau(  48) = (   0.0679940   2.9882472  17.3287890  )
        49           C1  tau(  49) = (   0.3445104   2.8919884  18.7043053  )
        50           H1  tau(  50) = (   0.5935414   3.8503421  19.1719745  )
        51           H1  tau(  51) = (   6.0379261   2.4644003  19.2136804  )
        52           H1  tau(  52) = (   1.1315070   2.1526081  18.8955932  )
        53           O1  tau(  53) = (   3.2362511   0.0690349  18.1809703  )
        54           H1  tau(  54) = (   3.8186072   5.4079590  18.6400750  )

     number of k points=    10  Fermi-Dirac smearing, width (Ry)=  0.0073
                       cart. coord. in units 2pi/alat
        k(    1) = (   0.0000000   0.0000000   0.0000000), wk =   0.1250000
        k(    2) = (   0.0000000   0.0419351   0.0000000), wk =   0.2500000
        k(    3) = (   0.0000000  -0.0838702   0.0000000), wk =   0.1250000
        k(    4) = (   0.0379955   0.0000049   0.0000000), wk =   0.2500000
        k(    5) = (   0.0379955   0.0419400   0.0000000), wk =   0.2500000
        k(    6) = (   0.0379955  -0.0838652   0.0000000), wk =   0.2500000
        k(    7) = (   0.0379955  -0.0419301   0.0000000), wk =   0.2500000
        k(    8) = (  -0.0759910  -0.0000099   0.0000000), wk =   0.1250000
        k(    9) = (  -0.0759910   0.0419252   0.0000000), wk =   0.2500000
        k(   10) = (  -0.0759910  -0.0838800   0.0000000), wk =   0.1250000

     Initial potential from superposition of free atoms

     starting charge  380.99916, renormalised to  397.00000

     negative rho (up, down):  1.676E-02 0.000E+00

     %%%%%%%%%%%%%%%%%%%%%%%%%%%%%%%%%%%%%%%%%%%%%%%%%%%%%%%%%%%%%%%%%%%%%%%%
     %                                                                      %
     % You are using vdW-DF, which was implemented by the Thonhauser group. %
     % Please cite the following two papers that made this development      %
     % possible and the two reviews that describe the various versions:     %
     %                                                                      %
     %   T. Thonhauser et al., PRL 115, 136402 (2015).                      %
     %   T. Thonhauser et al., PRB 76, 125112 (2007).                       %
     %   K. Berland et al., Rep. Prog. Phys. 78, 066501 (2015).             %
     %   D.C. Langreth et al., J. Phys.: Condens. Matter 21, 084203 (2009). %
     %                                                                      %
     %                                                                      %
     % If you are calculating the stress with vdW-DF, please also cite:     %
     %                                                                      %
     %   R. Sabatini et al., J. Phys.: Condens. Matter 24, 424209 (2012).   %
     %                                                                      %
     %%%%%%%%%%%%%%%%%%%%%%%%%%%%%%%%%%%%%%%%%%%%%%%%%%%%%%%%%%%%%%%%%%%%%%%%

     Adding external electric field

     Computed dipole along edir(3) :
        Dipole               -8.2921 Ry au,        -21.0764 Debye
        Dipole field         -0.0156 Ry au,

        Potential amp.        1.4506 Ry
        Total length         46.3494 bohr

     Starting wfcs are  300 atomic wfcs
  @ DRIVER MODE: Message from server: STATUS
  @ DRIVER MODE: Message from server: POSDATA
  @ DRIVER MODE: Reading and sharing cell
  @ DRIVER MODE: Reading and sharing positions
  @ DRIVER MODE: Received positions

     Self-consistent Calculation

     iteration #  1     ecut=    29.40 Ry     beta= 0.05
     Davidson diagonalization with overlap
     c_bands:  1 eigenvalues not converged
     c_bands:  1 eigenvalues not converged
     c_bands:  1 eigenvalues not converged
     c_bands:  3 eigenvalues not converged
     c_bands:  2 eigenvalues not converged
     c_bands:  1 eigenvalues not converged
     c_bands:  1 eigenvalues not converged
     ethr =  1.00E-05,  avg # of iterations = 19.2

[...]

     total energy              =   -2606.63154860 Ry
     estimated scf accuracy    <    3818.80198632 Ry

     iteration #  2     ecut=    29.40 Ry     beta= 0.05
     Davidson diagonalization with overlap
     ethr =  1.00E-02,  avg # of iterations = 23.9

[...]

     iteration # 66     ecut=    29.40 Ry     beta= 0.05
     Davidson diagonalization with overlap
     c_bands:  1 eigenvalues not converged
     ethr =  1.17E-07,  avg # of iterations =  3.5

[...]

     total energy              =   -2952.64745055 Ry
     estimated scf accuracy    <       0.00000009 Ry

     iteration # 97     ecut=    29.40 Ry     beta= 0.05
     Davidson diagonalization with overlap
     ethr =  2.36E-11,  avg # of iterations =  5.8

     negative rho (up, down):  1.696E-02 0.000E+00

     Adding external electric field

     Computed dipole along edir(3) :
        Dipole                0.3600 Ry au,          0.9149 Debye
        Dipole field          0.0007 Ry au,

        Potential amp.       -0.0630 Ry
        Total length         46.3494 bohr

     End of self-consistent calculation

          k = 0.0000 0.0000 0.0000 ( 18029 PWs)   bands (ev):

   -56.8770 -56.8434 -55.9470 -55.9115 -55.7365 -55.6718 -55.5491 -55.4284
   -55.3945 -55.3140 -55.3118 -55.2414 -55.2196 -55.1156 -55.0476 -54.9196
   -33.2957 -33.1473 -33.1192 -33.0567 -32.9665 -32.9228 -32.4282 -32.2118
   -32.1673 -32.1470 -32.0916 -32.0831 -32.0576 -31.9703 -31.9489 -31.9067
   -31.8907 -31.8744 -31.8340 -31.8062 -31.7950 -31.7941 -31.7803 -31.7755
   -31.7510 -31.7307 -31.6659 -31.6325 -31.5911 -31.5829 -31.5522 -31.5290
   -31.5164 -31.5087 -31.4754 -31.4665 -31.4408 -31.4311 -31.4090 -31.3947
   -31.3563 -31.3064 -31.2987 -31.2832 -31.2513 -31.1914 -31.1562 -31.1028
   -16.9797 -16.4627 -16.4176 -16.1932 -16.0707 -16.0648 -16.0194 -15.9570
   -15.7843 -15.7298 -15.6903 -15.6269 -15.4753 -15.3652 -15.2683 -15.0718
   -15.0368 -15.0054 -15.0032 -14.9902 -14.9590 -14.9468 -14.8712 -14.8204
   -14.7896 -14.7075 -14.7004 -14.5395 -14.3100 -14.2872 -13.9260 -13.8190
   -13.7979  -8.0450  -4.5555  -4.0898  -3.8861  -3.7110  -3.5616  -3.4856
    -3.4658  -3.3956  -3.3824  -3.2558  -3.2363  -3.2320  -3.2238  -3.1393
    -3.0750  -3.0166  -2.9273  -2.9118  -2.8210  -2.7705  -2.6115  -2.5765
    -2.4891  -2.4106  -2.4051  -2.3388  -2.3194  -2.2778  -2.2422  -2.2115
    -2.1817  -2.1391  -2.0841  -2.0747  -1.9795  -1.9726  -1.8912  -1.8754
    -1.8689  -1.7474  -1.7089  -1.6492  -1.5094  -1.4882  -1.4706  -1.4399
    -1.4011  -1.3412  -1.2357  -1.1789  -1.1496  -1.0962  -1.0260  -0.9695
    -0.9490  -0.8754  -0.8483  -0.7741  -0.7299  -0.7155  -0.6953  -0.6698
    -0.5323  -0.4502  -0.4152  -0.3628  -0.3478  -0.3089  -0.2836  -0.2284
    -0.1707  -0.1484  -0.0496  -0.0477   0.0891   0.1573   0.1595   0.2577
     0.3021   0.3085   0.3655   0.4340   0.4458   0.5095   0.5296   0.5877
     0.5928   0.6360   0.7195   0.7968   0.8398   0.8695   0.9102   0.9307
     1.0426   1.0673   1.1302   1.1866   1.4997   1.5698   2.1759   2.4176
     2.5895   2.8669   3.0625   3.3621   3.4035   3.4217   3.4219   3.7320

[...]

          k = 0.0380-0.0419 0.0000 ( 17876 PWs)   bands (ev):

[...]

          k =-0.0760-0.0000 0.0000 ( 17886 PWs)   bands (ev):

[...]

          k =-0.0760-0.0839 0.0000 ( 17948 PWs)   bands (ev):

   -56.8609 -56.8594 -55.9350 -55.9233 -55.7317 -55.6765 -55.5483 -55.4120
   -55.4108 -55.3146 -55.3073 -55.2456 -55.2182 -55.1141 -55.0492 -54.9209
   -33.1338 -33.1323 -33.1137 -33.1122 -33.0108 -33.0096 -32.2533 -32.2431
   -32.1296 -32.1255 -32.1176 -32.1165 -32.0299 -31.9893 -31.9635 -31.9498
   -31.9021 -31.9006 -31.8342 -31.7916 -31.7716 -31.7645 -31.7636 -31.6868
   -31.6368 -31.6322 -31.6308 -31.6055 -31.5953 -31.5922 -31.5910 -31.5847
   -31.5360 -31.5281 -31.5113 -31.4855 -31.4810 -31.4654 -31.4355 -31.4110
   -31.3943 -31.3591 -31.3084 -31.2929 -31.2600 -31.2572 -31.1586 -31.1406
   -16.4520 -16.3375 -16.3357 -16.2931 -16.2916 -16.0279 -16.0235 -15.7754
   -15.7463 -15.5702 -15.4586 -15.4365 -15.3948 -15.3543 -15.2765 -15.2256
   -15.2124 -15.1844 -15.1580 -15.0856 -15.0517 -14.9506 -14.9151 -14.8532
   -14.8185 -14.7452 -14.7048 -14.6766 -14.4804 -14.4205 -13.9235 -13.9230
   -13.8213  -8.0439  -4.0936  -3.4671  -3.4146  -3.4102  -3.3747  -3.3677
    -3.3102  -3.1633  -3.1599  -3.0420  -2.9591  -2.9322  -2.9024  -2.8484
    -2.8346  -2.7387  -2.6891  -2.6842  -2.6686  -2.6342  -2.6032  -2.5961
    -2.5383  -2.4114  -2.3670  -2.3297  -2.2899  -2.2218  -2.1906  -2.1830
    -2.1502  -2.1108  -2.0923  -2.0634  -2.0510  -2.0442  -2.0337  -1.9475
    -1.7998  -1.7725  -1.6796  -1.6769  -1.6666  -1.6269  -1.5973  -1.5832
    -1.5632  -1.5293  -1.4528  -1.4270  -1.3628  -1.2264  -1.2137  -1.1793
    -1.1257  -1.0227  -1.0081  -0.9121  -0.8944  -0.8844  -0.8197  -0.7977
    -0.7811  -0.7186  -0.6810  -0.5610  -0.4897  -0.4812  -0.4635  -0.4543
    -0.4038  -0.3563  -0.2835  -0.2798  -0.2635  -0.1553  -0.0593   0.0357
     0.0413   0.1094   0.1254   0.1801   0.3375   0.3482   0.3899   0.4516
     0.5679   0.6594   0.7131   0.8128   0.8460   0.9514   0.9698   0.9748
     0.9942   1.0029   1.0471   1.1027   1.1662   1.4816   1.9751   3.0102
     3.0135   3.0718   3.0774   3.3886   3.3908   3.5030   3.5079   3.8288

     the Fermi energy is     2.0733 ev

!    total energy              =   -2952.64745208 Ry
     estimated scf accuracy    <       0.00000002 Ry
     smearing contrib. (-TS)   =      -0.01069010 Ry
     internal energy E=F+TS    =   -2952.63676198 Ry

     The total energy is F=E-TS. E is the sum of the following terms:
     one-electron contribution =  -24061.22838469 Ry
     hartree contribution      =   12121.06218602 Ry
     xc contribution           =    -487.78157478 Ry
     ewald contribution        =    9475.31076695 Ry
     electric field correction =       0.00024453 Ry

     convergence has been achieved in  97 iterations

     Forces acting on atoms (cartesian axes, Ry/au):

     atom    1 type  1   force =     0.00006329   -0.00037212    0.12634228
     atom    2 type  1   force =    -0.00005817    0.00039078   -0.15473164
     atom    3 type  2   force =     0.00003649    0.00023088   -0.06869092
     atom    4 type  2   force =     0.00004421    0.00001258    0.01722258
     atom    5 type  2   force =    -0.00541535   -0.00183259   -0.01283691
     atom    6 type  2   force =     0.00699802   -0.00107133   -0.01373767
     atom    7 type  1   force =    -0.00029827   -0.00641251    0.05895592
     atom    8 type  1   force =     0.00058277    0.00674927    0.10097726
     atom    9 type  2   force =     0.00031923    0.00037051    0.00010938
     atom   10 type  2   force =    -0.00198472    0.00132310   -0.06338258
     atom   11 type  2   force =    -0.00015349   -0.00065592    0.00023522
     atom   12 type  2   force =    -0.00038141   -0.00040097    0.00005390
     atom   13 type  1   force =     0.00057877   -0.00074739    0.00029926
     atom   14 type  1   force =    -0.00003475   -0.00054840    0.00120868
     atom   15 type  2   force =     0.00000905   -0.00000222    0.00021302
     atom   16 type  2   force =     0.00005618   -0.00020529   -0.00084443
     atom   17 type  2   force =    -0.00042505   -0.00054347   -0.00042541
     atom   18 type  2   force =    -0.00040360   -0.00057371   -0.00060819
     atom   19 type  1   force =     0.00125324    0.00039014   -0.00082188
     atom   20 type  1   force =    -0.00075364    0.00089883   -0.00058374
     atom   21 type  2   force =     0.00009710    0.00015141    0.09784966
     atom   22 type  2   force =    -0.00012518   -0.00006952   -0.00038367
     atom   23 type  2   force =    -0.08273599    0.00003272   -0.03315343
     atom   24 type  2   force =     0.08270431    0.00046455   -0.03321746
     atom   25 type  1   force =     0.00005091   -0.00040094    0.12671044
     atom   26 type  1   force =    -0.00004762   -0.00139770   -0.15489045
     atom   27 type  2   force =     0.00012014   -0.00036984   -0.06709404
     atom   28 type  2   force =     0.00007133    0.00177051    0.01244210
     atom   29 type  2   force =    -0.00383804    0.00476712   -0.01598279
     atom   30 type  2   force =     0.00536634    0.00500713   -0.01691116
     atom   31 type  1   force =    -0.00028893    0.00187400    0.04204805
     atom   32 type  1   force =     0.00075038   -0.00886869    0.10190340
     atom   33 type  2   force =    -0.00004795   -0.00035934   -0.00060814
     atom   34 type  2   force =    -0.00187753    0.00205643   -0.07570321
     atom   35 type  2   force =     0.00014875   -0.00012696   -0.00047741
     atom   36 type  2   force =    -0.00032050    0.00007137   -0.00019894
     atom   37 type  1   force =     0.00046997    0.00055326    0.00041395
     atom   38 type  1   force =    -0.00035190   -0.00074393   -0.00035050
     atom   39 type  2   force =     0.00002470   -0.00049331    0.00057771
     atom   40 type  2   force =    -0.00008775   -0.00056705   -0.00046543
     atom   41 type  2   force =     0.00043602   -0.00035573   -0.00065167
     atom   42 type  2   force =    -0.00135330    0.00017637   -0.00005383
     atom   43 type  1   force =     0.00081689   -0.00066398   -0.00061196
     atom   44 type  1   force =    -0.00114980   -0.00063173   -0.00005123
     atom   45 type  2   force =     0.00008274   -0.00002722    0.09770433
     atom   46 type  2   force =    -0.08277162    0.00001748   -0.03316393
     atom   47 type  2   force =     0.08273570    0.00043142   -0.03321185
     atom   48 type  3   force =     0.00018521   -0.00079511   -0.00136224
     atom   49 type  4   force =    -0.00482036    0.00518931   -0.00079608
     atom   50 type  5   force =    -0.00086296    0.00051749    0.00057572
     atom   51 type  5   force =     0.00077410   -0.00004566   -0.00019176
     atom   52 type  5   force =     0.00422383   -0.00535946    0.00117005
     atom   53 type  2   force =     0.00035637    0.00026107   -0.00091230
     atom   54 type  5   force =     0.00123182    0.00093436    0.00009396

     Total force =     0.421293     Total SCF correction =     0.000357
  @ DRIVER MODE: Message from server: STATUS
  @ DRIVER MODE: Message from server: GETFORCE
  @ DRIVER MODE: Returning v,forces,stress,ensemble

     Writing output data file ./calc.save/
  @ DRIVER MODE: Message from server: EXIT
  @ DRIVE MODE: Exiting

     General routines

     Parallel routines

   This run was terminated on:   1:17:12  23Sep2021

   JOB DONE.