     Program PWSCF v.6.7GPU starts on 16Sep2021 at  3: 9:21

     R & G space division:  proc/nbgrp/npool/nimage =      10
     Reading input from /storage/home/hcoda1/3/ntian30/research/carbon/CxH_vib/H2O_calc/ads_slab/CHNHH2O_a/out_0035/pw.inp
Warning: card &CELL ignored
Warning: card   CELL_DYNAMICS='IPI', ignored
Warning: card / ignored

     Current dimensions of program PWSCF are:
     Max number of different atomic species (ntypx) = 10
     Max number of k-points (npk) =  40000
     Max angular momentum in pseudopotentials (lmaxx) =  3
     Presently no symmetry can be used with electric field

     Message from routine cell_base_init:
     DEPRECATED: use true lattice parameter, not A to a.u. conversion factor

     IMPORTANT: XC functional enforced from input :
     Exchange-correlation= BEEF-VDW
                           (   1   4  43  14   2   0   0)
     Any further DFT definition will be discarded
     Please, verify this is what you really want

  @ DRIVER MODE: Connecting to
 qe_1139763_2852628.sched-torque.pace.gatech.eduy6bz_eow_scratch
  using UNIX socket
  @ DRIVER MODE: Message from server: STATUS
  @ DRIVER MODE: Message from server: INIT
  @ DRIVER MODE: Receiving replica           0          -1
  @ DRIVER MODE: Receiving encoded integer          25
  @ DRIVER MODE:  SCF:  T  FORCE:  T  STRESS:  F  VC:  F  ENSEMBLE:  F
  @ DRIVER MODE:  SCF:  T  FORCE:  T  STRESS:  F  VC:  F  ENSEMBLE:  F

     Using Slab Decomposition

     bravais-lattice index     =            0
     lattice parameter (alat)  =       1.8897  a.u.
     unit-cell volume          =    6658.9804 (a.u.)^3
     number of atoms/cell      =           54
     number of atomic types    =            5
     number of electrons       =       397.00
     number of Kohn-Sham states=          208
     kinetic-energy cutoff     =      29.3995  Ry
     charge density cutoff     =     293.9946  Ry
     scf convergence threshold =      7.3E-08
     mixing beta               =       0.0500
     number of iterations used =            8  plain     mixing
     Exchange-correlation= BEEF-VDW
                           (   1   4  43  14   2   0   0)

     celldm(1)=   1.889726  celldm(2)=   0.000000  celldm(3)=   0.000000
     celldm(4)=   0.000000  celldm(5)=   0.000000  celldm(6)=   0.000000

     crystal axes: (cart. coord. in units of alat)
               a(1) = (   6.579727   0.000000   0.000000 )
               a(2) = (  -0.000775   5.961596   0.000000 )
               a(3) = (   0.000000   0.000000  25.155947 )

     reciprocal axes: (cart. coord. in units 2 pi/alat)
               b(1) = (  0.151982  0.000020  0.000000 )
               b(2) = (  0.000000  0.167740  0.000000 )
               b(3) = (  0.000000  0.000000  0.039752 )

     PseudoPot. # 1 for Ti read from file:
     /storage/coda1/p-amedford6/0/shared/rich_project_chbe-medford/medford-share/data/pseudos_module/espresso/nninc/pbe/van/Ti.UPF
     MD5 check sum: 8e4df49b7f0d34bbd5052bf3f5ea0213
     Pseudo is Ultrasoft, Zval = 12.0
     Generated by new atomic code, or converted to UPF format
     Using radial grid of  851 points,  6 beta functions with:
                l(1) =   0
                l(2) =   0
                l(3) =   1
                l(4) =   1
                l(5) =   2
                l(6) =   2
     Q(r) pseudized with  8 coefficients,  rinner =    1.000   1.000   1.000
                                                       1.000   1.000

     PseudoPot. # 2 for O  read from file:
     /storage/coda1/p-amedford6/0/shared/rich_project_chbe-medford/medford-share/data/pseudos_module/espresso/nninc/pbe/van/O.UPF
     MD5 check sum: 78c19812648e8988a0fe644b0f25305e
     Pseudo is Ultrasoft, Zval =  6.0
     Generated by new atomic code, or converted to UPF format
     Using radial grid of  737 points,  4 beta functions with:
                l(1) =   0
                l(2) =   0
                l(3) =   1
                l(4) =   1
     Q(r) pseudized with  8 coefficients,  rinner =    0.800   0.800   0.800

     PseudoPot. # 3 for N  read from file:
     /storage/coda1/p-amedford6/0/shared/rich_project_chbe-medford/medford-share/data/pseudos_module/espresso/nninc/pbe/van/N.UPF
     MD5 check sum: 90d10febe142ad51ac9d5be1deb811c4
     Pseudo is Ultrasoft, Zval =  5.0
     Generated by new atomic code, or converted to UPF format
     Using radial grid of  729 points,  4 beta functions with:
                l(1) =   0
                l(2) =   0
                l(3) =   1
                l(4) =   1
     Q(r) pseudized with  8 coefficients,  rinner =    0.800   0.800   0.800

     PseudoPot. # 4 for C  read from file:
     /storage/coda1/p-amedford6/0/shared/rich_project_chbe-medford/medford-share/data/pseudos_module/espresso/nninc/pbe/van/C.UPF
     MD5 check sum: 1a69bf6b8db32088f5b2163dbdb77a27
     Pseudo is Ultrasoft, Zval =  4.0
     Generated by new atomic code, or converted to UPF format
     Using radial grid of  721 points,  4 beta functions with:
                l(1) =   0
                l(2) =   0
                l(3) =   1
                l(4) =   1
     Q(r) pseudized with  8 coefficients,  rinner =    0.800   0.800   0.800

     PseudoPot. # 5 for H  read from file:
     /storage/coda1/p-amedford6/0/shared/rich_project_chbe-medford/medford-share/data/pseudos_module/espresso/nninc/pbe/van/H.UPF
     MD5 check sum: b5ee9d7bfd3a09ee7748110bda690ff7
     Pseudo is Ultrasoft, Zval =  1.0
     Generated by new atomic code, or converted to UPF format
     Using radial grid of  615 points,  1 beta functions with:
                l(1) =   0
     Q(r) pseudized with  8 coefficients,  rinner =    0.800

     atomic species   valence    mass     pseudopotential
        Ti1           12.00    47.86700     Ti( 1.00)
        O1             6.00    15.99900     O ( 1.00)
        N1             5.00    14.00700     N ( 1.00)
        C1             4.00    12.01100     C ( 1.00)
        H1             1.00     1.00800     H ( 1.00)

     No symmetry found

   Cartesian axes

     site n.     atom                  positions (alat units)
         1           Ti1 tau(   1) = (   0.0004258   2.9801865   6.0000000  )
         2           Ti1 tau(   2) = (   3.2906075   1.4906267   6.0002472  )
         3           O1  tau(   3) = (   0.0006271   0.0005054   7.9858123  )
         4           O1  tau(   4) = (   3.2906025   0.0005020   7.3038282  )
         5           O1  tau(   5) = (   4.5942328   1.4918067   9.2879030  )
         6           O1  tau(   6) = (   1.9868534   1.4903216   9.2879459  )
         7           Ti1 tau(   7) = (   3.2907910   2.8959150   9.1758416  )
         8           Ti1 tau(   8) = (   0.0015273   1.4827037   9.2680791  )
         9           O1  tau(   9) = (   3.2914171   5.9475995  11.3455371  )
        10           O1  tau(  10) = (   0.0116148   5.9584955  10.6183126  )
        11           O1  tau(  11) = (   1.3057669   1.4807986  12.6390077  )
        12           O1  tau(  12) = (   5.3035249   1.4749620  12.6227664  )
        13           Ti1 tau(  13) = (   6.5294082   2.9362577  12.6231083  )
        14           Ti1 tau(  14) = (   3.2175537   1.4615748  12.5070279  )
        15           O1  tau(  15) = (   6.5585639   5.9474800  14.6380151  )
        16           O1  tau(  16) = (   3.3125803   5.9531145  13.9695519  )
        17           O1  tau(  17) = (   4.5393379   1.5011389  16.1071157  )
        18           O1  tau(  18) = (   2.0094023   1.5044898  16.0307267  )
        19           Ti1 tau(  19) = (   3.2760958   2.9523363  15.6877793  )
        20           Ti1 tau(  20) = (   0.0277933   1.3451898  16.0452527  )
        21           O1  tau(  21) = (   3.2904802   0.0005063   4.7018136  )
        22           O1  tau(  22) = (   0.0198929   5.9263875  17.1601691  )
        23           O1  tau(  23) = (   1.3043587   1.4918075   6.0039043  )
        24           O1  tau(  24) = (   5.2767064   1.4903225   6.0039473  )
        25           Ti1 tau(  25) = (   0.0000382   5.9609847   6.0000000  )
        26           Ti1 tau(  26) = (   3.2902200   4.4714249   6.0002472  )
        27           O1  tau(  27) = (   0.0002396   2.9813036   7.9858123  )
        28           O1  tau(  28) = (   3.2902150   2.9813002   7.3038282  )
        29           O1  tau(  29) = (   4.5938453   4.4726049   9.2879030  )
        30           O1  tau(  30) = (   1.9864658   4.4711199   9.2879459  )
        31           Ti1 tau(  31) = (   3.2891106   5.8743827   9.1763621  )
        32           Ti1 tau(  32) = (   0.0006254   4.4649316   9.2693709  )
        33           O1  tau(  33) = (   3.2862706   2.9662616  11.3468726  )
        34           O1  tau(  34) = (   0.0092240   2.9805883  10.6323155  )
        35           O1  tau(  35) = (   1.3102706   4.4726941  12.6361575  )
        36           O1  tau(  36) = (   5.3014905   4.4644878  12.6181669  )
        37           Ti1 tau(  37) = (   6.5311680   5.9227251  12.5202533  )
        38           Ti1 tau(  38) = (   3.2191334   4.4553394  12.5017427  )
        39           O1  tau(  39) = (   6.5614274   2.9920157  14.6796082  )
        40           O1  tau(  40) = (   3.3146075   2.9603188  13.8993185  )
        41           O1  tau(  41) = (   4.5484517   4.4144432  16.0509510  )
        42           O1  tau(  42) = (   2.0146171   4.4214036  15.9967612  )
        43           Ti1 tau(  43) = (   3.3303817   5.9274347  15.8100502  )
        44           Ti1 tau(  44) = (   0.0273359   4.4939047  15.8144843  )
        45           O1  tau(  45) = (   3.2900926   2.9813045   4.7018136  )
        46           O1  tau(  46) = (   1.3039711   4.4726057   6.0039043  )
        47           O1  tau(  47) = (   5.2763189   4.4711207   6.0039473  )
        48           N1  tau(  48) = (   6.5134970   2.9613368  17.6459670  )
        49           C1  tau(  49) = (   0.7931072   3.0267964  18.6255283  )
        50           H1  tau(  50) = (   1.8307262   2.9311331  18.2395185  )
        51           H1  tau(  51) = (   5.5494773   3.0666896  17.9713127  )
        52           O1  tau(  52) = (   3.1855344   5.8058271  18.1612476  )
        53           H1  tau(  53) = (   3.8461454   0.3022996  18.6934462  )
        54           H1  tau(  54) = (   2.3120581   0.0053998  18.5533318  )

     number of k points=    10  Fermi-Dirac smearing, width (Ry)=  0.0073
                       cart. coord. in units 2pi/alat
        k(    1) = (   0.0000000   0.0000000   0.0000000), wk =   0.1250000
        k(    2) = (   0.0000000   0.0419351   0.0000000), wk =   0.2500000
        k(    3) = (   0.0000000  -0.0838702   0.0000000), wk =   0.1250000
        k(    4) = (   0.0379955   0.0000049   0.0000000), wk =   0.2500000
        k(    5) = (   0.0379955   0.0419400   0.0000000), wk =   0.2500000
        k(    6) = (   0.0379955  -0.0838652   0.0000000), wk =   0.2500000
        k(    7) = (   0.0379955  -0.0419301   0.0000000), wk =   0.2500000
        k(    8) = (  -0.0759910  -0.0000099   0.0000000), wk =   0.1250000
        k(    9) = (  -0.0759910   0.0419252   0.0000000), wk =   0.2500000
        k(   10) = (  -0.0759910  -0.0838800   0.0000000), wk =   0.1250000

     Initial potential from superposition of free atoms

     starting charge  380.99916, renormalised to  397.00000

     negative rho (up, down):  1.756E-02 0.000E+00

     %%%%%%%%%%%%%%%%%%%%%%%%%%%%%%%%%%%%%%%%%%%%%%%%%%%%%%%%%%%%%%%%%%%%%%%%
     %                                                                      %
     % You are using vdW-DF, which was implemented by the Thonhauser group. %
     % Please cite the following two papers that made this development      %
     % possible and the two reviews that describe the various versions:     %
     %                                                                      %
     %   T. Thonhauser et al., PRL 115, 136402 (2015).                      %
     %   T. Thonhauser et al., PRB 76, 125112 (2007).                       %
     %   K. Berland et al., Rep. Prog. Phys. 78, 066501 (2015).             %
     %   D.C. Langreth et al., J. Phys.: Condens. Matter 21, 084203 (2009). %
     %                                                                      %
     %                                                                      %
     % If you are calculating the stress with vdW-DF, please also cite:     %
     %                                                                      %
     %   R. Sabatini et al., J. Phys.: Condens. Matter 24, 424209 (2012).   %
     %                                                                      %
     %%%%%%%%%%%%%%%%%%%%%%%%%%%%%%%%%%%%%%%%%%%%%%%%%%%%%%%%%%%%%%%%%%%%%%%%

     Adding external electric field

     Computed dipole along edir(3) :
        Dipole               -9.1659 Ry au,        -23.2973 Debye
        Dipole field         -0.0173 Ry au,

        Potential amp.        1.6034 Ry
        Total length         46.3494 bohr

     Starting wfcs are  300 atomic wfcs
  @ DRIVER MODE: Message from server: STATUS
  @ DRIVER MODE: Message from server: POSDATA
  @ DRIVER MODE: Reading and sharing cell
  @ DRIVER MODE: Reading and sharing positions
  @ DRIVER MODE: Received positions

     Self-consistent Calculation

     iteration #  1     ecut=    29.40 Ry     beta= 0.05
     Davidson diagonalization with overlap
     c_bands:  1 eigenvalues not converged
     c_bands:  1 eigenvalues not converged
     c_bands:  1 eigenvalues not converged
     c_bands:  1 eigenvalues not converged
     c_bands:  1 eigenvalues not converged
     c_bands:  1 eigenvalues not converged
     c_bands:  1 eigenvalues not converged
     c_bands:  1 eigenvalues not converged
     ethr =  1.00E-05,  avg # of iterations = 19.9

[...]

     total energy              =   -2547.25047722 Ry
     estimated scf accuracy    <    4504.93915659 Ry

     iteration #  2     ecut=    29.40 Ry     beta= 0.05
     Davidson diagonalization with overlap
     ethr =  1.00E-02,  avg # of iterations = 25.6

[...]

     iteration # 89     ecut=    29.40 Ry     beta= 0.05
     Davidson diagonalization with overlap
     c_bands:  1 eigenvalues not converged
     ethr =  3.10E-11,  avg # of iterations = 14.2

[...]

     total energy              =   -2952.61568521 Ry
     estimated scf accuracy    <       0.00000011 Ry

     iteration # 92     ecut=    29.40 Ry     beta= 0.05
     Davidson diagonalization with overlap
     ethr =  1.97E-11,  avg # of iterations =  7.6

     negative rho (up, down):  1.616E-02 0.000E+00

     Adding external electric field

     Computed dipole along edir(3) :
        Dipole                0.4039 Ry au,          1.0267 Debye
        Dipole field          0.0008 Ry au,

        Potential amp.       -0.0707 Ry
        Total length         46.3494 bohr

     End of self-consistent calculation

          k = 0.0000 0.0000 0.0000 ( 18029 PWs)   bands (ev):

   -56.0252 -56.0003 -55.9934 -55.9911 -55.9640 -55.8707 -55.8384 -55.8293
   -55.8260 -55.8128 -55.8042 -55.7793 -55.7496 -55.5802 -55.0108 -54.9767
   -32.5461 -32.5092 -32.4020 -32.3701 -32.3374 -32.3173 -32.3078 -32.3029
   -32.2686 -32.2375 -32.2258 -32.2193 -32.2102 -32.1973 -32.1793 -32.1775
   -32.1526 -32.1310 -32.1291 -32.1264 -32.0935 -32.0823 -32.0733 -32.0413
   -32.0304 -32.0290 -32.0251 -32.0207 -32.0178 -32.0127 -31.9978 -31.9870
   -31.9849 -31.9833 -31.9714 -31.9656 -31.9618 -31.9432 -31.9239 -31.8410
   -31.8240 -31.7372 -31.4182 -31.3290 -31.3066 -31.2348 -31.1483 -31.0373
   -19.2605 -16.7575 -16.5175 -16.3427 -16.2024 -16.1715 -15.9548 -15.8532
   -15.7824 -15.7281 -15.6588 -15.6073 -15.5732 -15.5641 -15.5473 -15.5242
   -15.5038 -15.4812 -15.4581 -15.4461 -15.4397 -15.3976 -15.3903 -15.3743
   -15.3557 -15.2496 -15.1855 -15.1613 -15.1160 -15.0929 -14.7398 -13.5129
   -13.3963  -7.8705  -7.1303  -4.1548  -4.0609  -3.9860  -3.9434  -3.9295
    -3.7700  -3.6961  -3.5468  -3.5191  -3.3091  -3.2765  -3.2216  -3.1965
    -3.1348  -3.0726  -2.9779  -2.9341  -2.8575  -2.8415  -2.8289  -2.8060
    -2.7858  -2.7693  -2.7290  -2.6651  -2.5952  -2.5618  -2.4480  -2.4220
    -2.4152  -2.3478  -2.3408  -2.3289  -2.3159  -2.2843  -2.2624  -2.2594
    -2.1878  -2.1559  -2.0854  -2.0335  -1.9725  -1.8546  -1.7033  -1.6409
    -1.5904  -1.5304  -1.5050  -1.4693  -1.4474  -1.4229  -1.3654  -1.3056
    -1.2412  -1.2292  -1.1587  -1.0663  -0.9947  -0.9569  -0.8863  -0.8248
    -0.8032  -0.7752  -0.7675  -0.7581  -0.7093  -0.5367  -0.4807  -0.4670
    -0.4277  -0.3445  -0.3142  -0.3042  -0.2551  -0.2470  -0.2069  -0.1183
    -0.0991  -0.0642  -0.0463  -0.0327   0.0002   0.0197   0.1748   0.1955
     0.2378   0.2594   0.3617   0.4678   0.5348   0.6224   0.7168   0.9356
     1.0117   1.0888   1.2027   1.5837   1.6298   2.7793   3.1032   3.1917
     3.2298   3.2359   3.2702   3.3406   3.5570   3.5882   3.6057   3.6615

[...]

          k = 0.0380-0.0419 0.0000 ( 17876 PWs)   bands (ev):

[...]

          k =-0.0760-0.0000 0.0000 ( 17886 PWs)   bands (ev):

[...]

          k =-0.0760-0.0839 0.0000 ( 17948 PWs)   bands (ev):

   -56.0089 -56.0073 -55.9920 -55.9841 -55.9796 -55.8615 -55.8387 -55.8276
   -55.8219 -55.8199 -55.7967 -55.7957 -55.7480 -55.5817 -54.9938 -54.9936
   -32.3599 -32.3440 -32.3250 -32.3239 -32.3034 -32.3021 -32.2808 -32.2728
   -32.2534 -32.2206 -32.2057 -32.2012 -32.1967 -32.1754 -32.1478 -32.1426
   -32.1381 -32.1360 -32.1345 -32.1327 -32.1321 -32.1288 -32.1282 -32.1265
   -32.0795 -32.0606 -32.0517 -32.0401 -32.0283 -32.0260 -32.0247 -32.0229
   -32.0223 -32.0118 -32.0100 -31.9996 -31.9932 -31.9789 -31.9733 -31.8449
   -31.8290 -31.8241 -31.3194 -31.3192 -31.2310 -31.2308 -31.1916 -31.1915
   -19.2596 -16.2164 -16.0967 -16.0424 -15.9494 -15.9239 -15.9093 -15.8354
   -15.7829 -15.7298 -15.7203 -15.6962 -15.6818 -15.6744 -15.6157 -15.5873
   -15.5629 -15.5518 -15.5085 -15.4956 -15.4876 -15.4740 -15.4719 -15.4658
   -15.4221 -15.3908 -15.3539 -15.3499 -15.2104 -15.1017 -15.0120 -13.4982
   -13.4979  -7.8793  -7.1325  -3.9067  -3.6492  -3.4944  -3.3177  -3.2658
    -3.1679  -3.1558  -3.1250  -3.1045  -2.9956  -2.9359  -2.9231  -2.9014
    -2.8606  -2.8509  -2.8441  -2.8392  -2.8049  -2.8032  -2.7665  -2.7480
    -2.7161  -2.7027  -2.6971  -2.6901  -2.6663  -2.6467  -2.6071  -2.5922
    -2.5760  -2.5461  -2.5084  -2.3754  -2.3058  -2.2281  -2.2211  -2.1808
    -2.1682  -2.1482  -2.1053  -2.0876  -2.0602  -1.9792  -1.9037  -1.7493
    -1.7312  -1.7076  -1.6771  -1.6158  -1.5236  -1.5001  -1.4708  -1.4244
    -1.4077  -1.3498  -1.3297  -1.2979  -1.2427  -1.1799  -1.1420  -1.1152
    -1.0702  -1.0049  -0.9845  -0.9632  -0.9499  -0.8887  -0.7804  -0.7740
    -0.7681  -0.7185  -0.7031  -0.6736  -0.6538  -0.5606  -0.4814  -0.4212
    -0.3244  -0.1603  -0.0803   0.0174   0.0546   0.0994   0.1440   0.1857
     0.2826   0.2846   0.3570   0.3875   0.4050   0.4872   0.4981   0.5212
     0.6819   1.3743   1.3755   1.4493   1.4498   2.8142   3.3606   3.4070
     3.4412   3.4879   3.5904   3.6105   3.6391   3.6409   3.7195   3.7670

     the Fermi energy is     3.1063 ev

!    total energy              =   -2952.61568888 Ry
     estimated scf accuracy    <       0.00000005 Ry
     smearing contrib. (-TS)   =      -0.02583804 Ry
     internal energy E=F+TS    =   -2952.58985084 Ry

     The total energy is F=E-TS. E is the sum of the following terms:
     one-electron contribution =  -24510.02725492 Ry
     hartree contribution      =   12342.18730192 Ry
     xc contribution           =    -487.96785775 Ry
     ewald contribution        =    9703.21765202 Ry
     electric field correction =       0.00030789 Ry

     convergence has been achieved in  92 iterations

     Forces acting on atoms (cartesian axes, Ry/au):

     atom    1 type  1   force =    -0.00003893   -0.00029629    0.09593596
     atom    2 type  1   force =     0.00005580   -0.00049229   -0.17609673
     atom    3 type  2   force =     0.00010356   -0.00009576   -0.02433029
     atom    4 type  2   force =     0.00000943   -0.00163155    0.05391349
     atom    5 type  2   force =    -0.01178377   -0.00141840    0.00393055
     atom    6 type  2   force =     0.01321622   -0.00102401    0.00317318
     atom    7 type  1   force =     0.00034368    0.00067876   -0.00763429
     atom    8 type  1   force =     0.00026158    0.01497262    0.02335184
     atom    9 type  2   force =    -0.00005063    0.00018837    0.00008858
     atom   10 type  2   force =    -0.00219019    0.00049944   -0.01743776
     atom   11 type  2   force =     0.00046990   -0.00027129   -0.00021656
     atom   12 type  2   force =    -0.00083666   -0.00017813    0.00000459
     atom   13 type  1   force =     0.00046144    0.00044296    0.00005510
     atom   14 type  1   force =    -0.00019125    0.00003190    0.00090091
     atom   15 type  2   force =    -0.00014032   -0.00002164   -0.00073910
     atom   16 type  2   force =     0.00001229    0.00051772   -0.00027144
     atom   17 type  2   force =    -0.00048298    0.00023350    0.00017181
     atom   18 type  2   force =     0.00026457    0.00018440   -0.00022112
     atom   19 type  1   force =     0.00064878    0.00067040   -0.00047108
     atom   20 type  1   force =    -0.00049347    0.00038910   -0.00008457
     atom   21 type  2   force =     0.00006660   -0.00000365    0.10335200
     atom   22 type  2   force =    -0.00028979   -0.00019019    0.00065870
     atom   23 type  2   force =    -0.07136694   -0.00011034   -0.02763048
     atom   24 type  2   force =     0.07128995    0.00033921   -0.02770143
     atom   25 type  1   force =     0.00024046   -0.00029174    0.09576139
     atom   26 type  1   force =     0.00011657   -0.00028778   -0.17602539
     atom   27 type  2   force =     0.00014155   -0.00028976   -0.02322344
     atom   28 type  2   force =     0.00000380   -0.00132550    0.05367372
     atom   29 type  2   force =    -0.01212839    0.00039377    0.00377819
     atom   30 type  2   force =     0.01351989    0.00101130    0.00302356
     atom   31 type  1   force =     0.00024719    0.00374620   -0.01142390
     atom   32 type  1   force =     0.00044078   -0.01662820    0.02316240
     atom   33 type  2   force =     0.00017893    0.00009971   -0.00035518
     atom   34 type  2   force =    -0.00191130   -0.00010402   -0.02071190
     atom   35 type  2   force =     0.00046083    0.00006195    0.00007360
     atom   36 type  2   force =    -0.00088293   -0.00000430    0.00033083
     atom   37 type  1   force =     0.00080453    0.00004883   -0.00029005
     atom   38 type  1   force =    -0.00000281    0.00013959    0.00040941
     atom   39 type  2   force =    -0.00026426    0.00043570   -0.00054418
     atom   40 type  2   force =    -0.00038602   -0.00007934   -0.00018102
     atom   41 type  2   force =    -0.00056716    0.00032181    0.00023269
     atom   42 type  2   force =     0.00003213    0.00016373    0.00006800
     atom   43 type  1   force =     0.00019868   -0.00027493    0.00033976
     atom   44 type  1   force =    -0.00003718   -0.00032592    0.00038995
     atom   45 type  2   force =     0.00006955   -0.00000053    0.10331391
     atom   46 type  2   force =    -0.07135210   -0.00004294   -0.02761545
     atom   47 type  2   force =     0.07127282    0.00038387   -0.02768682
     atom   48 type  3   force =     0.00129255    0.00100765    0.00041523
     atom   49 type  4   force =    -0.00027773   -0.00019381   -0.00060635
     atom   50 type  5   force =    -0.00000206   -0.00060367    0.00021504
     atom   51 type  5   force =     0.00017903   -0.00057661    0.00012276
     atom   52 type  2   force =    -0.00758364   -0.00570775   -0.00569000
     atom   53 type  5   force =     0.00608803    0.00508438    0.00655130
     atom   54 type  5   force =     0.00076936    0.00042347   -0.00020990

     Total force =     0.368134     Total SCF correction =     0.000485
  @ DRIVER MODE: Message from server: STATUS
  @ DRIVER MODE: Message from server: GETFORCE
  @ DRIVER MODE: Returning v,forces,stress,ensemble

     Writing output data file ./calc.save/
  @ DRIVER MODE: Message from server: EXIT
  @ DRIVE MODE: Exiting

     General routines

     Parallel routines

   This run was terminated on:   3:33: 3  16Sep2021

   JOB DONE.