     Program PWSCF v.6.7GPU starts on 23Sep2021 at  2:57:37

     R & G space division:  proc/nbgrp/npool/nimage =      10
     Reading input from /storage/home/hcoda1/3/ntian30/research/carbon/CxH_vib/H2O_calc/ads_slab/CHNNHHHO_a/out_0032/pw.inp
Warning: card &CELL ignored
Warning: card   CELL_DYNAMICS='IPI', ignored
Warning: card / ignored

     Current dimensions of program PWSCF are:
     Max number of different atomic species (ntypx) = 10
     Max number of k-points (npk) =  40000
     Max angular momentum in pseudopotentials (lmaxx) =  3
     Presently no symmetry can be used with electric field

     Message from routine cell_base_init:
     DEPRECATED: use true lattice parameter, not A to a.u. conversion factor

     IMPORTANT: XC functional enforced from input :
     Exchange-correlation= BEEF-VDW
                           (   1   4  43  14   2   0   0)
     Any further DFT definition will be discarded
     Please, verify this is what you really want

  @ DRIVER MODE: Connecting to
 qe_1139763_2937315.sched-torque.pace.gatech.edul8dkvc2f_scratch
  using UNIX socket
  @ DRIVER MODE: Message from server: STATUS
  @ DRIVER MODE: Message from server: INIT
  @ DRIVER MODE: Receiving replica           0          -1
  @ DRIVER MODE: Receiving encoded integer          25
  @ DRIVER MODE:  SCF:  T  FORCE:  T  STRESS:  F  VC:  F  ENSEMBLE:  F
  @ DRIVER MODE:  SCF:  T  FORCE:  T  STRESS:  F  VC:  F  ENSEMBLE:  F

     Using Slab Decomposition

     bravais-lattice index     =            0
     lattice parameter (alat)  =       1.8897  a.u.
     unit-cell volume          =    6658.9804 (a.u.)^3
     number of atoms/cell      =           55
     number of atomic types    =            5
     number of electrons       =       402.00
     number of Kohn-Sham states=          211
     kinetic-energy cutoff     =      29.3995  Ry
     charge density cutoff     =     293.9946  Ry
     scf convergence threshold =      7.3E-08
     mixing beta               =       0.0500
     number of iterations used =            8  plain     mixing
     Exchange-correlation= BEEF-VDW
                           (   1   4  43  14   2   0   0)

     celldm(1)=   1.889726  celldm(2)=   0.000000  celldm(3)=   0.000000
     celldm(4)=   0.000000  celldm(5)=   0.000000  celldm(6)=   0.000000

     crystal axes: (cart. coord. in units of alat)
               a(1) = (   6.579727   0.000000   0.000000 )
               a(2) = (  -0.000775   5.961596   0.000000 )
               a(3) = (   0.000000   0.000000  25.155947 )

     reciprocal axes: (cart. coord. in units 2 pi/alat)
               b(1) = (  0.151982  0.000020  0.000000 )
               b(2) = (  0.000000  0.167740  0.000000 )
               b(3) = (  0.000000  0.000000  0.039752 )

     PseudoPot. # 1 for Ti read from file:
     /storage/coda1/p-amedford6/0/shared/rich_project_chbe-medford/medford-share/data/pseudos_module/espresso/nninc/pbe/van/Ti.UPF
     MD5 check sum: 8e4df49b7f0d34bbd5052bf3f5ea0213
     Pseudo is Ultrasoft, Zval = 12.0
     Generated by new atomic code, or converted to UPF format
     Using radial grid of  851 points,  6 beta functions with:
                l(1) =   0
                l(2) =   0
                l(3) =   1
                l(4) =   1
                l(5) =   2
                l(6) =   2
     Q(r) pseudized with  8 coefficients,  rinner =    1.000   1.000   1.000
                                                       1.000   1.000

     PseudoPot. # 2 for O  read from file:
     /storage/coda1/p-amedford6/0/shared/rich_project_chbe-medford/medford-share/data/pseudos_module/espresso/nninc/pbe/van/O.UPF
     MD5 check sum: 78c19812648e8988a0fe644b0f25305e
     Pseudo is Ultrasoft, Zval =  6.0
     Generated by new atomic code, or converted to UPF format
     Using radial grid of  737 points,  4 beta functions with:
                l(1) =   0
                l(2) =   0
                l(3) =   1
                l(4) =   1
     Q(r) pseudized with  8 coefficients,  rinner =    0.800   0.800   0.800

     PseudoPot. # 3 for N  read from file:
     /storage/coda1/p-amedford6/0/shared/rich_project_chbe-medford/medford-share/data/pseudos_module/espresso/nninc/pbe/van/N.UPF
     MD5 check sum: 90d10febe142ad51ac9d5be1deb811c4
     Pseudo is Ultrasoft, Zval =  5.0
     Generated by new atomic code, or converted to UPF format
     Using radial grid of  729 points,  4 beta functions with:
                l(1) =   0
                l(2) =   0
                l(3) =   1
                l(4) =   1
     Q(r) pseudized with  8 coefficients,  rinner =    0.800   0.800   0.800

     PseudoPot. # 4 for C  read from file:
     /storage/coda1/p-amedford6/0/shared/rich_project_chbe-medford/medford-share/data/pseudos_module/espresso/nninc/pbe/van/C.UPF
     MD5 check sum: 1a69bf6b8db32088f5b2163dbdb77a27
     Pseudo is Ultrasoft, Zval =  4.0
     Generated by new atomic code, or converted to UPF format
     Using radial grid of  721 points,  4 beta functions with:
                l(1) =   0
                l(2) =   0
                l(3) =   1
                l(4) =   1
     Q(r) pseudized with  8 coefficients,  rinner =    0.800   0.800   0.800

     PseudoPot. # 5 for H  read from file:
     /storage/coda1/p-amedford6/0/shared/rich_project_chbe-medford/medford-share/data/pseudos_module/espresso/nninc/pbe/van/H.UPF
     MD5 check sum: b5ee9d7bfd3a09ee7748110bda690ff7
     Pseudo is Ultrasoft, Zval =  1.0
     Generated by new atomic code, or converted to UPF format
     Using radial grid of  615 points,  1 beta functions with:
                l(1) =   0
     Q(r) pseudized with  8 coefficients,  rinner =    0.800

     atomic species   valence    mass     pseudopotential
        Ti1           12.00    47.86700     Ti( 1.00)
        O1             6.00    15.99900     O ( 1.00)
        N1             5.00    14.00700     N ( 1.00)
        C1             4.00    12.01100     C ( 1.00)
        H1             1.00     1.00800     H ( 1.00)

     No symmetry found

   Cartesian axes

     site n.     atom                  positions (alat units)
         1           Ti1 tau(   1) = (   0.0004258   2.9801865   6.0000000  )
         2           Ti1 tau(   2) = (   3.2906075   1.4906267   6.0002472  )
         3           O1  tau(   3) = (   0.0006271   0.0005054   7.9858123  )
         4           O1  tau(   4) = (   3.2906025   0.0005020   7.3038282  )
         5           O1  tau(   5) = (   4.5942328   1.4918067   9.2879030  )
         6           O1  tau(   6) = (   1.9868534   1.4903216   9.2879459  )
         7           Ti1 tau(   7) = (   3.2907910   2.8959150   9.1758416  )
         8           Ti1 tau(   8) = (   0.0015273   1.4827037   9.2680791  )
         9           O1  tau(   9) = (   3.3019041   5.9340972  11.2780832  )
        10           O1  tau(  10) = (   0.0116148   5.9584955  10.6183126  )
        11           O1  tau(  11) = (   1.2869077   1.4717189  12.6473688  )
        12           O1  tau(  12) = (   5.3188397   1.4655789  12.6430575  )
        13           Ti1 tau(  13) = (   0.0521173   3.0639968  12.7333969  )
        14           Ti1 tau(  14) = (   3.2906581   1.3001642  12.6471297  )
        15           O1  tau(  15) = (   0.0021475   5.9326859  14.6872502  )
        16           O1  tau(  16) = (   3.3040199   0.0265785  13.8678754  )
        17           O1  tau(  17) = (   4.6240569   1.6264218  16.1080407  )
        18           O1  tau(  18) = (   2.0715169   1.5429601  15.9546445  )
        19           Ti1 tau(  19) = (   3.3363059   2.9874148  15.6109769  )
        20           Ti1 tau(  20) = (   0.0492893   1.4028208  15.7974426  )
        21           O1  tau(  21) = (   3.2904802   0.0005063   4.7018136  )
        22           O1  tau(  22) = (   0.0944532   0.0627470  17.1934044  )
        23           O1  tau(  23) = (   1.3043587   1.4918075   6.0039043  )
        24           O1  tau(  24) = (   5.2767064   1.4903225   6.0039473  )
        25           Ti1 tau(  25) = (   0.0000382   5.9609847   6.0000000  )
        26           Ti1 tau(  26) = (   3.2902200   4.4714249   6.0002472  )
        27           O1  tau(  27) = (   0.0002396   2.9813036   7.9858123  )
        28           O1  tau(  28) = (   3.2902150   2.9813002   7.3038282  )
        29           O1  tau(  29) = (   4.5938453   4.4726049   9.2879030  )
        30           O1  tau(  30) = (   1.9864658   4.4711199   9.2879459  )
        31           Ti1 tau(  31) = (   3.2891106   5.8743827   9.1763621  )
        32           Ti1 tau(  32) = (   0.0006254   4.4649316   9.2693709  )
        33           O1  tau(  33) = (   3.3033179   3.0104581  11.2528581  )
        34           O1  tau(  34) = (   0.0092240   2.9805883  10.6323155  )
        35           O1  tau(  35) = (   1.3074756   4.4469578  12.6382572  )
        36           O1  tau(  36) = (   5.3202433   4.4545580  12.6357595  )
        37           Ti1 tau(  37) = (   6.5572640   0.0741000  12.5519234  )
        38           Ti1 tau(  38) = (   3.3179412   4.3950854  12.4030220  )
        39           O1  tau(  39) = (   0.0383827   2.9948909  14.7437145  )
        40           O1  tau(  40) = (   3.3238341   2.9662938  13.8354460  )
        41           O1  tau(  41) = (   4.5722604   4.5101538  15.9256862  )
        42           O1  tau(  42) = (   2.0839069   4.4665637  16.0501180  )
        43           Ti1 tau(  43) = (   3.2507700   5.9423238  16.2547716  )
        44           Ti1 tau(  44) = (   6.5063516   4.5631136  16.2071476  )
        45           O1  tau(  45) = (   3.2900926   2.9813045   4.7018136  )
        46           O1  tau(  46) = (   1.3039711   4.4726057   6.0039043  )
        47           O1  tau(  47) = (   5.2763189   4.4711207   6.0039473  )
        48           N1  tau(  48) = (   0.4124544   2.9287237  17.8391456  )
        49           C1  tau(  49) = (   1.3780350   3.0145335  18.6736463  )
        50           H1  tau(  50) = (   2.3027514   2.5668077  18.2879847  )
        51           N1  tau(  51) = (   5.7762606   3.6115528  18.1636368  )
        52           H1  tau(  52) = (   5.8537390   4.1179332  19.0469945  )
        53           H1  tau(  53) = (   5.0230290   2.9392956  18.1702355  )
        54           O1  tau(  54) = (   3.2882145   0.0116813  18.0866318  )
        55           H1  tau(  55) = (   2.5950809   5.5738040  18.6371346  )

     number of k points=    10  Fermi-Dirac smearing, width (Ry)=  0.0073
                       cart. coord. in units 2pi/alat
        k(    1) = (   0.0000000   0.0000000   0.0000000), wk =   0.1250000
        k(    2) = (   0.0000000   0.0419351   0.0000000), wk =   0.2500000
        k(    3) = (   0.0000000  -0.0838702   0.0000000), wk =   0.1250000
        k(    4) = (   0.0379955   0.0000049   0.0000000), wk =   0.2500000
        k(    5) = (   0.0379955   0.0419400   0.0000000), wk =   0.2500000
        k(    6) = (   0.0379955  -0.0838652   0.0000000), wk =   0.2500000
        k(    7) = (   0.0379955  -0.0419301   0.0000000), wk =   0.2500000
        k(    8) = (  -0.0759910  -0.0000099   0.0000000), wk =   0.1250000
        k(    9) = (  -0.0759910   0.0419252   0.0000000), wk =   0.2500000
        k(   10) = (  -0.0759910  -0.0838800   0.0000000), wk =   0.1250000

     Initial potential from superposition of free atoms

     starting charge  385.99915, renormalised to  402.00000

     negative rho (up, down):  1.703E-02 0.000E+00

     %%%%%%%%%%%%%%%%%%%%%%%%%%%%%%%%%%%%%%%%%%%%%%%%%%%%%%%%%%%%%%%%%%%%%%%%
     %                                                                      %
     % You are using vdW-DF, which was implemented by the Thonhauser group. %
     % Please cite the following two papers that made this development      %
     % possible and the two reviews that describe the various versions:     %
     %                                                                      %
     %   T. Thonhauser et al., PRL 115, 136402 (2015).                      %
     %   T. Thonhauser et al., PRB 76, 125112 (2007).                       %
     %   K. Berland et al., Rep. Prog. Phys. 78, 066501 (2015).             %
     %   D.C. Langreth et al., J. Phys.: Condens. Matter 21, 084203 (2009). %
     %                                                                      %
     %                                                                      %
     % If you are calculating the stress with vdW-DF, please also cite:     %
     %                                                                      %
     %   R. Sabatini et al., J. Phys.: Condens. Matter 24, 424209 (2012).   %
     %                                                                      %
     %%%%%%%%%%%%%%%%%%%%%%%%%%%%%%%%%%%%%%%%%%%%%%%%%%%%%%%%%%%%%%%%%%%%%%%%

     Adding external electric field

     Computed dipole along edir(3) :
        Dipole              -11.1544 Ry au,        -28.3516 Debye
        Dipole field         -0.0210 Ry au,

        Potential amp.        1.9513 Ry
        Total length         46.3494 bohr

     Starting wfcs are  304 atomic wfcs
  @ DRIVER MODE: Message from server: STATUS
  @ DRIVER MODE: Message from server: POSDATA
  @ DRIVER MODE: Reading and sharing cell
  @ DRIVER MODE: Reading and sharing positions
  @ DRIVER MODE: Received positions

     Self-consistent Calculation

     iteration #  1     ecut=    29.40 Ry     beta= 0.05
     Davidson diagonalization with overlap
     c_bands:  2 eigenvalues not converged
     c_bands:  2 eigenvalues not converged
     c_bands:  1 eigenvalues not converged
     c_bands:  5 eigenvalues not converged
     c_bands:  1 eigenvalues not converged
     c_bands:  5 eigenvalues not converged
     c_bands:  3 eigenvalues not converged
     ethr =  1.00E-05,  avg # of iterations = 27.1

[...]

     total energy              =   -2400.30638722 Ry
     estimated scf accuracy    <    6416.12549623 Ry

     iteration #  2     ecut=    29.40 Ry     beta= 0.05
     Davidson diagonalization with overlap
     ethr =  1.00E-02,  avg # of iterations = 23.8

[...]

     iteration # 47     ecut=    29.40 Ry     beta= 0.05
     Davidson diagonalization with overlap
     c_bands:  1 eigenvalues not converged
     ethr =  1.11E-07,  avg # of iterations = 10.9

[...]

     total energy              =   -2972.60987480 Ry
     estimated scf accuracy    <       0.00000010 Ry

     iteration # 69     ecut=    29.40 Ry     beta= 0.05
     Davidson diagonalization with overlap
     ethr =  2.28E-11,  avg # of iterations =  5.0

     negative rho (up, down):  1.638E-02 0.000E+00

     Adding external electric field

     Computed dipole along edir(3) :
        Dipole                0.2207 Ry au,          0.5609 Debye
        Dipole field          0.0004 Ry au,

        Potential amp.       -0.0386 Ry
        Total length         46.3494 bohr

     End of self-consistent calculation

          k = 0.0000 0.0000 0.0000 ( 18029 PWs)   bands (ev):

   -56.4665 -56.4327 -56.0097 -55.9739 -55.7580 -55.7035 -55.6453 -55.6358
   -55.6036 -55.5145 -55.5055 -55.4499 -55.4066 -55.2819 -55.2107 -55.1767
   -32.9131 -32.7578 -32.7305 -32.6263 -32.5375 -32.5340 -32.4913 -32.2413
   -32.2275 -32.2053 -32.1587 -32.1535 -32.1278 -32.1083 -32.0255 -32.0109
   -31.9926 -31.9793 -31.9613 -31.9230 -31.9171 -31.9094 -31.9060 -31.8831
   -31.8645 -31.8625 -31.8580 -31.8055 -31.7893 -31.7692 -31.7464 -31.7224
   -31.7097 -31.6946 -31.6783 -31.6724 -31.6444 -31.6058 -31.5960 -31.5770
   -31.5467 -31.5457 -31.5220 -31.5134 -31.4900 -31.4249 -31.3406 -31.2285
   -17.9205 -16.7383 -16.4735 -16.4018 -16.2028 -16.0128 -15.9195 -15.9036
   -15.8847 -15.7639 -15.7634 -15.6123 -15.5319 -15.4766 -15.4139 -15.4026
   -15.3337 -15.3165 -15.2530 -15.2256 -15.2127 -15.1871 -15.1380 -15.0761
   -15.0654 -15.0391 -14.8520 -14.8278 -14.8118 -14.6274 -14.5336 -13.7082
   -13.5966 -13.2324  -7.8388  -6.2042  -4.2599  -4.2540  -4.1381  -3.9333
    -3.7342  -3.6724  -3.5764  -3.4341  -3.4034  -3.1612  -3.1461  -3.1044
    -3.0157  -2.9882  -2.9608  -2.9011  -2.8427  -2.8232  -2.7630  -2.6855
    -2.6831  -2.6730  -2.6413  -2.6187  -2.5156  -2.4752  -2.4130  -2.3736
    -2.3476  -2.3372  -2.2978  -2.2427  -2.2153  -2.1629  -2.1450  -2.0645
    -2.0355  -1.9475  -1.8874  -1.8694  -1.8168  -1.7587  -1.7538  -1.6983
    -1.5671  -1.4572  -1.3903  -1.3491  -1.2948  -1.2391  -1.2091  -1.1545
    -1.0893  -1.0660  -1.0433  -1.0057  -0.9450  -0.9162  -0.8696  -0.8151
    -0.7384  -0.6720  -0.6256  -0.6046  -0.4992  -0.4340  -0.3958  -0.3797
    -0.3432  -0.2898  -0.2337  -0.1940  -0.1835  -0.1606  -0.1001   0.0239
     0.0346   0.0934   0.1485   0.1820   0.1945   0.2100   0.2718   0.3391
     0.4130   0.4560   0.4687   0.5263   0.5910   0.6296   0.7443   0.8137
     0.8372   0.8809   0.9566   1.0310   1.0483   1.3548   1.3684   1.3974
     2.5154   2.7685   2.8993   3.0786   3.1994   3.3347   3.6535   3.6703
     3.6820   3.7035   3.7945

[...]

          k = 0.0380-0.0419 0.0000 ( 17876 PWs)   bands (ev):

[...]

          k =-0.0760-0.0000 0.0000 ( 17886 PWs)   bands (ev):

[...]

          k =-0.0760-0.0839 0.0000 ( 17948 PWs)   bands (ev):

   -56.4497 -56.4494 -55.9981 -55.9853 -55.7521 -55.7094 -55.6366 -55.6343
   -55.6121 -55.5122 -55.5069 -55.4482 -55.4086 -55.2835 -55.1942 -55.1931
   -32.7436 -32.7431 -32.7293 -32.7290 -32.5788 -32.5780 -32.3201 -32.3091
   -32.1900 -32.1836 -32.1755 -32.1739 -32.0599 -32.0274 -31.9810 -31.9739
   -31.9606 -31.9559 -31.9477 -31.9391 -31.9358 -31.9279 -31.9070 -31.8699
   -31.8625 -31.8562 -31.8541 -31.8398 -31.8201 -31.7956 -31.7818 -31.7720
   -31.7259 -31.7085 -31.7006 -31.6820 -31.6501 -31.6320 -31.6295 -31.6003
   -31.5490 -31.5353 -31.5345 -31.4941 -31.4215 -31.4201 -31.3834 -31.3825
   -17.9113 -16.4540 -16.1439 -16.1331 -16.0154 -16.0098 -15.8571 -15.8373
   -15.8192 -15.7454 -15.6812 -15.6599 -15.5120 -15.4993 -15.4630 -15.4275
   -15.3994 -15.3620 -15.3575 -15.3339 -15.3009 -15.2356 -15.2141 -15.1892
   -15.1788 -15.1020 -14.9226 -14.8998 -14.8964 -14.8220 -14.6831 -13.7002
   -13.6993 -13.2435  -7.8034  -6.1363  -4.3771  -4.0830  -3.3145  -3.2506
    -3.1753  -3.1398  -3.1294  -3.0564  -3.0412  -2.9262  -2.8980  -2.8591
    -2.8327  -2.8222  -2.8021  -2.7513  -2.7291  -2.6840  -2.6674  -2.6659
    -2.6341  -2.5938  -2.5738  -2.5505  -2.5399  -2.4701  -2.4404  -2.3975
    -2.3807  -2.3689  -2.3216  -2.2611  -2.2423  -2.1864  -2.1742  -2.1414
    -2.1046  -2.0441  -2.0050  -1.9629  -1.8649  -1.8449  -1.7755  -1.6580
    -1.6369  -1.5532  -1.5248  -1.5033  -1.4813  -1.4036  -1.3717  -1.3379
    -1.2504  -1.2238  -1.2157  -1.1895  -1.1562  -1.1316  -1.0744  -1.0128
    -0.9171  -0.8535  -0.8418  -0.8228  -0.7837  -0.7573  -0.7163  -0.6241
    -0.6030  -0.5678  -0.5579  -0.5162  -0.4039  -0.3777  -0.2280  -0.1908
    -0.1013  -0.0739  -0.0542  -0.0131   0.1085   0.1361   0.1867   0.2070
     0.2662   0.3111   0.3615   0.4520   0.5536   0.5663   0.6970   0.7246
     0.7448   0.8184   0.9492   0.9927   1.2080   1.2126   1.2142   1.2164
     2.4949   3.3211   3.3237   3.3569   3.3693   3.5723   3.5925   3.7184
     3.8029   3.8109   3.8314

     the Fermi energy is     2.6951 ev

!    total energy              =   -2972.60990222 Ry
     estimated scf accuracy    <       0.00000004 Ry
     smearing contrib. (-TS)   =      -0.01174925 Ry
     internal energy E=F+TS    =   -2972.59815297 Ry

     The total energy is F=E-TS. E is the sum of the following terms:
     one-electron contribution =  -24036.66831411 Ry
     hartree contribution      =   12109.72787485 Ry
     xc contribution           =    -493.08221444 Ry
     ewald contribution        =    9447.42440882 Ry
     electric field correction =       0.00009191 Ry

     convergence has been achieved in  69 iterations

     Forces acting on atoms (cartesian axes, Ry/au):

     atom    1 type  1   force =    -0.00003753   -0.00046500    0.10841864
     atom    2 type  1   force =     0.00001625    0.00007899   -0.16405659
     atom    3 type  2   force =     0.00013141    0.00046754   -0.04119615
     atom    4 type  2   force =     0.00009452   -0.00056741    0.03214855
     atom    5 type  2   force =    -0.00381064   -0.00332726   -0.00776381
     atom    6 type  2   force =     0.00587029   -0.00273588   -0.00759060
     atom    7 type  1   force =     0.00016890   -0.00552115    0.03630890
     atom    8 type  1   force =     0.00012923    0.02544408    0.06348743
     atom    9 type  2   force =     0.00013833    0.00039525    0.00013598
     atom   10 type  2   force =    -0.00195237    0.00076141   -0.03776826
     atom   11 type  2   force =     0.00009918   -0.00016458   -0.00017238
     atom   12 type  2   force =    -0.00073589    0.00019260   -0.00017917
     atom   13 type  1   force =     0.00045399    0.00044809    0.00085020
     atom   14 type  1   force =    -0.00056313   -0.00027187    0.00016358
     atom   15 type  2   force =    -0.00012106   -0.00000639    0.00083294
     atom   16 type  2   force =    -0.00012553    0.00031684   -0.00017118
     atom   17 type  2   force =    -0.00099708    0.00049130    0.00000824
     atom   18 type  2   force =     0.00058507   -0.00007244   -0.00033765
     atom   19 type  1   force =     0.00032502   -0.00077168    0.00011448
     atom   20 type  1   force =    -0.00046069   -0.00000684   -0.00026361
     atom   21 type  2   force =     0.00009680    0.00018729    0.10010925
     atom   22 type  2   force =    -0.00012646   -0.00037408    0.00040030
     atom   23 type  2   force =    -0.07741031    0.00001520   -0.03031318
     atom   24 type  2   force =     0.07740435    0.00043359   -0.03035498
     atom   25 type  1   force =    -0.00001542   -0.00031823    0.10862400
     atom   26 type  1   force =    -0.00004092   -0.00110333   -0.16408887
     atom   27 type  2   force =     0.00011588   -0.00017905   -0.03920474
     atom   28 type  2   force =     0.00011473    0.00118034    0.02836770
     atom   29 type  2   force =    -0.00231339    0.00468238   -0.01049703
     atom   30 type  2   force =     0.00438798    0.00496422   -0.01045572
     atom   31 type  1   force =     0.00005068    0.00319123    0.01913729
     atom   32 type  1   force =     0.00036653   -0.02766528    0.06522908
     atom   33 type  2   force =    -0.00003528   -0.00078083   -0.00040866
     atom   34 type  2   force =    -0.00062782    0.00085919   -0.05567198
     atom   35 type  2   force =    -0.00035667   -0.00023158   -0.00026676
     atom   36 type  2   force =    -0.00006221   -0.00003133   -0.00019322
     atom   37 type  1   force =     0.00029272   -0.00052710    0.00009439
     atom   38 type  1   force =    -0.00036829   -0.00014593    0.00027764
     atom   39 type  2   force =    -0.00016887    0.00033704   -0.00013193
     atom   40 type  2   force =    -0.00016897   -0.00026256   -0.00030990
     atom   41 type  2   force =    -0.00026454    0.00017303   -0.00000315
     atom   42 type  2   force =    -0.00047405    0.00003720    0.00006943
     atom   43 type  1   force =     0.00030380    0.00030469   -0.00001180
     atom   44 type  1   force =    -0.00042897    0.00023698   -0.00073206
     atom   45 type  2   force =     0.00010101    0.00001453    0.09991419
     atom   46 type  2   force =    -0.07744202   -0.00001320   -0.03032262
     atom   47 type  2   force =     0.07746150    0.00041812   -0.03036151
     atom   48 type  3   force =     0.00092531    0.00060817   -0.00004511
     atom   49 type  4   force =     0.00016068   -0.00011660   -0.00086710
     atom   50 type  5   force =    -0.00023047   -0.00022136   -0.00010176
     atom   51 type  3   force =     0.00992837    0.00592522   -0.00006618
     atom   52 type  5   force =     0.00014294    0.00019131   -0.00046911
     atom   53 type  5   force =    -0.01013197   -0.00648489    0.00027463
     atom   54 type  2   force =     0.00078267    0.00069878   -0.00135353
     atom   55 type  5   force =    -0.00117759   -0.00068876    0.00076346

     Total force =     0.383229     Total SCF correction =     0.000337
  @ DRIVER MODE: Message from server: STATUS
  @ DRIVER MODE: Message from server: GETFORCE
  @ DRIVER MODE: Returning v,forces,stress,ensemble

     Writing output data file ./calc.save/
  @ DRIVER MODE: Message from server: EXIT
  @ DRIVE MODE: Exiting

     General routines

     Parallel routines

   This run was terminated on:   3:16:24  23Sep2021

   JOB DONE.