     Program PWSCF v.6.7GPU starts on  2Aug2021 at 16:39:54

     R & G space division:  proc/nbgrp/npool/nimage =      16
     Reading input from /storage/home/hcoda1/3/ntian30/research/carbon/02Aug_vib_paired/ads_slab/CH3N2H_a/out_0017/pw.inp
Warning: card &CELL ignored
Warning: card   CELL_DYNAMICS='IPI', ignored
Warning: card / ignored

     Current dimensions of program PWSCF are:
     Max number of different atomic species (ntypx) = 10
     Max number of k-points (npk) =  40000
     Max angular momentum in pseudopotentials (lmaxx) =  3
     Presently no symmetry can be used with electric field

     Message from routine cell_base_init:
     DEPRECATED: use true lattice parameter, not A to a.u. conversion factor

     IMPORTANT: XC functional enforced from input :
     Exchange-correlation= BEEF-VDW
                           (   1   4  43  14   2   0   0)
     Any further DFT definition will be discarded
     Please, verify this is what you really want

  @ DRIVER MODE: Connecting to
 qe_1139763_2482535.sched-torque.pace.gatech.eduhu_5onlw_scratch
  using UNIX socket
  @ DRIVER MODE: Message from server: STATUS
  @ DRIVER MODE: Message from server: INIT
  @ DRIVER MODE: Receiving replica           0          -1
  @ DRIVER MODE: Receiving encoded integer          25
  @ DRIVER MODE:  SCF:  T  FORCE:  T  STRESS:  F  VC:  F  ENSEMBLE:  F
  @ DRIVER MODE:  SCF:  T  FORCE:  T  STRESS:  F  VC:  F  ENSEMBLE:  F

     Using Slab Decomposition

     bravais-lattice index     =            0
     lattice parameter (alat)  =       1.8897  a.u.
     unit-cell volume          =    6658.9804 (a.u.)^3
     number of atoms/cell      =           54
     number of atomic types    =            5
     number of electrons       =       396.00
     number of Kohn-Sham states=          208
     kinetic-energy cutoff     =      29.3995  Ry
     charge density cutoff     =     293.9946  Ry
     scf convergence threshold =      7.3E-08
     mixing beta               =       0.0500
     number of iterations used =            8  plain     mixing
     Exchange-correlation= BEEF-VDW
                           (   1   4  43  14   2   0   0)

     celldm(1)=   1.889726  celldm(2)=   0.000000  celldm(3)=   0.000000
     celldm(4)=   0.000000  celldm(5)=   0.000000  celldm(6)=   0.000000

     crystal axes: (cart. coord. in units of alat)
               a(1) = (   6.579727   0.000000   0.000000 )
               a(2) = (  -0.000775   5.961596   0.000000 )
               a(3) = (   0.000000   0.000000  25.155947 )

     reciprocal axes: (cart. coord. in units 2 pi/alat)
               b(1) = (  0.151982  0.000020  0.000000 )
               b(2) = (  0.000000  0.167740  0.000000 )
               b(3) = (  0.000000  0.000000  0.039752 )

     PseudoPot. # 1 for Ti read from file:
     /storage/coda1/p-amedford6/0/shared/rich_project_chbe-medford/medford-share/data/pseudos_module/espresso/nninc/pbe/van/Ti.UPF
     MD5 check sum: 8e4df49b7f0d34bbd5052bf3f5ea0213
     Pseudo is Ultrasoft, Zval = 12.0
     Generated by new atomic code, or converted to UPF format
     Using radial grid of  851 points,  6 beta functions with:
                l(1) =   0
                l(2) =   0
                l(3) =   1
                l(4) =   1
                l(5) =   2
                l(6) =   2
     Q(r) pseudized with  8 coefficients,  rinner =    1.000   1.000   1.000
                                                       1.000   1.000

     PseudoPot. # 2 for O  read from file:
     /storage/coda1/p-amedford6/0/shared/rich_project_chbe-medford/medford-share/data/pseudos_module/espresso/nninc/pbe/van/O.UPF
     MD5 check sum: 78c19812648e8988a0fe644b0f25305e
     Pseudo is Ultrasoft, Zval =  6.0
     Generated by new atomic code, or converted to UPF format
     Using radial grid of  737 points,  4 beta functions with:
                l(1) =   0
                l(2) =   0
                l(3) =   1
                l(4) =   1
     Q(r) pseudized with  8 coefficients,  rinner =    0.800   0.800   0.800

     PseudoPot. # 3 for N  read from file:
     /storage/coda1/p-amedford6/0/shared/rich_project_chbe-medford/medford-share/data/pseudos_module/espresso/nninc/pbe/van/N.UPF
     MD5 check sum: 90d10febe142ad51ac9d5be1deb811c4
     Pseudo is Ultrasoft, Zval =  5.0
     Generated by new atomic code, or converted to UPF format
     Using radial grid of  729 points,  4 beta functions with:
                l(1) =   0
                l(2) =   0
                l(3) =   1
                l(4) =   1
     Q(r) pseudized with  8 coefficients,  rinner =    0.800   0.800   0.800

     PseudoPot. # 4 for C  read from file:
     /storage/coda1/p-amedford6/0/shared/rich_project_chbe-medford/medford-share/data/pseudos_module/espresso/nninc/pbe/van/C.UPF
     MD5 check sum: 1a69bf6b8db32088f5b2163dbdb77a27
     Pseudo is Ultrasoft, Zval =  4.0
     Generated by new atomic code, or converted to UPF format
     Using radial grid of  721 points,  4 beta functions with:
                l(1) =   0
                l(2) =   0
                l(3) =   1
                l(4) =   1
     Q(r) pseudized with  8 coefficients,  rinner =    0.800   0.800   0.800

     PseudoPot. # 5 for H  read from file:
     /storage/coda1/p-amedford6/0/shared/rich_project_chbe-medford/medford-share/data/pseudos_module/espresso/nninc/pbe/van/H.UPF
     MD5 check sum: b5ee9d7bfd3a09ee7748110bda690ff7
     Pseudo is Ultrasoft, Zval =  1.0
     Generated by new atomic code, or converted to UPF format
     Using radial grid of  615 points,  1 beta functions with:
                l(1) =   0
     Q(r) pseudized with  8 coefficients,  rinner =    0.800

     atomic species   valence    mass     pseudopotential
        Ti1           12.00    47.86700     Ti( 1.00)
        O1             6.00    15.99900     O ( 1.00)
        N1             5.00    14.00700     N ( 1.00)
        C1             4.00    12.01100     C ( 1.00)
        H1             1.00     1.00800     H ( 1.00)

     No symmetry found

   Cartesian axes

     site n.     atom                  positions (alat units)
         1           Ti1 tau(   1) = (   0.0004258   2.9801865   6.0000000  )
         2           Ti1 tau(   2) = (   3.2906075   1.4906267   6.0002472  )
         3           O1  tau(   3) = (   0.0006271   0.0005054   7.9858123  )
         4           O1  tau(   4) = (   3.2906025   0.0005020   7.3038282  )
         5           O1  tau(   5) = (   4.5942328   1.4918067   9.2879030  )
         6           O1  tau(   6) = (   1.9868534   1.4903216   9.2879459  )
         7           Ti1 tau(   7) = (   3.2907910   2.8959150   9.1758416  )
         8           Ti1 tau(   8) = (   0.0015273   1.4827037   9.2680791  )
         9           O1  tau(   9) = (   3.3106937   0.0084137  11.2927479  )
        10           O1  tau(  10) = (   0.0116148   5.9584955  10.6183126  )
        11           O1  tau(  11) = (   1.3255326   1.5151957  12.5859258  )
        12           O1  tau(  12) = (   5.3246634   1.4871208  12.6441624  )
        13           Ti1 tau(  13) = (   6.5358624   2.9940264  12.7507449  )
        14           Ti1 tau(  14) = (   3.1828407   1.5032771  12.4528579  )
        15           O1  tau(  15) = (   0.1336207   0.0073438  14.6266748  )
        16           O1  tau(  16) = (   3.2550344   0.0288700  13.8306396  )
        17           O1  tau(  17) = (   4.6334483   1.5013943  15.9792279  )
        18           O1  tau(  18) = (   2.1409664   1.5470880  15.9954950  )
        19           Ti1 tau(  19) = (   3.4798582   3.0305884  15.6593850  )
        20           Ti1 tau(  20) = (   0.1386493   1.3724552  15.8613965  )
        21           O1  tau(  21) = (   3.2904802   0.0005063   4.7018136  )
        22           O1  tau(  22) = (   0.1429122   0.0333940  17.1908172  )
        23           O1  tau(  23) = (   1.3043587   1.4918075   6.0039043  )
        24           O1  tau(  24) = (   5.2767064   1.4903225   6.0039473  )
        25           Ti1 tau(  25) = (   0.0000382   5.9609847   6.0000000  )
        26           Ti1 tau(  26) = (   3.2902200   4.4714249   6.0002472  )
        27           O1  tau(  27) = (   0.0002396   2.9813036   7.9858123  )
        28           O1  tau(  28) = (   3.2902150   2.9813002   7.3038282  )
        29           O1  tau(  29) = (   4.5938453   4.4726049   9.2879030  )
        30           O1  tau(  30) = (   1.9864658   4.4711199   9.2879459  )
        31           Ti1 tau(  31) = (   3.2891106   5.8743827   9.1763621  )
        32           Ti1 tau(  32) = (   0.0006254   4.4649316   9.2693709  )
        33           O1  tau(  33) = (   3.3137399   2.9960163  11.2943833  )
        34           O1  tau(  34) = (   0.0092240   2.9805883  10.6323155  )
        35           O1  tau(  35) = (   1.3234708   4.4688006  12.5930975  )
        36           O1  tau(  36) = (   5.3222282   4.4932535  12.6449723  )
        37           Ti1 tau(  37) = (   6.5041614   0.0053836  12.5833808  )
        38           Ti1 tau(  38) = (   3.1843229   4.4812189  12.4522442  )
        39           O1  tau(  39) = (   0.0584892   2.9792810  14.6723703  )
        40           O1  tau(  40) = (   3.3232524   2.9928384  13.8523860  )
        41           O1  tau(  41) = (   4.6237859   4.5837569  15.7472905  )
        42           O1  tau(  42) = (   2.1882403   4.4693611  16.1038286  )
        43           Ti1 tau(  43) = (   3.3015484   0.0242660  15.6383815  )
        44           Ti1 tau(  44) = (   0.0181797   4.4930750  16.1931172  )
        45           O1  tau(  45) = (   3.2900926   2.9813045   4.7018136  )
        46           O1  tau(  46) = (   1.3039711   4.4726057   6.0039043  )
        47           O1  tau(  47) = (   5.2763189   4.4711207   6.0039473  )
        48           N1  tau(  48) = (   0.2677213   2.8760844  17.5655548  )
        49           C1  tau(  49) = (   1.2271684   2.7639891  18.6598760  )
        50           H1  tau(  50) = (   1.2930054   3.7106696  19.1972709  )
        51           H1  tau(  51) = (   0.8976878   1.9730418  19.3402421  )
        52           H1  tau(  52) = (   2.2102292   2.4972526  18.2850250  )
        53           N1  tau(  53) = (   5.6732178   3.4927010  17.8452151  )
        54           H1  tau(  54) = (   5.7345573   4.0058295  18.7343860  )

     number of k points=    10  Fermi-Dirac smearing, width (Ry)=  0.0073
                       cart. coord. in units 2pi/alat
        k(    1) = (   0.0000000   0.0000000   0.0000000), wk =   0.1250000
        k(    2) = (   0.0000000   0.0419351   0.0000000), wk =   0.2500000
        k(    3) = (   0.0000000  -0.0838702   0.0000000), wk =   0.1250000
        k(    4) = (   0.0379955   0.0000049   0.0000000), wk =   0.2500000
        k(    5) = (   0.0379955   0.0419400   0.0000000), wk =   0.2500000
        k(    6) = (   0.0379955  -0.0838652   0.0000000), wk =   0.2500000
        k(    7) = (   0.0379955  -0.0419301   0.0000000), wk =   0.2500000
        k(    8) = (  -0.0759910  -0.0000099   0.0000000), wk =   0.1250000
        k(    9) = (  -0.0759910   0.0419252   0.0000000), wk =   0.2500000
        k(   10) = (  -0.0759910  -0.0838800   0.0000000), wk =   0.1250000

     Initial potential from superposition of free atoms

     starting charge  379.99915, renormalised to  396.00000

     negative rho (up, down):  1.687E-02 0.000E+00

     %%%%%%%%%%%%%%%%%%%%%%%%%%%%%%%%%%%%%%%%%%%%%%%%%%%%%%%%%%%%%%%%%%%%%%%%
     %                                                                      %
     % You are using vdW-DF, which was implemented by the Thonhauser group. %
     % Please cite the following two papers that made this development      %
     % possible and the two reviews that describe the various versions:     %
     %                                                                      %
     %   T. Thonhauser et al., PRL 115, 136402 (2015).                      %
     %   T. Thonhauser et al., PRB 76, 125112 (2007).                       %
     %   K. Berland et al., Rep. Prog. Phys. 78, 066501 (2015).             %
     %   D.C. Langreth et al., J. Phys.: Condens. Matter 21, 084203 (2009). %
     %                                                                      %
     %                                                                      %
     % If you are calculating the stress with vdW-DF, please also cite:     %
     %                                                                      %
     %   R. Sabatini et al., J. Phys.: Condens. Matter 24, 424209 (2012).   %
     %                                                                      %
     %%%%%%%%%%%%%%%%%%%%%%%%%%%%%%%%%%%%%%%%%%%%%%%%%%%%%%%%%%%%%%%%%%%%%%%%

     Adding external electric field

     Computed dipole along edir(3) :
        Dipole               -8.2214 Ry au,        -20.8968 Debye
        Dipole field         -0.0155 Ry au,

        Potential amp.        1.4382 Ry
        Total length         46.3494 bohr

     Starting wfcs are  300 atomic wfcs
  @ DRIVER MODE: Message from server: STATUS
  @ DRIVER MODE: Message from server: POSDATA
  @ DRIVER MODE: Reading and sharing cell
  @ DRIVER MODE: Reading and sharing positions
  @ DRIVER MODE: Received positions

     Self-consistent Calculation

     iteration #  1     ecut=    29.40 Ry     beta= 0.05
     Davidson diagonalization with overlap
     c_bands:  1 eigenvalues not converged
     c_bands:  1 eigenvalues not converged
     c_bands:  1 eigenvalues not converged
     c_bands:  1 eigenvalues not converged
     c_bands:  4 eigenvalues not converged
     c_bands:  1 eigenvalues not converged
     c_bands:  5 eigenvalues not converged
     c_bands:  2 eigenvalues not converged
     c_bands:  1 eigenvalues not converged
     ethr =  1.00E-05,  avg # of iterations = 20.0

[...]

     total energy              =   -2607.33747465 Ry
     estimated scf accuracy    <    3677.78016540 Ry

[...]

     iteration #  3     ecut=    29.40 Ry     beta= 0.05
     Davidson diagonalization with overlap
     ethr =  1.00E-02,  avg # of iterations = 13.6

[...]

     iteration # 60     ecut=    29.40 Ry     beta= 0.05
     Davidson diagonalization with overlap
     c_bands:  1 eigenvalues not converged
     ethr =  4.23E-07,  avg # of iterations =  7.2

[...]

     total energy              =   -2940.35217340 Ry
     estimated scf accuracy    <       0.00000009 Ry

     iteration # 82     ecut=    29.40 Ry     beta= 0.05
     Davidson diagonalization with overlap
     ethr =  2.27E-11,  avg # of iterations =  2.0

     negative rho (up, down):  1.747E-02 0.000E+00

     Adding external electric field

     Computed dipole along edir(3) :
        Dipole                0.7389 Ry au,          1.8780 Debye
        Dipole field          0.0014 Ry au,

        Potential amp.       -0.1293 Ry
        Total length         46.3494 bohr

     End of self-consistent calculation

          k = 0.0000 0.0000 0.0000 ( 18029 PWs)   bands (ev):

   -56.0227 -55.9887 -55.8040 -55.7651 -55.7248 -55.6903 -55.6633 -55.6391
   -55.6290 -55.6044 -55.5758 -55.4962 -55.2408 -54.9191 -54.8851 -54.7892
   -32.4894 -32.3461 -32.3169 -32.2934 -32.1917 -32.1776 -32.1659 -32.1286
   -32.1122 -32.0988 -32.0837 -32.0449 -32.0217 -31.9817 -31.9755 -31.9728
   -31.9415 -31.9307 -31.9201 -31.8960 -31.8867 -31.8693 -31.8636 -31.8592
   -31.8394 -31.8371 -31.8291 -31.8246 -31.8192 -31.8018 -31.7939 -31.7932
   -31.7759 -31.7518 -31.6925 -31.6649 -31.6168 -31.4675 -31.4644 -31.3226
   -31.2433 -31.2203 -31.2066 -31.1399 -31.0539 -30.9937 -30.9426 -30.9137
   -17.3107 -16.5590 -16.3683 -16.0783 -15.9272 -15.9080 -15.7884 -15.6913
   -15.6138 -15.5140 -15.4609 -15.4064 -15.3943 -15.3686 -15.3101 -15.2880
   -15.2467 -15.2293 -15.1868 -15.1760 -15.1304 -15.1079 -15.0855 -15.0518
   -14.9863 -14.9160 -14.9033 -14.7475 -14.6076 -14.4555 -13.4202 -13.3054
   -11.5583  -8.3407  -5.0127  -4.0108  -3.9456  -3.8764  -3.8629  -3.7739
    -3.6927  -3.4417  -3.4184  -3.3578  -3.0706  -3.0233  -2.9991  -2.9945
    -2.8967  -2.7574  -2.7266  -2.6666  -2.6611  -2.6402  -2.6204  -2.6034
    -2.5461  -2.4905  -2.4738  -2.4323  -2.2978  -2.2719  -2.2675  -2.2452
    -2.1755  -2.1663  -2.1021  -2.0840  -2.0614  -2.0429  -2.0059  -1.8730
    -1.8396  -1.7746  -1.6946  -1.6042  -1.5245  -1.4890  -1.4016  -1.3864
    -1.3399  -1.2606  -1.2542  -1.1784  -1.1457  -1.0715  -1.0450  -1.0075
    -0.8982  -0.8709  -0.8127  -0.7549  -0.7104  -0.6973  -0.6560  -0.6313
    -0.6261  -0.6114  -0.5982  -0.4041  -0.3739  -0.2314  -0.1855  -0.1610
    -0.1203  -0.0975  -0.0390  -0.0157  -0.0102   0.0295   0.0476   0.0906
     0.1463   0.1605   0.1870   0.2806   0.3129   0.3678   0.4941   0.5077
     0.5953   0.6628   0.7685   0.7813   0.8329   0.9641   1.0598   1.0816
     1.1032   1.3085   1.4135   1.6673   1.7098   3.0251   3.1706   3.2661
     3.3747   3.4951   3.5703   3.6085   3.7835   3.8209   3.8628   3.9224

[...]

          k = 0.0380-0.0419 0.0000 ( 17876 PWs)   bands (ev):

[...]

          k =-0.0760-0.0000 0.0000 ( 17886 PWs)   bands (ev):

[...]

          k =-0.0760-0.0839 0.0000 ( 17948 PWs)   bands (ev):

   -56.0067 -56.0046 -55.7918 -55.7770 -55.7111 -55.7036 -55.6479 -55.6444
   -55.6257 -55.6178 -55.5719 -55.5000 -55.2402 -54.9021 -54.9020 -54.7897
   -32.3058 -32.3048 -32.3026 -32.3009 -32.1535 -32.1414 -32.1296 -32.1274
   -32.0500 -32.0372 -32.0270 -32.0234 -32.0164 -32.0136 -31.9705 -31.9650
   -31.9554 -31.9432 -31.9131 -31.9023 -31.8901 -31.8857 -31.8812 -31.8800
   -31.8756 -31.8712 -31.8555 -31.8500 -31.8441 -31.8404 -31.8353 -31.8167
   -31.7975 -31.7940 -31.7649 -31.7064 -31.6067 -31.4700 -31.4638 -31.2567
   -31.2332 -31.2331 -31.1359 -31.1357 -31.0970 -31.0970 -31.0057 -30.9177
   -17.2916 -15.9761 -15.9477 -15.8405 -15.8211 -15.7325 -15.7192 -15.6044
   -15.5966 -15.5837 -15.5174 -15.4718 -15.4612 -15.3790 -15.3521 -15.3406
   -15.3162 -15.3064 -15.2998 -15.2889 -15.2766 -15.1969 -15.1917 -15.1895
   -15.1143 -15.0913 -14.9053 -14.8620 -14.6649 -14.6183 -13.4078 -13.4075
   -11.5618  -8.3207  -5.0190  -3.9116  -3.8569  -3.2782  -3.2421  -3.0265
    -3.0005  -2.9800  -2.9509  -2.7661  -2.7522  -2.7459  -2.7286  -2.7155
    -2.6783  -2.6593  -2.6465  -2.5808  -2.5714  -2.5506  -2.5458  -2.5359
    -2.5170  -2.5017  -2.4939  -2.4743  -2.4599  -2.4152  -2.3606  -2.3380
    -2.2879  -2.1936  -2.0882  -2.0433  -2.0296  -2.0215  -1.9985  -1.9893
    -1.9487  -1.9360  -1.8502  -1.6663  -1.6189  -1.5572  -1.5512  -1.5417
    -1.4844  -1.4279  -1.3888  -1.3129  -1.2459  -1.1927  -1.1631  -1.1387
    -1.1039  -1.0373  -0.9711  -0.9517  -0.9389  -0.9098  -0.9066  -0.8880
    -0.8102  -0.7272  -0.6862  -0.6555  -0.6328  -0.6187  -0.6032  -0.5803
    -0.4737  -0.4052  -0.3573  -0.3117  -0.2694  -0.2275  -0.1091  -0.0941
     0.1001   0.1663   0.1915   0.2702   0.3671   0.3925   0.4029   0.4675
     0.5425   0.6055   0.6398   0.6946   0.7099   0.7311   0.7982   1.0130
     1.0688   1.4772   1.4788   1.5279   1.5288   2.9892   3.6711   3.6786
     3.6820   3.6921   3.7129   3.7362   3.7886   3.8233   3.9251   3.9472

     the Fermi energy is     3.1353 ev

!    total energy              =   -2940.35219079 Ry
     estimated scf accuracy    <       0.00000004 Ry
     smearing contrib. (-TS)   =      -0.01869206 Ry
     internal energy E=F+TS    =   -2940.33349872 Ry

     The total energy is F=E-TS. E is the sum of the following terms:
     one-electron contribution =  -24662.17108694 Ry
     hartree contribution      =   12420.21540444 Ry
     xc contribution           =    -486.05398703 Ry
     ewald contribution        =    9787.67514058 Ry
     electric field correction =       0.00103022 Ry

     convergence has been achieved in  82 iterations

     Forces acting on atoms (cartesian axes, Ry/au):

     atom    1 type  1   force =     0.00025894   -0.00036158    0.10153190
     atom    2 type  1   force =     0.00002853   -0.00086851   -0.17138624
     atom    3 type  2   force =     0.00029211    0.00021734   -0.03324855
     atom    4 type  2   force =     0.00003192   -0.00078623    0.04480438
     atom    5 type  2   force =    -0.01195226   -0.00020724   -0.00231617
     atom    6 type  2   force =     0.01438764    0.00038583   -0.00111760
     atom    7 type  1   force =     0.00140279   -0.00129298   -0.00427344
     atom    8 type  1   force =    -0.00078461    0.02219210    0.05621606
     atom    9 type  2   force =     0.00002858   -0.00032346    0.00046255
     atom   10 type  2   force =    -0.00266355    0.00207473   -0.02592752
     atom   11 type  2   force =     0.00003228    0.00024937   -0.00005279
     atom   12 type  2   force =     0.00009237    0.00074502    0.00002239
     atom   13 type  1   force =    -0.00005358    0.00013662    0.00024349
     atom   14 type  1   force =     0.00028560    0.00028329   -0.00001829
     atom   15 type  2   force =     0.00019891   -0.00025565   -0.00001087
     atom   16 type  2   force =    -0.00002521   -0.00013787    0.00078393
     atom   17 type  2   force =    -0.00012649   -0.00078184    0.00002147
     atom   18 type  2   force =     0.00051228   -0.00073356    0.00026782
     atom   19 type  1   force =    -0.00009764   -0.00050180    0.00016288
     atom   20 type  1   force =     0.00000729    0.00023236   -0.00018476
     atom   21 type  2   force =     0.00006809   -0.00000899    0.10207704
     atom   22 type  2   force =     0.00001036   -0.00032102    0.00040892
     atom   23 type  2   force =    -0.07327644   -0.00015821   -0.02888079
     atom   24 type  2   force =     0.07323095    0.00033323   -0.02892977
     atom   25 type  1   force =    -0.00028910   -0.00032845    0.10194615
     atom   26 type  1   force =     0.00002771   -0.00017097   -0.17138623
     atom   27 type  2   force =     0.00036543   -0.00022919   -0.03197266
     atom   28 type  2   force =     0.00009194   -0.00057005    0.04542096
     atom   29 type  2   force =    -0.01210303    0.00213482   -0.00287230
     atom   30 type  2   force =     0.01441589    0.00229401   -0.00161684
     atom   31 type  1   force =     0.00159360    0.00092856   -0.00560379
     atom   32 type  1   force =    -0.00059590   -0.02475060    0.05727422
     atom   33 type  2   force =     0.00014919    0.00035880    0.00062817
     atom   34 type  2   force =    -0.00420487    0.00212211   -0.04831729
     atom   35 type  2   force =     0.00062340   -0.00059162    0.00001259
     atom   36 type  2   force =    -0.00040382   -0.00075558    0.00014071
     atom   37 type  1   force =     0.00006005    0.00060313   -0.00003080
     atom   38 type  1   force =     0.00002510   -0.00014604   -0.00012322
     atom   39 type  2   force =     0.00019814   -0.00002767   -0.00067405
     atom   40 type  2   force =    -0.00008869   -0.00003289   -0.00032276
     atom   41 type  2   force =     0.00005709    0.00048239   -0.00005183
     atom   42 type  2   force =     0.00000583    0.00037310    0.00073151
     atom   43 type  1   force =    -0.00023063   -0.00010792    0.00009803
     atom   44 type  1   force =    -0.00001475    0.00004489    0.00019182
     atom   45 type  2   force =     0.00004657   -0.00005205    0.10211480
     atom   46 type  2   force =    -0.07328939   -0.00009532   -0.02885773
     atom   47 type  2   force =     0.07323979    0.00028347   -0.02889187
     atom   48 type  3   force =    -0.00086421   -0.00015753   -0.00042464
     atom   49 type  4   force =    -0.00041290   -0.00430613   -0.00368589
     atom   50 type  5   force =     0.00040041    0.00412666    0.00418493
     atom   51 type  5   force =    -0.00049812    0.00014748    0.00093472
     atom   52 type  5   force =    -0.00021882   -0.00079950   -0.00001161
     atom   53 type  3   force =     0.00008051   -0.00052175    0.00082225
     atom   54 type  5   force =    -0.00005526   -0.00036717   -0.00031338

     Total force =     0.377832     Total SCF correction =     0.000620
  @ DRIVER MODE: Message from server: STATUS
  @ DRIVER MODE: Message from server: GETFORCE
  @ DRIVER MODE: Returning v,forces,stress,ensemble

     Writing output data file ./calc.save/
  @ DRIVER MODE: Message from server: EXIT
  @ DRIVE MODE: Exiting

     General routines

     Parallel routines

   This run was terminated on:  16:57:54   2Aug2021

   JOB DONE.