     Program PWSCF v.6.7GPU starts on 20Jul2021 at  8:31:51

     R & G space division:  proc/nbgrp/npool/nimage =      16
     Reading input from /storage/home/hcoda1/3/ntian30/research/carbon/15Jul_vib/ads_slab/CH3NHH_a/out_0008/pw.inp
Warning: card &CELL ignored
Warning: card   CELL_DYNAMICS='IPI', ignored
Warning: card / ignored

     Current dimensions of program PWSCF are:
     Max number of different atomic species (ntypx) = 10
     Max number of k-points (npk) =  40000
     Max angular momentum in pseudopotentials (lmaxx) =  3
     Presently no symmetry can be used with electric field

     Message from routine cell_base_init:
     DEPRECATED: use true lattice parameter, not A to a.u. conversion factor

     IMPORTANT: XC functional enforced from input :
     Exchange-correlation= BEEF-VDW
                           (   1   4  43  14   2   0   0)
     Any further DFT definition will be discarded
     Please, verify this is what you really want

  @ DRIVER MODE: Connecting to
 qe_1139763_2382402.sched-torque.pace.gatech.eduvia45nco_scratch
  using UNIX socket
  @ DRIVER MODE: Message from server: STATUS
  @ DRIVER MODE: Message from server: INIT
  @ DRIVER MODE: Receiving replica           0          -1
  @ DRIVER MODE: Receiving encoded integer          25
  @ DRIVER MODE:  SCF:  T  FORCE:  T  STRESS:  F  VC:  F  ENSEMBLE:  F
  @ DRIVER MODE:  SCF:  T  FORCE:  T  STRESS:  F  VC:  F  ENSEMBLE:  F

     Using Slab Decomposition

     bravais-lattice index     =            0
     lattice parameter (alat)  =       1.8897  a.u.
     unit-cell volume          =    6658.9804 (a.u.)^3
     number of atoms/cell      =           54
     number of atomic types    =            5
     number of electrons       =       392.00
     number of Kohn-Sham states=          206
     kinetic-energy cutoff     =      29.3995  Ry
     charge density cutoff     =     293.9946  Ry
     scf convergence threshold =      7.3E-08
     mixing beta               =       0.0500
     number of iterations used =            8  plain     mixing
     Exchange-correlation= BEEF-VDW
                           (   1   4  43  14   2   0   0)

     celldm(1)=   1.889726  celldm(2)=   0.000000  celldm(3)=   0.000000
     celldm(4)=   0.000000  celldm(5)=   0.000000  celldm(6)=   0.000000

     crystal axes: (cart. coord. in units of alat)
               a(1) = (   6.579727   0.000000   0.000000 )
               a(2) = (  -0.000775   5.961596   0.000000 )
               a(3) = (   0.000000   0.000000  25.155947 )

     reciprocal axes: (cart. coord. in units 2 pi/alat)
               b(1) = (  0.151982  0.000020  0.000000 )
               b(2) = (  0.000000  0.167740  0.000000 )
               b(3) = (  0.000000  0.000000  0.039752 )

     PseudoPot. # 1 for Ti read from file:
     /storage/coda1/p-amedford6/0/shared/rich_project_chbe-medford/medford-share/data/pseudos_module/espresso/nninc/pbe/van/Ti.UPF
     MD5 check sum: 8e4df49b7f0d34bbd5052bf3f5ea0213
     Pseudo is Ultrasoft, Zval = 12.0
     Generated by new atomic code, or converted to UPF format
     Using radial grid of  851 points,  6 beta functions with:
                l(1) =   0
                l(2) =   0
                l(3) =   1
                l(4) =   1
                l(5) =   2
                l(6) =   2
     Q(r) pseudized with  8 coefficients,  rinner =    1.000   1.000   1.000
                                                       1.000   1.000

     PseudoPot. # 2 for O  read from file:
     /storage/coda1/p-amedford6/0/shared/rich_project_chbe-medford/medford-share/data/pseudos_module/espresso/nninc/pbe/van/O.UPF
     MD5 check sum: 78c19812648e8988a0fe644b0f25305e
     Pseudo is Ultrasoft, Zval =  6.0
     Generated by new atomic code, or converted to UPF format
     Using radial grid of  737 points,  4 beta functions with:
                l(1) =   0
                l(2) =   0
                l(3) =   1
                l(4) =   1
     Q(r) pseudized with  8 coefficients,  rinner =    0.800   0.800   0.800

     PseudoPot. # 3 for N  read from file:
     /storage/coda1/p-amedford6/0/shared/rich_project_chbe-medford/medford-share/data/pseudos_module/espresso/nninc/pbe/van/N.UPF
     MD5 check sum: 90d10febe142ad51ac9d5be1deb811c4
     Pseudo is Ultrasoft, Zval =  5.0
     Generated by new atomic code, or converted to UPF format
     Using radial grid of  729 points,  4 beta functions with:
                l(1) =   0
                l(2) =   0
                l(3) =   1
                l(4) =   1
     Q(r) pseudized with  8 coefficients,  rinner =    0.800   0.800   0.800

     PseudoPot. # 4 for C  read from file:
     /storage/coda1/p-amedford6/0/shared/rich_project_chbe-medford/medford-share/data/pseudos_module/espresso/nninc/pbe/van/C.UPF
     MD5 check sum: 1a69bf6b8db32088f5b2163dbdb77a27
     Pseudo is Ultrasoft, Zval =  4.0
     Generated by new atomic code, or converted to UPF format
     Using radial grid of  721 points,  4 beta functions with:
                l(1) =   0
                l(2) =   0
                l(3) =   1
                l(4) =   1
     Q(r) pseudized with  8 coefficients,  rinner =    0.800   0.800   0.800

     PseudoPot. # 5 for H  read from file:
     /storage/coda1/p-amedford6/0/shared/rich_project_chbe-medford/medford-share/data/pseudos_module/espresso/nninc/pbe/van/H.UPF
     MD5 check sum: b5ee9d7bfd3a09ee7748110bda690ff7
     Pseudo is Ultrasoft, Zval =  1.0
     Generated by new atomic code, or converted to UPF format
     Using radial grid of  615 points,  1 beta functions with:
                l(1) =   0
     Q(r) pseudized with  8 coefficients,  rinner =    0.800

     atomic species   valence    mass     pseudopotential
        Ti1           12.00    47.86700     Ti( 1.00)
        O1             6.00    15.99900     O ( 1.00)
        N1             5.00    14.00700     N ( 1.00)
        C1             4.00    12.01100     C ( 1.00)
        H1             1.00     1.00800     H ( 1.00)

     Starting magnetic structure
     atomic species   magnetization
        Ti1          0.000
        O1           0.000
        N1           0.000
        C1           0.025
        H1           0.000

     No symmetry found

   Cartesian axes

     site n.     atom                  positions (alat units)
         1           Ti1 tau(   1) = (   0.0004258   2.9801865   6.0000000  )
         2           Ti1 tau(   2) = (   3.2906075   1.4906267   6.0002472  )
         3           O1  tau(   3) = (   0.0006271   0.0005054   7.9858123  )
         4           O1  tau(   4) = (   3.2906025   0.0005020   7.3038282  )
         5           O1  tau(   5) = (   4.5942328   1.4918067   9.2879030  )
         6           O1  tau(   6) = (   1.9868534   1.4903216   9.2879459  )
         7           Ti1 tau(   7) = (   3.2907910   2.8959150   9.1758416  )
         8           Ti1 tau(   8) = (   0.0015273   1.4827037   9.2680791  )
         9           O1  tau(   9) = (   3.2893523   5.9576907  11.3759447  )
        10           O1  tau(  10) = (   0.0116148   5.9584955  10.6183126  )
        11           O1  tau(  11) = (   1.2892553   1.4862333  12.6941169  )
        12           O1  tau(  12) = (   5.2958346   1.4833122  12.6807028  )
        13           Ti1 tau(  13) = (   0.0095698   2.9692159  12.5083673  )
        14           Ti1 tau(  14) = (   3.3108451   1.4743585  12.5306019  )
        15           O1  tau(  15) = (   6.5736105   5.8801748  14.6991865  )
        16           O1  tau(  16) = (   3.2979610   5.9450902  14.0010558  )
        17           O1  tau(  17) = (   4.5273680   1.5185660  16.1654609  )
        18           O1  tau(  18) = (   2.0122787   1.5163527  16.1384539  )
        19           Ti1 tau(  19) = (   3.2802752   2.9921964  15.7561315  )
        20           Ti1 tau(  20) = (   0.0093588   1.3049760  15.8672178  )
        21           O1  tau(  21) = (   3.2904802   0.0005063   4.7018136  )
        22           O1  tau(  22) = (   6.5538635   0.1342075  17.2452287  )
        23           O1  tau(  23) = (   1.3043587   1.4918075   6.0039043  )
        24           O1  tau(  24) = (   5.2767064   1.4903225   6.0039473  )
        25           Ti1 tau(  25) = (   0.0000382   5.9609847   6.0000000  )
        26           Ti1 tau(  26) = (   3.2902200   4.4714249   6.0002472  )
        27           O1  tau(  27) = (   0.0002396   2.9813036   7.9858123  )
        28           O1  tau(  28) = (   3.2902150   2.9813002   7.3038282  )
        29           O1  tau(  29) = (   4.5938453   4.4726049   9.2879030  )
        30           O1  tau(  30) = (   1.9864658   4.4711199   9.2879459  )
        31           Ti1 tau(  31) = (   3.2891106   5.8743827   9.1763621  )
        32           Ti1 tau(  32) = (   0.0006254   4.4649316   9.2693709  )
        33           O1  tau(  33) = (   3.2933707   2.9638296  11.3700534  )
        34           O1  tau(  34) = (   0.0092240   2.9805883  10.6323155  )
        35           O1  tau(  35) = (   1.2923283   4.4540072  12.6594629  )
        36           O1  tau(  36) = (   5.2938616   4.4568750  12.6477176  )
        37           Ti1 tau(  37) = (   0.0202681   5.9396231  12.5027719  )
        38           Ti1 tau(  38) = (   3.3116628   4.4527548  12.5215617  )
        39           O1  tau(  39) = (   6.5466975   3.0260875  14.9671898  )
        40           O1  tau(  40) = (   3.2966604   2.9917109  13.9679302  )
        41           O1  tau(  41) = (   4.5116687   4.4737236  16.2360857  )
        42           O1  tau(  42) = (   2.0028912   4.4646324  16.2202640  )
        43           Ti1 tau(  43) = (   3.2937213   0.0113368  15.7972781  )
        44           Ti1 tau(  44) = (   0.0208052   4.5175143  16.0574476  )
        45           O1  tau(  45) = (   3.2900926   2.9813045   4.7018136  )
        46           O1  tau(  46) = (   1.3039711   4.4726057   6.0039043  )
        47           O1  tau(  47) = (   5.2763189   4.4711207   6.0039473  )
        48           N1  tau(  48) = (   6.3337458   3.3624127  18.1270434  )
        49           C1  tau(  49) = (   0.8895605   3.2639204  19.0799812  )
        50           H1  tau(  50) = (   1.4196110   4.2071110  19.0760701  )
        51           H1  tau(  51) = (   0.5395241   3.0459488  20.0957609  )
        52           H1  tau(  52) = (   1.5475163   2.4696122  18.7548312  )
        53           H1  tau(  53) = (   5.6940081   4.0973896  18.4182617  )
        54           H1  tau(  54) = (   5.7906660   2.4998151  18.1411682  )

     number of k points=    10  Fermi-Dirac smearing, width (Ry)=  0.0073
                       cart. coord. in units 2pi/alat
        k(    1) = (   0.0000000   0.0000000   0.0000000), wk =   0.0625000
        k(    2) = (   0.0000000   0.0419351   0.0000000), wk =   0.1250000
        k(    3) = (   0.0000000  -0.0838702   0.0000000), wk =   0.0625000
        k(    4) = (   0.0379955   0.0000049   0.0000000), wk =   0.1250000
        k(    5) = (   0.0379955   0.0419400   0.0000000), wk =   0.1250000
        k(    6) = (   0.0379955  -0.0838652   0.0000000), wk =   0.1250000
        k(    7) = (   0.0379955  -0.0419301   0.0000000), wk =   0.1250000
[...]
     % possible and the two reviews that describe the various versions:     %
     %                                                                      %
     %   T. Thonhauser et al., PRL 115, 136402 (2015).                      %
     %   T. Thonhauser et al., PRB 76, 125112 (2007).                       %
     %   K. Berland et al., Rep. Prog. Phys. 78, 066501 (2015).             %
     %   D.C. Langreth et al., J. Phys.: Condens. Matter 21, 084203 (2009). %
     %                                                                      %
     %                                                                      %
     % If you are calculating the stress with vdW-DF, please also cite:     %
     %                                                                      %
     %   R. Sabatini et al., J. Phys.: Condens. Matter 24, 424209 (2012).   %
     %                                                                      %
     %%%%%%%%%%%%%%%%%%%%%%%%%%%%%%%%%%%%%%%%%%%%%%%%%%%%%%%%%%%%%%%%%%%%%%%%

     Adding external electric field

     Computed dipole along edir(3) :
        Dipole               -7.5471 Ry au,        -19.1827 Debye
        Dipole field         -0.0142 Ry au,

        Potential amp.        1.3202 Ry
        Total length         46.3494 bohr

[...]

     Starting wfcs are  297 atomic wfcs
  @ DRIVER MODE: Message from server: STATUS
  @ DRIVER MODE: Message from server: POSDATA
  @ DRIVER MODE: Reading and sharing cell
  @ DRIVER MODE: Reading and sharing positions
  @ DRIVER MODE: Received positions

     Self-consistent Calculation

     iteration #  1     ecut=    29.40 Ry     beta= 0.05
     Davidson diagonalization with overlap
     c_bands:  1 eigenvalues not converged
     c_bands:  2 eigenvalues not converged
     c_bands:  1 eigenvalues not converged
     c_bands:  1 eigenvalues not converged
     c_bands:  1 eigenvalues not converged
     c_bands:  1 eigenvalues not converged
     c_bands:  1 eigenvalues not converged
     c_bands:  2 eigenvalues not converged
     c_bands:  1 eigenvalues not converged
     c_bands:  1 eigenvalues not converged
     c_bands:  1 eigenvalues not converged
     c_bands:  1 eigenvalues not converged
     ethr =  1.00E-05,  avg # of iterations = 19.6

[...]

     total energy              =   -2679.39861932 Ry
     estimated scf accuracy    <    2680.63021207 Ry

     total magnetization       =     0.00 Bohr mag/cell
     absolute magnetization    =     0.01 Bohr mag/cell

[...]

     iteration #  3     ecut=    29.40 Ry     beta= 0.05
     Davidson diagonalization with overlap
     ethr =  1.00E-02,  avg # of iterations = 15.2

[...]

     iteration #217     ecut=    29.40 Ry     beta= 0.05
     Davidson diagonalization with overlap
     ethr =  2.02E-11,  avg # of iterations =  3.0

[...]

     total energy              =   -2921.63311329 Ry
     estimated scf accuracy    <       0.00000009 Ry

[...]

     iteration #225     ecut=    29.40 Ry     beta= 0.05
     Davidson diagonalization with overlap
     c_bands:  4 eigenvalues not converged
     c_bands:  1 eigenvalues not converged
     c_bands:  3 eigenvalues not converged
     c_bands:  1 eigenvalues not converged
     c_bands:  1 eigenvalues not converged
     c_bands:  2 eigenvalues not converged
     c_bands:  2 eigenvalues not converged
     c_bands:  2 eigenvalues not converged
     c_bands:  4 eigenvalues not converged
     c_bands:  5 eigenvalues not converged
     c_bands:  2 eigenvalues not converged
     c_bands:  5 eigenvalues not converged
     c_bands:  1 eigenvalues not converged
     c_bands:  5 eigenvalues not converged
     c_bands:  3 eigenvalues not converged
     c_bands:  5 eigenvalues not converged
     ethr =  2.02E-11,  avg # of iterations = 31.7

     negative rho (up, down):  8.576E-03 8.572E-03

[...]

     Adding external electric field

     Computed dipole along edir(3) :
        Dipole                1.3007 Ry au,          3.3061 Debye
        Dipole field          0.0025 Ry au,

        Potential amp.       -0.2275 Ry
        Total length         46.3494 bohr

     Magnetic moment per site  (integrated on atomic sphere of radius R)
     atom   1 (R=0.738)  charge=  8.0426  magn= -0.0090
     atom   2 (R=0.738)  charge=  8.0243  magn= -0.0004
     atom   3 (R=0.738)  charge=  5.0120  magn=  0.0010
     atom   4 (R=0.738)  charge=  5.0490  magn=  0.0001
     atom   5 (R=0.738)  charge=  5.0182  magn=  0.0002
     atom   6 (R=0.738)  charge=  5.0186  magn=  0.0002
     atom   7 (R=0.738)  charge=  8.0245  magn= -0.0007
     atom   8 (R=0.738)  charge=  8.0256  magn= -0.0069
     atom   9 (R=0.738)  charge=  5.0260  magn=  0.0006
     atom  10 (R=0.738)  charge=  5.0261  magn=  0.0005
     atom  11 (R=0.738)  charge=  5.0131  magn=  0.0005
     atom  12 (R=0.738)  charge=  5.0142  magn=  0.0005
     atom  13 (R=0.738)  charge=  8.0323  magn= -0.0034
     atom  14 (R=0.738)  charge=  8.0300  magn= -0.0048
     atom  15 (R=0.738)  charge=  5.0263  magn=  0.0001
     atom  16 (R=0.738)  charge=  5.0222  magn=  0.0011
     atom  17 (R=0.738)  charge=  4.9995  magn=  0.0008
     atom  18 (R=0.738)  charge=  5.0035  magn=  0.0008
     atom  19 (R=0.738)  charge=  8.0638  magn= -0.0129
     atom  20 (R=0.738)  charge=  8.0764  magn= -0.0026
     atom  21 (R=0.738)  charge=  4.8972  magn=  0.0004
     atom  22 (R=0.738)  charge=  4.9759  magn=  0.0005
     atom  23 (R=0.738)  charge=  5.0093  magn=  0.0009
     atom  24 (R=0.738)  charge=  5.0095  magn=  0.0009
     atom  25 (R=0.738)  charge=  8.0427  magn= -0.0090
     atom  26 (R=0.738)  charge=  8.0244  magn= -0.0004
     atom  27 (R=0.738)  charge=  5.0118  magn=  0.0010
     atom  28 (R=0.738)  charge=  5.0493  magn=  0.0001
     atom  29 (R=0.738)  charge=  5.0191  magn=  0.0002
     atom  30 (R=0.738)  charge=  5.0193  magn=  0.0002
     atom  31 (R=0.738)  charge=  8.0246  magn= -0.0007
     atom  32 (R=0.738)  charge=  8.0257  magn= -0.0069
     atom  33 (R=0.738)  charge=  5.0254  magn=  0.0006
     atom  34 (R=0.738)  charge=  5.0228  magn=  0.0005
     atom  35 (R=0.738)  charge=  5.0162  magn=  0.0005
     atom  36 (R=0.738)  charge=  5.0179  magn=  0.0005
     atom  37 (R=0.738)  charge=  8.0280  magn= -0.0038
     atom  38 (R=0.738)  charge=  8.0303  magn= -0.0051
     atom  39 (R=0.738)  charge=  5.0062  magn=  0.0004
     atom  40 (R=0.738)  charge=  5.0343  magn=  0.0010
     atom  41 (R=0.738)  charge=  4.9974  magn=  0.0010
     atom  42 (R=0.738)  charge=  5.0021  magn=  0.0010
     atom  43 (R=0.738)  charge=  8.0614  magn= -0.0134
     atom  44 (R=0.738)  charge=  8.0413  magn= -0.0056
     atom  45 (R=0.738)  charge=  4.8972  magn=  0.0004
     atom  46 (R=0.738)  charge=  5.0093  magn=  0.0009
     atom  47 (R=0.738)  charge=  5.0095  magn=  0.0009
     atom  48 (R=0.420)  charge=  1.3375  magn=  0.0000
     atom  49 (R=0.446)  charge=  0.8326  magn= -0.0000
     atom  50 (R=0.420)  charge=  0.4471  magn= -0.0000
     atom  51 (R=0.420)  charge=  0.4435  magn= -0.0000
     atom  52 (R=0.420)  charge=  0.4476  magn= -0.0000
     atom  53 (R=0.420)  charge=  0.4504  magn= -0.0000
     atom  54 (R=0.420)  charge=  0.4501  magn= -0.0000

     End of self-consistent calculation

 ------ SPIN UP ------------

          k = 0.0000 0.0000 0.0000 ( 18029 PWs)   bands (ev):

   -55.4274 -55.3908 -55.3743 -55.3499 -55.3401 -55.3070 -55.3028 -55.2725
   -55.2507 -55.2242 -55.2163 -55.2075 -55.1738 -55.1119 -54.4115 -54.3775
   -31.9977 -31.8836 -31.8714 -31.7962 -31.7414 -31.7403 -31.7279 -31.7128
   -31.6663 -31.6618 -31.6382 -31.6345 -31.6180 -31.6125 -31.5964 -31.5896
   -31.5842 -31.5709 -31.5654 -31.5462 -31.5272 -31.5255 -31.4943 -31.4926
   -31.4842 -31.4814 -31.4808 -31.4532 -31.4375 -31.4298 -31.4292 -31.4104
   -31.4062 -31.3992 -31.3977 -31.3963 -31.3644 -31.3443 -31.3351 -31.3185
   -31.3173 -31.2958 -30.8209 -30.7263 -30.7044 -30.6370 -30.5502 -30.4396
   -16.2874 -16.1353 -15.9703 -15.8226 -15.7482 -15.6311 -15.5157 -15.4992
   -15.3630 -15.2812 -15.1619 -15.1367 -15.1179 -15.0946 -15.0833 -15.0672
   -14.9761 -14.9708 -14.9565 -14.9258 -14.9230 -14.8783 -14.8702 -14.8287
   -14.8088 -14.8065 -14.6825 -14.5910 -14.5186 -14.2793 -12.9148 -12.7973
   -10.2551  -6.2694  -4.7897  -3.9541  -3.6058  -3.4517  -3.3616  -3.3339
    -3.3227  -3.1875  -3.0431  -2.9462  -2.8541  -2.8430  -2.7188  -2.6456
    -2.6363  -2.6157  -2.4611  -2.4295  -2.3872  -2.3395  -2.2955  -2.2408
    -2.2222  -2.2159  -2.2008  -2.1788  -2.1684  -2.0513  -1.9989  -1.9148
    -1.8576  -1.8350  -1.7848  -1.7633  -1.7413  -1.7210  -1.7111  -1.6669
    -1.6555  -1.6258  -1.5701  -1.4596  -1.3602  -1.3073  -1.1903  -1.0687
    -1.0285  -1.0156  -0.9780  -0.9336  -0.9176  -0.8519  -0.8083  -0.7781
    -0.7147  -0.6610  -0.5986  -0.5507  -0.4801  -0.4653  -0.4184  -0.3646
    -0.2513  -0.2138  -0.1992  -0.1731  -0.0800  -0.0440   0.0007   0.0837
     0.0942   0.1097   0.2105   0.2235   0.2932   0.3393   0.3572   0.4495
     0.4879   0.4973   0.5029   0.5270   0.5529   0.6048   0.6428   0.6706
     0.7410   0.8662   1.0820   1.1560   1.1810   1.5069   1.5164   1.6107
     1.7942   2.1866   2.2351   3.6730   3.7417   3.8207   3.8222   3.8517
     3.9075   4.1449   4.1679   4.1763   4.1819   4.2045

[...]

          k =-0.0760-0.0000 0.0000 ( 17886 PWs)   bands (ev):

[...]

 ------ SPIN DOWN ----------

[...]

          k = 0.0380-0.0419 0.0000 ( 17876 PWs)   bands (ev):

[...]

          k =-0.0760-0.0839 0.0000 ( 17948 PWs)   bands (ev):

   -55.4210 -55.4148 -55.3730 -55.3726 -55.3581 -55.3222 -55.2977 -55.2945
   -55.2501 -55.2365 -55.2326 -55.2025 -55.2017 -55.1178 -54.3954 -54.3952
   -31.8099 -31.8075 -31.8052 -31.7236 -31.6983 -31.6931 -31.6927 -31.6654
   -31.6652 -31.6442 -31.6370 -31.6365 -31.6322 -31.6008 -31.5979 -31.5746
   -31.5698 -31.5693 -31.5666 -31.5651 -31.5615 -31.5573 -31.5238 -31.5195
   -31.5158 -31.5120 -31.5084 -31.4939 -31.4935 -31.4907 -31.4867 -31.4697
   -31.4659 -31.4497 -31.4458 -31.4402 -31.4327 -31.4298 -31.3837 -31.3835
   -31.3777 -31.3285 -30.7181 -30.7179 -30.6340 -30.6338 -30.5946 -30.5945
   -16.0897 -15.7765 -15.6848 -15.6374 -15.4642 -15.4351 -15.4185 -15.4033
   -15.2707 -15.2528 -15.2290 -15.2008 -15.1784 -15.1439 -15.1346 -15.1316
   -15.0524 -15.0382 -15.0313 -15.0154 -14.9495 -14.9398 -14.9374 -14.9301
   -14.8794 -14.8758 -14.8128 -14.7836 -14.7806 -14.5692 -12.8981 -12.8980
   -10.2584  -6.2403  -4.7869  -3.9162  -3.0011  -2.9516  -2.8950  -2.8892
    -2.6809  -2.6399  -2.6038  -2.5782  -2.4885  -2.4486  -2.4343  -2.4255
    -2.3539  -2.3392  -2.3198  -2.2749  -2.2681  -2.2549  -2.2326  -2.2040
    -2.1807  -2.1611  -2.1516  -2.1332  -2.0873  -2.0755  -2.0516  -2.0363
    -2.0331  -2.0157  -1.9867  -1.9403  -1.8133  -1.8052  -1.7382  -1.6386
    -1.6338  -1.5572  -1.5441  -1.5088  -1.4835  -1.4641  -1.4218  -1.2489
    -1.2050  -1.1782  -1.1686  -1.1116  -1.0471  -1.0237  -0.9533  -0.9382
    -0.9193  -0.8154  -0.7709  -0.7559  -0.6661  -0.6538  -0.5759  -0.5095
    -0.4662  -0.4399  -0.3923  -0.3874  -0.3852  -0.3377  -0.3303  -0.2494
    -0.2025  -0.1656  -0.1515  -0.1221   0.0752   0.0861   0.1124   0.2526
     0.2820   0.4053   0.4391   0.4912   0.5665   0.5993   0.6803   0.7158
     0.8451   0.8749   0.8766   0.9490   0.9603   1.0219   1.0314   1.9676
     1.9683   2.0553   2.0556   3.8106   3.8912   3.9231   3.9651   4.0765
     4.1535   4.1765   4.1972   4.2483   4.2509   4.3097

     the Fermi energy is     3.7300 ev

!    total energy              =   -2921.63311482 Ry
     estimated scf accuracy    <       0.00000007 Ry
     smearing contrib. (-TS)   =      -0.03705477 Ry
     internal energy E=F+TS    =   -2921.59606005 Ry

     The total energy is F=E-TS. E is the sum of the following terms:
     one-electron contribution =  -24028.51370739 Ry
     hartree contribution      =   12103.35806673 Ry
     xc contribution           =    -481.74942623 Ry
     ewald contribution        =    9485.30581396 Ry
     electric field correction =       0.00319288 Ry

     total magnetization       =    -0.12 Bohr mag/cell
     absolute magnetization    =     0.16 Bohr mag/cell

     convergence has been achieved in 225 iterations

     Forces acting on atoms (cartesian axes, Ry/au):

     atom    1 type  1   force =     0.00003490   -0.00021877    0.09328926
     atom    2 type  1   force =    -0.00018773   -0.00036769   -0.17831687
     atom    3 type  2   force =     0.00002809   -0.00039829   -0.02022356
     atom    4 type  2   force =    -0.00002751   -0.00194797    0.05879064
     atom    5 type  2   force =    -0.01020187   -0.00111997    0.00777617
     atom    6 type  2   force =     0.01167524   -0.00040067    0.00694235
     atom    7 type  1   force =    -0.00048889    0.00210314   -0.01457883
     atom    8 type  1   force =     0.00024439   -0.00049425   -0.00480279
     atom    9 type  2   force =     0.00015058    0.00011752   -0.00005652
     atom   10 type  2   force =    -0.00113494    0.00137521    0.00054299
     atom   11 type  2   force =    -0.00010715    0.00015644    0.00006147
     atom   12 type  2   force =    -0.00002764    0.00036454    0.00023645
     atom   13 type  1   force =    -0.00004170   -0.00018536   -0.00016893
     atom   14 type  1   force =    -0.00015420    0.00011335    0.00029900
     atom   15 type  2   force =    -0.00022021   -0.00024617    0.00004867
     atom   16 type  2   force =    -0.00022359    0.00019698    0.00015927
     atom   17 type  2   force =     0.00012693   -0.00011932    0.00009154
     atom   18 type  2   force =    -0.00006541   -0.00018526    0.00025865
     atom   19 type  1   force =    -0.00025013    0.00033704    0.00034663
     atom   20 type  1   force =    -0.00007906    0.00004794   -0.00032315
     atom   21 type  2   force =     0.00003020   -0.00006157    0.10392740
     atom   22 type  2   force =     0.00031637    0.00039884    0.00013943
     atom   23 type  2   force =    -0.07041635   -0.00015278   -0.02692689
     atom   24 type  2   force =     0.07025538    0.00028951   -0.02697433
     atom   25 type  1   force =    -0.00001017   -0.00014762    0.09281196
     atom   26 type  1   force =    -0.00020933   -0.00048675   -0.17833719
     atom   27 type  2   force =     0.00008710   -0.00026544   -0.01929138
     atom   28 type  2   force =     0.00004310   -0.00171576    0.05813161
     atom   29 type  2   force =    -0.01072345   -0.00111417    0.00833649
     atom   30 type  2   force =     0.01206954   -0.00083761    0.00745847
     atom   31 type  1   force =    -0.00040139    0.00594255   -0.01545413
     atom   32 type  1   force =     0.00022334   -0.00003836   -0.00517500
     atom   33 type  2   force =    -0.00007782    0.00001154    0.00008698
     atom   34 type  2   force =    -0.00101308   -0.00248331   -0.00000373
     atom   35 type  2   force =    -0.00006350    0.00023885   -0.00006024
     atom   36 type  2   force =    -0.00011810    0.00009390    0.00000317
     atom   37 type  1   force =    -0.00002416    0.00005335   -0.00020538
     atom   38 type  1   force =    -0.00008050    0.00000045    0.00011855
     atom   39 type  2   force =     0.00022967   -0.00003338    0.00010393
     atom   40 type  2   force =    -0.00030271    0.00024236   -0.00006121
     atom   41 type  2   force =     0.00015564    0.00046711    0.00010439
     atom   42 type  2   force =    -0.00006262    0.00013220    0.00039053
     atom   43 type  1   force =    -0.00027545    0.00026933    0.00001027
     atom   44 type  1   force =    -0.00011130   -0.00051462    0.00024614
     atom   45 type  2   force =     0.00002045   -0.00007353    0.10389168
     atom   46 type  2   force =    -0.07038974   -0.00010050   -0.02687492
     atom   47 type  2   force =     0.07023857    0.00032623   -0.02692526
     atom   48 type  3   force =     0.00511430   -0.00139814    0.00097522
     atom   49 type  4   force =    -0.01908928   -0.00050637    0.00223248
     atom   50 type  5   force =     0.00470087    0.00530941   -0.00031700
     atom   51 type  5   force =     0.00322627    0.00089562   -0.00349125
     atom   52 type  5   force =     0.00545703   -0.00489910   -0.00207818
     atom   53 type  5   force =     0.00082675    0.00075867    0.00229510
     atom   54 type  5   force =     0.00132425    0.00027063    0.00053984

     Total force =     0.366949     Total SCF correction =     0.000385
  @ DRIVER MODE: Message from server: STATUS
  @ DRIVER MODE: Message from server: GETFORCE
  @ DRIVER MODE: Returning v,forces,stress,ensemble

     Writing output data file ./calc.save/
  @ DRIVER MODE: Message from server: EXIT
  @ DRIVE MODE: Exiting

     General routines

     Parallel routines

   This run was terminated on:  10:21:47  20Jul2021

   JOB DONE.