     Program PWSCF v.6.7GPU starts on 23Sep2021 at  9: 5:43

     R & G space division:  proc/nbgrp/npool/nimage =      10
     Reading input from /storage/home/hcoda1/3/ntian30/research/carbon/CxH_vib/H2O_calc/ads_slab/CH2NHNHH2O_b/out_0048/pw.inp
Warning: card &CELL ignored
Warning: card   CELL_DYNAMICS='IPI', ignored
Warning: card / ignored

     Current dimensions of program PWSCF are:
     Max number of different atomic species (ntypx) = 10
     Max number of k-points (npk) =  40000
     Max angular momentum in pseudopotentials (lmaxx) =  3
     Presently no symmetry can be used with electric field

     Message from routine cell_base_init:
     DEPRECATED: use true lattice parameter, not A to a.u. conversion factor

     IMPORTANT: XC functional enforced from input :
     Exchange-correlation= BEEF-VDW
                           (   1   4  43  14   2   0   0)
     Any further DFT definition will be discarded
     Please, verify this is what you really want

  @ DRIVER MODE: Connecting to
 qe_1139763_2937310.sched-torque.pace.gatech.eduwwv5v44b_scratch
  using UNIX socket
  @ DRIVER MODE: Message from server: STATUS
  @ DRIVER MODE: Message from server: INIT
  @ DRIVER MODE: Receiving replica           0          -1
  @ DRIVER MODE: Receiving encoded integer          25
  @ DRIVER MODE:  SCF:  T  FORCE:  T  STRESS:  F  VC:  F  ENSEMBLE:  F
  @ DRIVER MODE:  SCF:  T  FORCE:  T  STRESS:  F  VC:  F  ENSEMBLE:  F

     Using Slab Decomposition

     bravais-lattice index     =            0
     lattice parameter (alat)  =       1.8897  a.u.
     unit-cell volume          =    6658.9804 (a.u.)^3
     number of atoms/cell      =           57
     number of atomic types    =            5
     number of electrons       =       404.00
     number of Kohn-Sham states=          212
     kinetic-energy cutoff     =      29.3995  Ry
     charge density cutoff     =     293.9946  Ry
     scf convergence threshold =      7.3E-08
     mixing beta               =       0.0500
     number of iterations used =            8  plain     mixing
     Exchange-correlation= BEEF-VDW
                           (   1   4  43  14   2   0   0)

     celldm(1)=   1.889726  celldm(2)=   0.000000  celldm(3)=   0.000000
     celldm(4)=   0.000000  celldm(5)=   0.000000  celldm(6)=   0.000000

     crystal axes: (cart. coord. in units of alat)
               a(1) = (   6.579727   0.000000   0.000000 )
               a(2) = (  -0.000775   5.961596   0.000000 )
               a(3) = (   0.000000   0.000000  25.155947 )

     reciprocal axes: (cart. coord. in units 2 pi/alat)
               b(1) = (  0.151982  0.000020  0.000000 )
               b(2) = (  0.000000  0.167740  0.000000 )
               b(3) = (  0.000000  0.000000  0.039752 )

     PseudoPot. # 1 for Ti read from file:
     /storage/coda1/p-amedford6/0/shared/rich_project_chbe-medford/medford-share/data/pseudos_module/espresso/nninc/pbe/van/Ti.UPF
     MD5 check sum: 8e4df49b7f0d34bbd5052bf3f5ea0213
     Pseudo is Ultrasoft, Zval = 12.0
     Generated by new atomic code, or converted to UPF format
     Using radial grid of  851 points,  6 beta functions with:
                l(1) =   0
                l(2) =   0
                l(3) =   1
                l(4) =   1
                l(5) =   2
                l(6) =   2
     Q(r) pseudized with  8 coefficients,  rinner =    1.000   1.000   1.000
                                                       1.000   1.000

     PseudoPot. # 2 for O  read from file:
     /storage/coda1/p-amedford6/0/shared/rich_project_chbe-medford/medford-share/data/pseudos_module/espresso/nninc/pbe/van/O.UPF
     MD5 check sum: 78c19812648e8988a0fe644b0f25305e
     Pseudo is Ultrasoft, Zval =  6.0
     Generated by new atomic code, or converted to UPF format
     Using radial grid of  737 points,  4 beta functions with:
                l(1) =   0
                l(2) =   0
                l(3) =   1
                l(4) =   1
     Q(r) pseudized with  8 coefficients,  rinner =    0.800   0.800   0.800

     PseudoPot. # 3 for N  read from file:
     /storage/coda1/p-amedford6/0/shared/rich_project_chbe-medford/medford-share/data/pseudos_module/espresso/nninc/pbe/van/N.UPF
     MD5 check sum: 90d10febe142ad51ac9d5be1deb811c4
     Pseudo is Ultrasoft, Zval =  5.0
     Generated by new atomic code, or converted to UPF format
     Using radial grid of  729 points,  4 beta functions with:
                l(1) =   0
                l(2) =   0
                l(3) =   1
                l(4) =   1
     Q(r) pseudized with  8 coefficients,  rinner =    0.800   0.800   0.800

     PseudoPot. # 4 for C  read from file:
     /storage/coda1/p-amedford6/0/shared/rich_project_chbe-medford/medford-share/data/pseudos_module/espresso/nninc/pbe/van/C.UPF
     MD5 check sum: 1a69bf6b8db32088f5b2163dbdb77a27
     Pseudo is Ultrasoft, Zval =  4.0
     Generated by new atomic code, or converted to UPF format
     Using radial grid of  721 points,  4 beta functions with:
                l(1) =   0
                l(2) =   0
                l(3) =   1
                l(4) =   1
     Q(r) pseudized with  8 coefficients,  rinner =    0.800   0.800   0.800

     PseudoPot. # 5 for H  read from file:
     /storage/coda1/p-amedford6/0/shared/rich_project_chbe-medford/medford-share/data/pseudos_module/espresso/nninc/pbe/van/H.UPF
     MD5 check sum: b5ee9d7bfd3a09ee7748110bda690ff7
     Pseudo is Ultrasoft, Zval =  1.0
     Generated by new atomic code, or converted to UPF format
     Using radial grid of  615 points,  1 beta functions with:
                l(1) =   0
     Q(r) pseudized with  8 coefficients,  rinner =    0.800

     atomic species   valence    mass     pseudopotential
        Ti1           12.00    47.86700     Ti( 1.00)
        O1             6.00    15.99900     O ( 1.00)
        N1             5.00    14.00700     N ( 1.00)
        C1             4.00    12.01100     C ( 1.00)
        H1             1.00     1.00800     H ( 1.00)

     No symmetry found

   Cartesian axes

     site n.     atom                  positions (alat units)
         1           Ti1 tau(   1) = (   0.0004258   2.9801865   6.0000000  )
         2           Ti1 tau(   2) = (   3.2906075   1.4906267   6.0002472  )
         3           O1  tau(   3) = (   0.0006271   0.0005054   7.9858123  )
         4           O1  tau(   4) = (   3.2906025   0.0005020   7.3038282  )
         5           O1  tau(   5) = (   4.5942328   1.4918067   9.2879030  )
         6           O1  tau(   6) = (   1.9868534   1.4903216   9.2879459  )
         7           Ti1 tau(   7) = (   3.2907910   2.8959150   9.1758416  )
         8           Ti1 tau(   8) = (   0.0015273   1.4827037   9.2680791  )
         9           O1  tau(   9) = (   3.2740695   5.9399032  11.3612631  )
        10           O1  tau(  10) = (   0.0116148   5.9584955  10.6183126  )
        11           O1  tau(  11) = (   1.2665466   1.4659349  12.6457467  )
        12           O1  tau(  12) = (   5.2636777   1.4644475  12.6520517  )
        13           Ti1 tau(  13) = (   0.0254019   2.9535957  12.5508080  )
        14           Ti1 tau(  14) = (   3.3235577   1.4585364  12.5144190  )
        15           O1  tau(  15) = (   0.0066209   5.9388471  14.7046414  )
        16           O1  tau(  16) = (   3.2471877   5.9405099  14.0100224  )
        17           O1  tau(  17) = (   4.5302733   1.5208160  16.0462967  )
        18           O1  tau(  18) = (   1.9955500   1.4995475  16.2009832  )
        19           Ti1 tau(  19) = (   3.2567830   2.9699832  15.6929747  )
        20           Ti1 tau(  20) = (   6.4949666   1.4732860  15.8443191  )
        21           O1  tau(  21) = (   3.2904802   0.0005063   4.7018136  )
        22           O1  tau(  22) = (   6.4419287   5.8812218  17.2824568  )
        23           O1  tau(  23) = (   1.3043587   1.4918075   6.0039043  )
        24           O1  tau(  24) = (   5.2767064   1.4903225   6.0039473  )
        25           Ti1 tau(  25) = (   0.0000382   5.9609847   6.0000000  )
        26           Ti1 tau(  26) = (   3.2902200   4.4714249   6.0002472  )
        27           O1  tau(  27) = (   0.0002396   2.9813036   7.9858123  )
        28           O1  tau(  28) = (   3.2902150   2.9813002   7.3038282  )
        29           O1  tau(  29) = (   4.5938453   4.4726049   9.2879030  )
        30           O1  tau(  30) = (   1.9864658   4.4711199   9.2879459  )
        31           Ti1 tau(  31) = (   3.2891106   5.8743827   9.1763621  )
        32           Ti1 tau(  32) = (   0.0006254   4.4649316   9.2693709  )
        33           O1  tau(  33) = (   3.2800166   2.9600013  11.3546200  )
        34           O1  tau(  34) = (   0.0092240   2.9805883  10.6323155  )
        35           O1  tau(  35) = (   1.2663080   4.4508225  12.6496728  )
        36           O1  tau(  36) = (   5.2650692   4.4524444  12.6537221  )
        37           Ti1 tau(  37) = (   0.0180281   5.9297397  12.5120547  )
        38           Ti1 tau(  38) = (   3.3242103   4.4456960  12.5094407  )
        39           O1  tau(  39) = (   0.0028395   2.9305241  14.7702868  )
        40           O1  tau(  40) = (   3.2369197   2.9632653  13.9133312  )
        41           O1  tau(  41) = (   4.5259019   4.3784886  16.1008109  )
        42           O1  tau(  42) = (   2.0017919   4.4285960  16.1845674  )
        43           Ti1 tau(  43) = (   3.2453488   5.9423767  15.8283900  )
        44           Ti1 tau(  44) = (   6.5728488   4.6138345  16.0446011  )
        45           O1  tau(  45) = (   3.2900926   2.9813045   4.7018136  )
        46           O1  tau(  46) = (   1.3039711   4.4726057   6.0039043  )
        47           O1  tau(  47) = (   5.2763189   4.4711207   6.0039473  )
        48           N1  tau(  48) = (   0.9567011   2.5879941  18.4848429  )
        49           N1  tau(  49) = (   6.5185693   2.8362889  17.6364570  )
        50           C1  tau(  50) = (   1.0658718   2.8740630  19.7563100  )
        51           H1  tau(  51) = (   1.9437682   2.5238050  20.2723566  )
        52           H1  tau(  52) = (   0.2809834   3.4210577  20.2544045  )
        53           H1  tau(  53) = (   1.7014144   2.0656717  17.9989220  )
        54           H1  tau(  54) = (   5.6742842   3.0275795  18.1730567  )
        55           O1  tau(  55) = (   3.7618585   0.1297276  18.3174903  )
        56           H1  tau(  56) = (   4.7330396   0.0541995  18.1289380  )
        57           H1  tau(  57) = (   3.4892521   5.2388606  18.6788193  )

     number of k points=    10  Fermi-Dirac smearing, width (Ry)=  0.0073
                       cart. coord. in units 2pi/alat
        k(    1) = (   0.0000000   0.0000000   0.0000000), wk =   0.1250000
        k(    2) = (   0.0000000   0.0419351   0.0000000), wk =   0.2500000
        k(    3) = (   0.0000000  -0.0838702   0.0000000), wk =   0.1250000
        k(    4) = (   0.0379955   0.0000049   0.0000000), wk =   0.2500000
        k(    5) = (   0.0379955   0.0419400   0.0000000), wk =   0.2500000
        k(    6) = (   0.0379955  -0.0838652   0.0000000), wk =   0.2500000
        k(    7) = (   0.0379955  -0.0419301   0.0000000), wk =   0.2500000
        k(    8) = (  -0.0759910  -0.0000099   0.0000000), wk =   0.1250000
        k(    9) = (  -0.0759910   0.0419252   0.0000000), wk =   0.2500000
        k(   10) = (  -0.0759910  -0.0838800   0.0000000), wk =   0.1250000

     Initial potential from superposition of free atoms

     starting charge  387.99913, renormalised to  404.00000

     negative rho (up, down):  1.394E-02 0.000E+00

     %%%%%%%%%%%%%%%%%%%%%%%%%%%%%%%%%%%%%%%%%%%%%%%%%%%%%%%%%%%%%%%%%%%%%%%%
     %                                                                      %
     % You are using vdW-DF, which was implemented by the Thonhauser group. %
     % Please cite the following two papers that made this development      %
     % possible and the two reviews that describe the various versions:     %
     %                                                                      %
     %   T. Thonhauser et al., PRL 115, 136402 (2015).                      %
     %   T. Thonhauser et al., PRB 76, 125112 (2007).                       %
     %   K. Berland et al., Rep. Prog. Phys. 78, 066501 (2015).             %
     %   D.C. Langreth et al., J. Phys.: Condens. Matter 21, 084203 (2009). %
     %                                                                      %
     %                                                                      %
     % If you are calculating the stress with vdW-DF, please also cite:     %
     %                                                                      %
     %   R. Sabatini et al., J. Phys.: Condens. Matter 24, 424209 (2012).   %
     %                                                                      %
     %%%%%%%%%%%%%%%%%%%%%%%%%%%%%%%%%%%%%%%%%%%%%%%%%%%%%%%%%%%%%%%%%%%%%%%%

     Adding external electric field

     Computed dipole along edir(3) :
        Dipole              -14.1819 Ry au,        -36.0468 Debye
        Dipole field         -0.0268 Ry au,

        Potential amp.        2.4809 Ry
        Total length         46.3494 bohr

     Starting wfcs are  306 atomic wfcs
  @ DRIVER MODE: Message from server: STATUS
  @ DRIVER MODE: Message from server: POSDATA
  @ DRIVER MODE: Reading and sharing cell
  @ DRIVER MODE: Reading and sharing positions
  @ DRIVER MODE: Received positions

     Self-consistent Calculation

     iteration #  1     ecut=    29.40 Ry     beta= 0.05
     Davidson diagonalization with overlap
     c_bands:  4 eigenvalues not converged
     c_bands:  4 eigenvalues not converged
     c_bands:  2 eigenvalues not converged
     c_bands:  2 eigenvalues not converged
     c_bands:  1 eigenvalues not converged
     c_bands:  1 eigenvalues not converged
     c_bands:  4 eigenvalues not converged
     c_bands:  1 eigenvalues not converged
     c_bands:  1 eigenvalues not converged
     ethr =  1.00E-05,  avg # of iterations = 28.9

[...]

     total energy              =   -2249.24210147 Ry
     estimated scf accuracy    <    8256.10179439 Ry

     iteration #  2     ecut=    29.40 Ry     beta= 0.05
     Davidson diagonalization with overlap
     ethr =  1.00E-02,  avg # of iterations = 28.9

[...]

     iteration # 76     ecut=    29.40 Ry     beta= 0.05
     Davidson diagonalization with overlap
     ethr =  1.92E-11,  avg # of iterations = 11.3

[...]

     total energy              =   -2975.20160680 Ry
     estimated scf accuracy    <       0.00000011 Ry

     iteration # 77     ecut=    29.40 Ry     beta= 0.05
     Davidson diagonalization with overlap
     c_bands:  1 eigenvalues not converged
     ethr =  1.92E-11,  avg # of iterations = 13.9

     negative rho (up, down):  1.356E-02 0.000E+00

     Adding external electric field

     Computed dipole along edir(3) :
        Dipole                1.4185 Ry au,          3.6054 Debye
        Dipole field          0.0027 Ry au,

        Potential amp.       -0.2481 Ry
        Total length         46.3494 bohr

     End of self-consistent calculation

          k = 0.0000 0.0000 0.0000 ( 18029 PWs)   bands (ev):

   -55.1466 -55.1184 -55.1100 -55.0842 -55.0820 -55.0327 -54.9908 -54.9580
   -54.9429 -54.9272 -54.9227 -54.9200 -54.9098 -54.8383 -54.1310 -54.0969
   -31.7097 -31.6082 -31.5258 -31.4827 -31.4629 -31.4579 -31.4471 -31.4450
   -31.4081 -31.3888 -31.3660 -31.3626 -31.3466 -31.3241 -31.3076 -31.2935
   -31.2878 -31.2711 -31.2685 -31.2591 -31.2297 -31.2166 -31.2128 -31.1877
   -31.1815 -31.1753 -31.1658 -31.1605 -31.1583 -31.1511 -31.1396 -31.1377
   -31.1156 -31.1072 -31.1039 -31.0955 -31.0872 -31.0742 -31.0717 -31.0546
   -31.0510 -31.0184 -30.5395 -30.4474 -30.4252 -30.3561 -30.2694 -30.1583
   -19.2662 -18.5898 -15.9640 -15.6993 -15.5687 -15.4024 -15.3385 -15.1676
   -15.0871 -15.0217 -14.9359 -14.8785 -14.8633 -14.8579 -14.7649 -14.7474
   -14.6947 -14.6814 -14.6749 -14.6439 -14.6356 -14.5786 -14.5736 -14.5695
   -14.5342 -14.5214 -14.4917 -14.3739 -14.2931 -14.2364 -14.0266 -13.6728
   -12.6333 -12.5162 -10.0233  -6.8286  -6.4872  -6.3701  -4.0782  -3.9035
    -3.3147  -3.1715  -3.1536  -3.0689  -3.0474  -2.9132  -2.8669  -2.7052
    -2.5994  -2.5021  -2.4124  -2.3422  -2.3349  -2.3070  -2.1912  -2.1277
    -2.0813  -2.0390  -2.0195  -2.0065  -1.9582  -1.9225  -1.9198  -1.8526
    -1.8509  -1.7139  -1.6200  -1.6155  -1.5813  -1.5652  -1.4761  -1.4532
    -1.4439  -1.4381  -1.4314  -1.4241  -1.3898  -1.3457  -1.3200  -1.2369
    -1.1830  -1.1397  -1.0090  -0.9077  -0.8333  -0.7762  -0.6879  -0.6848
    -0.6168  -0.5520  -0.5375  -0.5354  -0.4748  -0.3539  -0.3070  -0.2575
    -0.2364  -0.2116  -0.1218  -0.1048  -0.0354   0.0376   0.0664   0.0762
     0.0980   0.2704   0.2786   0.3081   0.3267   0.4164   0.4690   0.5107
     0.5170   0.5394   0.6050   0.6446   0.7361   0.7834   0.7941   0.8148
     0.8366   0.8758   0.9522   0.9620   1.0037   1.0268   1.1669   1.2030
     1.2566   1.4729   1.4754   1.8046   1.8446   1.8917   2.0779   2.4661
     2.5135   3.9528   4.0422   4.0813   4.0831   4.1023   4.1879   4.3218
     4.4337   4.4444   4.4563   4.4784

[...]

          k = 0.0380-0.0419 0.0000 ( 17876 PWs)   bands (ev):

[...]

          k =-0.0760-0.0000 0.0000 ( 17886 PWs)   bands (ev):

[...]

          k =-0.0760-0.0839 0.0000 ( 17948 PWs)   bands (ev):

   -55.1319 -55.1245 -55.1014 -55.1011 -55.0801 -55.0236 -54.9998 -54.9431
   -54.9367 -54.9285 -54.9271 -54.9263 -54.9169 -54.8418 -54.1140 -54.1138
   -31.5181 -31.5098 -31.4257 -31.4234 -31.4232 -31.4079 -31.3936 -31.3933
   -31.3693 -31.3674 -31.3620 -31.3552 -31.3443 -31.3140 -31.2839 -31.2771
   -31.2766 -31.2761 -31.2715 -31.2660 -31.2590 -31.2412 -31.2268 -31.2242
   -31.2211 -31.2208 -31.2204 -31.1990 -31.1763 -31.1677 -31.1668 -31.1569
   -31.1509 -31.1484 -31.1464 -31.1460 -31.1444 -31.1145 -31.1078 -31.1062
   -31.0924 -31.0621 -30.4380 -30.4378 -30.3522 -30.3519 -30.3128 -30.3127
   -19.2636 -18.5894 -15.4583 -15.3014 -15.2881 -15.1367 -15.1218 -15.1136
   -15.0897 -15.0146 -14.9953 -14.9315 -14.9187 -14.8751 -14.8479 -14.8354
   -14.8250 -14.7308 -14.7234 -14.7172 -14.7016 -14.6506 -14.6385 -14.6214
   -14.5981 -14.5940 -14.5572 -14.4926 -14.4894 -14.4582 -14.2278 -13.6837
   -12.6179 -12.6177 -10.0262  -6.8225  -6.4903  -6.3623  -4.0538  -3.8904
    -2.9130  -2.7230  -2.5307  -2.5104  -2.4668  -2.3694  -2.3281  -2.2874
    -2.1914  -2.1418  -2.1263  -2.1044  -2.0915  -2.0313  -2.0272  -2.0242
    -1.9881  -1.9798  -1.9658  -1.9407  -1.9188  -1.8844  -1.8706  -1.8596
    -1.8468  -1.8077  -1.7871  -1.7590  -1.7466  -1.7173  -1.7008  -1.6341
    -1.5273  -1.4981  -1.4451  -1.3525  -1.3333  -1.3276  -1.2426  -1.2087
    -1.1969  -1.1813  -1.1678  -1.1061  -0.9713  -0.8818  -0.8717  -0.8197
    -0.7538  -0.7206  -0.6782  -0.6513  -0.6239  -0.5687  -0.5200  -0.4959
    -0.4219  -0.3685  -0.3623  -0.3304  -0.1839  -0.1600  -0.1132  -0.1107
    -0.0969  -0.0880   0.0027   0.0193   0.0637   0.0835   0.1234   0.1420
     0.2142   0.2310   0.3506   0.4201   0.4821   0.5885   0.7287   0.7422
     0.8137   0.8756   0.9143   0.9804   1.0374   1.0698   1.1536   1.1638
     1.1790   1.2815   1.3310   1.3376   1.3543   2.2503   2.2519   2.3334
     2.3336   4.1150   4.1378   4.2266   4.2406   4.2928   4.3754   4.4650
     4.4915   4.5265   4.5307   4.6097

     the Fermi energy is     4.0010 ev

!    total energy              =   -2975.20161609 Ry
     estimated scf accuracy    <       0.00000002 Ry
     smearing contrib. (-TS)   =      -0.03820626 Ry
     internal energy E=F+TS    =   -2975.16340983 Ry

     The total energy is F=E-TS. E is the sum of the following terms:
     one-electron contribution =  -23643.26127212 Ry
     hartree contribution      =   11919.77507043 Ry
     xc contribution           =    -494.97661147 Ry
     ewald contribution        =    9243.29560624 Ry
     electric field correction =       0.00379709 Ry

     convergence has been achieved in  77 iterations

     Forces acting on atoms (cartesian axes, Ry/au):

     atom    1 type  1   force =     0.00014323   -0.00013029    0.09422315
     atom    2 type  1   force =    -0.00023138   -0.00026450   -0.17729039
     atom    3 type  2   force =     0.00001714   -0.00026019   -0.02169271
     atom    4 type  2   force =    -0.00004300   -0.00184699    0.05695150
     atom    5 type  2   force =    -0.01106291   -0.00171640    0.00687108
     atom    6 type  2   force =     0.01215050   -0.00091002    0.00493669
     atom    7 type  1   force =    -0.00121527    0.00155343   -0.01219947
     atom    8 type  1   force =     0.00072371    0.00494744    0.00604589
     atom    9 type  2   force =     0.00026803    0.00050734    0.00033877
     atom   10 type  2   force =    -0.00307218   -0.00067236   -0.00506287
     atom   11 type  2   force =     0.00081295    0.00021020   -0.00024229
     atom   12 type  2   force =    -0.00007264    0.00050580    0.00000719
     atom   13 type  1   force =    -0.00021434    0.00010284   -0.00011691
     atom   14 type  1   force =    -0.00001698    0.00015730   -0.00014855
     atom   15 type  2   force =    -0.00006338    0.00002769    0.00026494
     atom   16 type  2   force =     0.00039094    0.00034606    0.00010293
     atom   17 type  2   force =     0.00010448   -0.00030363    0.00058143
     atom   18 type  2   force =     0.00013424   -0.00025200    0.00022054
     atom   19 type  1   force =     0.00020712    0.00030223   -0.00016991
     atom   20 type  1   force =     0.00006588    0.00046440    0.00016928
     atom   21 type  2   force =     0.00004955    0.00002678    0.10370355
     atom   22 type  2   force =     0.00038680    0.00000447   -0.00016287
     atom   23 type  2   force =    -0.07083101   -0.00009236   -0.02717482
     atom   24 type  2   force =     0.07066671    0.00038960   -0.02721207
     atom   25 type  1   force =    -0.00006791   -0.00027721    0.09393549
     atom   26 type  1   force =    -0.00031221   -0.00036000   -0.17745778
     atom   27 type  2   force =     0.00000829   -0.00023110   -0.02073120
     atom   28 type  2   force =     0.00003522   -0.00148773    0.05597947
     atom   29 type  2   force =    -0.01133829   -0.00053028    0.00690540
     atom   30 type  2   force =     0.01229774   -0.00025186    0.00492314
     atom   31 type  1   force =    -0.00121580    0.00505469   -0.01497266
     atom   32 type  1   force =     0.00092454   -0.00600547    0.00587589
     atom   33 type  2   force =     0.00035628   -0.00013544    0.00012908
     atom   34 type  2   force =    -0.00261037   -0.00151456   -0.00577275
     atom   35 type  2   force =     0.00036887    0.00030408   -0.00031066
     atom   36 type  2   force =     0.00043734    0.00041079   -0.00006878
     atom   37 type  1   force =    -0.00015943   -0.00015596   -0.00019278
     atom   38 type  1   force =     0.00004573    0.00029109    0.00039242
     atom   39 type  2   force =     0.00006484    0.00087230   -0.00075822
     atom   40 type  2   force =     0.00004489   -0.00008443    0.00006089
     atom   41 type  2   force =     0.00083272    0.00067999    0.00083082
     atom   42 type  2   force =    -0.00079652    0.00025138   -0.00002688
     atom   43 type  1   force =     0.00034914   -0.00065138   -0.00040855
     atom   44 type  1   force =     0.00021136   -0.00001130   -0.00055763
     atom   45 type  2   force =     0.00001889   -0.00002278    0.10369931
     atom   46 type  2   force =    -0.07082213   -0.00000151   -0.02718980
     atom   47 type  2   force =     0.07065103    0.00040302   -0.02718571
     atom   48 type  3   force =    -0.00075749    0.00023111    0.00060425
     atom   49 type  3   force =     0.00028470    0.00005895   -0.00083458
     atom   50 type  4   force =     0.00021245   -0.00025522   -0.00012958
     atom   51 type  5   force =    -0.00009180   -0.00009989    0.00016639
     atom   52 type  5   force =     0.00029319   -0.00063867   -0.00019853
     atom   53 type  5   force =    -0.00047372    0.00061186    0.00038614
     atom   54 type  5   force =     0.00093608    0.00048636    0.00020174
     atom   55 type  2   force =     0.00509840    0.00683099   -0.00442721
     atom   56 type  5   force =    -0.00220602   -0.00028595    0.00062510
     atom   57 type  5   force =    -0.00191823   -0.00658270    0.00356369

     Total force =     0.365890     Total SCF correction =     0.000462
  @ DRIVER MODE: Message from server: STATUS
  @ DRIVER MODE: Message from server: GETFORCE
  @ DRIVER MODE: Returning v,forces,stress,ensemble

     Writing output data file ./calc.save/
  @ DRIVER MODE: Message from server: EXIT
  @ DRIVE MODE: Exiting

     General routines

     Parallel routines

   This run was terminated on:   9:27:55  23Sep2021

   JOB DONE.