     Program PWSCF v.6.7GPU starts on 22Sep2021 at 17:37: 2

     R & G space division:  proc/nbgrp/npool/nimage =      10
     Reading input from /storage/home/hcoda1/3/ntian30/research/carbon/CxH_vib/H2O_calc/ads_slab/CH3OHO_a/out_0004/pw.inp
Warning: card &CELL ignored
Warning: card   CELL_DYNAMICS='IPI', ignored
Warning: card / ignored

     Current dimensions of program PWSCF are:
     Max number of different atomic species (ntypx) = 10
     Max number of k-points (npk) =  40000
     Max angular momentum in pseudopotentials (lmaxx) =  3
     Presently no symmetry can be used with electric field

     Message from routine cell_base_init:
     DEPRECATED: use true lattice parameter, not A to a.u. conversion factor

     IMPORTANT: XC functional enforced from input :
     Exchange-correlation= BEEF-VDW
                           (   1   4  43  14   2   0   0)
     Any further DFT definition will be discarded
     Please, verify this is what you really want

  @ DRIVER MODE: Connecting to
 qe_1139763_2937320.sched-torque.pace.gatech.edu1endqm9n_scratch
  using UNIX socket
  @ DRIVER MODE: Message from server: STATUS
  @ DRIVER MODE: Message from server: INIT
  @ DRIVER MODE: Receiving replica           0          -1
  @ DRIVER MODE: Receiving encoded integer          25
  @ DRIVER MODE:  SCF:  T  FORCE:  T  STRESS:  F  VC:  F  ENSEMBLE:  F
  @ DRIVER MODE:  SCF:  T  FORCE:  T  STRESS:  F  VC:  F  ENSEMBLE:  F

     Using Slab Decomposition

     bravais-lattice index     =            0
     lattice parameter (alat)  =       1.8897  a.u.
     unit-cell volume          =    6658.9804 (a.u.)^3
     number of atoms/cell      =           54
     number of atomic types    =            4
     number of electrons       =       398.00
     number of Kohn-Sham states=          209
     kinetic-energy cutoff     =      29.3995  Ry
     charge density cutoff     =     293.9946  Ry
     scf convergence threshold =      7.3E-08
     mixing beta               =       0.0500
     number of iterations used =            8  plain     mixing
     Exchange-correlation= BEEF-VDW
                           (   1   4  43  14   2   0   0)

     celldm(1)=   1.889726  celldm(2)=   0.000000  celldm(3)=   0.000000
     celldm(4)=   0.000000  celldm(5)=   0.000000  celldm(6)=   0.000000

     crystal axes: (cart. coord. in units of alat)
               a(1) = (   6.579727   0.000000   0.000000 )
               a(2) = (  -0.000775   5.961596   0.000000 )
               a(3) = (   0.000000   0.000000  25.155947 )

     reciprocal axes: (cart. coord. in units 2 pi/alat)
               b(1) = (  0.151982  0.000020  0.000000 )
               b(2) = (  0.000000  0.167740  0.000000 )
               b(3) = (  0.000000  0.000000  0.039752 )

     PseudoPot. # 1 for Ti read from file:
     /storage/coda1/p-amedford6/0/shared/rich_project_chbe-medford/medford-share/data/pseudos_module/espresso/nninc/pbe/van/Ti.UPF
     MD5 check sum: 8e4df49b7f0d34bbd5052bf3f5ea0213
     Pseudo is Ultrasoft, Zval = 12.0
     Generated by new atomic code, or converted to UPF format
     Using radial grid of  851 points,  6 beta functions with:
                l(1) =   0
                l(2) =   0
                l(3) =   1
                l(4) =   1
                l(5) =   2
                l(6) =   2
     Q(r) pseudized with  8 coefficients,  rinner =    1.000   1.000   1.000
                                                       1.000   1.000

     PseudoPot. # 2 for O  read from file:
     /storage/coda1/p-amedford6/0/shared/rich_project_chbe-medford/medford-share/data/pseudos_module/espresso/nninc/pbe/van/O.UPF
     MD5 check sum: 78c19812648e8988a0fe644b0f25305e
     Pseudo is Ultrasoft, Zval =  6.0
     Generated by new atomic code, or converted to UPF format
     Using radial grid of  737 points,  4 beta functions with:
                l(1) =   0
                l(2) =   0
                l(3) =   1
                l(4) =   1
     Q(r) pseudized with  8 coefficients,  rinner =    0.800   0.800   0.800

     PseudoPot. # 3 for C  read from file:
     /storage/coda1/p-amedford6/0/shared/rich_project_chbe-medford/medford-share/data/pseudos_module/espresso/nninc/pbe/van/C.UPF
     MD5 check sum: 1a69bf6b8db32088f5b2163dbdb77a27
     Pseudo is Ultrasoft, Zval =  4.0
     Generated by new atomic code, or converted to UPF format
     Using radial grid of  721 points,  4 beta functions with:
                l(1) =   0
                l(2) =   0
                l(3) =   1
                l(4) =   1
     Q(r) pseudized with  8 coefficients,  rinner =    0.800   0.800   0.800

     PseudoPot. # 4 for H  read from file:
     /storage/coda1/p-amedford6/0/shared/rich_project_chbe-medford/medford-share/data/pseudos_module/espresso/nninc/pbe/van/H.UPF
     MD5 check sum: b5ee9d7bfd3a09ee7748110bda690ff7
     Pseudo is Ultrasoft, Zval =  1.0
     Generated by new atomic code, or converted to UPF format
     Using radial grid of  615 points,  1 beta functions with:
                l(1) =   0
     Q(r) pseudized with  8 coefficients,  rinner =    0.800

     atomic species   valence    mass     pseudopotential
        Ti1           12.00    47.86700     Ti( 1.00)
        O1             6.00    15.99900     O ( 1.00)
        C1             4.00    12.01100     C ( 1.00)
        H1             1.00     1.00800     H ( 1.00)

     No symmetry found

   Cartesian axes

     site n.     atom                  positions (alat units)
         1           Ti1 tau(   1) = (   0.0004258   2.9801865   6.0000000  )
         2           Ti1 tau(   2) = (   3.2906075   1.4906267   6.0002472  )
         3           O1  tau(   3) = (   0.0006271   0.0005054   7.9858123  )
         4           O1  tau(   4) = (   3.2906025   0.0005020   7.3038282  )
         5           O1  tau(   5) = (   4.5942328   1.4918067   9.2879030  )
         6           O1  tau(   6) = (   1.9868534   1.4903216   9.2879459  )
         7           Ti1 tau(   7) = (   3.2957662   3.1068914   9.2181075  )
         8           Ti1 tau(   8) = (   0.0157633   1.6119101   9.3474628  )
         9           O1  tau(   9) = (   3.3075722   0.0245345  11.3221904  )
        10           O1  tau(  10) = (   0.0080709   0.0223756  10.5933645  )
        11           O1  tau(  11) = (   1.2996580   1.5014007  12.6293879  )
        12           O1  tau(  12) = (   5.3220639   1.4985920  12.6296061  )
        13           Ti1 tau(  13) = (   0.0338638   3.0995910  12.8036746  )
        14           Ti1 tau(  14) = (   3.3037623   1.5692239  12.4279754  )
        15           O1  tau(  15) = (   0.0261714   0.0103614  14.6808343  )
        16           O1  tau(  16) = (   3.3158872   5.9294016  13.9235834  )
        17           O1  tau(  17) = (   4.5845781   1.5190771  16.0542726  )
        18           O1  tau(  18) = (   2.0543804   1.5366111  16.0227792  )
        19           Ti1 tau(  19) = (   3.3281905   2.9581697  15.6655982  )
        20           Ti1 tau(  20) = (   0.0947853   1.4300879  15.9722461  )
        21           O1  tau(  21) = (   3.2904802   0.0005063   4.7018136  )
        22           O1  tau(  22) = (   0.0746355   0.0166105  17.2029963  )
        23           O1  tau(  23) = (   1.3043587   1.4918075   6.0039043  )
        24           O1  tau(  24) = (   5.2767064   1.4903225   6.0039473  )
        25           Ti1 tau(  25) = (   0.0000382   5.9609847   6.0000000  )
        26           Ti1 tau(  26) = (   3.2902200   4.4714249   6.0002472  )
        27           O1  tau(  27) = (   0.0002396   2.9813036   7.9858123  )
        28           O1  tau(  28) = (   3.2902150   2.9813002   7.3038282  )
        29           O1  tau(  29) = (   4.5938453   4.4726049   9.2879030  )
        30           O1  tau(  30) = (   1.9864658   4.4711199   9.2879459  )
        31           Ti1 tau(  31) = (   3.3049890   0.1224192   9.1815931  )
        32           Ti1 tau(  32) = (   0.0115838   4.5621182   9.3618056  )
        33           O1  tau(  33) = (   3.3056077   2.9569042  11.2892548  )
        34           O1  tau(  34) = (   0.0073068   3.0072357  10.5542745  )
        35           O1  tau(  35) = (   1.3032543   4.4799722  12.6367586  )
        36           O1  tau(  36) = (   5.3275811   4.4862388  12.6364370  )
        37           Ti1 tau(  37) = (   0.0060541   0.1153383  12.6179110  )
        38           Ti1 tau(  38) = (   3.3135592   4.6638430  12.6816895  )
        39           O1  tau(  39) = (   0.0323206   2.9919573  14.6814448  )
        40           O1  tau(  40) = (   3.3290587   2.9835885  13.8850256  )
        41           O1  tau(  41) = (   4.5809508   4.4372854  16.0867525  )
        42           O1  tau(  42) = (   2.0525355   4.4234120  16.0327814  )
        43           Ti1 tau(  43) = (   3.4083040   5.9395600  16.2643712  )
        44           Ti1 tau(  44) = (   0.1061243   4.5568233  16.0547075  )
        45           O1  tau(  45) = (   3.2900926   2.9813045   4.7018136  )
        46           O1  tau(  46) = (   1.3039711   4.4726057   6.0039043  )
        47           O1  tau(  47) = (   5.2763189   4.4711207   6.0039473  )
        48           C1  tau(  48) = (   6.0247352   2.9530639  18.6208924  )
        49           O1  tau(  49) = (   0.0129984   2.9830681  17.3098104  )
        50           H1  tau(  50) = (   4.9427965   2.8012130  18.5644550  )
        51           H1  tau(  51) = (   6.4567215   2.1053551  19.1708771  )
        52           H1  tau(  52) = (   6.2362830   3.8810018  19.1352789  )
        53           O1  tau(  53) = (   3.2195589   0.0134334  18.0862892  )
        54           H1  tau(  54) = (   2.3313237   0.1261415  18.4590370  )

     number of k points=    10  Fermi-Dirac smearing, width (Ry)=  0.0073
                       cart. coord. in units 2pi/alat
        k(    1) = (   0.0000000   0.0000000   0.0000000), wk =   0.1250000
        k(    2) = (   0.0000000   0.0419351   0.0000000), wk =   0.2500000
        k(    3) = (   0.0000000  -0.0838702   0.0000000), wk =   0.1250000
        k(    4) = (   0.0379955   0.0000049   0.0000000), wk =   0.2500000
        k(    5) = (   0.0379955   0.0419400   0.0000000), wk =   0.2500000
        k(    6) = (   0.0379955  -0.0838652   0.0000000), wk =   0.2500000
        k(    7) = (   0.0379955  -0.0419301   0.0000000), wk =   0.2500000
        k(    8) = (  -0.0759910  -0.0000099   0.0000000), wk =   0.1250000
        k(    9) = (  -0.0759910   0.0419252   0.0000000), wk =   0.2500000
        k(   10) = (  -0.0759910  -0.0838800   0.0000000), wk =   0.1250000

     Initial potential from superposition of free atoms

     starting charge  381.99917, renormalised to  398.00000

     negative rho (up, down):  1.724E-02 0.000E+00

     %%%%%%%%%%%%%%%%%%%%%%%%%%%%%%%%%%%%%%%%%%%%%%%%%%%%%%%%%%%%%%%%%%%%%%%%
     %                                                                      %
     % You are using vdW-DF, which was implemented by the Thonhauser group. %
     % Please cite the following two papers that made this development      %
     % possible and the two reviews that describe the various versions:     %
     %                                                                      %
     %   T. Thonhauser et al., PRL 115, 136402 (2015).                      %
     %   T. Thonhauser et al., PRB 76, 125112 (2007).                       %
     %   K. Berland et al., Rep. Prog. Phys. 78, 066501 (2015).             %
     %   D.C. Langreth et al., J. Phys.: Condens. Matter 21, 084203 (2009). %
     %                                                                      %
     %                                                                      %
     % If you are calculating the stress with vdW-DF, please also cite:     %
     %                                                                      %
     %   R. Sabatini et al., J. Phys.: Condens. Matter 24, 424209 (2012).   %
     %                                                                      %
     %%%%%%%%%%%%%%%%%%%%%%%%%%%%%%%%%%%%%%%%%%%%%%%%%%%%%%%%%%%%%%%%%%%%%%%%

     Adding external electric field

     Computed dipole along edir(3) :
        Dipole               -8.3452 Ry au,        -21.2113 Debye
        Dipole field         -0.0157 Ry au,

        Potential amp.        1.4599 Ry
        Total length         46.3494 bohr

     Starting wfcs are  300 atomic wfcs
  @ DRIVER MODE: Message from server: STATUS
  @ DRIVER MODE: Message from server: POSDATA
  @ DRIVER MODE: Reading and sharing cell
  @ DRIVER MODE: Reading and sharing positions
  @ DRIVER MODE: Received positions

     Self-consistent Calculation

     iteration #  1     ecut=    29.40 Ry     beta= 0.05
     Davidson diagonalization with overlap
     c_bands:  1 eigenvalues not converged
     c_bands:  1 eigenvalues not converged
     c_bands:  1 eigenvalues not converged
     c_bands:  1 eigenvalues not converged
     c_bands:  1 eigenvalues not converged
     ethr =  1.00E-05,  avg # of iterations = 18.4

[...]

     total energy              =   -2613.38286373 Ry
     estimated scf accuracy    <    3887.11547195 Ry

     iteration #  2     ecut=    29.40 Ry     beta= 0.05
     Davidson diagonalization with overlap
     ethr =  1.00E-02,  avg # of iterations = 22.8

[...]

     iteration # 57     ecut=    29.40 Ry     beta= 0.05
     Davidson diagonalization with overlap
     c_bands:  1 eigenvalues not converged
     ethr =  2.86E-08,  avg # of iterations =  7.4

[...]

     total energy              =   -2965.10847754 Ry
     estimated scf accuracy    <       0.00000010 Ry

     iteration # 76     ecut=    29.40 Ry     beta= 0.05
     Davidson diagonalization with overlap
     ethr =  2.44E-11,  avg # of iterations =  5.3

     negative rho (up, down):  1.731E-02 0.000E+00

     Adding external electric field

     Computed dipole along edir(3) :
        Dipole                0.5356 Ry au,          1.3612 Debye
        Dipole field          0.0010 Ry au,

        Potential amp.       -0.0937 Ry
        Total length         46.3494 bohr

     End of self-consistent calculation

          k = 0.0000 0.0000 0.0000 ( 18029 PWs)   bands (ev):

   -56.4417 -56.3949 -55.8700 -55.8390 -55.8284 -55.8168 -55.7723 -55.7358
   -55.7113 -55.6977 -55.6592 -55.6169 -55.6133 -55.4665 -55.0453 -55.0114
   -32.8541 -32.7067 -32.6572 -32.6212 -32.5268 -32.4806 -32.3619 -32.3152
   -32.3090 -32.1940 -32.1567 -32.1338 -32.1316 -32.1114 -32.1060 -32.0693
   -32.0660 -32.0516 -32.0343 -32.0290 -32.0172 -31.9784 -31.9678 -31.9512
   -31.9433 -31.9309 -31.9282 -31.9178 -31.9158 -31.9048 -31.9000 -31.8873
   -31.8627 -31.8613 -31.8557 -31.8223 -31.8110 -31.8101 -31.7810 -31.7223
   -31.6918 -31.6728 -31.4394 -31.3862 -31.3618 -31.2563 -31.1713 -31.0606
   -17.6050 -16.6288 -16.5865 -16.4415 -16.2035 -16.0571 -15.9758 -15.7562
   -15.7535 -15.6343 -15.6233 -15.5883 -15.4505 -15.4381 -15.4310 -15.3757
   -15.3600 -15.3491 -15.3429 -15.3358 -15.3228 -15.2746 -15.2616 -15.2097
   -15.1513 -15.0846 -15.0551 -15.0117 -14.9927 -14.9566 -14.7263 -13.5475
   -13.4392  -9.3509  -4.3314  -4.2471  -4.1216  -4.0505  -3.8814  -3.7794
    -3.7458  -3.6580  -3.5778  -3.4682  -3.2695  -3.1076  -3.0507  -3.0142
    -2.9810  -2.9273  -2.8727  -2.8141  -2.7688  -2.7397  -2.7109  -2.6444
    -2.6264  -2.6165  -2.5883  -2.5801  -2.5443  -2.5112  -2.4998  -2.3686
    -2.3391  -2.3018  -2.2961  -2.2371  -2.2179  -2.1933  -2.1868  -2.1360
    -2.0433  -1.9622  -1.9264  -1.8874  -1.6983  -1.6422  -1.5732  -1.5069
    -1.4280  -1.3812  -1.3612  -1.3376  -1.2682  -1.2402  -1.1288  -1.1062
    -1.0610  -0.9969  -0.9941  -0.9540  -0.8972  -0.8708  -0.8059  -0.7737
    -0.7476  -0.6046  -0.5782  -0.5504  -0.5085  -0.5002  -0.4004  -0.3394
    -0.2892  -0.2691  -0.2214  -0.1880  -0.1495  -0.1016  -0.0838  -0.0572
     0.0315   0.0575   0.0819   0.1269   0.1615   0.1847   0.2015   0.2968
     0.3453   0.3620   0.3784   0.5346   0.5731   0.5895   0.7182   0.7320
     0.9030   0.9713   1.0090   1.1883   1.2345   1.5212   1.5634   2.8600
     3.0182   3.2894   3.4365   3.5047   3.5436   3.5973   3.6145   3.7556
     3.7923

[...]

          k = 0.0380-0.0419 0.0000 ( 17876 PWs)   bands (ev):

[...]

          k =-0.0760-0.0000 0.0000 ( 17886 PWs)   bands (ev):

[...]

          k =-0.0760-0.0839 0.0000 ( 17948 PWs)   bands (ev):

   -56.4346 -56.4018 -55.8681 -55.8336 -55.8273 -55.8128 -55.7771 -55.7395
   -55.7130 -55.6991 -55.6507 -55.6254 -55.6114 -55.4683 -55.0285 -55.0280
   -32.7021 -32.6849 -32.6612 -32.6571 -32.5865 -32.5586 -32.2499 -32.1858
   -32.1591 -32.1274 -32.1046 -32.1007 -32.0903 -32.0758 -32.0681 -32.0536
   -32.0491 -32.0414 -32.0360 -32.0284 -32.0280 -32.0202 -31.9982 -31.9967
   -31.9946 -31.9792 -31.9678 -31.9529 -31.9448 -31.9387 -31.9179 -31.9045
   -31.9011 -31.8883 -31.8749 -31.8605 -31.8600 -31.8260 -31.8154 -31.7961
   -31.7246 -31.6764 -31.3750 -31.3747 -31.2549 -31.2533 -31.2136 -31.2127
   -17.5673 -16.6008 -15.9837 -15.9040 -15.8998 -15.8884 -15.8619 -15.8199
   -15.7425 -15.7356 -15.6646 -15.5978 -15.5643 -15.5194 -15.4969 -15.4852
   -15.4479 -15.4433 -15.3859 -15.3421 -15.3258 -15.3145 -15.2948 -15.2515
   -15.2455 -15.2428 -15.2192 -15.2042 -15.1533 -15.0533 -14.8669 -13.5436
   -13.5423  -9.3511  -4.2593  -4.1725  -3.9869  -3.7275  -3.2159  -3.1400
    -3.0653  -3.0574  -2.9827  -2.9230  -2.9083  -2.8637  -2.8565  -2.8249
    -2.7532  -2.7425  -2.7297  -2.7193  -2.7118  -2.7031  -2.6805  -2.6352
    -2.6220  -2.6148  -2.5983  -2.5903  -2.5788  -2.5751  -2.5481  -2.5093
    -2.4391  -2.3782  -2.2551  -2.2476  -2.2121  -2.1963  -2.1554  -2.1431
    -2.0892  -1.9975  -1.9851  -1.9823  -1.8936  -1.8373  -1.6236  -1.6089
    -1.5919  -1.5252  -1.4527  -1.3866  -1.3627  -1.3398  -1.3070  -1.2843
    -1.2355  -1.1855  -1.1515  -1.1149  -1.0987  -1.0601  -1.0075  -0.9629
    -0.9069  -0.9024  -0.8597  -0.8123  -0.7808  -0.7014  -0.6960  -0.6722
    -0.6490  -0.6102  -0.5245  -0.4723  -0.4300  -0.3349  -0.2939  -0.2600
    -0.1210  -0.0606  -0.0243   0.0506   0.0962   0.1958   0.2206   0.2971
     0.3097   0.3388   0.3633   0.4392   0.5056   0.5618   0.6041   0.6475
     0.6590   0.7085   0.7721   1.3653   1.3658   1.3731   1.3808   3.4053
     3.4301   3.4379   3.4677   3.6941   3.7116   3.7842   3.8149   3.8306
     3.8804

     the Fermi energy is     2.2696 ev

!    total energy              =   -2965.10848858 Ry
     estimated scf accuracy    <       0.00000005 Ry
     smearing contrib. (-TS)   =      -0.00015921 Ry
     internal energy E=F+TS    =   -2965.10832937 Ry

     The total energy is F=E-TS. E is the sum of the following terms:
     one-electron contribution =  -24222.99024899 Ry
     hartree contribution      =   12200.79676109 Ry
     xc contribution           =    -490.02867533 Ry
     ewald contribution        =    9547.11329260 Ry
     electric field correction =       0.00054126 Ry

     convergence has been achieved in  76 iterations

     Forces acting on atoms (cartesian axes, Ry/au):

     atom    1 type  1   force =    -0.00002321    0.00003311    0.13240147
     atom    2 type  1   force =    -0.00019485    0.00778576   -0.15736640
     atom    3 type  2   force =     0.00008431   -0.00480771   -0.05216635
     atom    4 type  2   force =     0.00035822    0.00109507    0.04045462
     atom    5 type  2   force =    -0.00609783   -0.00278954   -0.00019501
     atom    6 type  2   force =     0.00838328   -0.00338649    0.00078417
     atom    7 type  1   force =    -0.00002743   -0.00014573   -0.00001876
     atom    8 type  1   force =     0.00021039   -0.00057034    0.00040089
     atom    9 type  2   force =    -0.00004482    0.00020428   -0.00005727
     atom   10 type  2   force =    -0.00014515   -0.00037814   -0.00019361
     atom   11 type  2   force =     0.00042959    0.00027001   -0.00019404
     atom   12 type  2   force =    -0.00026518    0.00016768   -0.00005607
     atom   13 type  1   force =    -0.00069072    0.00048205   -0.00031325
     atom   14 type  1   force =     0.00007624   -0.00032139   -0.00024183
     atom   15 type  2   force =    -0.00021185    0.00017079   -0.00076137
     atom   16 type  2   force =    -0.00033121    0.00010546    0.00005112
     atom   17 type  2   force =     0.00009306    0.00000684    0.00003160
     atom   18 type  2   force =    -0.00068855    0.00018577   -0.00015805
     atom   19 type  1   force =     0.00005665   -0.00038666   -0.00015119
     atom   20 type  1   force =    -0.00015225   -0.00022122    0.00025184
     atom   21 type  2   force =    -0.00002402    0.00002035    0.09912282
     atom   22 type  2   force =    -0.00000082    0.00013913    0.00022022
     atom   23 type  2   force =    -0.08091766    0.00048895   -0.03406416
     atom   24 type  2   force =     0.08071685    0.00095470   -0.03412793
     atom   25 type  1   force =    -0.00001295   -0.00027673    0.14101344
     atom   26 type  1   force =    -0.00013379   -0.00647406   -0.15701335
     atom   27 type  2   force =     0.00016251    0.00108853   -0.05216358
     atom   28 type  2   force =     0.00018826    0.00033722    0.04178560
     atom   29 type  2   force =    -0.00751401    0.00512267    0.00201473
     atom   30 type  2   force =     0.00858201    0.00383072    0.00271789
     atom   31 type  1   force =    -0.00002506    0.00017412    0.00000815
     atom   32 type  1   force =     0.00030541   -0.00006395   -0.00051241
     atom   33 type  2   force =    -0.00005880    0.00040243    0.00020048
     atom   34 type  2   force =    -0.00011992    0.00019680    0.00036061
     atom   35 type  2   force =    -0.00050318   -0.00034521   -0.00007116
     atom   36 type  2   force =     0.00048641   -0.00043541    0.00016090
     atom   37 type  1   force =    -0.00056465   -0.00028439   -0.00013216
     atom   38 type  1   force =     0.00001072   -0.00002438   -0.00046788
     atom   39 type  2   force =    -0.00001381   -0.00016132   -0.00022536
     atom   40 type  2   force =    -0.00013966   -0.00014833   -0.00034946
     atom   41 type  2   force =    -0.00005765    0.00015036   -0.00040630
     atom   42 type  2   force =    -0.00000201    0.00034588   -0.00019288
     atom   43 type  1   force =    -0.00020977    0.00032958   -0.00011146
     atom   44 type  1   force =     0.00009014   -0.00040250    0.00013150
     atom   45 type  2   force =    -0.00003136    0.00012278    0.09868295
     atom   46 type  2   force =    -0.08087787   -0.00164378   -0.03406556
     atom   47 type  2   force =     0.08068455   -0.00117241   -0.03413323
     atom   48 type  3   force =    -0.00029482   -0.02118734   -0.00068697
     atom   49 type  2   force =     0.00012664    0.00268371   -0.00084278
     atom   50 type  4   force =     0.00080710    0.00219906    0.00011016
     atom   51 type  4   force =    -0.00291096    0.00740651   -0.00297620
     atom   52 type  4   force =     0.00183591    0.00978922    0.00386731
     atom   53 type  2   force =     0.00037283   -0.00027972   -0.00123971
     atom   54 type  4   force =    -0.00077525   -0.00038276    0.00088327

     Total force =     0.383522     Total SCF correction =     0.001027
  @ DRIVER MODE: Message from server: STATUS
  @ DRIVER MODE: Message from server: GETFORCE
  @ DRIVER MODE: Returning v,forces,stress,ensemble

     Writing output data file ./calc.save/
  @ DRIVER MODE: Message from server: EXIT
  @ DRIVE MODE: Exiting

     General routines

     Parallel routines

   This run was terminated on:  17:56:45  22Sep2021

   JOB DONE.