     Program PWSCF v.6.7GPU starts on 24Aug2021 at 14:31: 8

     R & G space division:  proc/nbgrp/npool/nimage =      72
     Reading input from /storage/home/hcoda1/3/ntian30/research/carbon/CH2_vib/ads_slab/CH2NHH_a/out_0013/pw.inp
Warning: card &CELL ignored
Warning: card   CELL_DYNAMICS='IPI', ignored
Warning: card / ignored

     Current dimensions of program PWSCF are:
     Max number of different atomic species (ntypx) = 10
     Max number of k-points (npk) =  40000
     Max angular momentum in pseudopotentials (lmaxx) =  3
     Presently no symmetry can be used with electric field

     Message from routine cell_base_init:
     DEPRECATED: use true lattice parameter, not A to a.u. conversion factor

     IMPORTANT: XC functional enforced from input :
     Exchange-correlation= BEEF-VDW
                           (   1   4  43  14   2   0   0)
     Any further DFT definition will be discarded
     Please, verify this is what you really want

  @ DRIVER MODE: Connecting to
 qe_1139763_2641439.sched-torque.pace.gatech.eduxvm70r8__scratch
  using UNIX socket
  @ DRIVER MODE: Message from server: STATUS
  @ DRIVER MODE: Message from server: INIT
  @ DRIVER MODE: Receiving replica           0          -1
  @ DRIVER MODE: Receiving encoded integer          25
  @ DRIVER MODE:  SCF:  T  FORCE:  T  STRESS:  F  VC:  F  ENSEMBLE:  F
  @ DRIVER MODE:  SCF:  T  FORCE:  T  STRESS:  F  VC:  F  ENSEMBLE:  F

     Using Slab Decomposition

     bravais-lattice index     =            0
     lattice parameter (alat)  =       1.8897  a.u.
     unit-cell volume          =    6658.9804 (a.u.)^3
     number of atoms/cell      =           53
     number of atomic types    =            5
     number of electrons       =       391.00
     number of Kohn-Sham states=          205
     kinetic-energy cutoff     =      29.3995  Ry
     charge density cutoff     =     293.9946  Ry
     scf convergence threshold =      7.3E-08
     mixing beta               =       0.0500
     number of iterations used =            8  plain     mixing
     Exchange-correlation= BEEF-VDW
                           (   1   4  43  14   2   0   0)

     celldm(1)=   1.889726  celldm(2)=   0.000000  celldm(3)=   0.000000
     celldm(4)=   0.000000  celldm(5)=   0.000000  celldm(6)=   0.000000

     crystal axes: (cart. coord. in units of alat)
               a(1) = (   6.579727   0.000000   0.000000 )
               a(2) = (  -0.000775   5.961596   0.000000 )
               a(3) = (   0.000000   0.000000  25.155947 )

     reciprocal axes: (cart. coord. in units 2 pi/alat)
               b(1) = (  0.151982  0.000020  0.000000 )
               b(2) = (  0.000000  0.167740  0.000000 )
               b(3) = (  0.000000  0.000000  0.039752 )

     PseudoPot. # 1 for Ti read from file:
     /storage/coda1/p-amedford6/0/shared/rich_project_chbe-medford/medford-share/data/pseudos_module/espresso/nninc/pbe/van/Ti.UPF
     MD5 check sum: 8e4df49b7f0d34bbd5052bf3f5ea0213
     Pseudo is Ultrasoft, Zval = 12.0
     Generated by new atomic code, or converted to UPF format
     Using radial grid of  851 points,  6 beta functions with:
                l(1) =   0
                l(2) =   0
                l(3) =   1
                l(4) =   1
                l(5) =   2
                l(6) =   2
     Q(r) pseudized with  8 coefficients,  rinner =    1.000   1.000   1.000
                                                       1.000   1.000

     PseudoPot. # 2 for O  read from file:
     /storage/coda1/p-amedford6/0/shared/rich_project_chbe-medford/medford-share/data/pseudos_module/espresso/nninc/pbe/van/O.UPF
     MD5 check sum: 78c19812648e8988a0fe644b0f25305e
     Pseudo is Ultrasoft, Zval =  6.0
     Generated by new atomic code, or converted to UPF format
     Using radial grid of  737 points,  4 beta functions with:
                l(1) =   0
                l(2) =   0
                l(3) =   1
                l(4) =   1
     Q(r) pseudized with  8 coefficients,  rinner =    0.800   0.800   0.800

     PseudoPot. # 3 for N  read from file:
     /storage/coda1/p-amedford6/0/shared/rich_project_chbe-medford/medford-share/data/pseudos_module/espresso/nninc/pbe/van/N.UPF
     MD5 check sum: 90d10febe142ad51ac9d5be1deb811c4
     Pseudo is Ultrasoft, Zval =  5.0
     Generated by new atomic code, or converted to UPF format
     Using radial grid of  729 points,  4 beta functions with:
                l(1) =   0
                l(2) =   0
                l(3) =   1
                l(4) =   1
     Q(r) pseudized with  8 coefficients,  rinner =    0.800   0.800   0.800

     PseudoPot. # 4 for C  read from file:
     /storage/coda1/p-amedford6/0/shared/rich_project_chbe-medford/medford-share/data/pseudos_module/espresso/nninc/pbe/van/C.UPF
     MD5 check sum: 1a69bf6b8db32088f5b2163dbdb77a27
     Pseudo is Ultrasoft, Zval =  4.0
     Generated by new atomic code, or converted to UPF format
     Using radial grid of  721 points,  4 beta functions with:
                l(1) =   0
                l(2) =   0
                l(3) =   1
                l(4) =   1
     Q(r) pseudized with  8 coefficients,  rinner =    0.800   0.800   0.800

     PseudoPot. # 5 for H  read from file:
     /storage/coda1/p-amedford6/0/shared/rich_project_chbe-medford/medford-share/data/pseudos_module/espresso/nninc/pbe/van/H.UPF
     MD5 check sum: b5ee9d7bfd3a09ee7748110bda690ff7
     Pseudo is Ultrasoft, Zval =  1.0
     Generated by new atomic code, or converted to UPF format
     Using radial grid of  615 points,  1 beta functions with:
                l(1) =   0
     Q(r) pseudized with  8 coefficients,  rinner =    0.800

     atomic species   valence    mass     pseudopotential
        Ti1           12.00    47.86700     Ti( 1.00)
        O1             6.00    15.99900     O ( 1.00)
        N1             5.00    14.00700     N ( 1.00)
        C1             4.00    12.01100     C ( 1.00)
        H1             1.00     1.00800     H ( 1.00)

     No symmetry found

   Cartesian axes

     site n.     atom                  positions (alat units)
         1           Ti1 tau(   1) = (   0.0004258   2.9801865   6.0000000  )
         2           Ti1 tau(   2) = (   3.2906075   1.4906267   6.0002472  )
         3           O1  tau(   3) = (   0.0006271   0.0005054   7.9858123  )
         4           O1  tau(   4) = (   3.2906025   0.0005020   7.3038282  )
         5           O1  tau(   5) = (   4.5942328   1.4918067   9.2879030  )
         6           O1  tau(   6) = (   1.9868534   1.4903216   9.2879459  )
         7           Ti1 tau(   7) = (   3.2907910   2.8959150   9.1758416  )
         8           Ti1 tau(   8) = (   0.0015273   1.4827037   9.2680791  )
         9           O1  tau(   9) = (   3.2941312   5.9515177  11.3840049  )
        10           O1  tau(  10) = (   0.0116148   5.9584955  10.6183126  )
        11           O1  tau(  11) = (   1.2915503   1.4777401  12.6967708  )
        12           O1  tau(  12) = (   5.3002239   1.4803738  12.6794006  )
        13           Ti1 tau(  13) = (   0.0161863   2.9610389  12.5056540  )
        14           Ti1 tau(  14) = (   3.3199580   1.4690355  12.5397617  )
        15           O1  tau(  15) = (   6.5577523   5.8663973  14.6994336  )
        16           O1  tau(  16) = (   3.3105950   5.9380289  14.0083265  )
        17           O1  tau(  17) = (   4.5355139   1.5078041  16.1868020  )
        18           O1  tau(  18) = (   2.0231344   1.4922588  16.1350940  )
        19           Ti1 tau(  19) = (   3.2781988   2.9761027  15.7713632  )
        20           Ti1 tau(  20) = (   0.0162001   1.2772015  15.8797579  )
        21           O1  tau(  21) = (   3.2904802   0.0005063   4.7018136  )
        22           O1  tau(  22) = (   6.5682446   0.1140876  17.2519115  )
        23           O1  tau(  23) = (   1.3043587   1.4918075   6.0039043  )
        24           O1  tau(  24) = (   5.2767064   1.4903225   6.0039473  )
        25           Ti1 tau(  25) = (   0.0000382   5.9609847   6.0000000  )
        26           Ti1 tau(  26) = (   3.2902200   4.4714249   6.0002472  )
        27           O1  tau(  27) = (   0.0002396   2.9813036   7.9858123  )
        28           O1  tau(  28) = (   3.2902150   2.9813002   7.3038282  )
        29           O1  tau(  29) = (   4.5938453   4.4726049   9.2879030  )
        30           O1  tau(  30) = (   1.9864658   4.4711199   9.2879459  )
        31           Ti1 tau(  31) = (   3.2891106   5.8743827   9.1763621  )
        32           Ti1 tau(  32) = (   0.0006254   4.4649316   9.2693709  )
        33           O1  tau(  33) = (   3.2958891   2.9587481  11.3780895  )
        34           O1  tau(  34) = (   0.0092240   2.9805883  10.6323155  )
        35           O1  tau(  35) = (   1.2947421   4.4484190  12.6652604  )
        36           O1  tau(  36) = (   5.2996063   4.4466420  12.6515021  )
        37           Ti1 tau(  37) = (   0.0283143   5.9336383  12.5061025  )
        38           Ti1 tau(  38) = (   3.3214233   4.4478814  12.5310514  )
        39           O1  tau(  39) = (   6.5589476   3.0029366  14.9874712  )
        40           O1  tau(  40) = (   3.3011147   2.9794859  13.9794371  )
        41           O1  tau(  41) = (   4.5155863   4.4560770  16.2359875  )
        42           O1  tau(  42) = (   2.0187475   4.4548860  16.2131175  )
        43           Ti1 tau(  43) = (   3.3138217   5.9556645  15.8088081  )
        44           Ti1 tau(  44) = (   0.0451788   4.5003401  16.0524233  )
        45           O1  tau(  45) = (   3.2900926   2.9813045   4.7018136  )
        46           O1  tau(  46) = (   1.3039711   4.4726057   6.0039043  )
        47           O1  tau(  47) = (   5.2763189   4.4711207   6.0039473  )
        48           N1  tau(  48) = (   6.2013940   3.4221407  18.2524812  )
        49           C1  tau(  49) = (   0.6861764   3.1362451  19.0985974  )
        50           H1  tau(  50) = (   1.2150757   3.9700495  19.5149693  )
        51           H1  tau(  51) = (   1.1126790   2.1486344  19.0481404  )
        52           H1  tau(  52) = (   5.7034377   4.2789310  18.4761913  )
        53           H1  tau(  53) = (   5.5430662   2.6552022  18.1284619  )

     number of k points=    10  Fermi-Dirac smearing, width (Ry)=  0.0073
                       cart. coord. in units 2pi/alat
        k(    1) = (   0.0000000   0.0000000   0.0000000), wk =   0.1250000
        k(    2) = (   0.0000000   0.0419351   0.0000000), wk =   0.2500000
        k(    3) = (   0.0000000  -0.0838702   0.0000000), wk =   0.1250000
        k(    4) = (   0.0379955   0.0000049   0.0000000), wk =   0.2500000
        k(    5) = (   0.0379955   0.0419400   0.0000000), wk =   0.2500000
        k(    6) = (   0.0379955  -0.0838652   0.0000000), wk =   0.2500000
        k(    7) = (   0.0379955  -0.0419301   0.0000000), wk =   0.2500000
        k(    8) = (  -0.0759910  -0.0000099   0.0000000), wk =   0.1250000
        k(    9) = (  -0.0759910   0.0419252   0.0000000), wk =   0.2500000
        k(   10) = (  -0.0759910  -0.0838800   0.0000000), wk =   0.1250000

     Initial potential from superposition of free atoms

     starting charge  374.99916, renormalised to  391.00000

     negative rho (up, down):  1.685E-02 0.000E+00

     %%%%%%%%%%%%%%%%%%%%%%%%%%%%%%%%%%%%%%%%%%%%%%%%%%%%%%%%%%%%%%%%%%%%%%%%
     %                                                                      %
     % You are using vdW-DF, which was implemented by the Thonhauser group. %
     % Please cite the following two papers that made this development      %
     % possible and the two reviews that describe the various versions:     %
     %                                                                      %
     %   T. Thonhauser et al., PRL 115, 136402 (2015).                      %
     %   T. Thonhauser et al., PRB 76, 125112 (2007).                       %
     %   K. Berland et al., Rep. Prog. Phys. 78, 066501 (2015).             %
     %   D.C. Langreth et al., J. Phys.: Condens. Matter 21, 084203 (2009). %
     %                                                                      %
     %                                                                      %
     % If you are calculating the stress with vdW-DF, please also cite:     %
     %                                                                      %
     %   R. Sabatini et al., J. Phys.: Condens. Matter 24, 424209 (2012).   %
     %                                                                      %
     %%%%%%%%%%%%%%%%%%%%%%%%%%%%%%%%%%%%%%%%%%%%%%%%%%%%%%%%%%%%%%%%%%%%%%%%

     Adding external electric field

     Computed dipole along edir(3) :
        Dipole               -6.9321 Ry au,        -17.6197 Debye
        Dipole field         -0.0131 Ry au,

        Potential amp.        1.2127 Ry
        Total length         46.3494 bohr

     Starting wfcs are  296 atomic wfcs
  @ DRIVER MODE: Message from server: STATUS
  @ DRIVER MODE: Message from server: POSDATA
  @ DRIVER MODE: Reading and sharing cell
  @ DRIVER MODE: Reading and sharing positions
  @ DRIVER MODE: Received positions

     Self-consistent Calculation

     iteration #  1     ecut=    29.40 Ry     beta= 0.05
     Davidson diagonalization with overlap
     c_bands:  1 eigenvalues not converged
     ethr =  1.00E-05,  avg # of iterations = 15.4

[...]

     total energy              =   -2713.44470157 Ry
     estimated scf accuracy    <    2282.60463352 Ry

     iteration #  2     ecut=    29.40 Ry     beta= 0.05
     Davidson diagonalization with overlap
     ethr =  1.00E-02,  avg # of iterations = 18.6

[...]

     iteration # 68     ecut=    29.40 Ry     beta= 0.05
     Davidson diagonalization with overlap
     c_bands:  1 eigenvalues not converged
     ethr =  6.49E-11,  avg # of iterations = 14.0

[...]

     total energy              =   -2920.25692372 Ry
     estimated scf accuracy    <       0.00000011 Ry

     iteration # 71     ecut=    29.40 Ry     beta= 0.05
     Davidson diagonalization with overlap
     ethr =  2.87E-11,  avg # of iterations =  5.1

     negative rho (up, down):  1.611E-02 0.000E+00

     Adding external electric field

     Computed dipole along edir(3) :
        Dipole                0.8942 Ry au,          2.2728 Debye
        Dipole field          0.0017 Ry au,

        Potential amp.       -0.1564 Ry
        Total length         46.3494 bohr

     End of self-consistent calculation

          k = 0.0000 0.0000 0.0000 ( 18029 PWs)   bands (ev):

   -55.7218 -55.6859 -55.6738 -55.6396 -55.6113 -55.6020 -55.5676 -55.5461
   -55.5384 -55.5116 -55.5053 -55.4716 -55.4645 -55.3041 -54.7058 -54.6717
   -32.2872 -32.1669 -32.0900 -32.0570 -32.0426 -32.0351 -32.0318 -32.0113
   -31.9626 -31.9568 -31.9337 -31.9280 -31.9186 -31.8908 -31.8754 -31.8735
   -31.8606 -31.8495 -31.8416 -31.8262 -31.8207 -31.7882 -31.7807 -31.7767
   -31.7485 -31.7444 -31.7342 -31.7308 -31.7249 -31.7207 -31.7046 -31.7029
   -31.6946 -31.6917 -31.6712 -31.6594 -31.6571 -31.6420 -31.6332 -31.6168
   -31.5248 -31.4721 -31.1153 -31.0207 -30.9987 -30.9316 -30.8448 -30.7339
   -16.6728 -16.5288 -16.2731 -16.1131 -16.0182 -15.9216 -15.7901 -15.7625
   -15.6464 -15.5697 -15.4282 -15.3975 -15.3819 -15.3603 -15.3429 -15.3305
   -15.2695 -15.2635 -15.2437 -15.2180 -15.2147 -15.1678 -15.1631 -15.1226
   -15.0986 -15.0458 -14.9681 -14.8837 -14.8108 -14.4892 -13.2085 -13.0910
    -9.5301  -6.8624  -4.9417  -3.8863  -3.7428  -3.6743  -3.6245  -3.6156
    -3.4742  -3.3003  -3.1630  -3.1392  -3.1067  -2.9951  -2.9271  -2.9133
    -2.8887  -2.7473  -2.7334  -2.6793  -2.6518  -2.5745  -2.5699  -2.5269
    -2.5078  -2.4732  -2.4690  -2.4391  -2.2992  -2.2918  -2.2509  -2.1902
    -2.1311  -2.1283  -2.0731  -2.0539  -2.0126  -2.0033  -1.9943  -1.9513
    -1.9468  -1.9129  -1.8179  -1.7475  -1.6205  -1.5840  -1.4414  -1.3631
    -1.3155  -1.2953  -1.2144  -1.2073  -1.1478  -1.1028  -1.1011  -1.0609
    -0.9495  -0.8678  -0.8154  -0.7578  -0.7238  -0.7074  -0.6226  -0.5250
    -0.5016  -0.4890  -0.4530  -0.3533  -0.3283  -0.2673  -0.2033  -0.1910
    -0.1781  -0.0930  -0.0555   0.0170   0.0671   0.0870   0.1641   0.1862
     0.2098   0.2158   0.2465   0.2622   0.3339   0.3531   0.3780   0.4654
     0.5861   0.8284   0.8873   0.8961   1.2162   1.2212   1.3168   1.5000
     1.8933   1.9417   3.3710   3.3885   3.4528   3.5209   3.5248   3.5869
     3.6117   3.8582   3.8776   3.8856   3.9032

[...]

          k = 0.0380-0.0419 0.0000 ( 17876 PWs)   bands (ev):

[...]

          k =-0.0760-0.0000 0.0000 ( 17886 PWs)   bands (ev):

[...]

          k =-0.0760-0.0839 0.0000 ( 17948 PWs)   bands (ev):

   -55.7052 -55.7023 -55.6567 -55.6565 -55.6070 -55.5856 -55.5840 -55.5425
   -55.5306 -55.5267 -55.4888 -55.4882 -55.4624 -55.3062 -54.6888 -54.6885
   -32.0928 -32.0903 -31.9997 -31.9820 -31.9819 -31.9786 -31.9688 -31.9479
   -31.9478 -31.9316 -31.9251 -31.9181 -31.9136 -31.8742 -31.8658 -31.8628
   -31.8585 -31.8538 -31.8494 -31.8445 -31.8309 -31.8118 -31.8000 -31.7991
   -31.7807 -31.7768 -31.7763 -31.7761 -31.7636 -31.7596 -31.7433 -31.7413
   -31.7393 -31.7297 -31.7217 -31.7190 -31.6852 -31.6691 -31.6686 -31.6498
   -31.5642 -31.5269 -31.0114 -31.0112 -30.9279 -30.9276 -30.8883 -30.8882
   -16.6397 -16.0380 -15.9455 -15.9075 -15.7595 -15.7218 -15.6867 -15.6744
   -15.5519 -15.5257 -15.5000 -15.4791 -15.4436 -15.4276 -15.4205 -15.3729
   -15.3412 -15.3218 -15.3161 -15.3041 -15.2411 -15.2332 -15.2293 -15.2222
   -15.1728 -15.1692 -15.0783 -15.0753 -15.0628 -14.7747 -13.1925 -13.1925
    -9.5317  -6.8448  -4.9226  -3.2171  -3.2000  -3.1608  -3.1436  -2.9781
    -2.9099  -2.8968  -2.8743  -2.7967  -2.7556  -2.7344  -2.6936  -2.6827
    -2.6305  -2.6039  -2.5762  -2.5605  -2.5559  -2.5395  -2.5185  -2.4845
    -2.4555  -2.4526  -2.4421  -2.4017  -2.3747  -2.3608  -2.3270  -2.3172
    -2.3097  -2.2803  -2.2205  -2.1142  -2.0906  -2.0582  -1.9641  -1.9311
    -1.9262  -1.8460  -1.8157  -1.7575  -1.7545  -1.7433  -1.5966  -1.5148
    -1.4716  -1.4690  -1.4469  -1.3199  -1.3105  -1.2258  -1.2034  -1.1936
    -1.1050  -1.0805  -1.0428  -1.0173  -0.9348  -0.9096  -0.8438  -0.7555
    -0.7191  -0.7111  -0.6795  -0.6768  -0.6276  -0.6161  -0.5350  -0.4927
    -0.4565  -0.4464  -0.4053  -0.2205  -0.2037  -0.1606  -0.0321   0.0136
     0.1457   0.1634   0.2280   0.3045   0.3367   0.3908   0.4269   0.5730
     0.5828   0.6152   0.6595   0.6690   0.7287   0.7378   1.6730   1.6737
     1.7616   1.7618   3.3931   3.6197   3.6264   3.6654   3.6882   3.8409
     3.8915   3.9297   3.9553   3.9629   3.9764

     the Fermi energy is     3.4389 ev

!    total energy              =   -2920.25693885 Ry
     estimated scf accuracy    <       0.00000006 Ry
     smearing contrib. (-TS)   =      -0.04300240 Ry
     internal energy E=F+TS    =   -2920.21393645 Ry

     The total energy is F=E-TS. E is the sum of the following terms:
     one-electron contribution =  -24044.06858991 Ry
     hartree contribution      =   12108.17261344 Ry
     xc contribution           =    -480.86093685 Ry
     ewald contribution        =    9496.54146802 Ry
     electric field correction =       0.00150886 Ry

     convergence has been achieved in  71 iterations

     Forces acting on atoms (cartesian axes, Ry/au):

     atom    1 type  1   force =     0.00008565   -0.00016324    0.09319523
     atom    2 type  1   force =    -0.00019975   -0.00024710   -0.17845839
     atom    3 type  2   force =     0.00003814   -0.00036573   -0.02007771
     atom    4 type  2   force =    -0.00002126   -0.00199574    0.05916721
     atom    5 type  2   force =    -0.01040818   -0.00113903    0.00789370
     atom    6 type  2   force =     0.01196663   -0.00052126    0.00731856
     atom    7 type  1   force =    -0.00041895    0.00230156   -0.01387068
     atom    8 type  1   force =     0.00003856   -0.00144830   -0.00478245
     atom    9 type  2   force =     0.00000193   -0.00028543   -0.00033968
     atom   10 type  2   force =    -0.00082780    0.00066087    0.00151303
     atom   11 type  2   force =     0.00010321   -0.00003835    0.00024709
     atom   12 type  2   force =    -0.00007992    0.00008799    0.00033143
     atom   13 type  1   force =    -0.00057188    0.00062440   -0.00010615
     atom   14 type  1   force =     0.00025987    0.00021801    0.00009017
     atom   15 type  2   force =    -0.00016693    0.00054273    0.00040350
     atom   16 type  2   force =    -0.00016423   -0.00006369   -0.00010750
     atom   17 type  2   force =    -0.00015518   -0.00007221   -0.00005312
     atom   18 type  2   force =    -0.00018781   -0.00014049   -0.00044642
     atom   19 type  1   force =    -0.00004678    0.00007699   -0.00008284
     atom   20 type  1   force =    -0.00010157   -0.00011361   -0.00014432
     atom   21 type  2   force =     0.00001176   -0.00001469    0.10399500
     atom   22 type  2   force =    -0.00000048    0.00040519    0.00071076
     atom   23 type  2   force =    -0.07038400   -0.00010327   -0.02689621
     atom   24 type  2   force =     0.07020096    0.00033000   -0.02695488
     atom   25 type  1   force =    -0.00001188   -0.00012559    0.09258673
     atom   26 type  1   force =    -0.00017240   -0.00039013   -0.17850149
     atom   27 type  2   force =     0.00009528   -0.00027029   -0.01916312
     atom   28 type  2   force =     0.00002792   -0.00176197    0.05848861
     atom   29 type  2   force =    -0.01089987   -0.00132875    0.00842721
     atom   30 type  2   force =     0.01235352   -0.00099009    0.00777653
     atom   31 type  1   force =    -0.00022780    0.00598831   -0.01474470
     atom   32 type  1   force =     0.00005754    0.00099560   -0.00536108
     atom   33 type  2   force =    -0.00030659    0.00024113    0.00015677
     atom   34 type  2   force =    -0.00022385   -0.00291195    0.00009660
     atom   35 type  2   force =     0.00060167    0.00021782   -0.00004250
     atom   36 type  2   force =    -0.00065193    0.00017713   -0.00026997
     atom   37 type  1   force =    -0.00055497   -0.00047257   -0.00009209
     atom   38 type  1   force =     0.00016647   -0.00050293    0.00011061
     atom   39 type  2   force =     0.00003716   -0.00023309    0.00037150
     atom   40 type  2   force =    -0.00001076    0.00045154   -0.00056841
     atom   41 type  2   force =    -0.00006654    0.00049958   -0.00020266
     atom   42 type  2   force =     0.00009864    0.00055702   -0.00014450
     atom   43 type  1   force =    -0.00008841    0.00031108   -0.00066859
     atom   44 type  1   force =    -0.00052512   -0.00025488    0.00014431
     atom   45 type  2   force =     0.00000257   -0.00002405    0.10396574
     atom   46 type  2   force =    -0.07036364   -0.00005632   -0.02686224
     atom   47 type  2   force =     0.07019472    0.00037542   -0.02691187
     atom   48 type  3   force =    -0.00133591   -0.00083508   -0.00014279
     atom   49 type  4   force =    -0.00282448   -0.00433208   -0.00386452
     atom   50 type  5   force =     0.00469151    0.00430486    0.00263752
     atom   51 type  5   force =     0.00000521    0.00095649    0.00031283
     atom   52 type  5   force =     0.00056881   -0.00031819    0.00023212
     atom   53 type  5   force =     0.00039113    0.00119640   -0.00031186

     Total force =     0.366527     Total SCF correction =     0.000396
  @ DRIVER MODE: Message from server: STATUS
  @ DRIVER MODE: Message from server: GETFORCE
  @ DRIVER MODE: Returning v,forces,stress,ensemble

     Writing output data file ./calc.save/
  @ DRIVER MODE: Message from server: EXIT
  @ DRIVE MODE: Exiting

     General routines

     Parallel routines

   This run was terminated on:  14:48: 7  24Aug2021

   JOB DONE.