     Program PWSCF v.6.7GPU starts on  2Aug2021 at 13:28: 9

     R & G space division:  proc/nbgrp/npool/nimage =      16
     Reading input from /storage/home/hcoda1/3/ntian30/research/carbon/02Aug_vib_paired/ads_slab/CH3N2_b/out_0004/pw.inp
Warning: card &CELL ignored
Warning: card   CELL_DYNAMICS='IPI', ignored
Warning: card / ignored

     Current dimensions of program PWSCF are:
     Max number of different atomic species (ntypx) = 10
     Max number of k-points (npk) =  40000
     Max angular momentum in pseudopotentials (lmaxx) =  3
     Presently no symmetry can be used with electric field

     Message from routine cell_base_init:
     DEPRECATED: use true lattice parameter, not A to a.u. conversion factor

     IMPORTANT: XC functional enforced from input :
     Exchange-correlation= BEEF-VDW
                           (   1   4  43  14   2   0   0)
     Any further DFT definition will be discarded
     Please, verify this is what you really want

  @ DRIVER MODE: Connecting to
 qe_1139763_2482536.sched-torque.pace.gatech.edu0uodep_r_scratch
  using UNIX socket
  @ DRIVER MODE: Message from server: STATUS
  @ DRIVER MODE: Message from server: INIT
  @ DRIVER MODE: Receiving replica           0          -1
  @ DRIVER MODE: Receiving encoded integer          25
  @ DRIVER MODE:  SCF:  T  FORCE:  T  STRESS:  F  VC:  F  ENSEMBLE:  F
  @ DRIVER MODE:  SCF:  T  FORCE:  T  STRESS:  F  VC:  F  ENSEMBLE:  F

     Using Slab Decomposition

     bravais-lattice index     =            0
     lattice parameter (alat)  =       1.8897  a.u.
     unit-cell volume          =    6658.9804 (a.u.)^3
     number of atoms/cell      =           53
     number of atomic types    =            5
     number of electrons       =       395.00
     number of Kohn-Sham states=          207
     kinetic-energy cutoff     =      29.3995  Ry
     charge density cutoff     =     293.9946  Ry
     scf convergence threshold =      7.3E-08
     mixing beta               =       0.0500
     number of iterations used =            8  plain     mixing
     Exchange-correlation= BEEF-VDW
                           (   1   4  43  14   2   0   0)

     celldm(1)=   1.889726  celldm(2)=   0.000000  celldm(3)=   0.000000
     celldm(4)=   0.000000  celldm(5)=   0.000000  celldm(6)=   0.000000

     crystal axes: (cart. coord. in units of alat)
               a(1) = (   6.579727   0.000000   0.000000 )
               a(2) = (  -0.000775   5.961596   0.000000 )
               a(3) = (   0.000000   0.000000  25.155947 )

     reciprocal axes: (cart. coord. in units 2 pi/alat)
               b(1) = (  0.151982  0.000020  0.000000 )
               b(2) = (  0.000000  0.167740  0.000000 )
               b(3) = (  0.000000  0.000000  0.039752 )

     PseudoPot. # 1 for Ti read from file:
     /storage/coda1/p-amedford6/0/shared/rich_project_chbe-medford/medford-share/data/pseudos_module/espresso/nninc/pbe/van/Ti.UPF
     MD5 check sum: 8e4df49b7f0d34bbd5052bf3f5ea0213
     Pseudo is Ultrasoft, Zval = 12.0
     Generated by new atomic code, or converted to UPF format
     Using radial grid of  851 points,  6 beta functions with:
                l(1) =   0
                l(2) =   0
                l(3) =   1
                l(4) =   1
                l(5) =   2
                l(6) =   2
     Q(r) pseudized with  8 coefficients,  rinner =    1.000   1.000   1.000
                                                       1.000   1.000

     PseudoPot. # 2 for O  read from file:
     /storage/coda1/p-amedford6/0/shared/rich_project_chbe-medford/medford-share/data/pseudos_module/espresso/nninc/pbe/van/O.UPF
     MD5 check sum: 78c19812648e8988a0fe644b0f25305e
     Pseudo is Ultrasoft, Zval =  6.0
     Generated by new atomic code, or converted to UPF format
     Using radial grid of  737 points,  4 beta functions with:
                l(1) =   0
                l(2) =   0
                l(3) =   1
                l(4) =   1
     Q(r) pseudized with  8 coefficients,  rinner =    0.800   0.800   0.800

     PseudoPot. # 3 for N  read from file:
     /storage/coda1/p-amedford6/0/shared/rich_project_chbe-medford/medford-share/data/pseudos_module/espresso/nninc/pbe/van/N.UPF
     MD5 check sum: 90d10febe142ad51ac9d5be1deb811c4
     Pseudo is Ultrasoft, Zval =  5.0
     Generated by new atomic code, or converted to UPF format
     Using radial grid of  729 points,  4 beta functions with:
                l(1) =   0
                l(2) =   0
                l(3) =   1
                l(4) =   1
     Q(r) pseudized with  8 coefficients,  rinner =    0.800   0.800   0.800

     PseudoPot. # 4 for C  read from file:
     /storage/coda1/p-amedford6/0/shared/rich_project_chbe-medford/medford-share/data/pseudos_module/espresso/nninc/pbe/van/C.UPF
     MD5 check sum: 1a69bf6b8db32088f5b2163dbdb77a27
     Pseudo is Ultrasoft, Zval =  4.0
     Generated by new atomic code, or converted to UPF format
     Using radial grid of  721 points,  4 beta functions with:
                l(1) =   0
                l(2) =   0
                l(3) =   1
                l(4) =   1
     Q(r) pseudized with  8 coefficients,  rinner =    0.800   0.800   0.800

     PseudoPot. # 5 for H  read from file:
     /storage/coda1/p-amedford6/0/shared/rich_project_chbe-medford/medford-share/data/pseudos_module/espresso/nninc/pbe/van/H.UPF
     MD5 check sum: b5ee9d7bfd3a09ee7748110bda690ff7
     Pseudo is Ultrasoft, Zval =  1.0
     Generated by new atomic code, or converted to UPF format
     Using radial grid of  615 points,  1 beta functions with:
                l(1) =   0
     Q(r) pseudized with  8 coefficients,  rinner =    0.800

     atomic species   valence    mass     pseudopotential
        Ti1           12.00    47.86700     Ti( 1.00)
        O1             6.00    15.99900     O ( 1.00)
        N1             5.00    14.00700     N ( 1.00)
        C1             4.00    12.01100     C ( 1.00)
        H1             1.00     1.00800     H ( 1.00)

     No symmetry found

   Cartesian axes

     site n.     atom                  positions (alat units)
         1           Ti1 tau(   1) = (   0.0004258   2.9801865   6.0000000  )
         2           Ti1 tau(   2) = (   3.2906075   1.4906267   6.0002472  )
         3           O1  tau(   3) = (   0.0006271   0.0005054   7.9858123  )
         4           O1  tau(   4) = (   3.2906025   0.0005020   7.3038282  )
         5           O1  tau(   5) = (   4.5942328   1.4918067   9.2879030  )
         6           O1  tau(   6) = (   1.9868534   1.4903216   9.2879459  )
         7           Ti1 tau(   7) = (   3.2907910   2.8959150   9.1758416  )
         8           Ti1 tau(   8) = (   0.0015273   1.4827037   9.2680791  )
         9           O1  tau(   9) = (   3.3037365   0.0094216  11.3222111  )
        10           O1  tau(  10) = (   0.0116148   5.9584955  10.6183126  )
        11           O1  tau(  11) = (   1.3152514   1.5075076  12.6320051  )
        12           O1  tau(  12) = (   5.3186361   1.4995162  12.6508707  )
        13           Ti1 tau(  13) = (   6.5540705   2.9956815  12.5884341  )
        14           Ti1 tau(  14) = (   3.2234832   1.4927074  12.4921739  )
        15           O1  tau(  15) = (   0.0610261   5.9052480  14.6017706  )
        16           O1  tau(  16) = (   3.2936532   0.0132264  13.8830087  )
        17           O1  tau(  17) = (   4.5722397   1.5061520  16.0138922  )
        18           O1  tau(  18) = (   2.0767725   1.5295127  16.0808449  )
        19           Ti1 tau(  19) = (   3.3650854   3.0251465  15.6907462  )
        20           Ti1 tau(  20) = (   0.0387768   1.3037779  15.7216176  )
        21           O1  tau(  21) = (   3.2904802   0.0005063   4.7018136  )
        22           O1  tau(  22) = (   0.0189486   0.1070799  17.1824039  )
        23           O1  tau(  23) = (   1.3043587   1.4918075   6.0039043  )
        24           O1  tau(  24) = (   5.2767064   1.4903225   6.0039473  )
        25           Ti1 tau(  25) = (   0.0000382   5.9609847   6.0000000  )
        26           Ti1 tau(  26) = (   3.2902200   4.4714249   6.0002472  )
        27           O1  tau(  27) = (   0.0002396   2.9813036   7.9858123  )
        28           O1  tau(  28) = (   3.2902150   2.9813002   7.3038282  )
        29           O1  tau(  29) = (   4.5938453   4.4726049   9.2879030  )
        30           O1  tau(  30) = (   1.9864658   4.4711199   9.2879459  )
        31           Ti1 tau(  31) = (   3.2891106   5.8743827   9.1763621  )
        32           Ti1 tau(  32) = (   0.0006254   4.4649316   9.2693709  )
        33           O1  tau(  33) = (   3.3043114   2.9829305  11.3227053  )
        34           O1  tau(  34) = (   0.0092240   2.9805883  10.6323155  )
        35           O1  tau(  35) = (   1.3131995   4.4620516  12.6081187  )
        36           O1  tau(  36) = (   5.3117129   4.4692194  12.6284301  )
        37           Ti1 tau(  37) = (   6.5303063   5.9583428  12.5400172  )
        38           Ti1 tau(  38) = (   3.2255477   4.4746212  12.4748647  )
        39           O1  tau(  39) = (   0.0377805   3.0059521  14.8845374  )
        40           O1  tau(  40) = (   3.3120027   2.9986483  13.8863452  )
        41           O1  tau(  41) = (   4.5434534   4.5277214  16.0148975  )
        42           O1  tau(  42) = (   2.1165747   4.4940517  16.0783766  )
        43           Ti1 tau(  43) = (   3.3042555   0.0241951  15.7004812  )
        44           Ti1 tau(  44) = (   0.0495666   4.4505358  16.3362958  )
        45           O1  tau(  45) = (   3.2900926   2.9813045   4.7018136  )
        46           O1  tau(  46) = (   1.3039711   4.4726057   6.0039043  )
        47           O1  tau(  47) = (   5.2763189   4.4711207   6.0039473  )
        48           N1  tau(  48) = (   0.5348212   3.4388502  18.0689430  )
        49           C1  tau(  49) = (   1.3556880   3.0079929  19.2215664  )
        50           H1  tau(  50) = (   1.4862090   3.8900195  19.8496782  )
        51           H1  tau(  51) = (   0.8469181   2.2141957  19.7647163  )
        52           H1  tau(  52) = (   2.3296892   2.6851793  18.8624704  )
        53           N1  tau(  53) = (   5.9145885   3.2636146  17.9655992  )

     number of k points=    10  Fermi-Dirac smearing, width (Ry)=  0.0073
                       cart. coord. in units 2pi/alat
        k(    1) = (   0.0000000   0.0000000   0.0000000), wk =   0.1250000
        k(    2) = (   0.0000000   0.0419351   0.0000000), wk =   0.2500000
        k(    3) = (   0.0000000  -0.0838702   0.0000000), wk =   0.1250000
        k(    4) = (   0.0379955   0.0000049   0.0000000), wk =   0.2500000
        k(    5) = (   0.0379955   0.0419400   0.0000000), wk =   0.2500000
        k(    6) = (   0.0379955  -0.0838652   0.0000000), wk =   0.2500000
        k(    7) = (   0.0379955  -0.0419301   0.0000000), wk =   0.2500000
        k(    8) = (  -0.0759910  -0.0000099   0.0000000), wk =   0.1250000
        k(    9) = (  -0.0759910   0.0419252   0.0000000), wk =   0.2500000
        k(   10) = (  -0.0759910  -0.0838800   0.0000000), wk =   0.1250000

     Initial potential from superposition of free atoms

     starting charge  378.99916, renormalised to  395.00000

     negative rho (up, down):  1.610E-02 0.000E+00

     %%%%%%%%%%%%%%%%%%%%%%%%%%%%%%%%%%%%%%%%%%%%%%%%%%%%%%%%%%%%%%%%%%%%%%%%
     %                                                                      %
     % You are using vdW-DF, which was implemented by the Thonhauser group. %
     % Please cite the following two papers that made this development      %
     % possible and the two reviews that describe the various versions:     %
     %                                                                      %
     %   T. Thonhauser et al., PRL 115, 136402 (2015).                      %
     %   T. Thonhauser et al., PRB 76, 125112 (2007).                       %
     %   K. Berland et al., Rep. Prog. Phys. 78, 066501 (2015).             %
     %   D.C. Langreth et al., J. Phys.: Condens. Matter 21, 084203 (2009). %
     %                                                                      %
     %                                                                      %
     % If you are calculating the stress with vdW-DF, please also cite:     %
     %                                                                      %
     %   R. Sabatini et al., J. Phys.: Condens. Matter 24, 424209 (2012).   %
     %                                                                      %
     %%%%%%%%%%%%%%%%%%%%%%%%%%%%%%%%%%%%%%%%%%%%%%%%%%%%%%%%%%%%%%%%%%%%%%%%

     Adding external electric field

     Computed dipole along edir(3) :
        Dipole               -8.5786 Ry au,        -21.8047 Debye
        Dipole field         -0.0162 Ry au,

        Potential amp.        1.5007 Ry
        Total length         46.3494 bohr

     Starting wfcs are  299 atomic wfcs
  @ DRIVER MODE: Message from server: STATUS
  @ DRIVER MODE: Message from server: POSDATA
  @ DRIVER MODE: Reading and sharing cell
  @ DRIVER MODE: Reading and sharing positions
  @ DRIVER MODE: Received positions

     Self-consistent Calculation

     iteration #  1     ecut=    29.40 Ry     beta= 0.05
     Davidson diagonalization with overlap
     c_bands:  1 eigenvalues not converged
     c_bands:  2 eigenvalues not converged
     c_bands:  1 eigenvalues not converged
     c_bands:  2 eigenvalues not converged
     c_bands:  1 eigenvalues not converged
     c_bands:  2 eigenvalues not converged
     c_bands:  2 eigenvalues not converged
     c_bands:  2 eigenvalues not converged
     ethr =  1.00E-05,  avg # of iterations = 19.2

[...]

     total energy              =   -2599.35148845 Ry
     estimated scf accuracy    <    3763.73337995 Ry

     iteration #  2     ecut=    29.40 Ry     beta= 0.05
     Davidson diagonalization with overlap
     ethr =  1.00E-02,  avg # of iterations = 22.6

[...]

     iteration # 57     ecut=    29.40 Ry     beta= 0.05
     Davidson diagonalization with overlap
     c_bands:  1 eigenvalues not converged
     ethr =  1.99E-06,  avg # of iterations = 11.0

[...]

     total energy              =   -2939.12537848 Ry
     estimated scf accuracy    <       0.00000011 Ry

     iteration # 81     ecut=    29.40 Ry     beta= 0.05
     Davidson diagonalization with overlap
     ethr =  2.79E-11,  avg # of iterations =  6.8

     negative rho (up, down):  1.619E-02 0.000E+00

     Adding external electric field

     Computed dipole along edir(3) :
        Dipole                0.9111 Ry au,          2.3158 Debye
        Dipole field          0.0017 Ry au,

        Potential amp.       -0.1594 Ry
        Total length         46.3494 bohr

     End of self-consistent calculation

          k = 0.0000 0.0000 0.0000 ( 18029 PWs)   bands (ev):

   -55.7762 -55.7703 -55.7422 -55.7343 -55.6839 -55.6355 -55.5969 -55.5629
   -55.5559 -55.5222 -55.5203 -55.4472 -54.9560 -54.8089 -54.7563 -54.7222
   -32.3192 -32.2602 -32.1752 -32.0964 -32.0685 -32.0568 -32.0478 -32.0216
   -32.0062 -31.9709 -31.9407 -31.9286 -31.9222 -31.9053 -31.8832 -31.8821
   -31.8793 -31.8788 -31.8656 -31.8355 -31.8335 -31.8221 -31.8011 -31.7923
   -31.7893 -31.7828 -31.7816 -31.7559 -31.7418 -31.7367 -31.7260 -31.7110
   -31.7073 -31.6697 -31.6369 -31.5646 -31.4930 -31.3382 -31.1674 -31.1632
   -31.1068 -31.0752 -31.0682 -31.0528 -30.9803 -30.9151 -30.8938 -30.7824
   -19.4164 -16.5178 -16.2529 -15.9676 -15.9159 -15.8416 -15.7483 -15.6252
   -15.5296 -15.4110 -15.3722 -15.3159 -15.3086 -15.2643 -15.2372 -15.2332
   -15.2067 -15.1987 -15.1346 -15.1271 -15.0766 -15.0649 -15.0171 -14.9823
   -14.9705 -14.9152 -14.8465 -14.8046 -14.6864 -14.1599 -13.2580 -13.1415
   -12.2826  -7.2616  -4.9257  -4.7699  -3.9001  -3.7577  -3.7049  -3.6855
    -3.6411  -3.4406  -3.3529  -3.2845  -3.0446  -2.9533  -2.9288  -2.9180
    -2.8690  -2.7118  -2.6651  -2.6045  -2.5892  -2.5629  -2.5408  -2.5327
    -2.4974  -2.4872  -2.4599  -2.4239  -2.3269  -2.2135  -2.1843  -2.1068
    -2.0910  -2.0756  -2.0451  -2.0351  -2.0256  -2.0157  -1.9971  -1.9599
    -1.8922  -1.8525  -1.7868  -1.7028  -1.5606  -1.5378  -1.4614  -1.3856
    -1.3059  -1.2634  -1.2415  -1.2131  -1.1733  -1.0933  -1.0676  -0.9215
    -0.8243  -0.7914  -0.7737  -0.7314  -0.6957  -0.5937  -0.5720  -0.5428
    -0.5337  -0.5060  -0.4327  -0.3753  -0.2440  -0.2132  -0.2092  -0.1712
    -0.1009  -0.0471   0.0065   0.0558   0.0634   0.0992   0.1594   0.1845
     0.1893   0.2320   0.2746   0.3484   0.3753   0.4495   0.4535   0.5182
     0.5614   0.6445   0.7508   0.8729   1.0165   1.1535   1.1977   1.2667
     1.3621   1.4586   1.8370   1.8826   2.1298   3.3371   3.4444   3.4678
     3.4800   3.5867   3.7953   3.8177   3.8663   3.8871   3.8952

[...]

          k = 0.0380-0.0419 0.0000 ( 17876 PWs)   bands (ev):

[...]

          k =-0.0760-0.0000 0.0000 ( 17886 PWs)   bands (ev):

[...]

          k =-0.0760-0.0839 0.0000 ( 17948 PWs)   bands (ev):

   -55.7592 -55.7591 -55.7529 -55.7514 -55.6766 -55.6428 -55.5799 -55.5795
   -55.5393 -55.5389 -55.5158 -55.4516 -54.9547 -54.8101 -54.7393 -54.7391
   -32.1228 -32.1192 -32.0755 -32.0755 -32.0540 -32.0538 -32.0201 -32.0053
   -31.9991 -31.9903 -31.9215 -31.9163 -31.9056 -31.8992 -31.8826 -31.8804
   -31.8798 -31.8785 -31.8781 -31.8730 -31.8545 -31.8519 -31.8506 -31.8144
   -31.7850 -31.7830 -31.7813 -31.7688 -31.7685 -31.7592 -31.7584 -31.7565
   -31.7552 -31.7371 -31.7126 -31.6616 -31.4398 -31.3211 -31.1693 -31.1593
   -31.0865 -31.0656 -31.0654 -30.9761 -30.9759 -30.9371 -30.9370 -30.9181
   -19.4142 -15.9183 -15.9121 -15.7507 -15.7162 -15.6505 -15.6417 -15.5738
   -15.5068 -15.4620 -15.4570 -15.3419 -15.3398 -15.3253 -15.3036 -15.2495
   -15.2331 -15.2320 -15.2283 -15.2205 -15.2087 -15.1812 -15.1507 -15.1000
   -15.0949 -15.0744 -15.0640 -14.9424 -14.5313 -14.4707 -13.2434 -13.2433
   -12.2851  -7.2484  -4.9274  -4.7674  -3.6292  -3.2076  -3.1912  -3.0032
    -2.9199  -2.9087  -2.8934  -2.7411  -2.7290  -2.7119  -2.6543  -2.6464
    -2.6375  -2.6009  -2.5848  -2.5609  -2.5200  -2.5149  -2.4672  -2.4644
    -2.4494  -2.4304  -2.4090  -2.4034  -2.3900  -2.3748  -2.3378  -2.2814
    -2.2429  -2.2162  -2.1879  -2.0913  -2.0306  -1.9947  -1.9277  -1.9191
    -1.8679  -1.8434  -1.8287  -1.7610  -1.6919  -1.6628  -1.5782  -1.4867
    -1.4684  -1.4530  -1.3342  -1.3203  -1.2456  -1.2219  -1.1379  -1.1209
    -1.0813  -0.9708  -0.9472  -0.9154  -0.8812  -0.8365  -0.7738  -0.7370
    -0.7350  -0.6866  -0.6418  -0.5861  -0.5247  -0.5129  -0.4975  -0.4885
    -0.4245  -0.3921  -0.3700  -0.2870  -0.2720  -0.1904  -0.0465  -0.0134
     0.1447   0.1938   0.3018   0.3293   0.4203   0.4420   0.5359   0.5391
     0.5722   0.7013   0.7199   0.7377   0.7536   0.7741   0.7976   0.9363
     1.6310   1.6312   1.7027   1.7027   2.0670   3.6702   3.7072   3.7574
     3.7792   3.8833   3.8883   3.8910   3.8986   4.0199   4.0246

     the Fermi energy is     3.3507 ev

!    total energy              =   -2939.12538859 Ry
     estimated scf accuracy    <       0.00000002 Ry
     smearing contrib. (-TS)   =      -0.02052537 Ry
     internal energy E=F+TS    =   -2939.10486322 Ry

     The total energy is F=E-TS. E is the sum of the following terms:
     one-electron contribution =  -24213.36659933 Ry
     hartree contribution      =   12195.41808676 Ry
     xc contribution           =    -485.19619478 Ry
     ewald contribution        =    9564.03827760 Ry
     electric field correction =       0.00156653 Ry

     convergence has been achieved in  81 iterations

     Forces acting on atoms (cartesian axes, Ry/au):

     atom    1 type  1   force =     0.00010887   -0.00020044    0.09585416
     atom    2 type  1   force =     0.00006048   -0.00060093   -0.17547483
     atom    3 type  2   force =     0.00017630   -0.00019242   -0.02305239
     atom    4 type  2   force =     0.00004072   -0.00128295    0.05262337
     atom    5 type  2   force =    -0.00976390   -0.00031670    0.00253446
     atom    6 type  2   force =     0.01164869    0.00022362    0.00291405
     atom    7 type  1   force =     0.00089035    0.00000605   -0.00991956
     atom    8 type  1   force =     0.00000161    0.00531572    0.01817768
     atom    9 type  2   force =    -0.00001477   -0.00028766   -0.00011100
     atom   10 type  2   force =    -0.00253651    0.00216615   -0.01348774
     atom   11 type  2   force =    -0.00097180    0.00011376    0.00017567
     atom   12 type  2   force =     0.00038567   -0.00025273    0.00049124
     atom   13 type  1   force =     0.00010894   -0.00008497    0.00052467
     atom   14 type  1   force =    -0.00004254   -0.00017346   -0.00015935
     atom   15 type  2   force =    -0.00057291    0.00028032    0.00035671
     atom   16 type  2   force =    -0.00043670    0.00007845    0.00019552
     atom   17 type  2   force =    -0.00019758   -0.00011058   -0.00037514
     atom   18 type  2   force =     0.00023063    0.00028891    0.00009596
     atom   19 type  1   force =    -0.00055397   -0.00059789    0.00066523
     atom   20 type  1   force =    -0.00032876    0.00014584   -0.00073022
     atom   21 type  2   force =     0.00007197   -0.00005760    0.10321410
     atom   22 type  2   force =    -0.00001844    0.00039344   -0.00069337
     atom   23 type  2   force =    -0.07153246   -0.00019217   -0.02751765
     atom   24 type  2   force =     0.07150706    0.00030820   -0.02757413
     atom   25 type  1   force =     0.00013423   -0.00029200    0.09518397
     atom   26 type  1   force =     0.00009012   -0.00047754   -0.17562333
     atom   27 type  2   force =     0.00015833   -0.00012178   -0.02179316
     atom   28 type  2   force =     0.00008335   -0.00106376    0.05249542
     atom   29 type  2   force =    -0.01014533    0.00023150    0.00290991
     atom   30 type  2   force =     0.01196292    0.00051668    0.00328578
     atom   31 type  1   force =     0.00089081    0.00414757   -0.01178715
     atom   32 type  1   force =     0.00012868   -0.00633225    0.01831126
     atom   33 type  2   force =     0.00016272    0.00041775   -0.00010908
     atom   34 type  2   force =    -0.00308348   -0.00010470   -0.00866892
     atom   35 type  2   force =    -0.00020965    0.00006735    0.00001235
     atom   36 type  2   force =    -0.00004105    0.00027628   -0.00006021
     atom   37 type  1   force =     0.00045958   -0.00094036    0.00023805
     atom   38 type  1   force =    -0.00031720    0.00008090    0.00034295
     atom   39 type  2   force =     0.00013908   -0.00023445    0.00056853
     atom   40 type  2   force =    -0.00008456    0.00026698    0.00016416
     atom   41 type  2   force =    -0.00006103   -0.00011294   -0.00029489
     atom   42 type  2   force =    -0.00048985    0.00002549   -0.00049860
     atom   43 type  1   force =     0.00028578    0.00052091    0.00007080
     atom   44 type  1   force =    -0.00081905    0.00053942   -0.00159775
     atom   45 type  2   force =     0.00007850   -0.00006454    0.10316267
     atom   46 type  2   force =    -0.07155053   -0.00009681   -0.02750967
     atom   47 type  2   force =     0.07153654    0.00025456   -0.02757139
     atom   48 type  3   force =    -0.00225760   -0.00680279    0.00444369
     atom   49 type  4   force =     0.00019389    0.00322764   -0.00170467
     atom   50 type  5   force =     0.00092763   -0.00013399    0.00060696
     atom   51 type  5   force =    -0.00145602   -0.00003344   -0.00101968
     atom   52 type  5   force =     0.00011822   -0.00068948   -0.00096784
     atom   53 type  3   force =     0.00490404    0.00195783   -0.00131760

     Total force =     0.364866     Total SCF correction =     0.000431
  @ DRIVER MODE: Message from server: STATUS
  @ DRIVER MODE: Message from server: GETFORCE
  @ DRIVER MODE: Returning v,forces,stress,ensemble

     Writing output data file ./calc.save/
  @ DRIVER MODE: Message from server: EXIT
  @ DRIVE MODE: Exiting

     General routines

     Parallel routines

   This run was terminated on:  13:51:31   2Aug2021

   JOB DONE.