     Program PWSCF v.6.7GPU starts on 23Sep2021 at  0:43:42

     R & G space division:  proc/nbgrp/npool/nimage =      10
     Reading input from /storage/home/hcoda1/3/ntian30/research/carbon/CxH_vib/H2O_calc/ads_slab/CHNHNHH2O_b/out_0026/pw.inp
Warning: card &CELL ignored
Warning: card   CELL_DYNAMICS='IPI', ignored
Warning: card / ignored

     Current dimensions of program PWSCF are:
     Max number of different atomic species (ntypx) = 10
     Max number of k-points (npk) =  40000
     Max angular momentum in pseudopotentials (lmaxx) =  3
     Presently no symmetry can be used with electric field

     Message from routine cell_base_init:
     DEPRECATED: use true lattice parameter, not A to a.u. conversion factor

     IMPORTANT: XC functional enforced from input :
     Exchange-correlation= BEEF-VDW
                           (   1   4  43  14   2   0   0)
     Any further DFT definition will be discarded
     Please, verify this is what you really want

  @ DRIVER MODE: Connecting to
 qe_1139763_2937311.sched-torque.pace.gatech.eduqgtpwmi5_scratch
  using UNIX socket
  @ DRIVER MODE: Message from server: STATUS
  @ DRIVER MODE: Message from server: INIT
  @ DRIVER MODE: Receiving replica           0          -1
  @ DRIVER MODE: Receiving encoded integer          25
  @ DRIVER MODE:  SCF:  T  FORCE:  T  STRESS:  F  VC:  F  ENSEMBLE:  F
  @ DRIVER MODE:  SCF:  T  FORCE:  T  STRESS:  F  VC:  F  ENSEMBLE:  F

     Using Slab Decomposition

     bravais-lattice index     =            0
     lattice parameter (alat)  =       1.8897  a.u.
     unit-cell volume          =    6658.9804 (a.u.)^3
     number of atoms/cell      =           56
     number of atomic types    =            5
     number of electrons       =       403.00
     number of Kohn-Sham states=          211
     kinetic-energy cutoff     =      29.3995  Ry
     charge density cutoff     =     293.9946  Ry
     scf convergence threshold =      7.3E-08
     mixing beta               =       0.0500
     number of iterations used =            8  plain     mixing
     Exchange-correlation= BEEF-VDW
                           (   1   4  43  14   2   0   0)

     celldm(1)=   1.889726  celldm(2)=   0.000000  celldm(3)=   0.000000
     celldm(4)=   0.000000  celldm(5)=   0.000000  celldm(6)=   0.000000

     crystal axes: (cart. coord. in units of alat)
               a(1) = (   6.579727   0.000000   0.000000 )
               a(2) = (  -0.000775   5.961596   0.000000 )
               a(3) = (   0.000000   0.000000  25.155947 )

     reciprocal axes: (cart. coord. in units 2 pi/alat)
               b(1) = (  0.151982  0.000020  0.000000 )
               b(2) = (  0.000000  0.167740  0.000000 )
               b(3) = (  0.000000  0.000000  0.039752 )

     PseudoPot. # 1 for Ti read from file:
     /storage/coda1/p-amedford6/0/shared/rich_project_chbe-medford/medford-share/data/pseudos_module/espresso/nninc/pbe/van/Ti.UPF
     MD5 check sum: 8e4df49b7f0d34bbd5052bf3f5ea0213
     Pseudo is Ultrasoft, Zval = 12.0
     Generated by new atomic code, or converted to UPF format
     Using radial grid of  851 points,  6 beta functions with:
                l(1) =   0
                l(2) =   0
                l(3) =   1
                l(4) =   1
                l(5) =   2
                l(6) =   2
     Q(r) pseudized with  8 coefficients,  rinner =    1.000   1.000   1.000
                                                       1.000   1.000

     PseudoPot. # 2 for O  read from file:
     /storage/coda1/p-amedford6/0/shared/rich_project_chbe-medford/medford-share/data/pseudos_module/espresso/nninc/pbe/van/O.UPF
     MD5 check sum: 78c19812648e8988a0fe644b0f25305e
     Pseudo is Ultrasoft, Zval =  6.0
     Generated by new atomic code, or converted to UPF format
     Using radial grid of  737 points,  4 beta functions with:
                l(1) =   0
                l(2) =   0
                l(3) =   1
                l(4) =   1
     Q(r) pseudized with  8 coefficients,  rinner =    0.800   0.800   0.800

     PseudoPot. # 3 for N  read from file:
     /storage/coda1/p-amedford6/0/shared/rich_project_chbe-medford/medford-share/data/pseudos_module/espresso/nninc/pbe/van/N.UPF
     MD5 check sum: 90d10febe142ad51ac9d5be1deb811c4
     Pseudo is Ultrasoft, Zval =  5.0
     Generated by new atomic code, or converted to UPF format
     Using radial grid of  729 points,  4 beta functions with:
                l(1) =   0
                l(2) =   0
                l(3) =   1
                l(4) =   1
     Q(r) pseudized with  8 coefficients,  rinner =    0.800   0.800   0.800

     PseudoPot. # 4 for C  read from file:
     /storage/coda1/p-amedford6/0/shared/rich_project_chbe-medford/medford-share/data/pseudos_module/espresso/nninc/pbe/van/C.UPF
     MD5 check sum: 1a69bf6b8db32088f5b2163dbdb77a27
     Pseudo is Ultrasoft, Zval =  4.0
     Generated by new atomic code, or converted to UPF format
     Using radial grid of  721 points,  4 beta functions with:
                l(1) =   0
                l(2) =   0
                l(3) =   1
                l(4) =   1
     Q(r) pseudized with  8 coefficients,  rinner =    0.800   0.800   0.800

     PseudoPot. # 5 for H  read from file:
     /storage/coda1/p-amedford6/0/shared/rich_project_chbe-medford/medford-share/data/pseudos_module/espresso/nninc/pbe/van/H.UPF
     MD5 check sum: b5ee9d7bfd3a09ee7748110bda690ff7
     Pseudo is Ultrasoft, Zval =  1.0
     Generated by new atomic code, or converted to UPF format
     Using radial grid of  615 points,  1 beta functions with:
                l(1) =   0
     Q(r) pseudized with  8 coefficients,  rinner =    0.800

     atomic species   valence    mass     pseudopotential
        Ti1           12.00    47.86700     Ti( 1.00)
        O1             6.00    15.99900     O ( 1.00)
        N1             5.00    14.00700     N ( 1.00)
        C1             4.00    12.01100     C ( 1.00)
        H1             1.00     1.00800     H ( 1.00)

     No symmetry found

   Cartesian axes

     site n.     atom                  positions (alat units)
         1           Ti1 tau(   1) = (   0.0004258   2.9801865   6.0000000  )
         2           Ti1 tau(   2) = (   3.2906075   1.4906267   6.0002472  )
         3           O1  tau(   3) = (   0.0006271   0.0005054   7.9858123  )
         4           O1  tau(   4) = (   3.2906025   0.0005020   7.3038282  )
         5           O1  tau(   5) = (   4.5942328   1.4918067   9.2879030  )
         6           O1  tau(   6) = (   1.9868534   1.4903216   9.2879459  )
         7           Ti1 tau(   7) = (   3.2907910   2.8959150   9.1758416  )
         8           Ti1 tau(   8) = (   0.0015273   1.4827037   9.2680791  )
         9           O1  tau(   9) = (   3.2780774   5.9605562  11.3537357  )
        10           O1  tau(  10) = (   0.0116148   5.9584955  10.6183126  )
        11           O1  tau(  11) = (   1.2922713   1.4781662  12.6511241  )
        12           O1  tau(  12) = (   5.2965393   1.5043564  12.6031353  )
        13           Ti1 tau(  13) = (   6.5273184   3.0207086  12.5807821  )
        14           Ti1 tau(  14) = (   3.2344070   1.4559942  12.5004267  )
        15           O1  tau(  15) = (   6.4759410   0.0295824  14.6525783  )
        16           O1  tau(  16) = (   3.3604338   0.0238249  13.9383540  )
        17           O1  tau(  17) = (   4.5324113   1.5808541  16.1066768  )
        18           O1  tau(  18) = (   1.9684897   1.4712893  15.8817925  )
        19           Ti1 tau(  19) = (   3.2566353   3.0739815  15.8599551  )
        20           Ti1 tau(  20) = (   6.5466614   1.5318677  15.7800735  )
        21           O1  tau(  21) = (   3.2904802   0.0005063   4.7018136  )
        22           O1  tau(  22) = (   6.5744325   0.0155309  17.2227980  )
        23           O1  tau(  23) = (   1.3043587   1.4918075   6.0039043  )
        24           O1  tau(  24) = (   5.2767064   1.4903225   6.0039473  )
        25           Ti1 tau(  25) = (   0.0000382   5.9609847   6.0000000  )
        26           Ti1 tau(  26) = (   3.2902200   4.4714249   6.0002472  )
        27           O1  tau(  27) = (   0.0002396   2.9813036   7.9858123  )
        28           O1  tau(  28) = (   3.2902150   2.9813002   7.3038282  )
        29           O1  tau(  29) = (   4.5938453   4.4726049   9.2879030  )
        30           O1  tau(  30) = (   1.9864658   4.4711199   9.2879459  )
        31           Ti1 tau(  31) = (   3.2891106   5.8743827   9.1763621  )
        32           Ti1 tau(  32) = (   0.0006254   4.4649316   9.2693709  )
        33           O1  tau(  33) = (   3.2727763   2.9788165  11.3438337  )
        34           O1  tau(  34) = (   0.0092240   2.9805883  10.6323155  )
        35           O1  tau(  35) = (   1.2865780   4.4896361  12.6556599  )
        36           O1  tau(  36) = (   5.2967437   4.4749066  12.6066920  )
        37           Ti1 tau(  37) = (   6.5467059   0.0356701  12.5108493  )
        38           Ti1 tau(  38) = (   3.2305653   4.4019604  12.5605372  )
        39           O1  tau(  39) = (   6.5199767   2.9846217  14.6905747  )
        40           O1  tau(  40) = (   3.2851694   3.0254550  13.9321539  )
        41           O1  tau(  41) = (   4.5310495   4.4602642  16.1636806  )
        42           O1  tau(  42) = (   1.9842988   4.5744318  15.9411167  )
        43           Ti1 tau(  43) = (   3.2691225   0.1036042  15.7405456  )
        44           Ti1 tau(  44) = (   6.5697781   4.6877429  16.0360384  )
        45           O1  tau(  45) = (   3.2900926   2.9813045   4.7018136  )
        46           O1  tau(  46) = (   1.3039711   4.4726057   6.0039043  )
        47           O1  tau(  47) = (   5.2763189   4.4711207   6.0039473  )
        48           N1  tau(  48) = (   1.2792381   2.8578196  18.3696018  )
        49           N1  tau(  49) = (   0.1888888   2.9646215  17.5057353  )
        50           C1  tau(  50) = (   2.5352320   2.9081513  18.0382144  )
        51           H1  tau(  51) = (   3.1442446   2.7411670  18.9317345  )
        52           H1  tau(  52) = (   1.0114291   2.6635404  19.3302151  )
        53           H1  tau(  53) = (   5.9397212   2.8571719  18.0851170  )
        54           O1  tau(  54) = (   3.2630597   0.0341043  18.2348460  )
        55           H1  tau(  55) = (   4.0455299   5.4198958  18.2485053  )
        56           H1  tau(  56) = (   2.4923979   5.4091459  18.3156537  )

     number of k points=    10  Fermi-Dirac smearing, width (Ry)=  0.0073
                       cart. coord. in units 2pi/alat
        k(    1) = (   0.0000000   0.0000000   0.0000000), wk =   0.1250000
        k(    2) = (   0.0000000   0.0419351   0.0000000), wk =   0.2500000
        k(    3) = (   0.0000000  -0.0838702   0.0000000), wk =   0.1250000
        k(    4) = (   0.0379955   0.0000049   0.0000000), wk =   0.2500000
        k(    5) = (   0.0379955   0.0419400   0.0000000), wk =   0.2500000
        k(    6) = (   0.0379955  -0.0838652   0.0000000), wk =   0.2500000
        k(    7) = (   0.0379955  -0.0419301   0.0000000), wk =   0.2500000
        k(    8) = (  -0.0759910  -0.0000099   0.0000000), wk =   0.1250000
        k(    9) = (  -0.0759910   0.0419252   0.0000000), wk =   0.2500000
        k(   10) = (  -0.0759910  -0.0838800   0.0000000), wk =   0.1250000

     Initial potential from superposition of free atoms

     starting charge  386.99914, renormalised to  403.00000

     negative rho (up, down):  1.738E-02 0.000E+00

     %%%%%%%%%%%%%%%%%%%%%%%%%%%%%%%%%%%%%%%%%%%%%%%%%%%%%%%%%%%%%%%%%%%%%%%%
     %                                                                      %
     % You are using vdW-DF, which was implemented by the Thonhauser group. %
     % Please cite the following two papers that made this development      %
     % possible and the two reviews that describe the various versions:     %
     %                                                                      %
     %   T. Thonhauser et al., PRL 115, 136402 (2015).                      %
     %   T. Thonhauser et al., PRB 76, 125112 (2007).                       %
     %   K. Berland et al., Rep. Prog. Phys. 78, 066501 (2015).             %
     %   D.C. Langreth et al., J. Phys.: Condens. Matter 21, 084203 (2009). %
     %                                                                      %
     %                                                                      %
     % If you are calculating the stress with vdW-DF, please also cite:     %
     %                                                                      %
     %   R. Sabatini et al., J. Phys.: Condens. Matter 24, 424209 (2012).   %
     %                                                                      %
     %%%%%%%%%%%%%%%%%%%%%%%%%%%%%%%%%%%%%%%%%%%%%%%%%%%%%%%%%%%%%%%%%%%%%%%%

     Adding external electric field

     Computed dipole along edir(3) :
        Dipole              -12.3463 Ry au,        -31.3811 Debye
        Dipole field         -0.0233 Ry au,

        Potential amp.        2.1598 Ry
        Total length         46.3494 bohr

     Starting wfcs are  305 atomic wfcs
  @ DRIVER MODE: Message from server: STATUS
  @ DRIVER MODE: Message from server: POSDATA
  @ DRIVER MODE: Reading and sharing cell
  @ DRIVER MODE: Reading and sharing positions
  @ DRIVER MODE: Received positions

     Self-consistent Calculation

     iteration #  1     ecut=    29.40 Ry     beta= 0.05
     Davidson diagonalization with overlap
     c_bands:  5 eigenvalues not converged
     c_bands:  3 eigenvalues not converged
     c_bands:  3 eigenvalues not converged
     c_bands:  1 eigenvalues not converged
     c_bands:  2 eigenvalues not converged
     c_bands:  2 eigenvalues not converged
     c_bands:  5 eigenvalues not converged
     c_bands:  2 eigenvalues not converged
     c_bands:  4 eigenvalues not converged
     ethr =  1.00E-05,  avg # of iterations = 29.3

[...]

     total energy              =   -2358.72111693 Ry
     estimated scf accuracy    <    6971.28431339 Ry

     iteration #  2     ecut=    29.40 Ry     beta= 0.05
     Davidson diagonalization with overlap
     ethr =  1.00E-02,  avg # of iterations = 27.1

[...]

     iteration # 89     ecut=    29.40 Ry     beta= 0.05
     Davidson diagonalization with overlap
     c_bands:  1 eigenvalues not converged
     c_bands:  4 eigenvalues not converged
     c_bands:  1 eigenvalues not converged
     ethr =  2.09E-11,  avg # of iterations = 15.8

[...]

     total energy              =   -2973.94009575 Ry
     estimated scf accuracy    <       0.00000015 Ry

     iteration # 90     ecut=    29.40 Ry     beta= 0.05
     Davidson diagonalization with overlap
     ethr =  2.09E-11,  avg # of iterations = 10.5

     negative rho (up, down):  1.726E-02 0.000E+00

     Adding external electric field

     Computed dipole along edir(3) :
        Dipole                1.4015 Ry au,          3.5621 Debye
        Dipole field          0.0026 Ry au,

        Potential amp.       -0.2452 Ry
        Total length         46.3494 bohr

     End of self-consistent calculation

          k = 0.0000 0.0000 0.0000 ( 18029 PWs)   bands (ev):

   -55.3193 -55.2853 -55.2095 -55.1854 -55.1665 -55.1553 -55.1399 -55.1180
   -55.1061 -55.1030 -55.0970 -55.0625 -54.9920 -54.8340 -54.2994 -54.2654
   -31.8036 -31.7305 -31.6562 -31.6497 -31.6398 -31.6112 -31.5867 -31.5644
   -31.5194 -31.5012 -31.4717 -31.4634 -31.4550 -31.4403 -31.4255 -31.4210
   -31.3978 -31.3795 -31.3766 -31.3643 -31.3344 -31.3326 -31.3285 -31.3254
   -31.3223 -31.3187 -31.3147 -31.2966 -31.2886 -31.2787 -31.2719 -31.2711
   -31.2609 -31.2595 -31.2515 -31.2478 -31.2401 -31.2146 -31.2096 -31.0903
   -31.0752 -31.0495 -30.7063 -30.6182 -30.5958 -30.5233 -30.4368 -30.3255
   -18.8792 -18.6565 -15.9774 -15.7937 -15.6127 -15.4736 -15.3916 -15.1600
   -15.1017 -15.0631 -14.9819 -14.9593 -14.8587 -14.8398 -14.8383 -14.8200
   -14.8171 -14.7619 -14.7470 -14.7425 -14.6939 -14.6870 -14.6617 -14.6462
   -14.5937 -14.5151 -14.5062 -14.4601 -14.4148 -14.3682 -14.0227 -13.4227
   -12.8005 -12.6841  -8.8068  -7.2784  -6.6182  -4.3233  -3.7915  -3.3606
    -3.2843  -3.2489  -3.2240  -3.0885  -2.9714  -2.8668  -2.7581  -2.6710
    -2.5843  -2.4799  -2.4234  -2.3778  -2.3174  -2.2572  -2.2310  -2.1455
    -2.1257  -2.1060  -2.0842  -2.0575  -2.0282  -1.9914  -1.8687  -1.8581
    -1.7757  -1.7198  -1.6810  -1.6630  -1.6400  -1.6336  -1.6018  -1.5806
    -1.5719  -1.5605  -1.5589  -1.5238  -1.3847  -1.3607  -1.3320  -1.3110
    -1.1633  -1.0255  -0.9367  -0.9341  -0.8248  -0.7599  -0.7568  -0.7185
    -0.7027  -0.6007  -0.5150  -0.4785  -0.4538  -0.3744  -0.3172  -0.2624
    -0.2107  -0.1752  -0.1085  -0.0848  -0.0682  -0.0512   0.0177   0.0804
     0.1415   0.2269   0.2703   0.2947   0.3856   0.3997   0.4230   0.4875
     0.5195   0.5646   0.5999   0.6292   0.6526   0.6830   0.7083   0.7515
     0.7899   0.9152   0.9334   0.9621   0.9831   1.1576   1.2070   1.3114
     1.3402   1.4407   1.4843   1.6631   1.7242   1.8037   1.9162   2.2943
     2.3401   3.7899   3.9014   3.9354   3.9606   3.9999   4.0511   4.2576
     4.3307   4.3722   4.4300

[...]

          k = 0.0380-0.0419 0.0000 ( 17876 PWs)   bands (ev):

[...]

          k =-0.0760-0.0000 0.0000 ( 17886 PWs)   bands (ev):

[...]

          k =-0.0760-0.0839 0.0000 ( 17948 PWs)   bands (ev):

   -55.3025 -55.3019 -55.2000 -55.1821 -55.1752 -55.1438 -55.1299 -55.1230
   -55.1224 -55.1065 -55.0838 -55.0759 -54.9903 -54.8356 -54.2824 -54.2823
   -31.6191 -31.6187 -31.5969 -31.5964 -31.5647 -31.5329 -31.5020 -31.4893
   -31.4824 -31.4671 -31.4485 -31.4428 -31.4393 -31.4297 -31.4249 -31.4235
   -31.4219 -31.4215 -31.4162 -31.4003 -31.3897 -31.3753 -31.3644 -31.3621
   -31.3575 -31.3529 -31.3439 -31.3313 -31.3254 -31.3239 -31.3086 -31.2994
   -31.2963 -31.2955 -31.2938 -31.2911 -31.2597 -31.2334 -31.2194 -31.1464
   -31.0926 -31.0782 -30.6085 -30.6085 -30.5191 -30.5190 -30.4802 -30.4800
   -18.8683 -18.6631 -15.3550 -15.3198 -15.2816 -15.2544 -15.2385 -15.1175
   -15.1038 -15.0684 -15.0267 -15.0134 -14.9832 -14.9545 -14.9058 -14.8971
   -14.8629 -14.8434 -14.8043 -14.7777 -14.7584 -14.7541 -14.7372 -14.7157
   -14.6720 -14.6502 -14.6377 -14.6334 -14.5817 -14.4877 -14.2079 -13.4453
   -12.7859 -12.7858  -8.8029  -7.2038  -6.6193  -4.5309  -3.5740  -2.8667
    -2.6735  -2.6307  -2.5783  -2.4877  -2.4410  -2.3188  -2.3123  -2.2895
    -2.2443  -2.2313  -2.1906  -2.1503  -2.1443  -2.1164  -2.1041  -2.0594
    -2.0481  -2.0450  -2.0307  -1.9971  -1.9915  -1.9709  -1.9469  -1.9437
    -1.9335  -1.9171  -1.8843  -1.8771  -1.8499  -1.8312  -1.6799  -1.6062
    -1.5627  -1.4852  -1.4621  -1.4453  -1.4263  -1.3917  -1.3714  -1.3457
    -1.3173  -1.1717  -1.0310  -0.9961  -0.9713  -0.8725  -0.8578  -0.8385
    -0.7909  -0.7498  -0.7148  -0.6561  -0.6466  -0.6011  -0.5802  -0.4602
    -0.4225  -0.3233  -0.2877  -0.2860  -0.2683  -0.2537  -0.2365  -0.2106
    -0.1612  -0.0897  -0.0743  -0.0256  -0.0018   0.0008   0.0140   0.1597
     0.2306   0.2510   0.3532   0.3835   0.5582   0.7223   0.7341   0.8021
     0.8649   0.9199   0.9539   0.9938   1.0041   1.0699   1.0949   1.1995
     1.2095   1.2582   1.2642   1.3413   1.3546   2.0879   2.0896   2.1600
     2.1602   4.1539   4.1698   4.1979   4.2610   4.3043   4.3160   4.3533
     4.3571   4.4602   4.4760

     the Fermi energy is     3.8082 ev

!    total energy              =   -2973.94009894 Ry
     estimated scf accuracy    <       0.00000007 Ry
     smearing contrib. (-TS)   =      -0.02071429 Ry
     internal energy E=F+TS    =   -2973.91938465 Ry

     The total energy is F=E-TS. E is the sum of the following terms:
     one-electron contribution =  -24339.01697967 Ry
     hartree contribution      =   12267.21876477 Ry
     xc contribution           =    -494.12013310 Ry
     ewald contribution        =    9591.99525688 Ry
     electric field correction =       0.00370646 Ry

     convergence has been achieved in  90 iterations

     Forces acting on atoms (cartesian axes, Ry/au):

     atom    1 type  1   force =     0.00002014   -0.00010179    0.09507525
     atom    2 type  1   force =     0.00017858   -0.00068367   -0.17561683
     atom    3 type  2   force =     0.00008860   -0.00004790   -0.02294412
     atom    4 type  2   force =     0.00002192   -0.00143250    0.05288937
     atom    5 type  2   force =    -0.01000054   -0.00031784    0.00380322
     atom    6 type  2   force =     0.01112526    0.00019832    0.00205692
     atom    7 type  1   force =    -0.00020992    0.00177341   -0.00588775
     atom    8 type  1   force =     0.00080615    0.01008049    0.01603889
     atom    9 type  2   force =    -0.00015764    0.00086183    0.00030008
     atom   10 type  2   force =    -0.00227162    0.00217538   -0.01800970
     atom   11 type  2   force =     0.00022655   -0.00003405    0.00008517
     atom   12 type  2   force =    -0.00034158   -0.00018667    0.00056436
     atom   13 type  1   force =    -0.00002735    0.00125994    0.00015206
     atom   14 type  1   force =    -0.00011833    0.00011795    0.00001202
     atom   15 type  2   force =     0.00011542    0.00022046    0.00002701
     atom   16 type  2   force =    -0.00037296    0.00044160   -0.00021751
     atom   17 type  2   force =    -0.00014936   -0.00025019   -0.00001756
     atom   18 type  2   force =    -0.00005226    0.00002749    0.00043214
     atom   19 type  1   force =    -0.00049599    0.00033566   -0.00011695
     atom   20 type  1   force =    -0.00026365   -0.00020995    0.00011796
     atom   21 type  2   force =     0.00009045   -0.00008328    0.10316142
     atom   22 type  2   force =     0.00039407   -0.00000132    0.00051764
     atom   23 type  2   force =    -0.07159009   -0.00016736   -0.02754776
     atom   24 type  2   force =     0.07154768    0.00024690   -0.02759585
     atom   25 type  1   force =     0.00024089   -0.00039083    0.09516641
     atom   26 type  1   force =    -0.00004538   -0.00020076   -0.17579074
     atom   27 type  2   force =     0.00012208   -0.00012200   -0.02196969
     atom   28 type  2   force =     0.00001556   -0.00139596    0.05321923
     atom   29 type  2   force =    -0.01034343   -0.00023058    0.00364603
     atom   30 type  2   force =     0.01138230    0.00042203    0.00191459
     atom   31 type  1   force =    -0.00030003    0.00266010   -0.00008916
     atom   32 type  1   force =     0.00067291   -0.01113773    0.01691912
     atom   33 type  2   force =     0.00037617   -0.00027258   -0.00002535
     atom   34 type  2   force =    -0.00033698    0.00144485   -0.01894130
     atom   35 type  2   force =    -0.00001992   -0.00035035   -0.00015997
     atom   36 type  2   force =     0.00000718   -0.00024088    0.00043953
     atom   37 type  1   force =    -0.00005823   -0.00121980    0.00031540
     atom   38 type  1   force =    -0.00038863    0.00087343    0.00008474
     atom   39 type  2   force =     0.00009966    0.00008115    0.00014912
     atom   40 type  2   force =    -0.00049997   -0.00060244   -0.00007559
     atom   41 type  2   force =     0.00022088   -0.00012074    0.00030692
     atom   42 type  2   force =    -0.00022038   -0.00033512   -0.00019151
     atom   43 type  1   force =    -0.00024320   -0.00019045    0.00041046
     atom   44 type  1   force =     0.00006865   -0.00022798    0.00016653
     atom   45 type  2   force =     0.00010060   -0.00010223    0.10317857
     atom   46 type  2   force =    -0.07158011   -0.00016780   -0.02753842
     atom   47 type  2   force =     0.07158094    0.00024403   -0.02755072
     atom   48 type  3   force =     0.00308586    0.00018058   -0.00291520
     atom   49 type  3   force =     0.00014734   -0.00013397    0.00114717
     atom   50 type  4   force =     0.00109336   -0.00000126   -0.00098263
     atom   51 type  5   force =    -0.00018657   -0.00050168   -0.00020975
     atom   52 type  5   force =    -0.00375881   -0.00172757    0.00234186
     atom   53 type  5   force =     0.00014208   -0.00042846   -0.00052255
     atom   54 type  2   force =    -0.00007828    0.00101265   -0.00005882
     atom   55 type  5   force =     0.00015854   -0.00023546   -0.00002811
     atom   56 type  5   force =    -0.00001860   -0.00080509    0.00036436

     Total force =     0.365190     Total SCF correction =     0.000819
  @ DRIVER MODE: Message from server: STATUS
  @ DRIVER MODE: Message from server: GETFORCE
  @ DRIVER MODE: Returning v,forces,stress,ensemble

     Writing output data file ./calc.save/
  @ DRIVER MODE: Message from server: EXIT
  @ DRIVE MODE: Exiting

     General routines

     Parallel routines

   This run was terminated on:   1: 7:55  23Sep2021

   JOB DONE.