     Program PWSCF v.6.7GPU starts on 27Sep2021 at  1:31:12

     R & G space division:  proc/nbgrp/npool/nimage =       8
     Reading input from /storage/home/hcoda1/3/ntian30/research/carbon/CxH_vib/H2O_calc/ads_slab/CH2NHNHHO_b/out_0034/pw.inp
Warning: card &CELL ignored
Warning: card   CELL_DYNAMICS='IPI', ignored
Warning: card / ignored

     Current dimensions of program PWSCF are:
     Max number of different atomic species (ntypx) = 10
     Max number of k-points (npk) =  40000
     Max angular momentum in pseudopotentials (lmaxx) =  3
     Presently no symmetry can be used with electric field

     Message from routine cell_base_init:
     DEPRECATED: use true lattice parameter, not A to a.u. conversion factor

     IMPORTANT: XC functional enforced from input :
     Exchange-correlation= BEEF-VDW
                           (   1   4  43  14   2   0   0)
     Any further DFT definition will be discarded
     Please, verify this is what you really want

  @ DRIVER MODE: Connecting to
 qe_1139763_2971671.sched-torque.pace.gatech.edu3djh54bz_scratch
  using UNIX socket
  @ DRIVER MODE: Message from server: STATUS
  @ DRIVER MODE: Message from server: INIT
  @ DRIVER MODE: Receiving replica           0          -1
  @ DRIVER MODE: Receiving encoded integer          25
  @ DRIVER MODE:  SCF:  T  FORCE:  T  STRESS:  F  VC:  F  ENSEMBLE:  F
  @ DRIVER MODE:  SCF:  T  FORCE:  T  STRESS:  F  VC:  F  ENSEMBLE:  F

     Using Slab Decomposition

     bravais-lattice index     =            0
     lattice parameter (alat)  =       1.8897  a.u.
     unit-cell volume          =    6658.9804 (a.u.)^3
     number of atoms/cell      =           56
     number of atomic types    =            5
     number of electrons       =       403.00
     number of Kohn-Sham states=          211
     kinetic-energy cutoff     =      29.3995  Ry
     charge density cutoff     =     293.9946  Ry
     scf convergence threshold =      7.3E-08
     mixing beta               =       0.0500
     number of iterations used =            8  plain     mixing
     Exchange-correlation= BEEF-VDW
                           (   1   4  43  14   2   0   0)

     celldm(1)=   1.889726  celldm(2)=   0.000000  celldm(3)=   0.000000
     celldm(4)=   0.000000  celldm(5)=   0.000000  celldm(6)=   0.000000

     crystal axes: (cart. coord. in units of alat)
               a(1) = (   6.579727   0.000000   0.000000 )
               a(2) = (  -0.000775   5.961596   0.000000 )
               a(3) = (   0.000000   0.000000  25.155947 )

     reciprocal axes: (cart. coord. in units 2 pi/alat)
               b(1) = (  0.151982  0.000020  0.000000 )
               b(2) = (  0.000000  0.167740  0.000000 )
               b(3) = (  0.000000  0.000000  0.039752 )

     PseudoPot. # 1 for Ti read from file:
     /storage/coda1/p-amedford6/0/shared/rich_project_chbe-medford/medford-share/data/pseudos_module/espresso/nninc/pbe/van/Ti.UPF
     MD5 check sum: 8e4df49b7f0d34bbd5052bf3f5ea0213
     Pseudo is Ultrasoft, Zval = 12.0
     Generated by new atomic code, or converted to UPF format
     Using radial grid of  851 points,  6 beta functions with:
                l(1) =   0
                l(2) =   0
                l(3) =   1
                l(4) =   1
                l(5) =   2
                l(6) =   2
     Q(r) pseudized with  8 coefficients,  rinner =    1.000   1.000   1.000
                                                       1.000   1.000

     PseudoPot. # 2 for O  read from file:
     /storage/coda1/p-amedford6/0/shared/rich_project_chbe-medford/medford-share/data/pseudos_module/espresso/nninc/pbe/van/O.UPF
     MD5 check sum: 78c19812648e8988a0fe644b0f25305e
     Pseudo is Ultrasoft, Zval =  6.0
     Generated by new atomic code, or converted to UPF format
     Using radial grid of  737 points,  4 beta functions with:
                l(1) =   0
                l(2) =   0
                l(3) =   1
                l(4) =   1
     Q(r) pseudized with  8 coefficients,  rinner =    0.800   0.800   0.800

     PseudoPot. # 3 for N  read from file:
     /storage/coda1/p-amedford6/0/shared/rich_project_chbe-medford/medford-share/data/pseudos_module/espresso/nninc/pbe/van/N.UPF
     MD5 check sum: 90d10febe142ad51ac9d5be1deb811c4
     Pseudo is Ultrasoft, Zval =  5.0
     Generated by new atomic code, or converted to UPF format
     Using radial grid of  729 points,  4 beta functions with:
                l(1) =   0
                l(2) =   0
                l(3) =   1
                l(4) =   1
     Q(r) pseudized with  8 coefficients,  rinner =    0.800   0.800   0.800

     PseudoPot. # 4 for C  read from file:
     /storage/coda1/p-amedford6/0/shared/rich_project_chbe-medford/medford-share/data/pseudos_module/espresso/nninc/pbe/van/C.UPF
     MD5 check sum: 1a69bf6b8db32088f5b2163dbdb77a27
     Pseudo is Ultrasoft, Zval =  4.0
     Generated by new atomic code, or converted to UPF format
     Using radial grid of  721 points,  4 beta functions with:
                l(1) =   0
                l(2) =   0
                l(3) =   1
                l(4) =   1
     Q(r) pseudized with  8 coefficients,  rinner =    0.800   0.800   0.800

     PseudoPot. # 5 for H  read from file:
     /storage/coda1/p-amedford6/0/shared/rich_project_chbe-medford/medford-share/data/pseudos_module/espresso/nninc/pbe/van/H.UPF
     MD5 check sum: b5ee9d7bfd3a09ee7748110bda690ff7
     Pseudo is Ultrasoft, Zval =  1.0
     Generated by new atomic code, or converted to UPF format
     Using radial grid of  615 points,  1 beta functions with:
                l(1) =   0
     Q(r) pseudized with  8 coefficients,  rinner =    0.800

     atomic species   valence    mass     pseudopotential
        Ti1           12.00    47.86700     Ti( 1.00)
        O1             6.00    15.99900     O ( 1.00)
        N1             5.00    14.00700     N ( 1.00)
        C1             4.00    12.01100     C ( 1.00)
        H1             1.00     1.00800     H ( 1.00)

     No symmetry found

   Cartesian axes

     site n.     atom                  positions (alat units)
         1           Ti1 tau(   1) = (   0.0004258   2.9801865   6.0000000  )
         2           Ti1 tau(   2) = (   3.2906075   1.4906267   6.0002472  )
         3           O1  tau(   3) = (   0.0006271   0.0005054   7.9858123  )
         4           O1  tau(   4) = (   3.2906025   0.0005020   7.3038282  )
         5           O1  tau(   5) = (   4.5942328   1.4918067   9.2879030  )
         6           O1  tau(   6) = (   1.9868534   1.4903216   9.2879459  )
         7           Ti1 tau(   7) = (   3.2907910   2.8959150   9.1758416  )
         8           Ti1 tau(   8) = (   0.0015273   1.4827037   9.2680791  )
         9           O1  tau(   9) = (   3.2987294   5.9443783  11.3578989  )
        10           O1  tau(  10) = (   0.0116148   5.9584955  10.6183126  )
        11           O1  tau(  11) = (   1.2795512   1.4821507  12.6386044  )
        12           O1  tau(  12) = (   5.2980455   1.5005163  12.6536529  )
        13           Ti1 tau(  13) = (   6.5652885   2.9238251  12.5528928  )
        14           Ti1 tau(  14) = (   3.2988635   1.2998061  12.7048432  )
        15           O1  tau(  15) = (   0.0127057   0.0339484  14.6761273  )
        16           O1  tau(  16) = (   3.2875936   0.0940603  14.0290633  )
        17           O1  tau(  17) = (   4.5650748   1.6033894  16.0357995  )
        18           O1  tau(  18) = (   2.0190796   1.5896112  16.2175902  )
        19           Ti1 tau(  19) = (   3.3013862   3.0422678  15.6649453  )
        20           Ti1 tau(  20) = (   6.4815444   1.5191555  15.8288377  )
        21           O1  tau(  21) = (   3.2904802   0.0005063   4.7018136  )
        22           O1  tau(  22) = (   6.5172723   5.9480513  17.2191950  )
        23           O1  tau(  23) = (   1.3043587   1.4918075   6.0039043  )
        24           O1  tau(  24) = (   5.2767064   1.4903225   6.0039473  )
        25           Ti1 tau(  25) = (   0.0000382   5.9609847   6.0000000  )
        26           Ti1 tau(  26) = (   3.2902200   4.4714249   6.0002472  )
        27           O1  tau(  27) = (   0.0002396   2.9813036   7.9858123  )
        28           O1  tau(  28) = (   3.2902150   2.9813002   7.3038282  )
        29           O1  tau(  29) = (   4.5938453   4.4726049   9.2879030  )
        30           O1  tau(  30) = (   1.9864658   4.4711199   9.2879459  )
        31           Ti1 tau(  31) = (   3.2891106   5.8743827   9.1763621  )
        32           Ti1 tau(  32) = (   0.0006254   4.4649316   9.2693709  )
        33           O1  tau(  33) = (   3.2945946   2.9940555  11.3077331  )
        34           O1  tau(  34) = (   0.0092240   2.9805883  10.6323155  )
        35           O1  tau(  35) = (   1.2876619   4.4781899  12.6403949  )
        36           O1  tau(  36) = (   5.3010724   4.4646845  12.6541769  )
        37           Ti1 tau(  37) = (   0.0424196   5.9023569  12.5123361  )
        38           Ti1 tau(  38) = (   3.3119368   4.3729351  12.4217702  )
        39           O1  tau(  39) = (   0.0401333   2.9740317  14.7512036  )
        40           O1  tau(  40) = (   3.2576645   3.0028392  13.8982547  )
        41           O1  tau(  41) = (   4.5666544   4.4234537  16.0705803  )
        42           O1  tau(  42) = (   2.0215446   4.4756893  16.1430302  )
        43           Ti1 tau(  43) = (   3.2259990   0.0392177  16.2341362  )
        44           Ti1 tau(  44) = (   6.5723990   4.6710500  15.9980081  )
        45           O1  tau(  45) = (   3.2900926   2.9813045   4.7018136  )
        46           O1  tau(  46) = (   1.3039711   4.4726057   6.0039043  )
        47           O1  tau(  47) = (   5.2763189   4.4711207   6.0039473  )
        48           N1  tau(  48) = (   0.9334729   2.5913682  18.4753943  )
        49           N1  tau(  49) = (   6.5156687   2.9055835  17.6419879  )
        50           C1  tau(  50) = (   1.0224037   2.6952286  19.7617917  )
        51           H1  tau(  51) = (   1.9166829   2.3177709  20.2270220  )
        52           H1  tau(  52) = (   0.2162702   3.1370440  20.3260263  )
        53           H1  tau(  53) = (   1.6995924   2.1499843  17.9426691  )
        54           H1  tau(  54) = (   5.6785098   3.1284051  18.1783837  )
        55           O1  tau(  55) = (   3.5318048   0.0910060  18.0897867  )
        56           H1  tau(  56) = (   4.4897960   0.0680733  18.2655997  )

     number of k points=    10  Fermi-Dirac smearing, width (Ry)=  0.0073
                       cart. coord. in units 2pi/alat
        k(    1) = (   0.0000000   0.0000000   0.0000000), wk =   0.1250000
        k(    2) = (   0.0000000   0.0419351   0.0000000), wk =   0.2500000
        k(    3) = (   0.0000000  -0.0838702   0.0000000), wk =   0.1250000
        k(    4) = (   0.0379955   0.0000049   0.0000000), wk =   0.2500000
        k(    5) = (   0.0379955   0.0419400   0.0000000), wk =   0.2500000
        k(    6) = (   0.0379955  -0.0838652   0.0000000), wk =   0.2500000
        k(    7) = (   0.0379955  -0.0419301   0.0000000), wk =   0.2500000
        k(    8) = (  -0.0759910  -0.0000099   0.0000000), wk =   0.1250000
        k(    9) = (  -0.0759910   0.0419252   0.0000000), wk =   0.2500000
        k(   10) = (  -0.0759910  -0.0838800   0.0000000), wk =   0.1250000

     Initial potential from superposition of free atoms

     starting charge  386.99914, renormalised to  403.00000

     negative rho (up, down):  1.427E-02 0.000E+00

     %%%%%%%%%%%%%%%%%%%%%%%%%%%%%%%%%%%%%%%%%%%%%%%%%%%%%%%%%%%%%%%%%%%%%%%%
     %                                                                      %
     % You are using vdW-DF, which was implemented by the Thonhauser group. %
     % Please cite the following two papers that made this development      %
     % possible and the two reviews that describe the various versions:     %
     %                                                                      %
     %   T. Thonhauser et al., PRL 115, 136402 (2015).                      %
     %   T. Thonhauser et al., PRB 76, 125112 (2007).                       %
     %   K. Berland et al., Rep. Prog. Phys. 78, 066501 (2015).             %
     %   D.C. Langreth et al., J. Phys.: Condens. Matter 21, 084203 (2009). %
     %                                                                      %
     %                                                                      %
     % If you are calculating the stress with vdW-DF, please also cite:     %
     %                                                                      %
     %   R. Sabatini et al., J. Phys.: Condens. Matter 24, 424209 (2012).   %
     %                                                                      %
     %%%%%%%%%%%%%%%%%%%%%%%%%%%%%%%%%%%%%%%%%%%%%%%%%%%%%%%%%%%%%%%%%%%%%%%%

     Adding external electric field

     Computed dipole along edir(3) :
        Dipole              -12.9683 Ry au,        -32.9621 Debye
        Dipole field         -0.0245 Ry au,

        Potential amp.        2.2686 Ry
        Total length         46.3494 bohr

     Starting wfcs are  305 atomic wfcs
  @ DRIVER MODE: Message from server: STATUS
  @ DRIVER MODE: Message from server: POSDATA
  @ DRIVER MODE: Reading and sharing cell
  @ DRIVER MODE: Reading and sharing positions
  @ DRIVER MODE: Received positions

     Self-consistent Calculation

     iteration #  1     ecut=    29.40 Ry     beta= 0.05
     Davidson diagonalization with overlap
     c_bands:  4 eigenvalues not converged
     c_bands:  4 eigenvalues not converged
     c_bands:  3 eigenvalues not converged
     c_bands:  1 eigenvalues not converged
     c_bands:  5 eigenvalues not converged
     c_bands:  3 eigenvalues not converged
     c_bands:  2 eigenvalues not converged
     ethr =  1.00E-05,  avg # of iterations = 24.0

[...]

     total energy              =   -2352.67677505 Ry
     estimated scf accuracy    <    7059.59196940 Ry

     iteration #  2     ecut=    29.40 Ry     beta= 0.05
     Davidson diagonalization with overlap
     ethr =  1.00E-02,  avg # of iterations = 22.0

[...]

     iteration # 58     ecut=    29.40 Ry     beta= 0.05
     Davidson diagonalization with overlap
     c_bands:  1 eigenvalues not converged
     ethr =  1.25E-10,  avg # of iterations = 11.9

[...]

     total energy              =   -2973.99838278 Ry
     estimated scf accuracy    <       0.00000014 Ry

     iteration # 60     ecut=    29.40 Ry     beta= 0.05
     Davidson diagonalization with overlap
     ethr =  3.52E-11,  avg # of iterations = 11.2

     negative rho (up, down):  1.505E-02 0.000E+00

     Adding external electric field

     Computed dipole along edir(3) :
        Dipole                1.3483 Ry au,          3.4271 Debye
        Dipole field          0.0025 Ry au,

        Potential amp.       -0.2359 Ry
        Total length         46.3494 bohr

     End of self-consistent calculation

          k = 0.0000 0.0000 0.0000 ( 18029 PWs)   bands (ev):

   -55.4230 -55.3274 -55.2933 -55.1484 -55.1447 -55.1330 -55.1129 -55.1106
   -55.0839 -55.0554 -55.0339 -54.9567 -54.9542 -54.9099 -54.2908 -54.2568
   -31.8103 -31.7450 -31.6796 -31.6483 -31.6367 -31.6264 -31.6191 -31.5973
   -31.5724 -31.5710 -31.5672 -31.4822 -31.4797 -31.4324 -31.4188 -31.4045
   -31.3982 -31.3848 -31.3614 -31.3467 -31.3389 -31.3379 -31.3290 -31.3149
   -31.3028 -31.2907 -31.2783 -31.2756 -31.2743 -31.2628 -31.2595 -31.2490
   -31.2332 -31.2294 -31.2263 -31.1898 -31.1785 -31.1502 -31.1382 -31.1280
   -31.1158 -31.1115 -30.6963 -30.6112 -30.5887 -30.5139 -30.4276 -30.3158
   -19.6256 -16.1783 -15.9487 -15.7964 -15.6141 -15.4909 -15.4328 -15.2198
   -15.1519 -15.0811 -14.9989 -14.9354 -14.8582 -14.8438 -14.8184 -14.8031
   -14.7788 -14.7411 -14.7394 -14.7349 -14.6923 -14.6852 -14.6554 -14.6055
   -14.6002 -14.5781 -14.4562 -14.3824 -14.3362 -14.2022 -14.0818 -13.9541
   -12.7894 -12.6733 -10.1890  -7.0231  -6.6923  -4.2766  -4.0288  -3.6403
    -3.3305  -3.2537  -3.2223  -3.1811  -3.0572  -2.8759  -2.7596  -2.6855
    -2.5819  -2.4579  -2.4406  -2.3398  -2.3151  -2.2473  -2.2117  -2.1720
    -2.1513  -2.1279  -2.1051  -2.1015  -1.9894  -1.9850  -1.8600  -1.8423
    -1.7940  -1.7347  -1.6863  -1.6394  -1.6277  -1.6092  -1.5935  -1.5850
    -1.5542  -1.5403  -1.5169  -1.4646  -1.4040  -1.3564  -1.3194  -1.2064
    -1.0167  -0.9193  -0.8665  -0.8255  -0.7927  -0.7438  -0.7168  -0.7092
    -0.6789  -0.6409  -0.5080  -0.5003  -0.4542  -0.3783  -0.3386  -0.3173
    -0.1915  -0.1789  -0.1064  -0.0496  -0.0470  -0.0356   0.0586   0.1166
     0.1448   0.1740   0.2248   0.2813   0.3548   0.3839   0.4169   0.4762
     0.5374   0.5656   0.6250   0.6443   0.6558   0.7380   0.7590   0.7837
     0.8058   0.8770   0.9240   0.9603   1.0002   1.0894   1.1190   1.1677
     1.2054   1.3603   1.4151   1.6842   1.7354   1.8000   1.9293   2.3018
     2.3466   3.7745   3.9103   3.9297   3.9339   4.0314   4.1345   4.2472
     4.2959   4.3292   4.3768

[...]

          k = 0.0380-0.0419 0.0000 ( 17876 PWs)   bands (ev):

[...]

          k =-0.0760-0.0000 0.0000 ( 17886 PWs)   bands (ev):

[...]

          k =-0.0760-0.0839 0.0000 ( 17948 PWs)   bands (ev):

   -55.4223 -55.3106 -55.3099 -55.1336 -55.1334 -55.1305 -55.1288 -55.1234
   -55.0774 -55.0524 -55.0404 -54.9571 -54.9501 -54.9164 -54.2743 -54.2732
   -31.6787 -31.6715 -31.6280 -31.6258 -31.6255 -31.6048 -31.6043 -31.5448
   -31.5054 -31.4591 -31.4515 -31.4510 -31.4444 -31.4431 -31.4304 -31.4295
   -31.4200 -31.3981 -31.3768 -31.3682 -31.3571 -31.3422 -31.3412 -31.3300
   -31.3284 -31.3189 -31.3086 -31.3010 -31.2982 -31.2967 -31.2943 -31.2848
   -31.2727 -31.2624 -31.2572 -31.2489 -31.2197 -31.2090 -31.1822 -31.1588
   -31.1429 -31.1162 -30.6018 -30.6011 -30.5099 -30.5086 -30.4712 -30.4704
   -19.6237 -16.1408 -15.4844 -15.4158 -15.2674 -15.2582 -15.1869 -15.1462
   -15.1388 -15.0871 -15.0812 -15.0135 -14.9889 -14.9802 -14.9405 -14.8894
   -14.8393 -14.8094 -14.8038 -14.7558 -14.7456 -14.7342 -14.6978 -14.6780
   -14.6293 -14.6258 -14.6104 -14.5309 -14.4755 -14.3167 -14.3017 -13.9671
   -12.7754 -12.7749 -10.1923  -7.0188  -6.6895  -4.2660  -4.0191  -3.5931
    -2.6916  -2.6891  -2.6263  -2.4706  -2.4260  -2.3260  -2.3150  -2.2562
    -2.2425  -2.1941  -2.1739  -2.1624  -2.1258  -2.1059  -2.1027  -2.0758
    -2.0562  -2.0456  -2.0200  -1.9841  -1.9818  -1.9518  -1.9433  -1.9263
    -1.9062  -1.8847  -1.8651  -1.8597  -1.8081  -1.7743  -1.6170  -1.5975
    -1.4597  -1.4570  -1.4429  -1.4215  -1.3881  -1.3764  -1.3370  -1.3031
    -1.2332  -1.1899  -1.0950  -1.0600  -0.9533  -0.9250  -0.8551  -0.8065
    -0.7676  -0.7447  -0.7338  -0.7037  -0.6309  -0.5558  -0.5101  -0.4693
    -0.3695  -0.2936  -0.2692  -0.2650  -0.2576  -0.2246  -0.1543  -0.1529
    -0.1118  -0.0955  -0.0135  -0.0031   0.0110   0.0302   0.1648   0.1952
     0.2932   0.3575   0.4076   0.4615   0.4939   0.5442   0.6589   0.7896
     0.8422   0.8675   0.8811   0.9429   0.9914   1.0065   1.0537   1.1260
     1.1965   1.2457   1.2653   1.2888   1.3399   2.0984   2.1071   2.1667
     2.1671   4.0373   4.1372   4.2528   4.2876   4.3033   4.3225   4.3399
     4.3646   4.4087   4.4507

     the Fermi energy is     3.7999 ev

!    total energy              =   -2973.99842850 Ry
     estimated scf accuracy    <       0.00000006 Ry
     smearing contrib. (-TS)   =      -0.02053001 Ry
     internal energy E=F+TS    =   -2973.97789849 Ry

     The total energy is F=E-TS. E is the sum of the following terms:
     one-electron contribution =  -23635.49380351 Ry
     hartree contribution      =   11914.65353305 Ry
     xc contribution           =    -494.12119329 Ry
     ewald contribution        =    9240.98013441 Ry
     electric field correction =       0.00343084 Ry

     convergence has been achieved in  60 iterations

     Forces acting on atoms (cartesian axes, Ry/au):

     atom    1 type  1   force =    -0.00005900   -0.00029003    0.09522215
     atom    2 type  1   force =    -0.00010876    0.00042511   -0.17494058
     atom    3 type  2   force =     0.00000994   -0.00028178   -0.02254533
     atom    4 type  2   force =     0.00005387   -0.00195815    0.05326563
     atom    5 type  2   force =    -0.00765177   -0.00251090    0.00194138
     atom    6 type  2   force =     0.00924583   -0.00207178    0.00146278
     atom    7 type  1   force =    -0.00022488   -0.00468301    0.00731169
     atom    8 type  1   force =     0.00014057    0.00535320    0.01281460
     atom    9 type  2   force =    -0.00010721   -0.00003299    0.00021267
     atom   10 type  2   force =    -0.00275451    0.00061120   -0.01382183
     atom   11 type  2   force =    -0.00016178    0.00022383   -0.00003359
     atom   12 type  2   force =     0.00015137   -0.00002990    0.00022342
     atom   13 type  1   force =     0.00025530    0.00018253    0.00031649
     atom   14 type  1   force =     0.00002082   -0.00001312    0.00020768
     atom   15 type  2   force =     0.00035860   -0.00005067    0.00008648
     atom   16 type  2   force =    -0.00036127   -0.00007912   -0.00000431
     atom   17 type  2   force =     0.00031431   -0.00025284   -0.00001776
     atom   18 type  2   force =     0.00018625    0.00017151   -0.00000390
     atom   19 type  1   force =     0.00024781   -0.00017472   -0.00012865
     atom   20 type  1   force =     0.00025548   -0.00021350   -0.00004092
     atom   21 type  2   force =     0.00005800    0.00003536    0.10305146
     atom   22 type  2   force =     0.00003113    0.00006024   -0.00012954
     atom   23 type  2   force =    -0.07222627   -0.00019942   -0.02751892
     atom   24 type  2   force =     0.07213150    0.00021030   -0.02758517
     atom   25 type  1   force =     0.00010690   -0.00024810    0.09496368
     atom   26 type  1   force =    -0.00022944   -0.00136330   -0.17515164
     atom   27 type  2   force =     0.00015925   -0.00013764   -0.02138539
     atom   28 type  2   force =     0.00005038   -0.00025676    0.04860619
     atom   29 type  2   force =    -0.00691465    0.00262909    0.00143349
     atom   30 type  2   force =     0.00849885    0.00315036    0.00085930
     atom   31 type  1   force =    -0.00009553    0.00788317   -0.00301948
     atom   32 type  1   force =     0.00038649   -0.00772253    0.01220170
     atom   33 type  2   force =     0.00008427   -0.00001913   -0.00014294
     atom   34 type  2   force =    -0.00195981    0.00048707   -0.01639029
     atom   35 type  2   force =    -0.00013344    0.00002742   -0.00002120
     atom   36 type  2   force =    -0.00004631    0.00031633   -0.00003282
     atom   37 type  1   force =    -0.00013593    0.00017765    0.00004045
     atom   38 type  1   force =    -0.00009204    0.00005030    0.00016919
     atom   39 type  2   force =    -0.00006526   -0.00028608    0.00000460
     atom   40 type  2   force =     0.00012844    0.00000389    0.00014654
     atom   41 type  2   force =     0.00011206   -0.00012864   -0.00001626
     atom   42 type  2   force =     0.00022245   -0.00020144   -0.00000502
     atom   43 type  1   force =    -0.00035321    0.00022713   -0.00015784
     atom   44 type  1   force =     0.00022251    0.00003976   -0.00007431
     atom   45 type  2   force =     0.00008765   -0.00014256    0.10284118
     atom   46 type  2   force =    -0.07221385   -0.00009530   -0.02756847
     atom   47 type  2   force =     0.07214574    0.00036213   -0.02759870
     atom   48 type  3   force =    -0.00390052    0.00394613    0.00216537
     atom   49 type  3   force =     0.00011880    0.00014577    0.00008414
     atom   50 type  4   force =    -0.00008129    0.00007085    0.00015681
     atom   51 type  5   force =     0.00033255    0.00038759    0.00033103
     atom   52 type  5   force =    -0.00066142   -0.00046397    0.00013736
     atom   53 type  5   force =     0.00454738   -0.00341948   -0.00228724
     atom   54 type  5   force =     0.00003516   -0.00005276   -0.00003559
     atom   55 type  2   force =    -0.00057679   -0.00013732    0.00024857
     atom   56 type  5   force =     0.00041528    0.00033904    0.00015161

     Total force =     0.363335     Total SCF correction =     0.000685
  @ DRIVER MODE: Message from server: STATUS
  @ DRIVER MODE: Message from server: GETFORCE
  @ DRIVER MODE: Returning v,forces,stress,ensemble

     Writing output data file ./calc.save/
  @ DRIVER MODE: Message from server: EXIT
  @ DRIVE MODE: Exiting

     General routines

     Parallel routines

   This run was terminated on:   1:54: 1  27Sep2021

   JOB DONE.