     Program PWSCF v.6.7GPU starts on 27Sep2021 at  8: 1:59

     R & G space division:  proc/nbgrp/npool/nimage =       8
     Reading input from /storage/home/hcoda1/3/ntian30/research/carbon/CxH_vib/CH_calc/ads_slab/CHONHNH2_b/out_0048/pw.inp
Warning: card &CELL ignored
Warning: card   CELL_DYNAMICS='IPI', ignored
Warning: card / ignored

     Current dimensions of program PWSCF are:
     Max number of different atomic species (ntypx) = 10
     Max number of k-points (npk) =  40000
     Max angular momentum in pseudopotentials (lmaxx) =  3
     Presently no symmetry can be used with electric field

     Message from routine cell_base_init:
     DEPRECATED: use true lattice parameter, not A to a.u. conversion factor

     IMPORTANT: XC functional enforced from input :
     Exchange-correlation= BEEF-VDW
                           (   1   4  43  14   2   0   0)
     Any further DFT definition will be discarded
     Please, verify this is what you really want

  @ DRIVER MODE: Connecting to
 qe_1139763_2982672.sched-torque.pace.gatech.eduf7ixpakg_scratch
  using UNIX socket
  @ DRIVER MODE: Message from server: STATUS
  @ DRIVER MODE: Message from server: INIT
  @ DRIVER MODE: Receiving replica           0          -1
  @ DRIVER MODE: Receiving encoded integer          25
  @ DRIVER MODE:  SCF:  T  FORCE:  T  STRESS:  F  VC:  F  ENSEMBLE:  F
  @ DRIVER MODE:  SCF:  T  FORCE:  T  STRESS:  F  VC:  F  ENSEMBLE:  F

     Using Slab Decomposition

     bravais-lattice index     =            0
     lattice parameter (alat)  =       1.8897  a.u.
     unit-cell volume          =    6658.9804 (a.u.)^3
     number of atoms/cell      =           55
     number of atomic types    =            5
     number of electrons       =       402.00
     number of Kohn-Sham states=          211
     kinetic-energy cutoff     =      29.3995  Ry
     charge density cutoff     =     293.9946  Ry
     scf convergence threshold =      7.3E-08
     mixing beta               =       0.0500
     number of iterations used =            8  plain     mixing
     Exchange-correlation= BEEF-VDW
                           (   1   4  43  14   2   0   0)

     celldm(1)=   1.889726  celldm(2)=   0.000000  celldm(3)=   0.000000
     celldm(4)=   0.000000  celldm(5)=   0.000000  celldm(6)=   0.000000

     crystal axes: (cart. coord. in units of alat)
               a(1) = (   6.579727   0.000000   0.000000 )
               a(2) = (  -0.000775   5.961596   0.000000 )
               a(3) = (   0.000000   0.000000  25.155947 )

     reciprocal axes: (cart. coord. in units 2 pi/alat)
               b(1) = (  0.151982  0.000020  0.000000 )
               b(2) = (  0.000000  0.167740  0.000000 )
               b(3) = (  0.000000  0.000000  0.039752 )

     PseudoPot. # 1 for O  read from file:
     /storage/coda1/p-amedford6/0/shared/rich_project_chbe-medford/medford-share/data/pseudos_module/espresso/nninc/pbe/van/O.UPF
     MD5 check sum: 78c19812648e8988a0fe644b0f25305e
     Pseudo is Ultrasoft, Zval =  6.0
     Generated by new atomic code, or converted to UPF format
     Using radial grid of  737 points,  4 beta functions with:
                l(1) =   0
                l(2) =   0
                l(3) =   1
                l(4) =   1
     Q(r) pseudized with  8 coefficients,  rinner =    0.800   0.800   0.800

     PseudoPot. # 2 for Ti read from file:
     /storage/coda1/p-amedford6/0/shared/rich_project_chbe-medford/medford-share/data/pseudos_module/espresso/nninc/pbe/van/Ti.UPF
     MD5 check sum: 8e4df49b7f0d34bbd5052bf3f5ea0213
     Pseudo is Ultrasoft, Zval = 12.0
     Generated by new atomic code, or converted to UPF format
     Using radial grid of  851 points,  6 beta functions with:
                l(1) =   0
                l(2) =   0
                l(3) =   1
                l(4) =   1
                l(5) =   2
                l(6) =   2
     Q(r) pseudized with  8 coefficients,  rinner =    1.000   1.000   1.000
                                                       1.000   1.000

     PseudoPot. # 3 for N  read from file:
     /storage/coda1/p-amedford6/0/shared/rich_project_chbe-medford/medford-share/data/pseudos_module/espresso/nninc/pbe/van/N.UPF
     MD5 check sum: 90d10febe142ad51ac9d5be1deb811c4
     Pseudo is Ultrasoft, Zval =  5.0
     Generated by new atomic code, or converted to UPF format
     Using radial grid of  729 points,  4 beta functions with:
                l(1) =   0
                l(2) =   0
                l(3) =   1
                l(4) =   1
     Q(r) pseudized with  8 coefficients,  rinner =    0.800   0.800   0.800

     PseudoPot. # 4 for H  read from file:
     /storage/coda1/p-amedford6/0/shared/rich_project_chbe-medford/medford-share/data/pseudos_module/espresso/nninc/pbe/van/H.UPF
     MD5 check sum: b5ee9d7bfd3a09ee7748110bda690ff7
     Pseudo is Ultrasoft, Zval =  1.0
     Generated by new atomic code, or converted to UPF format
     Using radial grid of  615 points,  1 beta functions with:
                l(1) =   0
     Q(r) pseudized with  8 coefficients,  rinner =    0.800

     PseudoPot. # 5 for C  read from file:
     /storage/coda1/p-amedford6/0/shared/rich_project_chbe-medford/medford-share/data/pseudos_module/espresso/nninc/pbe/van/C.UPF
     MD5 check sum: 1a69bf6b8db32088f5b2163dbdb77a27
     Pseudo is Ultrasoft, Zval =  4.0
     Generated by new atomic code, or converted to UPF format
     Using radial grid of  721 points,  4 beta functions with:
                l(1) =   0
                l(2) =   0
                l(3) =   1
                l(4) =   1
     Q(r) pseudized with  8 coefficients,  rinner =    0.800   0.800   0.800

     atomic species   valence    mass     pseudopotential
        O1             6.00    15.99900     O ( 1.00)
        Ti1           12.00    47.86700     Ti( 1.00)
        N1             5.00    14.00700     N ( 1.00)
        H1             1.00     1.00800     H ( 1.00)
        C1             4.00    12.01100     C ( 1.00)

     No symmetry found

   Cartesian axes

     site n.     atom                  positions (alat units)
         1           O1  tau(   1) = (   3.2904802   0.0005063   4.7018136  )
         2           O1  tau(   2) = (   3.2900926   2.9813045   4.7018136  )
         3           Ti1 tau(   3) = (   0.0004258   2.9801865   6.0000000  )
         4           Ti1 tau(   4) = (   0.0000382   5.9609847   6.0000000  )
         5           Ti1 tau(   5) = (   3.2906075   1.4906267   6.0002472  )
         6           Ti1 tau(   6) = (   3.2902200   4.4714249   6.0002472  )
         7           O1  tau(   7) = (   1.3043587   1.4918075   6.0039043  )
         8           O1  tau(   8) = (   1.3039711   4.4726057   6.0039043  )
         9           O1  tau(   9) = (   5.2767064   1.4903225   6.0039473  )
        10           O1  tau(  10) = (   5.2763189   4.4711207   6.0039473  )
        11           O1  tau(  11) = (   3.2906025   0.0005020   7.3038282  )
        12           O1  tau(  12) = (   3.2902150   2.9813002   7.3038282  )
        13           O1  tau(  13) = (   0.0006271   0.0005054   7.9858123  )
        14           O1  tau(  14) = (   0.0002396   2.9813036   7.9858123  )
        15           Ti1 tau(  15) = (   3.2907910   2.8959150   9.1758416  )
        16           Ti1 tau(  16) = (   3.2891106   5.8743827   9.1763621  )
        17           Ti1 tau(  17) = (   0.0015273   1.4827037   9.2680791  )
        18           Ti1 tau(  18) = (   0.0006254   4.4649316   9.2693709  )
        19           O1  tau(  19) = (   4.5942328   1.4918067   9.2879030  )
        20           O1  tau(  20) = (   4.5938453   4.4726049   9.2879030  )
        21           O1  tau(  21) = (   1.9868534   1.4903216   9.2879459  )
        22           O1  tau(  22) = (   1.9864658   4.4711199   9.2879459  )
        23           O1  tau(  23) = (   0.0116148   5.9584955  10.6183126  )
        24           O1  tau(  24) = (   0.0092240   2.9805883  10.6323155  )
        25           O1  tau(  25) = (   3.2729272   2.9749101  11.3358637  )
        26           O1  tau(  26) = (   3.2774458   5.9577983  11.3358029  )
        27           Ti1 tau(  27) = (   6.5123228   0.0223980  12.5466522  )
        28           Ti1 tau(  28) = (   6.5139447   2.9993280  12.6164542  )
        29           Ti1 tau(  29) = (   3.1950650   4.4673527  12.4897579  )
        30           Ti1 tau(  30) = (   3.1950454   1.4921031  12.4944583  )
        31           O1  tau(  31) = (   5.2839716   4.4726476  12.6140382  )
        32           O1  tau(  32) = (   1.2968206   4.4781603  12.6268461  )
        33           O1  tau(  33) = (   5.2856119   1.4917077  12.6233973  )
        34           O1  tau(  34) = (   1.2888650   1.4770595  12.6372879  )
        35           O1  tau(  35) = (   3.2788258   2.9629383  13.9230881  )
        36           O1  tau(  36) = (   3.2980453   5.9500611  13.9147740  )
        37           O1  tau(  37) = (   6.5334376   5.9389224  14.6738689  )
        38           O1  tau(  38) = (   6.5776160   3.0156023  14.6540868  )
        39           Ti1 tau(  39) = (   3.2542760   2.9504115  15.7371360  )
        40           Ti1 tau(  40) = (   3.3062714   5.9309079  15.7116640  )
        41           Ti1 tau(  41) = (   6.5650095   1.2976281  16.1142359  )
        42           Ti1 tau(  42) = (   0.0079766   4.4268374  15.8391656  )
        43           O1  tau(  43) = (   2.0280489   1.4492115  16.0660627  )
        44           O1  tau(  44) = (   4.5116609   1.4624326  16.0993158  )
        45           O1  tau(  45) = (   2.0244938   4.4513709  16.0356871  )
        46           O1  tau(  46) = (   4.5113612   4.4342832  16.0730653  )
        47           O1  tau(  47) = (   6.5716746   5.9215154  17.2308814  )
        48           N1  tau(  48) = (   5.9800345   2.9984367  18.5879729  )
        49           H1  tau(  49) = (   4.9797160   2.8240766  18.4383897  )
        50           H1  tau(  50) = (   1.6245422   1.3425840  19.0439533  )
        51           H1  tau(  51) = (   6.0578502   3.9810051  18.8619266  )
        52           N1  tau(  52) = (   2.1403542   1.9713023  19.6616680  )
        53           C1  tau(  53) = (   2.8938676   2.8537551  19.2737185  )
        54           H1  tau(  54) = (   3.3792091   3.5764479  19.9483559  )
        55           O1  tau(  55) = (   6.5521836   2.9666373  17.2829174  )

     number of k points=    10  Fermi-Dirac smearing, width (Ry)=  0.0073
                       cart. coord. in units 2pi/alat
        k(    1) = (   0.0000000   0.0000000   0.0000000), wk =   0.1250000
        k(    2) = (   0.0000000   0.0419351   0.0000000), wk =   0.2500000
        k(    3) = (   0.0000000  -0.0838702   0.0000000), wk =   0.1250000
        k(    4) = (   0.0379955   0.0000049   0.0000000), wk =   0.2500000
        k(    5) = (   0.0379955   0.0419400   0.0000000), wk =   0.2500000
        k(    6) = (   0.0379955  -0.0838652   0.0000000), wk =   0.2500000
        k(    7) = (   0.0379955  -0.0419301   0.0000000), wk =   0.2500000
        k(    8) = (  -0.0759910  -0.0000099   0.0000000), wk =   0.1250000
        k(    9) = (  -0.0759910   0.0419252   0.0000000), wk =   0.2500000
        k(   10) = (  -0.0759910  -0.0838800   0.0000000), wk =   0.1250000

     Initial potential from superposition of free atoms

     starting charge  385.99915, renormalised to  402.00000

     negative rho (up, down):  1.541E-02 0.000E+00

     %%%%%%%%%%%%%%%%%%%%%%%%%%%%%%%%%%%%%%%%%%%%%%%%%%%%%%%%%%%%%%%%%%%%%%%%
     %                                                                      %
     % You are using vdW-DF, which was implemented by the Thonhauser group. %
     % Please cite the following two papers that made this development      %
     % possible and the two reviews that describe the various versions:     %
     %                                                                      %
     %   T. Thonhauser et al., PRL 115, 136402 (2015).                      %
     %   T. Thonhauser et al., PRB 76, 125112 (2007).                       %
     %   K. Berland et al., Rep. Prog. Phys. 78, 066501 (2015).             %
     %   D.C. Langreth et al., J. Phys.: Condens. Matter 21, 084203 (2009). %
     %                                                                      %
     %                                                                      %
     % If you are calculating the stress with vdW-DF, please also cite:     %
     %                                                                      %
     %   R. Sabatini et al., J. Phys.: Condens. Matter 24, 424209 (2012).   %
     %                                                                      %
     %%%%%%%%%%%%%%%%%%%%%%%%%%%%%%%%%%%%%%%%%%%%%%%%%%%%%%%%%%%%%%%%%%%%%%%%

     Adding external electric field

     Computed dipole along edir(3) :
        Dipole              -12.8676 Ry au,        -32.7061 Debye
        Dipole field         -0.0243 Ry au,

        Potential amp.        2.2510 Ry
        Total length         46.3494 bohr

     Starting wfcs are  304 atomic wfcs
  @ DRIVER MODE: Message from server: STATUS
  @ DRIVER MODE: Message from server: POSDATA
  @ DRIVER MODE: Reading and sharing cell
  @ DRIVER MODE: Reading and sharing positions
  @ DRIVER MODE: Received positions

     Self-consistent Calculation

     iteration #  1     ecut=    29.40 Ry     beta= 0.05
     Davidson diagonalization with overlap
     c_bands:  5 eigenvalues not converged
     c_bands:  2 eigenvalues not converged
     c_bands:  2 eigenvalues not converged
     c_bands:  5 eigenvalues not converged
     c_bands:  3 eigenvalues not converged
     c_bands:  3 eigenvalues not converged
     c_bands:  2 eigenvalues not converged
     c_bands:  3 eigenvalues not converged
     c_bands:  1 eigenvalues not converged
     ethr =  1.00E-05,  avg # of iterations = 21.5

[...]

     total energy              =   -2369.73113408 Ry
     estimated scf accuracy    <    6837.65414449 Ry

     iteration #  2     ecut=    29.40 Ry     beta= 0.05
     Davidson diagonalization with overlap
     ethr =  1.00E-02,  avg # of iterations = 23.5

[...]

     iteration # 73     ecut=    29.40 Ry     beta= 0.05
     Davidson diagonalization with overlap
     c_bands:  1 eigenvalues not converged
     c_bands:  1 eigenvalues not converged
     c_bands:  1 eigenvalues not converged
     ethr =  1.41E-10,  avg # of iterations = 16.4

[...]

     total energy              =   -2972.58413660 Ry
     estimated scf accuracy    <       0.00000008 Ry

     iteration # 77     ecut=    29.40 Ry     beta= 0.05
     Davidson diagonalization with overlap
     ethr =  1.93E-11,  avg # of iterations = 13.2

     negative rho (up, down):  1.522E-02 0.000E+00

     Adding external electric field

     Computed dipole along edir(3) :
        Dipole                0.4796 Ry au,          1.2191 Debye
        Dipole field          0.0009 Ry au,

        Potential amp.       -0.0839 Ry
        Total length         46.3494 bohr

     End of self-consistent calculation

          k = 0.0000 0.0000 0.0000 ( 18029 PWs)   bands (ev):

   -55.8918 -55.8721 -55.8577 -55.8341 -55.7530 -55.7340 -55.7179 -55.7032
   -55.6925 -55.6691 -55.6679 -55.6339 -55.5239 -55.3115 -54.8709 -54.8368
   -32.4175 -32.3745 -32.2515 -32.2022 -32.1940 -32.1846 -32.1688 -32.1581
   -32.1351 -32.1027 -32.0583 -32.0469 -32.0440 -32.0429 -32.0261 -32.0054
   -31.9990 -31.9963 -31.9853 -31.9742 -31.9622 -31.9509 -31.9489 -31.9072
   -31.8999 -31.8946 -31.8925 -31.8833 -31.8739 -31.8681 -31.8643 -31.8437
   -31.8341 -31.8210 -31.8100 -31.8016 -31.7800 -31.7600 -31.7295 -31.5813
   -31.5423 -31.5253 -31.2780 -31.1896 -31.1672 -31.0947 -31.0082 -30.8972
   -18.7380 -16.6139 -16.3630 -16.1224 -16.0403 -16.0055 -15.8854 -15.8536
   -15.7307 -15.6196 -15.5257 -15.4502 -15.4306 -15.4288 -15.3895 -15.3812
   -15.3541 -15.3366 -15.3284 -15.3109 -15.2882 -15.2501 -15.2357 -15.2283
   -15.1386 -15.0607 -15.0265 -14.9813 -14.9742 -14.9495 -14.5641 -13.3731
   -13.2566 -12.1828  -8.1494  -5.3304  -4.9770  -4.5199  -3.9878  -3.8488
    -3.7980  -3.7306  -3.6892  -3.5114  -3.4018  -3.1461  -3.0726  -3.0524
    -3.0295  -2.9828  -2.8789  -2.8010  -2.7039  -2.6985  -2.6978  -2.6629
    -2.6529  -2.6358  -2.5956  -2.5739  -2.5086  -2.4348  -2.4012  -2.2920
    -2.2835  -2.2512  -2.2047  -2.1964  -2.1520  -2.1302  -2.1159  -2.1119
    -2.0961  -2.0586  -2.0261  -1.9159  -1.8800  -1.7991  -1.6852  -1.6096
    -1.5008  -1.4860  -1.3664  -1.3586  -1.3338  -1.3190  -1.2846  -1.2381
    -1.1804  -1.0777  -1.0493  -1.0155  -1.0140  -0.9119  -0.8509  -0.8265
    -0.7639  -0.6913  -0.6646  -0.6515  -0.6414  -0.6094  -0.3939  -0.3513
    -0.3305  -0.2982  -0.2527  -0.1983  -0.1600  -0.1132  -0.0724  -0.0072
     0.0026   0.0533   0.0787   0.0901   0.1069   0.1176   0.1332   0.2344
     0.3216   0.3608   0.3824   0.4566   0.4622   0.6343   0.7000   0.7640
     0.8743   1.0775   1.1514   1.2354   1.3435   1.7226   1.7684   1.8011
     3.2375   3.2391   3.3299   3.3722   3.3805   3.4812   3.5314   3.6937
     3.7266   3.7580   3.7972

[...]

          k = 0.0380-0.0419 0.0000 ( 17876 PWs)   bands (ev):

[...]

          k =-0.0760-0.0000 0.0000 ( 17886 PWs)   bands (ev):

[...]

          k =-0.0760-0.0839 0.0000 ( 17948 PWs)   bands (ev):

   -55.8753 -55.8740 -55.8594 -55.8466 -55.7391 -55.7318 -55.7247 -55.7016
   -55.6871 -55.6847 -55.6535 -55.6485 -55.5226 -55.3127 -54.8538 -54.8537
   -32.2278 -32.2147 -32.1902 -32.1893 -32.1705 -32.1693 -32.1213 -32.1130
   -32.0953 -32.0862 -32.0488 -32.0398 -32.0189 -32.0111 -32.0080 -32.0064
   -31.9996 -31.9949 -31.9936 -31.9914 -31.9880 -31.9861 -31.9503 -31.9483
   -31.9425 -31.9268 -31.9199 -31.9106 -31.8874 -31.8863 -31.8852 -31.8839
   -31.8781 -31.8678 -31.8645 -31.8625 -31.8569 -31.7575 -31.7327 -31.6516
   -31.5714 -31.5328 -31.1799 -31.1798 -31.0908 -31.0907 -31.0515 -31.0514
   -18.7239 -16.0328 -16.0113 -15.8870 -15.8476 -15.8109 -15.7719 -15.7602
   -15.6849 -15.6039 -15.5826 -15.5779 -15.4977 -15.4793 -15.4657 -15.4290
   -15.4167 -15.4064 -15.4003 -15.3632 -15.3493 -15.3401 -15.3317 -15.3241
   -15.2478 -15.2112 -15.2064 -15.1943 -15.0821 -14.9579 -14.7401 -13.3585
   -13.3583 -12.1951  -8.1497  -5.3258  -4.9824  -4.4474  -3.3193  -3.2865
    -3.1049  -3.0218  -3.0063  -2.9885  -2.8781  -2.8024  -2.7959  -2.7606
    -2.7289  -2.7220  -2.7118  -2.7089  -2.6851  -2.6742  -2.6252  -2.6034
    -2.5904  -2.5637  -2.5522  -2.5488  -2.5179  -2.5047  -2.4673  -2.4465
    -2.4266  -2.4154  -2.3941  -2.3280  -2.2110  -2.1263  -2.0942  -2.0343
    -2.0239  -1.9935  -1.9595  -1.9454  -1.9234  -1.8905  -1.8633  -1.7474
    -1.6388  -1.5824  -1.5809  -1.5042  -1.4693  -1.4262  -1.3808  -1.3241
    -1.2933  -1.2805  -1.2320  -1.1662  -1.1520  -1.0773  -1.0340  -1.0038
    -0.9641  -0.9392  -0.8663  -0.8524  -0.8498  -0.8149  -0.7292  -0.7069
    -0.6544  -0.6478  -0.6205  -0.5648  -0.5469  -0.5159  -0.3920  -0.3689
    -0.2444  -0.1776  -0.0892   0.0644   0.0849   0.1778   0.2184   0.2452
     0.3014   0.4031   0.4217   0.4334   0.4526   0.4836   0.5127   0.6377
     0.6517   0.6859   0.8060   1.5152   1.5156   1.5879   1.5884   1.6481
     3.2238   3.5686   3.5751   3.5953   3.6226   3.7557   3.7577   3.7759
     3.7774   3.9111   3.9306

     the Fermi energy is     3.2406 ev

!    total energy              =   -2972.58414483 Ry
     estimated scf accuracy    <       0.00000004 Ry
     smearing contrib. (-TS)   =      -0.03085003 Ry
     internal energy E=F+TS    =   -2972.55329480 Ry

     The total energy is F=E-TS. E is the sum of the following terms:
     one-electron contribution =  -23742.01560207 Ry
     hartree contribution      =   11962.30173290 Ry
     xc contribution           =    -493.07600983 Ry
     ewald contribution        =    9300.23615009 Ry
     electric field correction =       0.00043411 Ry

     convergence has been achieved in  77 iterations

     Forces acting on atoms (cartesian axes, Ry/au):

     atom    1 type  1   force =     0.00004218   -0.00002939    0.10320037
     atom    2 type  1   force =     0.00004919   -0.00004563    0.10324621
     atom    3 type  2   force =     0.00007416   -0.00022591    0.09626441
     atom    4 type  2   force =    -0.00002036   -0.00029916    0.09603878
     atom    5 type  2   force =     0.00003821   -0.00063322   -0.17555844
     atom    6 type  2   force =    -0.00002135   -0.00025616   -0.17551661
     atom    7 type  1   force =    -0.07153783   -0.00013461   -0.02766730
     atom    8 type  1   force =    -0.07152155   -0.00013554   -0.02764258
     atom    9 type  1   force =     0.07138433    0.00029160   -0.02773341
     atom   10 type  1   force =     0.07136965    0.00030436   -0.02769916
     atom   11 type  1   force =    -0.00005510   -0.00145055    0.05287122
     atom   12 type  1   force =    -0.00002560   -0.00125892    0.05321334
     atom   13 type  1   force =     0.00000589   -0.00000478   -0.02440066
     atom   14 type  1   force =     0.00009881   -0.00023216   -0.02344088
     atom   15 type  2   force =     0.00002755    0.00048616   -0.01063735
     atom   16 type  2   force =     0.00014519    0.00349324   -0.00996796
     atom   17 type  2   force =     0.00069887    0.01060564    0.02593541
     atom   18 type  2   force =     0.00084024   -0.01140045    0.02625349
     atom   19 type  1   force =    -0.01195370   -0.00052040    0.00384839
     atom   20 type  1   force =    -0.01229935   -0.00009332    0.00376265
     atom   21 type  1   force =     0.01291597   -0.00009089    0.00219191
     atom   22 type  1   force =     0.01316194    0.00047630    0.00214897
     atom   23 type  1   force =    -0.00432070    0.00132816   -0.01314254
     atom   24 type  1   force =    -0.00237406    0.00054305   -0.02171547
     atom   25 type  1   force =     0.00023877   -0.00090476    0.00019512
     atom   26 type  1   force =     0.00001536    0.00043660    0.00083770
     atom   27 type  2   force =    -0.00039857    0.00040675   -0.00027512
     atom   28 type  2   force =    -0.00066647   -0.00052560   -0.00028785
     atom   29 type  2   force =     0.00099130    0.00001500   -0.00027302
     atom   30 type  2   force =     0.00037854   -0.00073024   -0.00026691
     atom   31 type  1   force =     0.00085210    0.00011380    0.00028746
     atom   32 type  1   force =    -0.00047701   -0.00002957    0.00017055
     atom   33 type  1   force =     0.00041722   -0.00036409    0.00002731
     atom   34 type  1   force =     0.00123945   -0.00021438    0.00004201
     atom   35 type  1   force =     0.00030674   -0.00029590    0.00021313
     atom   36 type  1   force =     0.00026988    0.00025301   -0.00033253
     atom   37 type  1   force =     0.00019370   -0.00032476   -0.00017705
     atom   38 type  1   force =     0.00014088    0.00009586    0.00075758
     atom   39 type  2   force =    -0.00081145    0.00020300   -0.00045366
     atom   40 type  2   force =    -0.00074375    0.00006374    0.00046596
     atom   41 type  2   force =     0.00022803    0.00078370    0.00057662
     atom   42 type  2   force =     0.00086003   -0.00073786    0.00131368
     atom   43 type  1   force =     0.00015889    0.00036450   -0.00030574
     atom   44 type  1   force =     0.00046344    0.00010181   -0.00004780
     atom   45 type  1   force =     0.00016894    0.00010645    0.00008363
     atom   46 type  1   force =     0.00036123    0.00031904    0.00025821
     atom   47 type  1   force =     0.00004699    0.00001381   -0.00026056
     atom   48 type  3   force =    -0.00392539    0.00150486    0.00483591
     atom   49 type  4   force =     0.00049075    0.00031503    0.00095708
     atom   50 type  4   force =     0.00003681   -0.00038052   -0.00047724
     atom   51 type  4   force =    -0.00078223    0.00054123    0.00114932
     atom   52 type  3   force =    -0.00077780   -0.00095477   -0.00042393
     atom   53 type  5   force =     0.00084120    0.00157707    0.00080082
     atom   54 type  4   force =    -0.00065575   -0.00103030   -0.00125156
     atom   55 type  1   force =     0.00381560   -0.00143991   -0.01199189

     Total force =     0.367554     Total SCF correction =     0.000865
  @ DRIVER MODE: Message from server: STATUS
  @ DRIVER MODE: Message from server: GETFORCE
  @ DRIVER MODE: Returning v,forces,stress,ensemble

     Writing output data file ./calc.save/
  @ DRIVER MODE: Message from server: EXIT
  @ DRIVE MODE: Exiting

     General routines

     Parallel routines

   This run was terminated on:   8:26: 5  27Sep2021

   JOB DONE.