     Program PWSCF v.6.7GPU starts on 12Oct2021 at 17:40:43

     R & G space division:  proc/nbgrp/npool/nimage =       8
     Reading input from /storage/home/hcoda1/3/ntian30/research/carbon/ACS_vib/ads_slab/HNNH2/out_0026/pw.inp
Warning: card &CELL ignored
Warning: card   CELL_DYNAMICS='IPI', ignored
Warning: card / ignored

     Current dimensions of program PWSCF are:
     Max number of different atomic species (ntypx) = 10
     Max number of k-points (npk) =  40000
     Max angular momentum in pseudopotentials (lmaxx) =  3
     Presently no symmetry can be used with electric field

     Message from routine cell_base_init:
     DEPRECATED: use true lattice parameter, not A to a.u. conversion factor

     IMPORTANT: XC functional enforced from input :
     Exchange-correlation= BEEF-VDW
                           (   1   4  43  14   2   0   0)
     Any further DFT definition will be discarded
     Please, verify this is what you really want

  @ DRIVER MODE: Connecting to
 qe_1139763_3181312.sched-torque.pace.gatech.edu4uo_6ixq_scratch
  using UNIX socket
  @ DRIVER MODE: Message from server: STATUS
  @ DRIVER MODE: Message from server: INIT
  @ DRIVER MODE: Receiving replica           0          -1
  @ DRIVER MODE: Receiving encoded integer          25
  @ DRIVER MODE:  SCF:  T  FORCE:  T  STRESS:  F  VC:  F  ENSEMBLE:  F
  @ DRIVER MODE:  SCF:  T  FORCE:  T  STRESS:  F  VC:  F  ENSEMBLE:  F

     Using Slab Decomposition

     bravais-lattice index     =            0
     lattice parameter (alat)  =       1.8897  a.u.
     unit-cell volume          =    6658.9804 (a.u.)^3
     number of atoms/cell      =           52
     number of atomic types    =            4
     number of electrons       =       391.00
     number of Kohn-Sham states=          205
     kinetic-energy cutoff     =      29.3995  Ry
     charge density cutoff     =     293.9946  Ry
     scf convergence threshold =      7.3E-08
     mixing beta               =       0.0500
     number of iterations used =            8  plain     mixing
     Exchange-correlation= BEEF-VDW
                           (   1   4  43  14   2   0   0)

     celldm(1)=   1.889726  celldm(2)=   0.000000  celldm(3)=   0.000000
     celldm(4)=   0.000000  celldm(5)=   0.000000  celldm(6)=   0.000000

     crystal axes: (cart. coord. in units of alat)
               a(1) = (   6.579727   0.000000   0.000000 )
               a(2) = (  -0.000775   5.961596   0.000000 )
               a(3) = (   0.000000   0.000000  25.155947 )

     reciprocal axes: (cart. coord. in units 2 pi/alat)
               b(1) = (  0.151982  0.000020  0.000000 )
               b(2) = (  0.000000  0.167740  0.000000 )
               b(3) = (  0.000000  0.000000  0.039752 )

     PseudoPot. # 1 for Ti read from file:
     /storage/coda1/p-amedford6/0/shared/rich_project_chbe-medford/medford-share/data/pseudos_module/espresso/nninc/pbe/van/Ti.UPF
     MD5 check sum: 8e4df49b7f0d34bbd5052bf3f5ea0213
     Pseudo is Ultrasoft, Zval = 12.0
     Generated by new atomic code, or converted to UPF format
     Using radial grid of  851 points,  6 beta functions with:
                l(1) =   0
                l(2) =   0
                l(3) =   1
                l(4) =   1
                l(5) =   2
                l(6) =   2
     Q(r) pseudized with  8 coefficients,  rinner =    1.000   1.000   1.000
                                                       1.000   1.000

     PseudoPot. # 2 for O  read from file:
     /storage/coda1/p-amedford6/0/shared/rich_project_chbe-medford/medford-share/data/pseudos_module/espresso/nninc/pbe/van/O.UPF
     MD5 check sum: 78c19812648e8988a0fe644b0f25305e
     Pseudo is Ultrasoft, Zval =  6.0
     Generated by new atomic code, or converted to UPF format
     Using radial grid of  737 points,  4 beta functions with:
                l(1) =   0
                l(2) =   0
                l(3) =   1
                l(4) =   1
     Q(r) pseudized with  8 coefficients,  rinner =    0.800   0.800   0.800

     PseudoPot. # 3 for H  read from file:
     /storage/coda1/p-amedford6/0/shared/rich_project_chbe-medford/medford-share/data/pseudos_module/espresso/nninc/pbe/van/H.UPF
     MD5 check sum: b5ee9d7bfd3a09ee7748110bda690ff7
     Pseudo is Ultrasoft, Zval =  1.0
     Generated by new atomic code, or converted to UPF format
     Using radial grid of  615 points,  1 beta functions with:
                l(1) =   0
     Q(r) pseudized with  8 coefficients,  rinner =    0.800

     PseudoPot. # 4 for N  read from file:
     /storage/coda1/p-amedford6/0/shared/rich_project_chbe-medford/medford-share/data/pseudos_module/espresso/nninc/pbe/van/N.UPF
     MD5 check sum: 90d10febe142ad51ac9d5be1deb811c4
     Pseudo is Ultrasoft, Zval =  5.0
     Generated by new atomic code, or converted to UPF format
     Using radial grid of  729 points,  4 beta functions with:
                l(1) =   0
                l(2) =   0
                l(3) =   1
                l(4) =   1
     Q(r) pseudized with  8 coefficients,  rinner =    0.800   0.800   0.800

     atomic species   valence    mass     pseudopotential
        Ti1           12.00    47.86700     Ti( 1.00)
        O1             6.00    15.99900     O ( 1.00)
        H1             1.00     1.00800     H ( 1.00)
        N1             5.00    14.00700     N ( 1.00)

     No symmetry found

   Cartesian axes

     site n.     atom                  positions (alat units)
         1           Ti1 tau(   1) = (   0.0004258   2.9801865   6.0000000  )
         2           Ti1 tau(   2) = (   3.2906075   1.4906267   6.0002472  )
         3           O1  tau(   3) = (   0.0006271   0.0005054   7.9858123  )
         4           O1  tau(   4) = (   3.2906025   0.0005020   7.3038282  )
         5           O1  tau(   5) = (   4.5942328   1.4918067   9.2879030  )
         6           O1  tau(   6) = (   1.9868534   1.4903216   9.2879459  )
         7           Ti1 tau(   7) = (   3.2908112   2.9011704   9.1816539  )
         8           Ti1 tau(   8) = (   0.0015097   1.3932332   9.2931702  )
         9           O1  tau(   9) = (   3.2819087   5.9526348  11.3504271  )
        10           O1  tau(  10) = (   6.5772260   5.9545827  10.6088576  )
        11           O1  tau(  11) = (   1.2874804   1.4832564  12.6509691  )
        12           O1  tau(  12) = (   5.2781146   1.4858874  12.6440994  )
        13           Ti1 tau(  13) = (   6.5585775   2.9503744  12.8030734  )
        14           Ti1 tau(  14) = (   3.2696126   1.4733128  12.4944632  )
        15           O1  tau(  15) = (   6.5513721   5.9458199  14.6768215  )
        16           O1  tau(  16) = (   3.2879482   5.9481552  13.9547078  )
        17           O1  tau(  17) = (   4.5181657   1.4884665  16.1124167  )
        18           O1  tau(  18) = (   2.0188244   1.4835402  16.0984261  )
        19           Ti1 tau(  19) = (   3.2766105   2.9578040  15.7125626  )
        20           Ti1 tau(  20) = (   0.0270592   1.3580474  16.0627221  )
        21           O1  tau(  21) = (   3.2904802   0.0005063   4.7018136  )
        22           O1  tau(  22) = (   0.0072818   5.9434210  17.2237418  )
        23           O1  tau(  23) = (   1.3043587   1.4918075   6.0039043  )
        24           O1  tau(  24) = (   5.2767064   1.4903225   6.0039473  )
        25           Ti1 tau(  25) = (   0.0000382   5.9609847   6.0000000  )
        26           Ti1 tau(  26) = (   3.2902200   4.4714249   6.0002472  )
        27           O1  tau(  27) = (   0.0002396   2.9813036   7.9858123  )
        28           O1  tau(  28) = (   3.2902150   2.9813002   7.3038282  )
        29           O1  tau(  29) = (   4.5938453   4.4726049   9.2879030  )
        30           O1  tau(  30) = (   1.9864658   4.4711199   9.2879459  )
        31           Ti1 tau(  31) = (   3.2900885   5.8829342   9.1674613  )
        32           Ti1 tau(  32) = (   0.0009626   4.3321112   9.3579051  )
        33           O1  tau(  33) = (   3.2805539   2.9674959  11.3464436  )
        34           O1  tau(  34) = (   6.5791951   2.9642230  10.5753725  )
        35           O1  tau(  35) = (   1.2880645   4.4660911  12.6414962  )
        36           O1  tau(  36) = (   5.2770833   4.4616490  12.6331305  )
        37           Ti1 tau(  37) = (   6.5652171   5.9330851  12.5680926  )
        38           Ti1 tau(  38) = (   3.2703904   4.4534766  12.4879229  )
        39           O1  tau(  39) = (   6.5642693   2.9891374  14.6930774  )
        40           O1  tau(  40) = (   3.2814391   2.9717942  13.9260038  )
        41           O1  tau(  41) = (   4.5200678   4.4336085  16.1105754  )
        42           O1  tau(  42) = (   2.0169658   4.4359636  16.1171003  )
        43           Ti1 tau(  43) = (   3.3139371   5.9425984  15.7429620  )
        44           Ti1 tau(  44) = (   0.0173840   4.5100783  16.0001754  )
        45           O1  tau(  45) = (   3.2900926   2.9813045   4.7018136  )
        46           O1  tau(  46) = (   1.3039711   4.4726057   6.0039043  )
        47           O1  tau(  47) = (   5.2763189   4.4711207   6.0039473  )
        48           H1  tau(  48) = (   5.5810648   2.9993886  17.8866560  )
        49           N1  tau(  49) = (   6.5184219   2.9788514  17.4915934  )
        50           N1  tau(  50) = (   0.8269126   2.9775512  18.6276789  )
        51           H1  tau(  51) = (   1.2125983   2.0437984  18.7562651  )
        52           H1  tau(  52) = (   1.6063704   3.6133177  18.4401992  )

     number of k points=    10  Fermi-Dirac smearing, width (Ry)=  0.0073
                       cart. coord. in units 2pi/alat
        k(    1) = (   0.0000000   0.0000000   0.0000000), wk =   0.1250000
        k(    2) = (   0.0000000   0.0419351   0.0000000), wk =   0.2500000
        k(    3) = (   0.0000000  -0.0838702   0.0000000), wk =   0.1250000
        k(    4) = (   0.0379955   0.0000049   0.0000000), wk =   0.2500000
        k(    5) = (   0.0379955   0.0419400   0.0000000), wk =   0.2500000
        k(    6) = (   0.0379955  -0.0838652   0.0000000), wk =   0.2500000
        k(    7) = (   0.0379955  -0.0419301   0.0000000), wk =   0.2500000
        k(    8) = (  -0.0759910  -0.0000099   0.0000000), wk =   0.1250000
        k(    9) = (  -0.0759910   0.0419252   0.0000000), wk =   0.2500000
        k(   10) = (  -0.0759910  -0.0838800   0.0000000), wk =   0.1250000

     Initial potential from superposition of free atoms

     starting charge  374.99920, renormalised to  391.00000

     negative rho (up, down):  1.966E-02 0.000E+00

     %%%%%%%%%%%%%%%%%%%%%%%%%%%%%%%%%%%%%%%%%%%%%%%%%%%%%%%%%%%%%%%%%%%%%%%%
     %                                                                      %
     % You are using vdW-DF, which was implemented by the Thonhauser group. %
     % Please cite the following two papers that made this development      %
     % possible and the two reviews that describe the various versions:     %
     %                                                                      %
     %   T. Thonhauser et al., PRL 115, 136402 (2015).                      %
     %   T. Thonhauser et al., PRB 76, 125112 (2007).                       %
     %   K. Berland et al., Rep. Prog. Phys. 78, 066501 (2015).             %
     %   D.C. Langreth et al., J. Phys.: Condens. Matter 21, 084203 (2009). %
     %                                                                      %
     %                                                                      %
     % If you are calculating the stress with vdW-DF, please also cite:     %
     %                                                                      %
     %   R. Sabatini et al., J. Phys.: Condens. Matter 24, 424209 (2012).   %
     %                                                                      %
     %%%%%%%%%%%%%%%%%%%%%%%%%%%%%%%%%%%%%%%%%%%%%%%%%%%%%%%%%%%%%%%%%%%%%%%%

     Adding external electric field

     Computed dipole along edir(3) :
        Dipole               -5.4650 Ry au,        -13.8907 Debye
        Dipole field         -0.0103 Ry au,

        Potential amp.        0.9560 Ry
        Total length         46.3494 bohr

     Starting wfcs are  295 atomic wfcs
  @ DRIVER MODE: Message from server: STATUS
  @ DRIVER MODE: Message from server: POSDATA
  @ DRIVER MODE: Reading and sharing cell
  @ DRIVER MODE: Reading and sharing positions
  @ DRIVER MODE: Received positions

     Self-consistent Calculation

     iteration #  1     ecut=    29.40 Ry     beta= 0.05
     Davidson diagonalization with overlap
     c_bands:  2 eigenvalues not converged
     c_bands:  1 eigenvalues not converged
     c_bands:  2 eigenvalues not converged
     c_bands:  3 eigenvalues not converged
     c_bands:  4 eigenvalues not converged
     c_bands:  2 eigenvalues not converged
     c_bands:  1 eigenvalues not converged
     c_bands:  1 eigenvalues not converged
     c_bands:  2 eigenvalues not converged
     ethr =  1.00E-05,  avg # of iterations = 19.8

[...]

     total energy              =   -2794.84989469 Ry
     estimated scf accuracy    <    1458.62699484 Ry

     iteration #  2     ecut=    29.40 Ry     beta= 0.05
     Davidson diagonalization with overlap
     ethr =  1.00E-02,  avg # of iterations = 16.9

[...]

     iteration # 44     ecut=    29.40 Ry     beta= 0.05
     Davidson diagonalization with overlap
     c_bands:  1 eigenvalues not converged
     ethr =  1.56E-08,  avg # of iterations = 11.4

[...]

     total energy              =   -2927.71114816 Ry
     estimated scf accuracy    <       0.00000008 Ry

     iteration # 58     ecut=    29.40 Ry     beta= 0.05
     Davidson diagonalization with overlap
     ethr =  1.93E-11,  avg # of iterations =  6.7

     negative rho (up, down):  1.936E-02 0.000E+00

     Adding external electric field

     Computed dipole along edir(3) :
        Dipole                0.4592 Ry au,          1.1671 Debye
        Dipole field          0.0009 Ry au,

        Potential amp.       -0.0803 Ry
        Total length         46.3494 bohr

     End of self-consistent calculation

          k = 0.0000 0.0000 0.0000 ( 18029 PWs)   bands (ev):

   -56.1400 -56.1249 -56.1042 -56.0886 -56.0423 -56.0084 -55.9685 -55.9440
   -55.8943 -55.8812 -55.8671 -55.8310 -55.7605 -55.7557 -55.0767 -55.0427
   -32.6963 -32.5998 -32.4817 -32.4698 -32.4593 -32.4272 -32.4014 -32.3837
   -32.3735 -32.3528 -32.3476 -32.3439 -32.3305 -32.3062 -32.3023 -32.2817
   -32.2757 -32.2545 -32.2229 -32.2114 -32.2081 -32.1904 -32.1590 -32.1530
   -32.1516 -32.1316 -32.1299 -32.1060 -32.0990 -32.0945 -32.0942 -32.0734
   -32.0725 -32.0392 -32.0166 -32.0156 -31.9795 -31.9761 -31.9670 -31.9547
   -31.9404 -31.8972 -31.4839 -31.3954 -31.3725 -31.3001 -31.2137 -31.1031
   -16.9031 -16.6629 -16.5233 -16.3650 -16.2640 -16.2414 -16.1845 -15.9060
   -15.8391 -15.7769 -15.7594 -15.7379 -15.7271 -15.6634 -15.6624 -15.6282
   -15.5841 -15.5496 -15.5386 -15.5092 -15.5020 -15.4530 -15.4281 -15.3980
   -15.3635 -15.2796 -15.2250 -15.1538 -15.1176 -15.0779 -13.5806 -13.4646
   -11.2619  -5.2303  -4.6034  -4.2490  -4.1311  -4.0488  -3.9974  -3.9306
    -3.7828  -3.7245  -3.5884  -3.3390  -3.3017  -3.2873  -3.2579  -3.2203
    -3.0324  -2.9826  -2.9467  -2.9248  -2.9190  -2.9119  -2.8742  -2.8419
    -2.8343  -2.8316  -2.7154  -2.6442  -2.5567  -2.5485  -2.4764  -2.4379
    -2.4140  -2.4108  -2.3702  -2.3469  -2.3260  -2.3082  -2.2822  -2.1798
    -2.1547  -2.0722  -1.9832  -1.8981  -1.7759  -1.7129  -1.7011  -1.5738
    -1.5143  -1.5117  -1.4780  -1.4568  -1.4168  -1.3392  -1.3019  -1.2539
    -1.1752  -1.1309  -1.0610  -1.0322  -1.0165  -0.9764  -0.9014  -0.8535
    -0.8465  -0.8354  -0.6298  -0.6025  -0.5929  -0.5786  -0.4603  -0.3791
    -0.3619  -0.3318  -0.3150  -0.3026  -0.2491  -0.1581  -0.1293  -0.1173
    -0.0980  -0.0122   0.0578   0.0651   0.0985   0.1868   0.2102   0.3267
     0.3913   0.5672   0.6027   0.7197   0.8639   0.9429   0.9766   1.1371
     1.5231   1.5624   1.5738   3.0565   3.0744   3.1116   3.1324   3.2688
     3.3787   3.3825   3.4808   3.5017   3.5540

[...]

          k = 0.0380-0.0419 0.0000 ( 17876 PWs)   bands (ev):

[...]

          k =-0.0760-0.0000 0.0000 ( 17886 PWs)   bands (ev):

[...]

          k =-0.0760-0.0839 0.0000 ( 17948 PWs)   bands (ev):

   -56.1278 -56.1163 -56.1075 -56.1058 -56.0380 -56.0039 -55.9726 -55.9485
   -55.8922 -55.8783 -55.8560 -55.8424 -55.7626 -55.7580 -55.0599 -55.0593
   -32.5002 -32.4967 -32.4332 -32.4232 -32.4161 -32.4103 -32.4003 -32.3988
   -32.3375 -32.3368 -32.3333 -32.3039 -32.3017 -32.2854 -32.2708 -32.2569
   -32.2491 -32.2477 -32.2347 -32.2326 -32.2201 -32.2087 -32.1941 -32.1839
   -32.1759 -32.1672 -32.1643 -32.1590 -32.1423 -32.1074 -32.0867 -32.0850
   -32.0839 -32.0658 -32.0653 -32.0592 -32.0481 -32.0209 -32.0177 -31.9908
   -31.9486 -31.9466 -31.3857 -31.3849 -31.2971 -31.2964 -31.2573 -31.2565
   -16.5294 -16.3594 -16.3131 -16.0813 -16.0660 -16.0232 -15.9456 -15.8931
   -15.8879 -15.8630 -15.8557 -15.7958 -15.7853 -15.7732 -15.7448 -15.6482
   -15.6465 -15.6349 -15.6159 -15.5544 -15.5388 -15.5045 -15.4739 -15.4647
   -15.4379 -15.4100 -15.3798 -15.3579 -15.2961 -15.2794 -13.5668 -13.5659
   -11.2701  -5.2293  -4.5600  -3.6972  -3.6470  -3.5984  -3.2942  -3.2763
    -3.2476  -3.1329  -3.0649  -3.0389  -3.0061  -2.9773  -2.9415  -2.9301
    -2.9151  -2.9108  -2.9025  -2.8999  -2.8683  -2.8383  -2.8229  -2.7763
    -2.7485  -2.7400  -2.7235  -2.7072  -2.7026  -2.6529  -2.6491  -2.6441
    -2.6355  -2.5191  -2.3857  -2.3687  -2.3306  -2.2114  -2.1879  -2.1820
    -2.1523  -2.1414  -2.1356  -2.0791  -1.9740  -1.8693  -1.8202  -1.7994
    -1.7756  -1.7136  -1.5965  -1.5461  -1.5356  -1.5045  -1.4427  -1.4230
    -1.3718  -1.3658  -1.2606  -1.2337  -1.2106  -1.1360  -1.0746  -1.0568
    -1.0344  -0.9755  -0.9281  -0.9075  -0.8993  -0.8535  -0.7526  -0.7441
    -0.6954  -0.6849  -0.6327  -0.6271  -0.5740  -0.4453  -0.2044  -0.1664
    -0.0942  -0.0714   0.0204   0.0522   0.0795   0.1744   0.2028   0.3042
     0.3446   0.4394   0.4463   0.4620   0.5046   0.6686   1.3077   1.3104
     1.3839   1.3903   1.5651   3.2128   3.2502   3.2750   3.3388   3.5192
     3.5428   3.5438   3.5584   3.5903   3.6857

     the Fermi energy is     3.0148 ev

!    total energy              =   -2927.71119644 Ry
     estimated scf accuracy    <       0.00000005 Ry
     smearing contrib. (-TS)   =      -0.02327241 Ry
     internal energy E=F+TS    =   -2927.68792402 Ry

     The total energy is F=E-TS. E is the sum of the following terms:
     one-electron contribution =  -24559.71494773 Ry
     hartree contribution      =   12363.04512019 Ry
     xc contribution           =    -481.64678515 Ry
     ewald contribution        =    9750.62829076 Ry
     electric field correction =       0.00039792 Ry

     convergence has been achieved in  58 iterations

     Forces acting on atoms (cartesian axes, Ry/au):

     atom    1 type  1   force =     0.00026068    0.00111605    0.11026512
     atom    2 type  1   force =     0.00006262    0.00172161   -0.17427124
     atom    3 type  2   force =     0.00010647    0.00665828   -0.03419749
     atom    4 type  2   force =     0.00001447   -0.00085828    0.05079644
     atom    5 type  2   force =    -0.01745520   -0.00134776    0.00575708
     atom    6 type  2   force =     0.01690742   -0.00101662    0.00538313
     atom    7 type  1   force =     0.00007050    0.00260701   -0.01786611
     atom    8 type  1   force =    -0.00002194    0.00012437    0.00032368
     atom    9 type  2   force =    -0.00001042    0.00009466   -0.00039381
     atom   10 type  2   force =     0.00000158   -0.00050898   -0.00007971
     atom   11 type  2   force =     0.00010003   -0.00024948   -0.00006095
     atom   12 type  2   force =    -0.00009705   -0.00036160   -0.00022135
     atom   13 type  1   force =    -0.00037975   -0.00034844    0.00004822
     atom   14 type  1   force =    -0.00076175    0.00007461   -0.00012859
     atom   15 type  2   force =    -0.00011495   -0.00029115    0.00067394
     atom   16 type  2   force =     0.00011570   -0.00014852   -0.00029223
     atom   17 type  2   force =     0.00011954   -0.00024284    0.00055812
     atom   18 type  2   force =     0.00099540   -0.00049121    0.00048968
     atom   19 type  1   force =    -0.00005826    0.00036832    0.00004744
     atom   20 type  1   force =    -0.00009950   -0.00086941    0.00112392
     atom   21 type  2   force =     0.00009648    0.00006317    0.10311275
     atom   22 type  2   force =     0.00005372    0.00052701   -0.00156835
     atom   23 type  2   force =    -0.07112953    0.00061918   -0.03028568
     atom   24 type  2   force =     0.07109521    0.00103581   -0.03029367
     atom   25 type  1   force =     0.00005440   -0.00110115    0.11742542
     atom   26 type  1   force =     0.00004356   -0.00256093   -0.17411126
     atom   27 type  2   force =     0.00006875   -0.00281539   -0.02990611
     atom   28 type  2   force =     0.00002576   -0.00148735    0.05395365
     atom   29 type  2   force =    -0.01861092    0.00057102    0.00665450
     atom   30 type  2   force =     0.01809148    0.00124293    0.00629833
     atom   31 type  1   force =     0.00039875   -0.00271627   -0.01224631
     atom   32 type  1   force =     0.00000016    0.00038852    0.00069607
     atom   33 type  2   force =     0.00002435   -0.00009355   -0.00044182
     atom   34 type  2   force =     0.00006911    0.00032008    0.00039093
     atom   35 type  2   force =     0.00001255    0.00005790   -0.00029694
     atom   36 type  2   force =     0.00005963    0.00001122   -0.00033101
     atom   37 type  1   force =    -0.00049830   -0.00042729    0.00097458
     atom   38 type  1   force =    -0.00070555    0.00003626   -0.00014388
     atom   39 type  2   force =    -0.00013087   -0.00063751   -0.00042282
     atom   40 type  2   force =     0.00001437   -0.00010185   -0.00060620
     atom   41 type  2   force =    -0.00029415    0.00015929    0.00048684
     atom   42 type  2   force =     0.00084054    0.00038458    0.00001823
     atom   43 type  1   force =     0.00028368   -0.00018260   -0.00000743
     atom   44 type  1   force =     0.00048986    0.00063262    0.00064417
     atom   45 type  2   force =     0.00008004    0.00013698    0.10304499
     atom   46 type  2   force =    -0.07142067   -0.00054924   -0.03021615
     atom   47 type  2   force =     0.07138802   -0.00010716   -0.03026778
     atom   48 type  3   force =     0.00064685    0.00036405   -0.00002234
     atom   49 type  4   force =     0.00091465    0.00025046    0.00019328
     atom   50 type  4   force =     0.00903824    0.00609757   -0.00200224
     atom   51 type  3   force =    -0.00054443    0.00004233   -0.00037334
     atom   52 type  3   force =    -0.01021128   -0.00619131    0.00169431

     Total force =     0.376386     Total SCF correction =     0.000449
  @ DRIVER MODE: Message from server: STATUS
  @ DRIVER MODE: Message from server: GETFORCE
  @ DRIVER MODE: Returning v,forces,stress,ensemble

     Writing output data file ./calc.save/
  @ DRIVER MODE: Message from server: EXIT
  @ DRIVE MODE: Exiting

     General routines

     Parallel routines

   This run was terminated on:  17:59:57  12Oct2021

   JOB DONE.