     Program PWSCF v.6.7GPU starts on 27Sep2021 at 20:57: 8

     R & G space division:  proc/nbgrp/npool/nimage =       8
     Reading input from /storage/home/hcoda1/3/ntian30/research/carbon/CxH_vib/H2O_calc/ads_slab/CH3OHN2H2O_a/out_0010/pw.inp
Warning: card &CELL ignored
Warning: card   CELL_DYNAMICS='IPI', ignored
Warning: card / ignored

     Current dimensions of program PWSCF are:
     Max number of different atomic species (ntypx) = 10
     Max number of k-points (npk) =  40000
     Max angular momentum in pseudopotentials (lmaxx) =  3
     Presently no symmetry can be used with electric field

     Message from routine cell_base_init:
     DEPRECATED: use true lattice parameter, not A to a.u. conversion factor

     IMPORTANT: XC functional enforced from input :
     Exchange-correlation= BEEF-VDW
                           (   1   4  43  14   2   0   0)
     Any further DFT definition will be discarded
     Please, verify this is what you really want

  @ DRIVER MODE: Connecting to
 qe_1139763_3000313.sched-torque.pace.gatech.edurae2q3fr_scratch
  using UNIX socket
  @ DRIVER MODE: Message from server: STATUS
  @ DRIVER MODE: Message from server: INIT
  @ DRIVER MODE: Receiving replica           0          -1
  @ DRIVER MODE: Receiving encoded integer          25
  @ DRIVER MODE:  SCF:  T  FORCE:  T  STRESS:  F  VC:  F  ENSEMBLE:  F
  @ DRIVER MODE:  SCF:  T  FORCE:  T  STRESS:  F  VC:  F  ENSEMBLE:  F

     Using Slab Decomposition

     bravais-lattice index     =            0
     lattice parameter (alat)  =       1.8897  a.u.
     unit-cell volume          =    6658.9804 (a.u.)^3
     number of atoms/cell      =           58
     number of atomic types    =            5
     number of electrons       =       410.00
     number of Kohn-Sham states=          215
     kinetic-energy cutoff     =      29.3995  Ry
     charge density cutoff     =     293.9946  Ry
     scf convergence threshold =      7.3E-08
     mixing beta               =       0.0500
     number of iterations used =            8  plain     mixing
     Exchange-correlation= BEEF-VDW
                           (   1   4  43  14   2   0   0)

     celldm(1)=   1.889726  celldm(2)=   0.000000  celldm(3)=   0.000000
     celldm(4)=   0.000000  celldm(5)=   0.000000  celldm(6)=   0.000000

     crystal axes: (cart. coord. in units of alat)
               a(1) = (   6.579727   0.000000   0.000000 )
               a(2) = (  -0.000775   5.961596   0.000000 )
               a(3) = (   0.000000   0.000000  25.155947 )

     reciprocal axes: (cart. coord. in units 2 pi/alat)
               b(1) = (  0.151982  0.000020  0.000000 )
               b(2) = (  0.000000  0.167740  0.000000 )
               b(3) = (  0.000000  0.000000  0.039752 )

     PseudoPot. # 1 for Ti read from file:
     /storage/coda1/p-amedford6/0/shared/rich_project_chbe-medford/medford-share/data/pseudos_module/espresso/nninc/pbe/van/Ti.UPF
     MD5 check sum: 8e4df49b7f0d34bbd5052bf3f5ea0213
     Pseudo is Ultrasoft, Zval = 12.0
     Generated by new atomic code, or converted to UPF format
     Using radial grid of  851 points,  6 beta functions with:
                l(1) =   0
                l(2) =   0
                l(3) =   1
                l(4) =   1
                l(5) =   2
                l(6) =   2
     Q(r) pseudized with  8 coefficients,  rinner =    1.000   1.000   1.000
                                                       1.000   1.000

     PseudoPot. # 2 for O  read from file:
     /storage/coda1/p-amedford6/0/shared/rich_project_chbe-medford/medford-share/data/pseudos_module/espresso/nninc/pbe/van/O.UPF
     MD5 check sum: 78c19812648e8988a0fe644b0f25305e
     Pseudo is Ultrasoft, Zval =  6.0
     Generated by new atomic code, or converted to UPF format
     Using radial grid of  737 points,  4 beta functions with:
                l(1) =   0
                l(2) =   0
                l(3) =   1
                l(4) =   1
     Q(r) pseudized with  8 coefficients,  rinner =    0.800   0.800   0.800

     PseudoPot. # 3 for C  read from file:
     /storage/coda1/p-amedford6/0/shared/rich_project_chbe-medford/medford-share/data/pseudos_module/espresso/nninc/pbe/van/C.UPF
     MD5 check sum: 1a69bf6b8db32088f5b2163dbdb77a27
     Pseudo is Ultrasoft, Zval =  4.0
     Generated by new atomic code, or converted to UPF format
     Using radial grid of  721 points,  4 beta functions with:
                l(1) =   0
                l(2) =   0
                l(3) =   1
                l(4) =   1
     Q(r) pseudized with  8 coefficients,  rinner =    0.800   0.800   0.800

     PseudoPot. # 4 for H  read from file:
     /storage/coda1/p-amedford6/0/shared/rich_project_chbe-medford/medford-share/data/pseudos_module/espresso/nninc/pbe/van/H.UPF
     MD5 check sum: b5ee9d7bfd3a09ee7748110bda690ff7
     Pseudo is Ultrasoft, Zval =  1.0
     Generated by new atomic code, or converted to UPF format
     Using radial grid of  615 points,  1 beta functions with:
                l(1) =   0
     Q(r) pseudized with  8 coefficients,  rinner =    0.800

     PseudoPot. # 5 for N  read from file:
     /storage/coda1/p-amedford6/0/shared/rich_project_chbe-medford/medford-share/data/pseudos_module/espresso/nninc/pbe/van/N.UPF
     MD5 check sum: 90d10febe142ad51ac9d5be1deb811c4
     Pseudo is Ultrasoft, Zval =  5.0
     Generated by new atomic code, or converted to UPF format
     Using radial grid of  729 points,  4 beta functions with:
                l(1) =   0
                l(2) =   0
                l(3) =   1
                l(4) =   1
     Q(r) pseudized with  8 coefficients,  rinner =    0.800   0.800   0.800

     atomic species   valence    mass     pseudopotential
        Ti1           12.00    47.86700     Ti( 1.00)
        O1             6.00    15.99900     O ( 1.00)
        C1             4.00    12.01100     C ( 1.00)
        H1             1.00     1.00800     H ( 1.00)
        N1             5.00    14.00700     N ( 1.00)

     No symmetry found

   Cartesian axes

     site n.     atom                  positions (alat units)
         1           Ti1 tau(   1) = (   0.0004258   2.9801865   6.0000000  )
         2           Ti1 tau(   2) = (   3.2906075   1.4906267   6.0002472  )
         3           O1  tau(   3) = (   0.0006271   0.0005054   7.9858123  )
         4           O1  tau(   4) = (   3.2906025   0.0005020   7.3038282  )
         5           O1  tau(   5) = (   4.5942328   1.4918067   9.2879030  )
         6           O1  tau(   6) = (   1.9868534   1.4903216   9.2879459  )
         7           Ti1 tau(   7) = (   3.3250738   2.9918783   9.1599549  )
         8           Ti1 tau(   8) = (   0.0412716   1.4903975   9.2658274  )
         9           O1  tau(   9) = (   3.2852344   0.0116916  11.3753809  )
        10           O1  tau(  10) = (   6.5701620   0.0027176  10.6052010  )
        11           O1  tau(  11) = (   1.2758103   1.4969824  12.6410148  )
        12           O1  tau(  12) = (   5.2796941   1.4985041  12.6691897  )
        13           Ti1 tau(  13) = (   6.5531116   2.9870417  12.5348353  )
        14           Ti1 tau(  14) = (   3.2504356   1.4995581  12.5215122  )
        15           O1  tau(  15) = (   0.0383206   0.0046779  14.6787597  )
        16           O1  tau(  16) = (   3.2537876   0.0095675  14.0320577  )
        17           O1  tau(  17) = (   4.5855444   1.5609978  16.0639115  )
        18           O1  tau(  18) = (   2.0343745   1.5440679  16.2001998  )
        19           Ti1 tau(  19) = (   3.3058624   3.0043567  15.7064231  )
        20           Ti1 tau(  20) = (   6.5549511   1.4266458  15.8675638  )
        21           O1  tau(  21) = (   3.2904802   0.0005063   4.7018136  )
        22           O1  tau(  22) = (   6.4974171   0.0126247  17.2237355  )
        23           O1  tau(  23) = (   1.3043587   1.4918075   6.0039043  )
        24           O1  tau(  24) = (   5.2767064   1.4903225   6.0039473  )
        25           Ti1 tau(  25) = (   0.0000382   5.9609847   6.0000000  )
        26           Ti1 tau(  26) = (   3.2902200   4.4714249   6.0002472  )
        27           O1  tau(  27) = (   0.0002396   2.9813036   7.9858123  )
        28           O1  tau(  28) = (   3.2902150   2.9813002   7.3038282  )
        29           O1  tau(  29) = (   4.5938453   4.4726049   9.2879030  )
        30           O1  tau(  30) = (   1.9864658   4.4711199   9.2879459  )
        31           Ti1 tau(  31) = (   3.3194574   0.0113313   9.1541029  )
        32           Ti1 tau(  32) = (   0.0414074   4.4589881   9.2683624  )
        33           O1  tau(  33) = (   3.2821265   2.9896323  11.3676027  )
        34           O1  tau(  34) = (   6.5712111   2.9825298  10.6251173  )
        35           O1  tau(  35) = (   1.2751242   4.4805681  12.6359318  )
        36           O1  tau(  36) = (   5.2791817   4.4782367  12.6627471  )
        37           Ti1 tau(  37) = (   6.5506445   0.0032150  12.4806913  )
        38           Ti1 tau(  38) = (   3.2507345   4.4881811  12.5195668  )
        39           O1  tau(  39) = (   0.0469291   2.9928743  14.8464778  )
        40           O1  tau(  40) = (   3.2514374   2.9975957  13.9281162  )
        41           O1  tau(  41) = (   4.5866068   4.4203933  16.0984022  )
        42           O1  tau(  42) = (   2.0418857   4.4579080  16.2200674  )
        43           Ti1 tau(  43) = (   3.2648600   0.0292614  15.8571223  )
        44           Ti1 tau(  44) = (   6.5763064   4.6169283  15.9626260  )
        45           O1  tau(  45) = (   3.2900926   2.9813045   4.7018136  )
        46           O1  tau(  46) = (   1.3039711   4.4726057   6.0039043  )
        47           O1  tau(  47) = (   5.2763189   4.4711207   6.0039473  )
        48           C1  tau(  48) = (   6.0301898   2.9050411  18.9351799  )
        49           O1  tau(  49) = (   0.1575529   2.9616393  17.6723866  )
        50           H1  tau(  50) = (   4.9714676   2.8818909  18.6991823  )
        51           H1  tau(  51) = (   1.1132637   2.8218831  17.8130049  )
        52           H1  tau(  52) = (   6.2985093   1.9952365  19.4696065  )
        53           H1  tau(  53) = (   6.2732381   3.7939772  19.5169533  )
        54           N1  tau(  54) = (   4.8840950   3.1052494  22.6850861  )
        55           N1  tau(  55) = (   4.2680757   3.3403818  21.7970487  )
        56           O1  tau(  56) = (   3.8772584   0.1141246  18.3039653  )
        57           H1  tau(  57) = (   4.8407149   0.0692883  18.0716375  )
        58           H1  tau(  58) = (   3.6680196   5.2122673  18.6877519  )

     number of k points=    10  Fermi-Dirac smearing, width (Ry)=  0.0073
                       cart. coord. in units 2pi/alat
        k(    1) = (   0.0000000   0.0000000   0.0000000), wk =   0.1250000
        k(    2) = (   0.0000000   0.0419351   0.0000000), wk =   0.2500000
        k(    3) = (   0.0000000  -0.0838702   0.0000000), wk =   0.1250000
        k(    4) = (   0.0379955   0.0000049   0.0000000), wk =   0.2500000
        k(    5) = (   0.0379955   0.0419400   0.0000000), wk =   0.2500000
        k(    6) = (   0.0379955  -0.0838652   0.0000000), wk =   0.2500000
        k(    7) = (   0.0379955  -0.0419301   0.0000000), wk =   0.2500000
        k(    8) = (  -0.0759910  -0.0000099   0.0000000), wk =   0.1250000
        k(    9) = (  -0.0759910   0.0419252   0.0000000), wk =   0.2500000
        k(   10) = (  -0.0759910  -0.0838800   0.0000000), wk =   0.1250000

     Initial potential from superposition of free atoms

     starting charge  393.99913, renormalised to  410.00000

     negative rho (up, down):  9.553E-03 0.000E+00

     %%%%%%%%%%%%%%%%%%%%%%%%%%%%%%%%%%%%%%%%%%%%%%%%%%%%%%%%%%%%%%%%%%%%%%%%
     %                                                                      %
     % You are using vdW-DF, which was implemented by the Thonhauser group. %
     % Please cite the following two papers that made this development      %
     % possible and the two reviews that describe the various versions:     %
     %                                                                      %
     %   T. Thonhauser et al., PRL 115, 136402 (2015).                      %
     %   T. Thonhauser et al., PRB 76, 125112 (2007).                       %
     %   K. Berland et al., Rep. Prog. Phys. 78, 066501 (2015).             %
     %   D.C. Langreth et al., J. Phys.: Condens. Matter 21, 084203 (2009). %
     %                                                                      %
     %                                                                      %
     % If you are calculating the stress with vdW-DF, please also cite:     %
     %                                                                      %
     %   R. Sabatini et al., J. Phys.: Condens. Matter 24, 424209 (2012).   %
     %                                                                      %
     %%%%%%%%%%%%%%%%%%%%%%%%%%%%%%%%%%%%%%%%%%%%%%%%%%%%%%%%%%%%%%%%%%%%%%%%

     Adding external electric field

     Computed dipole along edir(3) :
        Dipole              -20.0784 Ry au,        -51.0342 Debye
        Dipole field         -0.0379 Ry au,

        Potential amp.        3.5124 Ry
        Total length         46.3494 bohr

     Starting wfcs are  310 atomic wfcs
  @ DRIVER MODE: Message from server: STATUS
  @ DRIVER MODE: Message from server: POSDATA
  @ DRIVER MODE: Reading and sharing cell
  @ DRIVER MODE: Reading and sharing positions
  @ DRIVER MODE: Received positions

     Self-consistent Calculation

     iteration #  1     ecut=    29.40 Ry     beta= 0.05
     Davidson diagonalization with overlap
     c_bands:  1 eigenvalues not converged
     c_bands:  1 eigenvalues not converged
     c_bands:  5 eigenvalues not converged
     c_bands:  1 eigenvalues not converged
     c_bands:  4 eigenvalues not converged
     c_bands:  3 eigenvalues not converged
     ethr =  1.00E-05,  avg # of iterations = 32.2

[...]

     total energy              =   -2098.61908186 Ry
     estimated scf accuracy    <   10668.29078980 Ry

     iteration #  2     ecut=    29.40 Ry     beta= 0.05
     Davidson diagonalization with overlap
     ethr =  1.00E-02,  avg # of iterations = 30.9

[...]

     iteration #103     ecut=    29.40 Ry     beta= 0.05
     Davidson diagonalization with overlap
     ethr =  2.29E-11,  avg # of iterations =  1.5

[...]

     total energy              =   -3007.66318434 Ry
     estimated scf accuracy    <       0.00000009 Ry

     iteration #104     ecut=    29.40 Ry     beta= 0.05
     Davidson diagonalization with overlap
     c_bands:  1 eigenvalues not converged
     c_bands:  2 eigenvalues not converged
     c_bands:  1 eigenvalues not converged
     ethr =  2.16E-11,  avg # of iterations = 14.9

     negative rho (up, down):  1.050E-02 0.000E+00

     Adding external electric field

     Computed dipole along edir(3) :
        Dipole                1.2330 Ry au,          3.1340 Debye
        Dipole field          0.0023 Ry au,

        Potential amp.       -0.2157 Ry
        Total length         46.3494 bohr

     End of self-consistent calculation

          k = 0.0000 0.0000 0.0000 ( 18029 PWs)   bands (ev):

   -54.9353 -54.9116 -54.8992 -54.8772 -54.8623 -54.8568 -54.8298 -54.8103
   -54.7822 -54.7798 -54.7453 -54.7245 -54.6932 -54.6906 -53.9995 -53.9654
   -31.5010 -31.4752 -31.4074 -31.3143 -31.2554 -31.2496 -31.2374 -31.2355
   -31.2002 -31.1656 -31.1565 -31.1543 -31.1498 -31.1267 -31.1201 -31.1140
   -31.0977 -31.0789 -31.0732 -31.0715 -31.0650 -31.0571 -31.0344 -31.0283
   -31.0276 -31.0219 -31.0071 -31.0048 -31.0040 -30.9681 -30.9508 -30.9308
   -30.9293 -30.9283 -30.9203 -30.9190 -30.9091 -30.8789 -30.8646 -30.8601
   -30.8557 -30.8361 -30.4115 -30.3092 -30.2876 -30.2277 -30.1413 -30.0303
   -21.6239 -19.8005 -18.2753 -15.7684 -15.5224 -15.3831 -15.2857 -15.1622
   -15.0319 -14.9580 -14.8377 -14.7656 -14.6720 -14.6585 -14.6403 -14.6188
   -14.5859 -14.5597 -14.5027 -14.4978 -14.4430 -14.4395 -14.4289 -14.4180
   -14.3853 -14.3692 -14.3387 -14.3297 -14.1672 -14.1016 -14.0419 -13.8978
   -12.5003 -12.3810 -10.8181  -6.8741  -6.5493  -6.0331  -4.8530  -4.7819
    -4.7269  -4.6281  -3.5462  -3.1018  -2.9507  -2.9146  -2.8932  -2.8716
    -2.7467  -2.6560  -2.6260  -2.4670  -2.3728  -2.2379  -2.2108  -2.1775
    -2.1399  -2.0717  -2.0152  -1.9292  -1.8996  -1.8588  -1.8393  -1.8156
    -1.8008  -1.7741  -1.7436  -1.6715  -1.6338  -1.5490  -1.5333  -1.4447
    -1.3923  -1.3839  -1.3410  -1.2781  -1.2746  -1.2644  -1.2239  -1.2106
    -1.2021  -1.1920  -1.1850  -1.0243  -0.9787  -0.9452  -0.8219  -0.7116
    -0.6192  -0.6093  -0.5059  -0.4925  -0.4297  -0.4249  -0.3855  -0.3461
    -0.2838  -0.1871  -0.1289  -0.0830  -0.0698   0.0408   0.1065   0.1215
     0.1827   0.2577   0.2730   0.2945   0.3236   0.4110   0.4788   0.5207
     0.5551   0.6199   0.6297   0.6770   0.7060   0.7469   0.8326   0.8863
     0.8899   0.9769   0.9942   1.0073   1.0328   1.0383   1.1365   1.1704
     1.2147   1.2426   1.3939   1.4292   1.6201   1.6558   1.9158   2.0144
     2.0261   2.1874   2.6120   2.6665   4.1545   4.2226   4.2590   4.2662
     4.2809   4.3604   4.6428   4.6528   4.6630   4.6748   4.6827

[...]

          k = 0.0380-0.0419 0.0000 ( 17876 PWs)   bands (ev):

[...]

          k =-0.0760-0.0000 0.0000 ( 17886 PWs)   bands (ev):

[...]

          k =-0.0760-0.0839 0.0000 ( 17948 PWs)   bands (ev):

   -54.9182 -54.9161 -54.8961 -54.8926 -54.8574 -54.8522 -54.8226 -54.8178
   -54.7895 -54.7648 -54.7599 -54.7090 -54.7062 -54.6949 -53.9824 -53.9824
   -31.3878 -31.3099 -31.2997 -31.2241 -31.2206 -31.1979 -31.1906 -31.1890
   -31.1821 -31.1592 -31.1446 -31.1428 -31.1351 -31.1289 -31.1100 -31.0960
   -31.0807 -31.0787 -31.0697 -31.0684 -31.0667 -31.0656 -31.0600 -31.0546
   -31.0297 -31.0247 -31.0204 -31.0151 -31.0150 -31.0124 -31.0113 -31.0110
   -31.0109 -30.9819 -30.9735 -30.9629 -30.9615 -30.9342 -30.9318 -30.8958
   -30.8926 -30.8782 -30.3001 -30.3001 -30.2243 -30.2239 -30.1846 -30.1844
   -21.6237 -19.7969 -18.2742 -15.3434 -15.2300 -15.0643 -14.9558 -14.9460
   -14.9175 -14.8584 -14.8153 -14.7840 -14.7441 -14.7339 -14.7044 -14.6863
   -14.6813 -14.6236 -14.5396 -14.5339 -14.5202 -14.4848 -14.4578 -14.4438
   -14.4418 -14.4275 -14.3904 -14.3886 -14.3695 -14.3583 -14.3017 -14.2097
   -12.4823 -12.4817 -10.8207  -6.8732  -6.5514  -6.0355  -4.8501  -4.7886
    -4.7205  -4.6164  -3.5379  -2.7665  -2.5382  -2.4975  -2.4249  -2.2587
    -2.1790  -2.1582  -2.0825  -2.0585  -2.0234  -1.9448  -1.9410  -1.9070
    -1.8669  -1.8426  -1.8369  -1.8185  -1.8003  -1.7671  -1.7465  -1.7252
    -1.7118  -1.6967  -1.6501  -1.6412  -1.6054  -1.6019  -1.5870  -1.5754
    -1.5557  -1.5453  -1.4668  -1.4355  -1.3957  -1.3097  -1.2931  -1.1636
    -1.1580  -1.1106  -1.0756  -1.0370  -1.0181  -0.9968  -0.9711  -0.9402
    -0.9105  -0.7378  -0.7167  -0.6740  -0.6233  -0.6171  -0.5434  -0.5276
    -0.4730  -0.4412  -0.3514  -0.3103  -0.2708  -0.1622  -0.1353  -0.1229
     0.0151   0.0211   0.0662   0.0678   0.1099   0.1486   0.1612   0.1682
     0.2429   0.2753   0.3117   0.3377   0.3614   0.5395   0.5757   0.6346
     0.7239   0.7421   0.9207   0.9507   0.9947   1.0756   1.1370   1.1910
     1.2131   1.3213   1.3290   1.3524   1.4439   1.4923   1.4935   1.5236
     2.3773   2.3803   2.4810   2.4838   4.2790   4.4098   4.4160   4.4960
     4.5698   4.6624   4.6673   4.6776   4.7073   4.7176   4.7218

     the Fermi energy is     4.2107 ev

!    total energy              =   -3007.66318535 Ry
     estimated scf accuracy    <       0.00000005 Ry
     smearing contrib. (-TS)   =      -0.03683487 Ry
     internal energy E=F+TS    =   -3007.62635048 Ry

     The total energy is F=E-TS. E is the sum of the following terms:
     one-electron contribution =  -22339.07443315 Ry
     hartree contribution      =   11271.33330136 Ry
     xc contribution           =    -502.07941459 Ry
     ewald contribution        =    8562.19132687 Ry
     electric field correction =       0.00286903 Ry

     convergence has been achieved in 104 iterations

     Forces acting on atoms (cartesian axes, Ry/au):

     atom    1 type  1   force =    -0.00027690   -0.00001217    0.09251223
     atom    2 type  1   force =    -0.00012897    0.00114387   -0.18323112
     atom    3 type  2   force =     0.00054808   -0.00040266   -0.02389808
     atom    4 type  2   force =     0.00079676    0.00021117    0.05085624
     atom    5 type  2   force =    -0.01549517   -0.00013640    0.00436907
     atom    6 type  2   force =     0.01421287   -0.00032472    0.00505029
     atom    7 type  1   force =    -0.00011255    0.00020479    0.00006688
     atom    8 type  1   force =    -0.00007960    0.00016831    0.00001153
     atom    9 type  2   force =     0.00007491    0.00004450    0.00008065
     atom   10 type  2   force =    -0.00000117    0.00001755   -0.00004344
     atom   11 type  2   force =     0.00017560    0.00001047   -0.00013266
     atom   12 type  2   force =     0.00003532    0.00002669   -0.00005538
     atom   13 type  1   force =     0.00016834    0.00011644   -0.00004247
     atom   14 type  1   force =     0.00027029    0.00016523   -0.00009289
     atom   15 type  2   force =     0.00027688    0.00068233   -0.00000731
     atom   16 type  2   force =     0.00015262   -0.00000231    0.00020636
     atom   17 type  2   force =     0.00006874    0.00014532    0.00016933
     atom   18 type  2   force =    -0.00002520    0.00010296    0.00049445
     atom   19 type  1   force =     0.00010193   -0.00001704    0.00008563
     atom   20 type  1   force =     0.00019084   -0.00017543   -0.00041463
     atom   21 type  2   force =     0.00003012    0.00001398    0.10486713
     atom   22 type  2   force =    -0.00023926    0.00076906    0.00011190
     atom   23 type  2   force =    -0.06800759   -0.00011242   -0.02683910
     atom   24 type  2   force =     0.06787056    0.00034404   -0.02688155
     atom   25 type  1   force =    -0.00011788   -0.00002316    0.09596309
     atom   26 type  1   force =    -0.00011058   -0.00144122   -0.18314394
     atom   27 type  2   force =     0.00049790   -0.00019717   -0.02270194
     atom   28 type  2   force =     0.00086304    0.00018004    0.05125535
     atom   29 type  2   force =    -0.01541338    0.00050110    0.00454130
     atom   30 type  2   force =     0.01416967    0.00077789    0.00524006
     atom   31 type  1   force =    -0.00009775    0.00005524    0.00000113
     atom   32 type  1   force =    -0.00007773    0.00016477   -0.00003846
     atom   33 type  2   force =     0.00012491   -0.00002776    0.00012595
     atom   34 type  2   force =    -0.00000081    0.00007062    0.00002805
     atom   35 type  2   force =     0.00013197    0.00000541   -0.00002449
     atom   36 type  2   force =     0.00007749    0.00000327    0.00009931
     atom   37 type  1   force =     0.00016303    0.00007662   -0.00010558
     atom   38 type  1   force =     0.00015133   -0.00003191    0.00005925
     atom   39 type  2   force =     0.00017413   -0.00006406   -0.00019363
     atom   40 type  2   force =     0.00002391   -0.00018968    0.00004804
     atom   41 type  2   force =     0.00015092    0.00003937    0.00000582
     atom   42 type  2   force =     0.00013863    0.00012044   -0.00006235
     atom   43 type  1   force =    -0.00003558   -0.00032110    0.00113765
     atom   44 type  1   force =     0.00007256    0.00006369    0.00057350
     atom   45 type  2   force =     0.00003420    0.00002035    0.10479706
     atom   46 type  2   force =    -0.06801965   -0.00051228   -0.02683049
     atom   47 type  2   force =     0.06787822   -0.00008982   -0.02690740
     atom   48 type  3   force =    -0.00030445    0.00223958   -0.00034514
     atom   49 type  2   force =     0.00216567   -0.00381015    0.00095143
     atom   50 type  4   force =    -0.00011770   -0.00046661    0.00011159
     atom   51 type  4   force =    -0.00216886    0.00058090   -0.00060103
     atom   52 type  4   force =     0.00090605   -0.00053054   -0.00089023
     atom   53 type  4   force =    -0.00047095   -0.00011499    0.00067390
     atom   54 type  5   force =    -0.00085127    0.00001030   -0.00097239
     atom   55 type  5   force =     0.00028751   -0.00005591    0.00010283
     atom   56 type  2   force =     0.00130548    0.00056767   -0.00080479
     atom   57 type  4   force =    -0.00102148   -0.00045650    0.00022837
     atom   58 type  4   force =    -0.00111599   -0.00012795    0.00043512

     Total force =     0.368157     Total SCF correction =     0.000517
  @ DRIVER MODE: Message from server: STATUS
  @ DRIVER MODE: Message from server: GETFORCE
  @ DRIVER MODE: Returning v,forces,stress,ensemble

     Writing output data file ./calc.save/
  @ DRIVER MODE: Message from server: EXIT
  @ DRIVE MODE: Exiting

     General routines

     Parallel routines

   This run was terminated on:  21:31:52  27Sep2021

   JOB DONE.