     Program PWSCF v.6.7GPU starts on 24Aug2021 at  3:30:44

     R & G space division:  proc/nbgrp/npool/nimage =       6
     Reading input from /storage/home/hcoda1/3/ntian30/research/carbon/CH_vib/ads_slab/CHNNHH_a/out_0028/pw.inp
Warning: card &CELL ignored
Warning: card   CELL_DYNAMICS='IPI', ignored
Warning: card / ignored

     Current dimensions of program PWSCF are:
     Max number of different atomic species (ntypx) = 10
     Max number of k-points (npk) =  40000
     Max angular momentum in pseudopotentials (lmaxx) =  3
     Presently no symmetry can be used with electric field

     Message from routine cell_base_init:
     DEPRECATED: use true lattice parameter, not A to a.u. conversion factor

     IMPORTANT: XC functional enforced from input :
     Exchange-correlation= BEEF-VDW
                           (   1   4  43  14   2   0   0)
     Any further DFT definition will be discarded
     Please, verify this is what you really want

  @ DRIVER MODE: Connecting to
 qe_1139763_2632796.sched-torque.pace.gatech.eduhsiwloak_scratch
  using UNIX socket
  @ DRIVER MODE: Message from server: STATUS
  @ DRIVER MODE: Message from server: INIT
  @ DRIVER MODE: Receiving replica           0          -1
  @ DRIVER MODE: Receiving encoded integer          25
  @ DRIVER MODE:  SCF:  T  FORCE:  T  STRESS:  F  VC:  F  ENSEMBLE:  F
  @ DRIVER MODE:  SCF:  T  FORCE:  T  STRESS:  F  VC:  F  ENSEMBLE:  F

     Using Slab Decomposition

     bravais-lattice index     =            0
     lattice parameter (alat)  =       1.8897  a.u.
     unit-cell volume          =    6658.9804 (a.u.)^3
     number of atoms/cell      =           53
     number of atomic types    =            5
     number of electrons       =       395.00
     number of Kohn-Sham states=          207
     kinetic-energy cutoff     =      29.3995  Ry
     charge density cutoff     =     293.9946  Ry
     scf convergence threshold =      7.3E-08
     mixing beta               =       0.0500
     number of iterations used =            8  plain     mixing
     Exchange-correlation= BEEF-VDW
                           (   1   4  43  14   2   0   0)

     celldm(1)=   1.889726  celldm(2)=   0.000000  celldm(3)=   0.000000
     celldm(4)=   0.000000  celldm(5)=   0.000000  celldm(6)=   0.000000

     crystal axes: (cart. coord. in units of alat)
               a(1) = (   6.579727   0.000000   0.000000 )
               a(2) = (  -0.000775   5.961596   0.000000 )
               a(3) = (   0.000000   0.000000  25.155947 )

     reciprocal axes: (cart. coord. in units 2 pi/alat)
               b(1) = (  0.151982  0.000020  0.000000 )
               b(2) = (  0.000000  0.167740  0.000000 )
               b(3) = (  0.000000  0.000000  0.039752 )

     PseudoPot. # 1 for Ti read from file:
     /storage/coda1/p-amedford6/0/shared/rich_project_chbe-medford/medford-share/data/pseudos_module/espresso/nninc/pbe/van/Ti.UPF
     MD5 check sum: 8e4df49b7f0d34bbd5052bf3f5ea0213
     Pseudo is Ultrasoft, Zval = 12.0
     Generated by new atomic code, or converted to UPF format
     Using radial grid of  851 points,  6 beta functions with:
                l(1) =   0
                l(2) =   0
                l(3) =   1
                l(4) =   1
                l(5) =   2
                l(6) =   2
     Q(r) pseudized with  8 coefficients,  rinner =    1.000   1.000   1.000
                                                       1.000   1.000

     PseudoPot. # 2 for O  read from file:
     /storage/coda1/p-amedford6/0/shared/rich_project_chbe-medford/medford-share/data/pseudos_module/espresso/nninc/pbe/van/O.UPF
     MD5 check sum: 78c19812648e8988a0fe644b0f25305e
     Pseudo is Ultrasoft, Zval =  6.0
     Generated by new atomic code, or converted to UPF format
     Using radial grid of  737 points,  4 beta functions with:
                l(1) =   0
                l(2) =   0
                l(3) =   1
                l(4) =   1
     Q(r) pseudized with  8 coefficients,  rinner =    0.800   0.800   0.800

     PseudoPot. # 3 for N  read from file:
     /storage/coda1/p-amedford6/0/shared/rich_project_chbe-medford/medford-share/data/pseudos_module/espresso/nninc/pbe/van/N.UPF
     MD5 check sum: 90d10febe142ad51ac9d5be1deb811c4
     Pseudo is Ultrasoft, Zval =  5.0
     Generated by new atomic code, or converted to UPF format
     Using radial grid of  729 points,  4 beta functions with:
                l(1) =   0
                l(2) =   0
                l(3) =   1
                l(4) =   1
     Q(r) pseudized with  8 coefficients,  rinner =    0.800   0.800   0.800

     PseudoPot. # 4 for C  read from file:
     /storage/coda1/p-amedford6/0/shared/rich_project_chbe-medford/medford-share/data/pseudos_module/espresso/nninc/pbe/van/C.UPF
     MD5 check sum: 1a69bf6b8db32088f5b2163dbdb77a27
     Pseudo is Ultrasoft, Zval =  4.0
     Generated by new atomic code, or converted to UPF format
     Using radial grid of  721 points,  4 beta functions with:
                l(1) =   0
                l(2) =   0
                l(3) =   1
                l(4) =   1
     Q(r) pseudized with  8 coefficients,  rinner =    0.800   0.800   0.800

     PseudoPot. # 5 for H  read from file:
     /storage/coda1/p-amedford6/0/shared/rich_project_chbe-medford/medford-share/data/pseudos_module/espresso/nninc/pbe/van/H.UPF
     MD5 check sum: b5ee9d7bfd3a09ee7748110bda690ff7
     Pseudo is Ultrasoft, Zval =  1.0
     Generated by new atomic code, or converted to UPF format
     Using radial grid of  615 points,  1 beta functions with:
                l(1) =   0
     Q(r) pseudized with  8 coefficients,  rinner =    0.800

     atomic species   valence    mass     pseudopotential
        Ti1           12.00    47.86700     Ti( 1.00)
        O1             6.00    15.99900     O ( 1.00)
        N1             5.00    14.00700     N ( 1.00)
        C1             4.00    12.01100     C ( 1.00)
        H1             1.00     1.00800     H ( 1.00)

     No symmetry found

   Cartesian axes

     site n.     atom                  positions (alat units)
         1           Ti1 tau(   1) = (   0.0004258   2.9801865   6.0000000  )
         2           Ti1 tau(   2) = (   3.2906075   1.4906267   6.0002472  )
         3           O1  tau(   3) = (   0.0006271   0.0005054   7.9858123  )
         4           O1  tau(   4) = (   3.2906025   0.0005020   7.3038282  )
         5           O1  tau(   5) = (   4.5942328   1.4918067   9.2879030  )
         6           O1  tau(   6) = (   1.9868534   1.4903216   9.2879459  )
         7           Ti1 tau(   7) = (   3.2907910   2.8959150   9.1758416  )
         8           Ti1 tau(   8) = (   0.0015273   1.4827037   9.2680791  )
         9           O1  tau(   9) = (   3.2912281   5.9459940  11.3193265  )
        10           O1  tau(  10) = (   0.0116148   5.9584955  10.6183126  )
        11           O1  tau(  11) = (   1.3103257   1.4650607  12.6442557  )
        12           O1  tau(  12) = (   5.3047449   1.4806448  12.6312737  )
        13           Ti1 tau(  13) = (   6.5337005   3.0128982  12.6900614  )
        14           Ti1 tau(  14) = (   3.2207025   1.4698770  12.4715817  )
        15           O1  tau(  15) = (   6.5518216   5.9146589  14.6704082  )
        16           O1  tau(  16) = (   3.3240203   5.9583723  13.8895330  )
        17           O1  tau(  17) = (   4.5456974   1.5225049  16.1264218  )
        18           O1  tau(  18) = (   2.0489736   1.4727210  15.9535721  )
        19           Ti1 tau(  19) = (   3.2591190   2.9927146  15.6788090  )
        20           Ti1 tau(  20) = (   0.0289511   1.3544711  15.7732889  )
        21           O1  tau(  21) = (   3.2904802   0.0005063   4.7018136  )
        22           O1  tau(  22) = (   0.0559926   0.0451390  17.2112278  )
        23           O1  tau(  23) = (   1.3043587   1.4918075   6.0039043  )
        24           O1  tau(  24) = (   5.2767064   1.4903225   6.0039473  )
        25           Ti1 tau(  25) = (   0.0000382   5.9609847   6.0000000  )
        26           Ti1 tau(  26) = (   3.2902200   4.4714249   6.0002472  )
        27           O1  tau(  27) = (   0.0002396   2.9813036   7.9858123  )
        28           O1  tau(  28) = (   3.2902150   2.9813002   7.3038282  )
        29           O1  tau(  29) = (   4.5938453   4.4726049   9.2879030  )
        30           O1  tau(  30) = (   1.9864658   4.4711199   9.2879459  )
        31           Ti1 tau(  31) = (   3.2891106   5.8743827   9.1763621  )
        32           Ti1 tau(  32) = (   0.0006254   4.4649316   9.2693709  )
        33           O1  tau(  33) = (   3.2889932   2.9698301  11.3211337  )
        34           O1  tau(  34) = (   0.0092240   2.9805883  10.6323155  )
        35           O1  tau(  35) = (   1.3069247   4.4567274  12.6410950  )
        36           O1  tau(  36) = (   5.3013738   4.4587240  12.6283471  )
        37           Ti1 tau(  37) = (   6.5339814   0.0202798  12.5235249  )
        38           Ti1 tau(  38) = (   3.2191325   4.4512509  12.4750946  )
        39           O1  tau(  39) = (   6.5688456   2.9522374  14.7547250  )
        40           O1  tau(  40) = (   3.3031296   2.9710333  13.8824388  )
        41           O1  tau(  41) = (   4.5425837   4.4734130  15.9989242  )
        42           O1  tau(  42) = (   2.0771424   4.4889556  16.0364895  )
        43           Ti1 tau(  43) = (   3.3121389   0.0026565  15.6888161  )
        44           Ti1 tau(  44) = (   6.5128106   4.4989306  16.3061806  )
        45           O1  tau(  45) = (   3.2900926   2.9813045   4.7018136  )
        46           O1  tau(  46) = (   1.3039711   4.4726057   6.0039043  )
        47           O1  tau(  47) = (   5.2763189   4.4711207   6.0039473  )
        48           N1  tau(  48) = (   0.4628824   2.9849886  17.7976856  )
        49           C1  tau(  49) = (   1.4182946   2.9518240  18.6700831  )
        50           H1  tau(  50) = (   2.3503500   2.6458988  18.1556329  )
        51           N1  tau(  51) = (   5.7893717   3.5482605  18.2279111  )
        52           H1  tau(  52) = (   5.8942619   4.0112392  19.1365464  )
        53           H1  tau(  53) = (   5.0734348   2.8266848  18.2415795  )

     number of k points=    10  Fermi-Dirac smearing, width (Ry)=  0.0073
                       cart. coord. in units 2pi/alat
        k(    1) = (   0.0000000   0.0000000   0.0000000), wk =   0.1250000
        k(    2) = (   0.0000000   0.0419351   0.0000000), wk =   0.2500000
        k(    3) = (   0.0000000  -0.0838702   0.0000000), wk =   0.1250000
        k(    4) = (   0.0379955   0.0000049   0.0000000), wk =   0.2500000
        k(    5) = (   0.0379955   0.0419400   0.0000000), wk =   0.2500000
        k(    6) = (   0.0379955  -0.0838652   0.0000000), wk =   0.2500000
        k(    7) = (   0.0379955  -0.0419301   0.0000000), wk =   0.2500000
        k(    8) = (  -0.0759910  -0.0000099   0.0000000), wk =   0.1250000
        k(    9) = (  -0.0759910   0.0419252   0.0000000), wk =   0.2500000
        k(   10) = (  -0.0759910  -0.0838800   0.0000000), wk =   0.1250000

     Initial potential from superposition of free atoms

     starting charge  378.99916, renormalised to  395.00000

     negative rho (up, down):  1.775E-02 0.000E+00

     %%%%%%%%%%%%%%%%%%%%%%%%%%%%%%%%%%%%%%%%%%%%%%%%%%%%%%%%%%%%%%%%%%%%%%%%
     %                                                                      %
     % You are using vdW-DF, which was implemented by the Thonhauser group. %
     % Please cite the following two papers that made this development      %
     % possible and the two reviews that describe the various versions:     %
     %                                                                      %
     %   T. Thonhauser et al., PRL 115, 136402 (2015).                      %
     %   T. Thonhauser et al., PRB 76, 125112 (2007).                       %
     %   K. Berland et al., Rep. Prog. Phys. 78, 066501 (2015).             %
     %   D.C. Langreth et al., J. Phys.: Condens. Matter 21, 084203 (2009). %
     %                                                                      %
     %                                                                      %
     % If you are calculating the stress with vdW-DF, please also cite:     %
     %                                                                      %
     %   R. Sabatini et al., J. Phys.: Condens. Matter 24, 424209 (2012).   %
     %                                                                      %
     %%%%%%%%%%%%%%%%%%%%%%%%%%%%%%%%%%%%%%%%%%%%%%%%%%%%%%%%%%%%%%%%%%%%%%%%

     Adding external electric field

     Computed dipole along edir(3) :
        Dipole               -8.0620 Ry au,        -20.4914 Debye
        Dipole field         -0.0152 Ry au,

        Potential amp.        1.4103 Ry
        Total length         46.3494 bohr

     Starting wfcs are  299 atomic wfcs
  @ DRIVER MODE: Message from server: STATUS
  @ DRIVER MODE: Message from server: POSDATA
  @ DRIVER MODE: Reading and sharing cell
  @ DRIVER MODE: Reading and sharing positions
  @ DRIVER MODE: Received positions

     Self-consistent Calculation

     iteration #  1     ecut=    29.40 Ry     beta= 0.05
     Davidson diagonalization with overlap
     c_bands:  1 eigenvalues not converged
     c_bands:  1 eigenvalues not converged
     c_bands:  2 eigenvalues not converged
     c_bands:  3 eigenvalues not converged
     c_bands:  3 eigenvalues not converged
     c_bands:  2 eigenvalues not converged
     c_bands:  1 eigenvalues not converged
     ethr =  1.00E-05,  avg # of iterations = 19.3

[...]

     total energy              =   -2614.87347713 Ry
     estimated scf accuracy    <    3583.93972764 Ry

[...]

     iteration #  3     ecut=    29.40 Ry     beta= 0.05
     Davidson diagonalization with overlap
     ethr =  1.00E-02,  avg # of iterations = 14.3

[...]

     iteration # 70     ecut=    29.40 Ry     beta= 0.05
     Davidson diagonalization with overlap
     c_bands:  1 eigenvalues not converged
     c_bands:  2 eigenvalues not converged
     c_bands:  2 eigenvalues not converged
     ethr =  2.81E-11,  avg # of iterations = 15.1

[...]

     total energy              =   -2939.00603858 Ry
     estimated scf accuracy    <       0.00000012 Ry

     iteration # 71     ecut=    29.40 Ry     beta= 0.05
     Davidson diagonalization with overlap
     ethr =  2.81E-11,  avg # of iterations = 11.0

     negative rho (up, down):  1.647E-02 0.000E+00

     Adding external electric field

     Computed dipole along edir(3) :
        Dipole                0.3054 Ry au,          0.7762 Debye
        Dipole field          0.0006 Ry au,

        Potential amp.       -0.0534 Ry
        Total length         46.3494 bohr

     End of self-consistent calculation

          k = 0.0000 0.0000 0.0000 ( 18029 PWs)   bands (ev):

   -56.1060 -56.1038 -56.0719 -56.0675 -55.9940 -55.9596 -55.9537 -55.9186
   -55.9032 -55.8690 -55.8676 -55.8334 -55.6453 -55.5851 -55.0757 -55.0416
   -32.6629 -32.5872 -32.4856 -32.4254 -32.4112 -32.4071 -32.3984 -32.3588
   -32.3460 -32.3314 -32.3056 -32.2843 -32.2778 -32.2583 -32.2514 -32.2447
   -32.2092 -32.1958 -32.1932 -32.1887 -32.1845 -32.1634 -32.1570 -32.1411
   -32.1158 -32.1018 -32.1007 -32.0997 -32.0947 -32.0912 -32.0699 -32.0431
   -32.0427 -32.0281 -32.0208 -32.0012 -31.9797 -31.9517 -31.8736 -31.8440
   -31.8009 -31.7364 -31.4823 -31.3951 -31.3726 -31.2993 -31.2129 -31.1016
   -17.9685 -16.8719 -16.5821 -16.3669 -16.2613 -16.2458 -16.1395 -15.9541
   -15.8208 -15.7927 -15.6859 -15.6794 -15.6383 -15.6259 -15.5969 -15.5734
   -15.5649 -15.5386 -15.5359 -15.5196 -15.4752 -15.4520 -15.4328 -15.3366
   -15.2968 -15.2362 -15.2144 -15.1530 -15.0309 -14.7962 -13.5779 -13.4616
   -13.3027  -8.0388  -6.3585  -4.3620  -4.2460  -4.0695  -4.0086  -3.9670
    -3.9603  -3.7184  -3.6857  -3.3267  -3.2943  -3.2746  -3.2641  -3.2528
    -3.1386  -3.0180  -2.9620  -2.9204  -2.9100  -2.8993  -2.8921  -2.8792
    -2.8533  -2.8311  -2.7274  -2.6830  -2.6519  -2.5421  -2.5239  -2.4314
    -2.4160  -2.4051  -2.3705  -2.3502  -2.3411  -2.3151  -2.3039  -2.2765
    -2.1916  -2.1435  -2.0283  -1.9625  -1.8845  -1.8497  -1.7024  -1.6588
    -1.5703  -1.5635  -1.5455  -1.5237  -1.4906  -1.4046  -1.3307  -1.2410
    -1.1990  -1.1612  -1.1255  -1.0820  -1.0008  -0.9817  -0.9643  -0.8678
    -0.8640  -0.8547  -0.8115  -0.6101  -0.5856  -0.5516  -0.5388  -0.4616
    -0.4031  -0.3855  -0.3654  -0.3175  -0.2574  -0.1941  -0.1483  -0.1333
    -0.1219  -0.1185  -0.0840  -0.0582   0.0846   0.0951   0.1893   0.2012
     0.2244   0.3510   0.5255   0.5634   0.5859   0.7062   0.8774   0.9467
     1.0485   1.1397   1.5170   1.5622   2.4086   3.0319   3.1181   3.1518
     3.1713   3.2767   3.3098   3.4793   3.4946   3.5298   3.5490

[...]

          k = 0.0380-0.0419 0.0000 ( 17876 PWs)   bands (ev):

[...]

          k =-0.0760-0.0000 0.0000 ( 17886 PWs)   bands (ev):

[...]

          k =-0.0760-0.0839 0.0000 ( 17948 PWs)   bands (ev):

   -56.0899 -56.0879 -56.0875 -56.0835 -55.9848 -55.9628 -55.9500 -55.9281
   -55.8880 -55.8837 -55.8540 -55.8473 -55.6420 -55.5884 -55.0587 -55.0585
   -32.4663 -32.4619 -32.4030 -32.4020 -32.3847 -32.3834 -32.3650 -32.3527
   -32.3336 -32.3142 -32.2908 -32.2743 -32.2485 -32.2388 -32.2380 -32.2194
   -32.2193 -32.2097 -32.2074 -32.2016 -32.2004 -32.1925 -32.1867 -32.1725
   -32.1677 -32.1495 -32.1332 -32.1305 -32.0876 -32.0856 -32.0839 -32.0799
   -32.0710 -32.0688 -32.0651 -32.0636 -32.0595 -31.9699 -31.8850 -31.8373
   -31.8042 -31.7927 -31.3854 -31.3852 -31.2952 -31.2950 -31.2562 -31.2561
   -17.9585 -16.3077 -16.2918 -16.0753 -16.0307 -16.0266 -16.0057 -15.9173
   -15.8271 -15.8080 -15.7938 -15.7762 -15.7613 -15.6812 -15.6555 -15.6332
   -15.6293 -15.6167 -15.5618 -15.5561 -15.5530 -15.5478 -15.5279 -15.4947
   -15.4122 -15.4073 -15.3964 -15.1584 -15.0929 -15.0211 -13.5636 -13.5632
   -13.3156  -7.9959  -6.2976  -4.3778  -3.6007  -3.5819  -3.3562  -3.3113
    -3.2828  -3.2738  -3.1586  -3.0562  -3.0262  -3.0136  -2.9750  -2.9569
    -2.9443  -2.9319  -2.9190  -2.8998  -2.8742  -2.8403  -2.8351  -2.7893
    -2.7725  -2.7514  -2.7340  -2.7123  -2.7113  -2.6707  -2.6649  -2.6261
    -2.5879  -2.5430  -2.4335  -2.3794  -2.3374  -2.2877  -2.2348  -2.2234
    -2.2146  -2.1609  -2.1558  -2.1224  -2.0364  -1.9615  -1.8259  -1.8041
    -1.7711  -1.7301  -1.6970  -1.5980  -1.5561  -1.5068  -1.4547  -1.3989
    -1.3871  -1.3441  -1.3074  -1.2412  -1.2242  -1.1844  -1.1630  -1.1010
    -1.0593  -1.0552  -0.9916  -0.9243  -0.8666  -0.8637  -0.8431  -0.8274
    -0.7701  -0.7222  -0.6556  -0.6064  -0.5648  -0.4679  -0.4109  -0.2946
    -0.1862  -0.0672   0.0039   0.0078   0.0634   0.1408   0.1861   0.2209
     0.2315   0.2494   0.3412   0.4132   0.4321   0.4461   0.5161   0.6987
     1.3114   1.3126   1.3815   1.3824   2.4053   3.3200   3.3582   3.3725
     3.4036   3.5487   3.5514   3.5639   3.5674   3.6880   3.7290

     the Fermi energy is     3.0290 ev

!    total energy              =   -2939.00605973 Ry
     estimated scf accuracy    <       0.00000003 Ry
     smearing contrib. (-TS)   =      -0.02201023 Ry
     internal energy E=F+TS    =   -2938.98404950 Ry

     The total energy is F=E-TS. E is the sum of the following terms:
     one-electron contribution =  -24452.69750887 Ry
     hartree contribution      =   12311.42480594 Ry
     xc contribution           =    -485.12575338 Ry
     ewald contribution        =    9687.41423083 Ry
     electric field correction =       0.00017598 Ry

     convergence has been achieved in  71 iterations

     Forces acting on atoms (cartesian axes, Ry/au):

     atom    1 type  1   force =     0.00018522   -0.00028835    0.09690407
     atom    2 type  1   force =     0.00006518   -0.00078755   -0.17499523
     atom    3 type  2   force =     0.00014654   -0.00008634   -0.02552847
     atom    4 type  2   force =    -0.00003226   -0.00142614    0.05152727
     atom    5 type  2   force =    -0.01204239   -0.00173076    0.00279282
     atom    6 type  2   force =     0.01346223   -0.00133930    0.00223372
     atom    7 type  1   force =     0.00040678    0.00015511   -0.01208386
     atom    8 type  1   force =     0.00018911    0.02417750    0.02897124
     atom    9 type  2   force =    -0.00004283    0.00052254   -0.00006540
     atom   10 type  2   force =    -0.00266301    0.00014722   -0.01164035
     atom   11 type  2   force =    -0.00002705    0.00026840    0.00003848
     atom   12 type  2   force =    -0.00024874   -0.00001770    0.00013435
     atom   13 type  1   force =    -0.00012681    0.00114905   -0.00014900
     atom   14 type  1   force =    -0.00000514    0.00049701    0.00003760
     atom   15 type  2   force =     0.00008648   -0.00008142   -0.00006756
     atom   16 type  2   force =    -0.00021360    0.00023255   -0.00031260
     atom   17 type  2   force =     0.00034588    0.00018320   -0.00032815
     atom   18 type  2   force =    -0.00025116    0.00010121   -0.00011461
     atom   19 type  1   force =    -0.00016229   -0.00015756   -0.00055846
     atom   20 type  1   force =     0.00018449   -0.00002940   -0.00020598
     atom   21 type  2   force =     0.00006722   -0.00007217    0.10298362
     atom   22 type  2   force =     0.00000367   -0.00018047   -0.00029120
     atom   23 type  2   force =    -0.07168836   -0.00016503   -0.02791150
     atom   24 type  2   force =     0.07159217    0.00029440   -0.02794977
     atom   25 type  1   force =     0.00003783   -0.00025162    0.09679846
     atom   26 type  1   force =    -0.00000642   -0.00018354   -0.17516046
     atom   27 type  2   force =     0.00015771   -0.00026822   -0.02419863
     atom   28 type  2   force =     0.00001413   -0.00117902    0.05208701
     atom   29 type  2   force =    -0.01219892    0.00077979    0.00246930
     atom   30 type  2   force =     0.01350363    0.00126371    0.00187867
     atom   31 type  1   force =     0.00045050    0.00286969   -0.01396700
     atom   32 type  1   force =     0.00038593   -0.02517278    0.03046605
     atom   33 type  2   force =     0.00004173   -0.00008392   -0.00016994
     atom   34 type  2   force =    -0.00184002   -0.00050236   -0.02071935
     atom   35 type  2   force =    -0.00000354    0.00022165   -0.00005484
     atom   36 type  2   force =     0.00017212    0.00033240    0.00015938
     atom   37 type  1   force =    -0.00021111   -0.00085671   -0.00002143
     atom   38 type  1   force =     0.00008345    0.00012909   -0.00021917
     atom   39 type  2   force =     0.00008175    0.00032774   -0.00022224
     atom   40 type  2   force =    -0.00006559    0.00008624    0.00042441
     atom   41 type  2   force =     0.00041824    0.00006464   -0.00014302
     atom   42 type  2   force =    -0.00026062   -0.00005706   -0.00022194
     atom   43 type  1   force =    -0.00035921    0.00028852    0.00008835
     atom   44 type  1   force =     0.00005868   -0.00014780    0.00012090
     atom   45 type  2   force =     0.00005403   -0.00006534    0.10298955
     atom   46 type  2   force =    -0.07172076   -0.00012444   -0.02790727
     atom   47 type  2   force =     0.07160710    0.00025141   -0.02793278
     atom   48 type  3   force =    -0.00012278    0.00058785    0.00052794
     atom   49 type  4   force =    -0.00011276    0.00021856   -0.00010260
     atom   50 type  5   force =     0.00033952    0.00044856   -0.00020624
     atom   51 type  3   force =     0.00122523    0.00366173    0.00462834
     atom   52 type  5   force =    -0.00088822   -0.00430409   -0.00586430
     atom   53 type  5   force =    -0.00007296    0.00029936    0.00105183

     Total force =     0.369105     Total SCF correction =     0.000368
  @ DRIVER MODE: Message from server: STATUS
  @ DRIVER MODE: Message from server: GETFORCE
  @ DRIVER MODE: Returning v,forces,stress,ensemble

     Writing output data file ./calc.save/
  @ DRIVER MODE: Message from server: EXIT
  @ DRIVE MODE: Exiting

     General routines

     Parallel routines

   This run was terminated on:   4: 3:37  24Aug2021

   JOB DONE.