     Program PWSCF v.6.7GPU starts on 19Oct2021 at  2: 1:39

     R & G space division:  proc/nbgrp/npool/nimage =       8
     Reading input from /storage/home/hcoda1/3/ntian30/research/carbon/CxH_vib/Thiel_calc/ads_slab/NH2NH2HH_perslab/out_0030/pw.inp
Warning: card &CELL ignored
Warning: card   CELL_DYNAMICS='IPI', ignored
Warning: card / ignored

     Current dimensions of program PWSCF are:
     Max number of different atomic species (ntypx) = 10
     Max number of k-points (npk) =  40000
     Max angular momentum in pseudopotentials (lmaxx) =  3
     Presently no symmetry can be used with electric field

     Message from routine cell_base_init:
     DEPRECATED: use true lattice parameter, not A to a.u. conversion factor

     IMPORTANT: XC functional enforced from input :
     Exchange-correlation= BEEF-VDW
                           (   1   4  43  14   2   0   0)
     Any further DFT definition will be discarded
     Please, verify this is what you really want

  @ DRIVER MODE: Connecting to
 qe_1139763_3255137.sched-torque.pace.gatech.edur2c40vky_scratch
  using UNIX socket
  @ DRIVER MODE: Message from server: STATUS
  @ DRIVER MODE: Message from server: INIT
  @ DRIVER MODE: Receiving replica           0          -1
  @ DRIVER MODE: Receiving encoded integer          25
  @ DRIVER MODE:  SCF:  T  FORCE:  T  STRESS:  F  VC:  F  ENSEMBLE:  F
  @ DRIVER MODE:  SCF:  T  FORCE:  T  STRESS:  F  VC:  F  ENSEMBLE:  F

     Using Slab Decomposition

     bravais-lattice index     =            0
     lattice parameter (alat)  =       1.8897  a.u.
     unit-cell volume          =    9988.4706 (a.u.)^3
     number of atoms/cell      =           61
     number of atomic types    =            4
     number of electrons       =       442.00
     number of Kohn-Sham states=          231
     kinetic-energy cutoff     =      29.3995  Ry
     charge density cutoff     =     293.9946  Ry
     scf convergence threshold =      7.3E-08
     mixing beta               =       0.0500
     number of iterations used =            8  plain     mixing
     Exchange-correlation= BEEF-VDW
                           (   1   4  43  14   2   0   0)

     celldm(1)=   1.889726  celldm(2)=   0.000000  celldm(3)=   0.000000
     celldm(4)=   0.000000  celldm(5)=   0.000000  celldm(6)=   0.000000

     crystal axes: (cart. coord. in units of alat)
               a(1) = (   6.579727   0.000000   0.000000 )
               a(2) = (  -0.001163   8.942395   0.000000 )
               a(3) = (   0.000000   0.000000  25.155947 )

     reciprocal axes: (cart. coord. in units 2 pi/alat)
               b(1) = (  0.151982  0.000020  0.000000 )
               b(2) = (  0.000000  0.111827  0.000000 )
               b(3) = (  0.000000  0.000000  0.039752 )

     PseudoPot. # 1 for O  read from file:
     /storage/coda1/p-amedford6/0/shared/rich_project_chbe-medford/medford-share/data/pseudos_module/espresso/nninc/pbe/van/O.UPF
     MD5 check sum: 78c19812648e8988a0fe644b0f25305e
     Pseudo is Ultrasoft, Zval =  6.0
     Generated by new atomic code, or converted to UPF format
     Using radial grid of  737 points,  4 beta functions with:
                l(1) =   0
                l(2) =   0
                l(3) =   1
                l(4) =   1
     Q(r) pseudized with  8 coefficients,  rinner =    0.800   0.800   0.800

     PseudoPot. # 2 for Ti read from file:
     /storage/coda1/p-amedford6/0/shared/rich_project_chbe-medford/medford-share/data/pseudos_module/espresso/nninc/pbe/van/Ti.UPF
     MD5 check sum: 8e4df49b7f0d34bbd5052bf3f5ea0213
     Pseudo is Ultrasoft, Zval = 12.0
     Generated by new atomic code, or converted to UPF format
     Using radial grid of  851 points,  6 beta functions with:
                l(1) =   0
                l(2) =   0
                l(3) =   1
                l(4) =   1
                l(5) =   2
                l(6) =   2
     Q(r) pseudized with  8 coefficients,  rinner =    1.000   1.000   1.000
                                                       1.000   1.000

     PseudoPot. # 3 for N  read from file:
     /storage/coda1/p-amedford6/0/shared/rich_project_chbe-medford/medford-share/data/pseudos_module/espresso/nninc/pbe/van/N.UPF
     MD5 check sum: 90d10febe142ad51ac9d5be1deb811c4
     Pseudo is Ultrasoft, Zval =  5.0
     Generated by new atomic code, or converted to UPF format
     Using radial grid of  729 points,  4 beta functions with:
                l(1) =   0
                l(2) =   0
                l(3) =   1
                l(4) =   1
     Q(r) pseudized with  8 coefficients,  rinner =    0.800   0.800   0.800

     PseudoPot. # 4 for H  read from file:
     /storage/coda1/p-amedford6/0/shared/rich_project_chbe-medford/medford-share/data/pseudos_module/espresso/nninc/pbe/van/H.UPF
     MD5 check sum: b5ee9d7bfd3a09ee7748110bda690ff7
     Pseudo is Ultrasoft, Zval =  1.0
     Generated by new atomic code, or converted to UPF format
     Using radial grid of  615 points,  1 beta functions with:
                l(1) =   0
     Q(r) pseudized with  8 coefficients,  rinner =    0.800

     atomic species   valence    mass     pseudopotential
        O1             6.00    15.99900     O ( 1.00)
        Ti1           12.00    47.86700     Ti( 1.00)
        N1             5.00    14.00700     N ( 1.00)
        H1             1.00     1.00800     H ( 1.00)

     No symmetry found

   Cartesian axes

     site n.     atom                  positions (alat units)
         1           O1  tau(   1) = (   0.0007354   0.0005023  10.5931620  )
         2           O1  tau(   2) = (   3.2456387   0.0208629  13.8623892  )
         3           O1  tau(   3) = (   6.5569189   0.0555649  17.3369326  )
         4           O1  tau(   4) = (   0.0006271   0.0005054   7.9858123  )
         5           O1  tau(   5) = (   3.2933513   8.9300833  11.1812556  )
         6           O1  tau(   6) = (   0.0337597   0.0712708  14.6279364  )
         7           O1  tau(   7) = (   1.9868534   1.4903216   9.2879459  )
         8           O1  tau(   8) = (   5.2215124   1.6184176  12.5791628  )
         9           O1  tau(   9) = (   1.9922958   1.5902288  16.0980526  )
        10           Ti1 tau(  10) = (   0.0007404   1.4906270   9.2895810  )
        11           Ti1 tau(  11) = (   3.2860490   1.3455809  12.4359399  )
        12           Ti1 tau(  12) = (   6.5618936   1.3602716  15.8812525  )
        13           O1  tau(  13) = (   4.5942328   1.4918067   9.2879030  )
        14           O1  tau(  14) = (   1.3307156   1.5887400  12.5381291  )
        15           O1  tau(  15) = (   4.5725103   1.6118788  16.0006659  )
        16           Ti1 tau(  16) = (   3.2902859   2.9801868   9.2893338  )
        17           Ti1 tau(  17) = (   0.0046584   2.8227806  12.4510757  )
        18           Ti1 tau(  18) = (   3.2555632   2.8898243  15.6661830  )
        19           O1  tau(  19) = (   0.0003479   2.9813005  10.5931620  )
        20           O1  tau(  20) = (   3.2279248   2.9553539  13.8813459  )
        21           O1  tau(  21) = (   0.0002396   2.9813036   7.9858123  )
        22           O1  tau(  22) = (   3.2889556   2.9859946  11.1941525  )
        23           O1  tau(  23) = (   0.0559812   2.9852445  14.6488683  )
        24           O1  tau(  24) = (   1.9864658   4.4711199   9.2879459  )
        25           O1  tau(  25) = (   5.2314886   4.5920767  12.6107679  )
        26           O1  tau(  26) = (   1.9969377   4.5324570  16.1535429  )
        27           Ti1 tau(  27) = (   0.0003529   4.4714252   9.2895810  )
        28           Ti1 tau(  28) = (   3.2845268   4.3564118  12.5295435  )
        29           Ti1 tau(  29) = (   6.5676402   4.3565080  15.8255799  )
        30           O1  tau(  30) = (   4.5938453   4.4726049   9.2879030  )
        31           O1  tau(  31) = (   1.3315080   4.5776727  12.5731030  )
        32           O1  tau(  32) = (   4.5871741   4.4544688  15.9274438  )
        33           Ti1 tau(  33) = (   3.2898983   5.9609850   9.2893338  )
        34           Ti1 tau(  34) = (   6.5783773   5.8108302  12.4536689  )
        35           Ti1 tau(  35) = (   3.3162440   5.8110762  16.0333210  )
        36           O1  tau(  36) = (  -0.0000397   5.9620987  10.5931620  )
        37           O1  tau(  37) = (   3.2636778   5.9869953  13.9790019  )
        38           O1  tau(  38) = (   6.4104969   6.0475349  17.2872242  )
        39           O1  tau(  39) = (  -0.0001480   5.9621018   7.9858123  )
        40           O1  tau(  40) = (   3.2905218   5.9516507  11.2202175  )
        41           O1  tau(  41) = (   0.0617018   5.9803669  14.6637187  )
        42           O1  tau(  42) = (   1.9860782   7.4519181   9.2879459  )
        43           O1  tau(  43) = (   5.2407037   7.5572870  12.6049163  )
        44           O1  tau(  44) = (   1.9881273   7.5959696  16.0809372  )
        45           Ti1 tau(  45) = (  -0.0000347   7.4522234   9.2895810  )
        46           Ti1 tau(  46) = (   3.2912638   7.2305267  12.6172466  )
        47           Ti1 tau(  47) = (   0.0232661   7.3094817  15.9177444  )
        48           O1  tau(  48) = (   4.5934577   7.4534031   9.2879030  )
        49           O1  tau(  49) = (   1.3287160   7.5404973  12.5734398  )
        50           O1  tau(  50) = (   4.6507959   7.6754627  15.9163669  )
        51           Ti1 tau(  51) = (   3.2895107   8.9417832   9.2893338  )
        52           Ti1 tau(  52) = (   0.0077981   8.7799231  12.4640552  )
        53           Ti1 tau(  53) = (   3.2910717   8.8534038  15.6608489  )
        54           N1  tau(  54) = (   3.7626148   6.0985185  18.0019073  )
        55           H1  tau(  55) = (   3.4663780   5.3841571  18.6619304  )
        56           H1  tau(  56) = (   3.5565419   6.9988739  18.4208443  )
        57           N1  tau(  57) = (   6.5319303   3.0529623  17.4095181  )
        58           H1  tau(  58) = (   5.7013393   3.0140474  18.0004383  )
        59           H1  tau(  59) = (   0.7603229   3.1006543  18.0203722  )
        60           H1  tau(  60) = (   5.4974376   6.0468821  17.7423635  )
        61           H1  tau(  61) = (   0.7324116   0.0679216  17.9402240  )

     number of k points=    10  Fermi-Dirac smearing, width (Ry)=  0.0073
                       cart. coord. in units 2pi/alat
        k(    1) = (   0.0000000   0.0000000   0.0000000), wk =   0.1250000
        k(    2) = (   0.0000000   0.0279567   0.0000000), wk =   0.2500000
        k(    3) = (   0.0000000  -0.0559134   0.0000000), wk =   0.1250000
        k(    4) = (   0.0379955   0.0000049   0.0000000), wk =   0.2500000
        k(    5) = (   0.0379955   0.0279617   0.0000000), wk =   0.2500000
        k(    6) = (   0.0379955  -0.0559085   0.0000000), wk =   0.2500000
        k(    7) = (   0.0379955  -0.0279518   0.0000000), wk =   0.2500000
        k(    8) = (  -0.0759910  -0.0000099   0.0000000), wk =   0.1250000
        k(    9) = (  -0.0759910   0.0279468   0.0000000), wk =   0.2500000
        k(   10) = (  -0.0759910  -0.0559233   0.0000000), wk =   0.1250000

     Initial potential from superposition of free atoms

     starting charge  423.99908, renormalised to  442.00000

     negative rho (up, down):  3.744E-02 0.000E+00

     %%%%%%%%%%%%%%%%%%%%%%%%%%%%%%%%%%%%%%%%%%%%%%%%%%%%%%%%%%%%%%%%%%%%%%%%
     %                                                                      %
     % You are using vdW-DF, which was implemented by the Thonhauser group. %
     % Please cite the following two papers that made this development      %
     % possible and the two reviews that describe the various versions:     %
     %                                                                      %
     %   T. Thonhauser et al., PRL 115, 136402 (2015).                      %
     %   T. Thonhauser et al., PRB 76, 125112 (2007).                       %
     %   K. Berland et al., Rep. Prog. Phys. 78, 066501 (2015).             %
     %   D.C. Langreth et al., J. Phys.: Condens. Matter 21, 084203 (2009). %
     %                                                                      %
     %                                                                      %
     % If you are calculating the stress with vdW-DF, please also cite:     %
     %                                                                      %
     %   R. Sabatini et al., J. Phys.: Condens. Matter 24, 424209 (2012).   %
     %                                                                      %
     %%%%%%%%%%%%%%%%%%%%%%%%%%%%%%%%%%%%%%%%%%%%%%%%%%%%%%%%%%%%%%%%%%%%%%%%

     Adding external electric field

     Computed dipole along edir(3) :
        Dipole               -5.9695 Ry au,        -15.1729 Debye
        Dipole field         -0.0075 Ry au,

        Potential amp.        0.6962 Ry
        Total length         46.3494 bohr

     Starting wfcs are  334 atomic wfcs
  @ DRIVER MODE: Message from server: STATUS
  @ DRIVER MODE: Message from server: POSDATA
  @ DRIVER MODE: Reading and sharing cell
  @ DRIVER MODE: Reading and sharing positions
  @ DRIVER MODE: Received positions

     Self-consistent Calculation

     iteration #  1     ecut=    29.40 Ry     beta= 0.05
     Davidson diagonalization with overlap
     c_bands:  2 eigenvalues not converged
     c_bands:  3 eigenvalues not converged
     c_bands:  5 eigenvalues not converged
     c_bands:  2 eigenvalues not converged
     c_bands:  4 eigenvalues not converged
     c_bands:  4 eigenvalues not converged
     c_bands:  3 eigenvalues not converged
     c_bands:  2 eigenvalues not converged
     c_bands:  5 eigenvalues not converged
     ethr =  1.00E-05,  avg # of iterations = 21.0

[...]

     total energy              =   -3277.93301759 Ry
     estimated scf accuracy    <     239.65164782 Ry

     iteration #  2     ecut=    29.40 Ry     beta= 0.05
     Davidson diagonalization with overlap
     ethr =  1.00E-02,  avg # of iterations = 15.5

[...]

     iteration # 52     ecut=    29.40 Ry     beta= 0.05
     Davidson diagonalization with overlap
     c_bands:  2 eigenvalues not converged
     ethr =  1.25E-09,  avg # of iterations = 17.7

[...]

     total energy              =   -3295.80752158 Ry
     estimated scf accuracy    <       0.00000015 Ry

     iteration # 67     ecut=    29.40 Ry     beta= 0.05
     Davidson diagonalization with overlap
     ethr =  3.35E-11,  avg # of iterations =  8.1

     negative rho (up, down):  3.606E-02 0.000E+00

     Adding external electric field

     Computed dipole along edir(3) :
        Dipole                1.5109 Ry au,          3.8403 Debye
        Dipole field          0.0019 Ry au,

        Potential amp.       -0.1762 Ry
        Total length         46.3494 bohr

     End of self-consistent calculation

          k = 0.0000 0.0000 0.0000 ( 26871 PWs)   bands (ev):

   -57.7242 -57.6986 -57.6882 -57.6620 -57.6527 -57.6195 -57.6055 -57.5979
   -57.5700 -57.5572 -57.5076 -57.4771 -57.4607 -57.4545 -57.4464 -56.7463
   -56.7222 -56.7177 -34.1058 -34.1024 -34.0940 -34.0847 -34.0730 -34.0562
   -34.0557 -34.0414 -34.0283 -34.0169 -33.9870 -33.9688 -33.9493 -33.9431
   -33.9354 -33.9170 -33.9118 -33.9103 -33.8919 -33.8867 -33.8647 -33.8625
   -33.8420 -33.8324 -33.8284 -33.8224 -33.8116 -33.8096 -33.8039 -33.7947
   -33.7830 -33.7811 -33.7669 -33.7314 -33.7223 -33.7181 -33.7035 -33.7026
   -33.6950 -33.6940 -33.6826 -33.6742 -33.6674 -33.6614 -33.6390 -33.0615
   -33.0605 -33.0560 -33.0444 -33.0402 -32.9724 -32.9103 -32.9050 -32.7721
   -19.3018 -18.7603 -18.5248 -18.2259 -18.0155 -17.9731 -17.9402 -17.8187
   -17.7831 -17.7590 -17.6614 -17.6503 -17.5867 -17.5333 -17.5052 -17.4565
   -17.4379 -17.3780 -17.3639 -17.3556 -17.3503 -17.3402 -17.3299 -17.2643
   -17.2372 -17.2092 -17.1702 -17.1544 -17.1479 -17.1405 -17.1180 -16.8453
   -15.4816 -15.2125 -15.1544 -15.1533 -15.0826  -6.9843  -6.7797  -6.6436
    -6.3413  -5.8597  -5.7859  -5.6367  -5.5128  -5.2209  -5.1947  -5.1417
    -5.1149  -5.0858  -5.0212  -5.0011  -4.9882  -4.9329  -4.9157  -4.8430
    -4.8204  -4.7786  -4.7553  -4.7290  -4.6839  -4.6439  -4.6164  -4.6049
    -4.5747  -4.5667  -4.5100  -4.4866  -4.4569  -4.4516  -4.4349  -4.3259
    -4.2939  -4.2375  -4.1687  -4.0916  -4.0386  -4.0305  -3.9742  -3.9547
    -3.9022  -3.8623  -3.8255  -3.8165  -3.7802  -3.7419  -3.6431  -3.6099
    -3.5879  -3.5216  -3.4997  -3.4308  -3.4134  -3.3799  -3.3392  -3.3323
    -3.2955  -3.1978  -3.1636  -3.0832  -3.0273  -2.9736  -2.9341  -2.8893
    -2.8428  -2.8096  -2.7847  -2.7029  -2.6265  -2.5429  -2.4926  -2.4799
    -2.4679  -2.4174  -2.4105  -2.4080  -2.3511  -2.3249  -2.3143  -2.2770
    -2.2252  -2.2023  -2.1401  -2.0952  -2.0600  -1.9925  -1.9769  -1.8961
    -1.8874  -1.8261  -1.7828  -1.7434  -1.6319  -1.5967  -1.5647  -1.5622
    -1.4433  -1.4070  -1.1427  -1.0039  -0.7863  -0.7533  -0.4996  -0.4509
    -0.4480  -0.1849  -0.1817  -0.0533   1.3228   1.5115   1.6450   1.7009
     1.7056   1.7390   1.8052   1.8917   1.9170   1.9641   1.9958

[...]

          k = 0.0380-0.0280 0.0000 ( 26873 PWs)   bands (ev):

[...]

          k =-0.0760-0.0000 0.0000 ( 26902 PWs)   bands (ev):

[...]

          k =-0.0760-0.0559 0.0000 ( 26868 PWs)   bands (ev):

   -57.7207 -57.7063 -57.6840 -57.6609 -57.6526 -57.6202 -57.6068 -57.5976
   -57.5694 -57.5569 -57.5078 -57.4721 -57.4646 -57.4603 -57.4416 -56.7401
   -56.7347 -56.7113 -34.1932 -34.1558 -34.1537 -34.0936 -34.0595 -34.0520
   -34.0412 -34.0386 -34.0011 -33.9672 -33.9333 -33.9198 -33.9142 -33.9128
   -33.9018 -33.8997 -33.8797 -33.8724 -33.8679 -33.8679 -33.8639 -33.8584
   -33.8532 -33.8451 -33.8307 -33.8258 -33.8231 -33.8181 -33.8138 -33.7931
   -33.7921 -33.7699 -33.7631 -33.7557 -33.7498 -33.7314 -33.7253 -33.7199
   -33.7001 -33.6999 -33.6980 -33.6946 -33.6854 -33.6672 -33.6503 -33.1503
   -33.0612 -33.0561 -33.0337 -32.9539 -32.9480 -32.8862 -32.8716 -32.8664
   -19.2883 -18.7346 -18.2710 -18.1343 -17.9620 -17.9211 -17.8468 -17.8340
   -17.8223 -17.7927 -17.7009 -17.6772 -17.6510 -17.5682 -17.5494 -17.4995
   -17.4557 -17.4425 -17.4244 -17.4133 -17.4052 -17.3885 -17.3545 -17.3224
   -17.2895 -17.2379 -17.1760 -17.1572 -17.1087 -17.0939 -17.0633 -16.8791
   -15.4764 -15.2105 -15.2085 -15.0917 -15.0840  -6.9881  -6.8101  -6.6401
    -6.3217  -5.5163  -5.4533  -5.3698  -5.3551  -5.2375  -5.2072  -5.0137
    -5.0035  -4.9888  -4.9555  -4.9247  -4.8889  -4.8619  -4.8378  -4.8242
    -4.8099  -4.7890  -4.7631  -4.7514  -4.7347  -4.6905  -4.6439  -4.6379
    -4.6270  -4.6042  -4.5494  -4.5050  -4.4798  -4.4245  -4.4212  -4.3409
    -4.3174  -4.2996  -4.2248  -4.2169  -4.0957  -3.9475  -3.8865  -3.8664
    -3.8423  -3.7949  -3.7848  -3.7313  -3.7096  -3.6922  -3.5558  -3.4738
    -3.4501  -3.4152  -3.3840  -3.3610  -3.3253  -3.2979  -3.2759  -3.2502
    -3.2342  -3.1817  -3.1653  -3.1218  -3.0795  -2.9980  -2.9539  -2.8964
    -2.8730  -2.8546  -2.8363  -2.8328  -2.8121  -2.7791  -2.7502  -2.6957
    -2.6853  -2.6555  -2.5835  -2.5289  -2.5007  -2.4762  -2.4340  -2.4270
    -2.2721  -2.2529  -2.2197  -2.2076  -2.1341  -2.0911  -1.9988  -1.9725
    -1.9498  -1.8782  -1.8067  -1.7633  -1.7068  -1.5104  -1.5016  -1.3827
    -1.3459  -1.2970  -1.2713  -1.2275  -1.0687  -0.7343  -0.6622  -0.3789
    -0.3677  -0.3416  -0.1863  -0.1798   1.4299   1.4536   1.5389   1.5951
     1.6138   1.6515   1.6644   1.7034   1.7239   1.7805   1.9161

     the Fermi energy is     1.3737 ev

!    total energy              =   -3295.80754232 Ry
     estimated scf accuracy    <       0.00000005 Ry
     smearing contrib. (-TS)   =      -0.03571744 Ry
     internal energy E=F+TS    =   -3295.77182488 Ry

     The total energy is F=E-TS. E is the sum of the following terms:
     one-electron contribution =  -34705.22726307 Ry
     hartree contribution      =   17418.53599742 Ry
     xc contribution           =    -543.86009410 Ry
     ewald contribution        =   14534.77666300 Ry
     electric field correction =       0.00287188 Ry

     convergence has been achieved in  67 iterations

     Forces acting on atoms (cartesian axes, Ry/au):

     atom    1 type  1   force =    -0.00168726    0.00377193    0.05473253
     atom    2 type  1   force =     0.00024008   -0.00250666   -0.00841614
     atom    3 type  1   force =     0.00045313   -0.00352703    0.00030346
     atom    4 type  1   force =     0.00004283   -0.00002926    0.10677686
     atom    5 type  1   force =    -0.00020432    0.00065612    0.00659106
     atom    6 type  1   force =     0.00003230   -0.00444063    0.00377952
     atom    7 type  1   force =     0.06649229    0.00079072   -0.02965355
     atom    8 type  1   force =     0.00659974   -0.02712545    0.00196024
     atom    9 type  1   force =     0.00657926   -0.02255264    0.00512201
     atom   10 type  2   force =    -0.00010956   -0.00449401   -0.18344659
     atom   11 type  2   force =     0.00067731    0.02087926   -0.00414629
     atom   12 type  2   force =    -0.00194225    0.02764405   -0.00657724
     atom   13 type  1   force =    -0.06655009    0.00044744   -0.02979670
     atom   14 type  1   force =    -0.00434111   -0.02770634    0.00253703
     atom   15 type  1   force =    -0.00664089   -0.02340956    0.00493189
     atom   16 type  2   force =     0.00008314    0.00070277    0.06700762
     atom   17 type  2   force =    -0.00238332    0.03352533    0.00348655
     atom   18 type  2   force =     0.00140285    0.02450863   -0.00357286
     atom   19 type  1   force =    -0.00169807    0.00674611    0.05328033
     atom   20 type  1   force =     0.00023374   -0.00116897   -0.00662548
     atom   21 type  1   force =     0.00003498    0.00110408    0.10726533
     atom   22 type  1   force =    -0.00025085   -0.00199153    0.00722450
     atom   23 type  1   force =     0.00074092   -0.00584186    0.00422644
     atom   24 type  1   force =     0.06751900    0.00137834   -0.02905941
     atom   25 type  1   force =     0.00528977   -0.03015604    0.00245773
     atom   26 type  1   force =     0.00673414   -0.02608109   -0.00416659
     atom   27 type  2   force =     0.00010995   -0.00120466   -0.18675012
     atom   28 type  2   force =     0.00008148    0.02386514   -0.00246970
     atom   29 type  2   force =    -0.00131997    0.02222919    0.00096541
     atom   30 type  1   force =    -0.06762529    0.00087368   -0.02891239
     atom   31 type  1   force =    -0.00538041   -0.02962138    0.00279808
     atom   32 type  1   force =    -0.00435934   -0.02238709    0.00252043
     atom   33 type  2   force =    -0.00004808    0.00131211    0.07475442
     atom   34 type  2   force =     0.00091741    0.03691374    0.00406211
     atom   35 type  2   force =    -0.00208927    0.03472130    0.00499460
     atom   36 type  1   force =    -0.00186710    0.00289106    0.05589877
     atom   37 type  1   force =     0.00131958    0.00402375   -0.01134175
     atom   38 type  1   force =     0.00017110   -0.00404190    0.00416961
     atom   39 type  1   force =     0.00002170   -0.00063843    0.10728845
     atom   40 type  1   force =     0.00015746   -0.00140712    0.00715893
     atom   41 type  1   force =    -0.00025538   -0.00403409    0.00184561
     atom   42 type  1   force =     0.06785742   -0.00221479   -0.02969317
     atom   43 type  1   force =     0.00369117   -0.02635916    0.00153266
     atom   44 type  1   force =     0.01000827   -0.01799238    0.00266719
     atom   45 type  2   force =     0.00003052    0.00216067   -0.18330692
     atom   46 type  2   force =    -0.00023366    0.01478893    0.00205209
     atom   47 type  2   force =     0.00298057    0.02648048   -0.00876826
     atom   48 type  1   force =    -0.06792260   -0.00284334   -0.02985158
     atom   49 type  1   force =    -0.00375634   -0.02550446    0.00183477
     atom   50 type  1   force =    -0.00793958   -0.02367339    0.00524335
     atom   51 type  2   force =     0.00045373   -0.00350524    0.06843809
     atom   52 type  2   force =    -0.00011882    0.03119638    0.00596194
     atom   53 type  2   force =    -0.00207563    0.02599101   -0.00058405
     atom   54 type  3   force =     0.00072536   -0.00195602   -0.00087915
     atom   55 type  4   force =    -0.00074290    0.00039657   -0.00050990
     atom   56 type  4   force =     0.00027668    0.00087874    0.00128133
     atom   57 type  3   force =    -0.00585266   -0.00315782    0.00616007
     atom   58 type  4   force =     0.00713692    0.00140126   -0.00629344
     atom   59 type  4   force =     0.00092652    0.00032825    0.00031534
     atom   60 type  4   force =    -0.00139862    0.00008042    0.00008534
     atom   61 type  4   force =    -0.00122798   -0.00111512    0.00110959

     Total force =     0.459737     Total SCF correction =     0.000473
  @ DRIVER MODE: Message from server: STATUS
  @ DRIVER MODE: Message from server: GETFORCE
  @ DRIVER MODE: Returning v,forces,stress,ensemble

     Writing output data file ./calc.save/
  @ DRIVER MODE: Message from server: EXIT
  @ DRIVE MODE: Exiting

     General routines

     Parallel routines

   This run was terminated on:   2:34:48  19Oct2021

   JOB DONE.