     Program PWSCF v.6.7GPU starts on 23Sep2021 at 13:20: 4

     R & G space division:  proc/nbgrp/npool/nimage =       8
     Reading input from /storage/home/hcoda1/3/ntian30/research/carbon/CxH_vib/H2O_calc/ads_slab/CH2NNHHHHO_a/out_0006/pw.inp
Warning: card &CELL ignored
Warning: card   CELL_DYNAMICS='IPI', ignored
Warning: card / ignored

     Current dimensions of program PWSCF are:
     Max number of different atomic species (ntypx) = 10
     Max number of k-points (npk) =  40000
     Max angular momentum in pseudopotentials (lmaxx) =  3
     Presently no symmetry can be used with electric field

     Message from routine cell_base_init:
     DEPRECATED: use true lattice parameter, not A to a.u. conversion factor

     IMPORTANT: XC functional enforced from input :
     Exchange-correlation= BEEF-VDW
                           (   1   4  43  14   2   0   0)
     Any further DFT definition will be discarded
     Please, verify this is what you really want

  @ DRIVER MODE: Connecting to
 qe_1139763_2947316.sched-torque.pace.gatech.eduku6vn911_scratch
  using UNIX socket
  @ DRIVER MODE: Message from server: STATUS
  @ DRIVER MODE: Message from server: INIT
  @ DRIVER MODE: Receiving replica           0          -1
  @ DRIVER MODE: Receiving encoded integer          25
  @ DRIVER MODE:  SCF:  T  FORCE:  T  STRESS:  F  VC:  F  ENSEMBLE:  F
  @ DRIVER MODE:  SCF:  T  FORCE:  T  STRESS:  F  VC:  F  ENSEMBLE:  F

     Using Slab Decomposition

     bravais-lattice index     =            0
     lattice parameter (alat)  =       1.8897  a.u.
     unit-cell volume          =    6658.9804 (a.u.)^3
     number of atoms/cell      =           57
     number of atomic types    =            5
     number of electrons       =       404.00
     number of Kohn-Sham states=          212
     kinetic-energy cutoff     =      29.3995  Ry
     charge density cutoff     =     293.9946  Ry
     scf convergence threshold =      7.3E-08
     mixing beta               =       0.0500
     number of iterations used =            8  plain     mixing
     Exchange-correlation= BEEF-VDW
                           (   1   4  43  14   2   0   0)

     celldm(1)=   1.889726  celldm(2)=   0.000000  celldm(3)=   0.000000
     celldm(4)=   0.000000  celldm(5)=   0.000000  celldm(6)=   0.000000

     crystal axes: (cart. coord. in units of alat)
               a(1) = (   6.579727   0.000000   0.000000 )
               a(2) = (  -0.000775   5.961596   0.000000 )
               a(3) = (   0.000000   0.000000  25.155947 )

     reciprocal axes: (cart. coord. in units 2 pi/alat)
               b(1) = (  0.151982  0.000020  0.000000 )
               b(2) = (  0.000000  0.167740  0.000000 )
               b(3) = (  0.000000  0.000000  0.039752 )

     PseudoPot. # 1 for Ti read from file:
     /storage/coda1/p-amedford6/0/shared/rich_project_chbe-medford/medford-share/data/pseudos_module/espresso/nninc/pbe/van/Ti.UPF
     MD5 check sum: 8e4df49b7f0d34bbd5052bf3f5ea0213
     Pseudo is Ultrasoft, Zval = 12.0
     Generated by new atomic code, or converted to UPF format
     Using radial grid of  851 points,  6 beta functions with:
                l(1) =   0
                l(2) =   0
                l(3) =   1
                l(4) =   1
                l(5) =   2
                l(6) =   2
     Q(r) pseudized with  8 coefficients,  rinner =    1.000   1.000   1.000
                                                       1.000   1.000

     PseudoPot. # 2 for O  read from file:
     /storage/coda1/p-amedford6/0/shared/rich_project_chbe-medford/medford-share/data/pseudos_module/espresso/nninc/pbe/van/O.UPF
     MD5 check sum: 78c19812648e8988a0fe644b0f25305e
     Pseudo is Ultrasoft, Zval =  6.0
     Generated by new atomic code, or converted to UPF format
     Using radial grid of  737 points,  4 beta functions with:
                l(1) =   0
                l(2) =   0
                l(3) =   1
                l(4) =   1
     Q(r) pseudized with  8 coefficients,  rinner =    0.800   0.800   0.800

     PseudoPot. # 3 for N  read from file:
     /storage/coda1/p-amedford6/0/shared/rich_project_chbe-medford/medford-share/data/pseudos_module/espresso/nninc/pbe/van/N.UPF
     MD5 check sum: 90d10febe142ad51ac9d5be1deb811c4
     Pseudo is Ultrasoft, Zval =  5.0
     Generated by new atomic code, or converted to UPF format
     Using radial grid of  729 points,  4 beta functions with:
                l(1) =   0
                l(2) =   0
                l(3) =   1
                l(4) =   1
     Q(r) pseudized with  8 coefficients,  rinner =    0.800   0.800   0.800

     PseudoPot. # 4 for C  read from file:
     /storage/coda1/p-amedford6/0/shared/rich_project_chbe-medford/medford-share/data/pseudos_module/espresso/nninc/pbe/van/C.UPF
     MD5 check sum: 1a69bf6b8db32088f5b2163dbdb77a27
     Pseudo is Ultrasoft, Zval =  4.0
     Generated by new atomic code, or converted to UPF format
     Using radial grid of  721 points,  4 beta functions with:
                l(1) =   0
                l(2) =   0
                l(3) =   1
                l(4) =   1
     Q(r) pseudized with  8 coefficients,  rinner =    0.800   0.800   0.800

     PseudoPot. # 5 for H  read from file:
     /storage/coda1/p-amedford6/0/shared/rich_project_chbe-medford/medford-share/data/pseudos_module/espresso/nninc/pbe/van/H.UPF
     MD5 check sum: b5ee9d7bfd3a09ee7748110bda690ff7
     Pseudo is Ultrasoft, Zval =  1.0
     Generated by new atomic code, or converted to UPF format
     Using radial grid of  615 points,  1 beta functions with:
                l(1) =   0
     Q(r) pseudized with  8 coefficients,  rinner =    0.800

     atomic species   valence    mass     pseudopotential
        Ti1           12.00    47.86700     Ti( 1.00)
        O1             6.00    15.99900     O ( 1.00)
        N1             5.00    14.00700     N ( 1.00)
        C1             4.00    12.01100     C ( 1.00)
        H1             1.00     1.00800     H ( 1.00)

     No symmetry found

   Cartesian axes

     site n.     atom                  positions (alat units)
         1           Ti1 tau(   1) = (   0.0004258   2.9801865   6.0000000  )
         2           Ti1 tau(   2) = (   3.2906075   1.4906267   6.0002472  )
         3           O1  tau(   3) = (   0.0006271   0.0005054   7.9858123  )
         4           O1  tau(   4) = (   3.2906025   0.0005020   7.3038282  )
         5           O1  tau(   5) = (   4.5942328   1.4918067   9.2879030  )
         6           O1  tau(   6) = (   1.9868534   1.4903216   9.2879459  )
         7           Ti1 tau(   7) = (   3.2907910   2.8959150   9.1758416  )
         8           Ti1 tau(   8) = (   0.0015273   1.4827037   9.2680791  )
         9           O1  tau(   9) = (   3.3027076   5.9092304  11.3732431  )
        10           O1  tau(  10) = (   0.0116148   5.9584955  10.6183126  )
        11           O1  tau(  11) = (   1.2953868   1.4751764  12.6403503  )
        12           O1  tau(  12) = (   5.3168701   1.4807623  12.6366210  )
        13           Ti1 tau(  13) = (   0.0172323   2.9996225  12.5311828  )
        14           Ti1 tau(  14) = (   3.3257086   1.2755711  12.7138078  )
        15           O1  tau(  15) = (   6.5733368   0.1082846  14.6600873  )
        16           O1  tau(  16) = (   3.3238075   0.0838359  14.0473399  )
        17           O1  tau(  17) = (   4.5575128   1.5393005  16.2317518  )
        18           O1  tau(  18) = (   2.0302387   1.4963625  16.2670071  )
        19           Ti1 tau(  19) = (   3.2366114   2.9448900  15.6849520  )
        20           Ti1 tau(  20) = (   6.5300729   1.3987400  16.1165465  )
        21           O1  tau(  21) = (   3.2904802   0.0005063   4.7018136  )
        22           O1  tau(  22) = (   0.0022030   5.7760056  17.1861099  )
        23           O1  tau(  23) = (   1.3043587   1.4918075   6.0039043  )
        24           O1  tau(  24) = (   5.2767064   1.4903225   6.0039473  )
        25           Ti1 tau(  25) = (   0.0000382   5.9609847   6.0000000  )
        26           Ti1 tau(  26) = (   3.2902200   4.4714249   6.0002472  )
        27           O1  tau(  27) = (   0.0002396   2.9813036   7.9858123  )
        28           O1  tau(  28) = (   3.2902150   2.9813002   7.3038282  )
        29           O1  tau(  29) = (   4.5938453   4.4726049   9.2879030  )
        30           O1  tau(  30) = (   1.9864658   4.4711199   9.2879459  )
        31           Ti1 tau(  31) = (   3.2891106   5.8743827   9.1763621  )
        32           Ti1 tau(  32) = (   0.0006254   4.4649316   9.2693709  )
        33           O1  tau(  33) = (   3.3012885   2.9833904  11.3212188  )
        34           O1  tau(  34) = (   0.0092240   2.9805883  10.6323155  )
        35           O1  tau(  35) = (   1.2895456   4.4501540  12.7025460  )
        36           O1  tau(  36) = (   5.3143371   4.4382646  12.6927937  )
        37           Ti1 tau(  37) = (   0.0343555   0.0433052  12.5107970  )
        38           Ti1 tau(  38) = (   3.3217552   4.3482123  12.4486840  )
        39           O1  tau(  39) = (   0.0141661   2.9064423  14.8877341  )
        40           O1  tau(  40) = (   3.2920978   2.9424077  13.9176102  )
        41           O1  tau(  41) = (   4.5506947   4.3398720  16.1100615  )
        42           O1  tau(  42) = (   2.0210198   4.4131678  16.0160425  )
        43           Ti1 tau(  43) = (   3.3132698   5.9358869  16.2610495  )
        44           Ti1 tau(  44) = (   0.0826266   4.5979890  15.7080129  )
        45           O1  tau(  45) = (   3.2900926   2.9813045   4.7018136  )
        46           O1  tau(  46) = (   1.3039711   4.4726057   6.0039043  )
        47           O1  tau(  47) = (   5.2763189   4.4711207   6.0039473  )
        48           N1  tau(  48) = (   6.5643472   2.7424576  18.0725816  )
        49           C1  tau(  49) = (   0.8744728   2.5686873  19.0232366  )
        50           H1  tau(  50) = (   0.8543601   3.1364980  19.9465443  )
        51           H1  tau(  51) = (   1.6733950   1.8773151  18.8242213  )
        52           N1  tau(  52) = (   5.5366205   3.6779994  18.4753393  )
        53           H1  tau(  53) = (   5.9486539   4.6347284  18.5635686  )
        54           H1  tau(  54) = (   4.8775701   3.8234783  17.6645784  )
        55           H1  tau(  55) = (   5.0440791   3.3775604  19.3232938  )
        56           O1  tau(  56) = (   3.4091604   5.6710612  18.1544331  )
        57           H1  tau(  57) = (   3.1368125   0.4262250  18.7404830  )

     number of k points=    10  Fermi-Dirac smearing, width (Ry)=  0.0073
                       cart. coord. in units 2pi/alat
        k(    1) = (   0.0000000   0.0000000   0.0000000), wk =   0.1250000
        k(    2) = (   0.0000000   0.0419351   0.0000000), wk =   0.2500000
        k(    3) = (   0.0000000  -0.0838702   0.0000000), wk =   0.1250000
        k(    4) = (   0.0379955   0.0000049   0.0000000), wk =   0.2500000
        k(    5) = (   0.0379955   0.0419400   0.0000000), wk =   0.2500000
        k(    6) = (   0.0379955  -0.0838652   0.0000000), wk =   0.2500000
        k(    7) = (   0.0379955  -0.0419301   0.0000000), wk =   0.2500000
        k(    8) = (  -0.0759910  -0.0000099   0.0000000), wk =   0.1250000
        k(    9) = (  -0.0759910   0.0419252   0.0000000), wk =   0.2500000
        k(   10) = (  -0.0759910  -0.0838800   0.0000000), wk =   0.1250000

     Initial potential from superposition of free atoms

     starting charge  387.99913, renormalised to  404.00000

     negative rho (up, down):  1.545E-02 0.000E+00

     %%%%%%%%%%%%%%%%%%%%%%%%%%%%%%%%%%%%%%%%%%%%%%%%%%%%%%%%%%%%%%%%%%%%%%%%
     %                                                                      %
     % You are using vdW-DF, which was implemented by the Thonhauser group. %
     % Please cite the following two papers that made this development      %
     % possible and the two reviews that describe the various versions:     %
     %                                                                      %
     %   T. Thonhauser et al., PRL 115, 136402 (2015).                      %
     %   T. Thonhauser et al., PRB 76, 125112 (2007).                       %
     %   K. Berland et al., Rep. Prog. Phys. 78, 066501 (2015).             %
     %   D.C. Langreth et al., J. Phys.: Condens. Matter 21, 084203 (2009). %
     %                                                                      %
     %                                                                      %
     % If you are calculating the stress with vdW-DF, please also cite:     %
     %                                                                      %
     %   R. Sabatini et al., J. Phys.: Condens. Matter 24, 424209 (2012).   %
     %                                                                      %
     %%%%%%%%%%%%%%%%%%%%%%%%%%%%%%%%%%%%%%%%%%%%%%%%%%%%%%%%%%%%%%%%%%%%%%%%

     Adding external electric field

     Computed dipole along edir(3) :
        Dipole              -13.5901 Ry au,        -34.5425 Debye
        Dipole field         -0.0256 Ry au,

        Potential amp.        2.3774 Ry
        Total length         46.3494 bohr

     Starting wfcs are  306 atomic wfcs
  @ DRIVER MODE: Message from server: STATUS
  @ DRIVER MODE: Message from server: POSDATA
  @ DRIVER MODE: Reading and sharing cell
  @ DRIVER MODE: Reading and sharing positions
  @ DRIVER MODE: Received positions

     Self-consistent Calculation

     iteration #  1     ecut=    29.40 Ry     beta= 0.05
     Davidson diagonalization with overlap
     c_bands:  4 eigenvalues not converged
     c_bands:  1 eigenvalues not converged
     c_bands:  1 eigenvalues not converged
     c_bands:  1 eigenvalues not converged
     c_bands:  2 eigenvalues not converged
     c_bands:  4 eigenvalues not converged
     c_bands:  5 eigenvalues not converged
     c_bands:  2 eigenvalues not converged
     ethr =  1.00E-05,  avg # of iterations = 29.7

[...]

     total energy              =   -2247.79778712 Ry
     estimated scf accuracy    <    8243.06272826 Ry

     iteration #  2     ecut=    29.40 Ry     beta= 0.05
     Davidson diagonalization with overlap
     ethr =  1.00E-02,  avg # of iterations = 25.0

[...]

     iteration # 69     ecut=    29.40 Ry     beta= 0.05
     Davidson diagonalization with overlap
     c_bands:  1 eigenvalues not converged
     ethr =  1.63E-06,  avg # of iterations = 11.6

[...]

     total energy              =   -2975.12430254 Ry
     estimated scf accuracy    <       0.00000011 Ry

     iteration # 91     ecut=    29.40 Ry     beta= 0.05
     Davidson diagonalization with overlap
     ethr =  2.80E-11,  avg # of iterations =  7.8

     negative rho (up, down):  1.375E-02 0.000E+00

     Adding external electric field

     Computed dipole along edir(3) :
        Dipole                1.3835 Ry au,          3.5164 Debye
        Dipole field          0.0026 Ry au,

        Potential amp.       -0.2420 Ry
        Total length         46.3494 bohr

     End of self-consistent calculation

          k = 0.0000 0.0000 0.0000 ( 18029 PWs)   bands (ev):

   -55.3789 -55.2387 -55.2046 -55.1140 -55.0788 -55.0745 -55.0679 -55.0339
   -55.0278 -54.9797 -54.9568 -54.9167 -54.8648 -54.7390 -54.2189 -54.1849
   -31.7242 -31.7083 -31.6062 -31.5989 -31.5782 -31.5697 -31.5296 -31.5236
   -31.5116 -31.4846 -31.4466 -31.4392 -31.3912 -31.3642 -31.3627 -31.3519
   -31.3460 -31.3058 -31.2963 -31.2960 -31.2795 -31.2664 -31.2624 -31.2571
   -31.2557 -31.2167 -31.2130 -31.2116 -31.2115 -31.1952 -31.1868 -31.1806
   -31.1738 -31.1460 -31.1339 -31.1046 -31.0961 -31.0844 -31.0746 -31.0708
   -30.9999 -30.9073 -30.6253 -30.5381 -30.5156 -30.4427 -30.3563 -30.2445
   -19.2447 -16.3173 -15.9198 -15.7642 -15.5841 -15.4434 -15.4033 -15.1795
   -15.1251 -15.0373 -15.0291 -14.9034 -14.7819 -14.7799 -14.7605 -14.7539
   -14.7423 -14.7023 -14.6918 -14.6870 -14.6647 -14.6439 -14.6235 -14.6134
   -14.5756 -14.5345 -14.4108 -14.3824 -14.3460 -14.3001 -14.1646 -14.0060
   -12.7179 -12.6014  -9.2141  -7.7214  -6.9276  -6.1805  -4.3407  -3.6378
    -3.2670  -3.1698  -3.1459  -3.1392  -3.0033  -2.8334  -2.6382  -2.5778
    -2.5135  -2.3990  -2.3709  -2.2751  -2.2545  -2.2116  -2.1573  -2.1350
    -2.1049  -2.0536  -2.0380  -2.0293  -1.9391  -1.9192  -1.8203  -1.7955
    -1.7622  -1.7089  -1.6866  -1.6102  -1.5793  -1.5562  -1.5550  -1.5461
    -1.5254  -1.5095  -1.4878  -1.4450  -1.4108  -1.3419  -1.2833  -1.2018
    -1.1341  -0.9061  -0.8559  -0.8420  -0.7836  -0.7464  -0.6822  -0.6638
    -0.6369  -0.6270  -0.5612  -0.4489  -0.4001  -0.3622  -0.3036  -0.2791
    -0.2524  -0.1412  -0.0650  -0.0469   0.0002   0.0400   0.0638   0.1263
     0.1638   0.2059   0.2720   0.2869   0.3659   0.4011   0.4294   0.4739
     0.5150   0.5776   0.6242   0.6752   0.6813   0.7087   0.7298   0.7605
     0.8457   0.8609   0.9047   0.9362   0.9989   1.0527   1.0782   1.2486
     1.3727   1.4132   1.4796   1.7494   1.8072   1.8220   1.9979   2.3754
     2.4210   3.8475   3.9874   3.9964   4.0064   4.0752   4.1303   4.1532
     4.3335   4.3710   4.4892   4.5251

[...]

          k = 0.0380-0.0419 0.0000 ( 17876 PWs)   bands (ev):

[...]

          k =-0.0760-0.0000 0.0000 ( 17886 PWs)   bands (ev):

[...]

          k =-0.0760-0.0839 0.0000 ( 17948 PWs)   bands (ev):

   -55.3781 -55.2217 -55.2215 -55.0994 -55.0932 -55.0750 -55.0511 -55.0502
   -55.0211 -54.9866 -54.9555 -54.9109 -54.8706 -54.7401 -54.2023 -54.2014
   -31.6476 -31.5894 -31.5812 -31.5395 -31.5394 -31.5152 -31.5148 -31.4968
   -31.4337 -31.4084 -31.3880 -31.3743 -31.3735 -31.3705 -31.3599 -31.3416
   -31.3410 -31.3371 -31.3355 -31.3249 -31.3208 -31.3023 -31.2949 -31.2754
   -31.2603 -31.2529 -31.2469 -31.2372 -31.2281 -31.2262 -31.2239 -31.2198
   -31.2079 -31.2036 -31.1767 -31.1442 -31.1145 -31.1004 -31.0918 -31.0772
   -31.0016 -30.9794 -30.5286 -30.5281 -30.4387 -30.4375 -30.3998 -30.3992
   -19.2410 -16.3042 -15.4528 -15.4071 -15.2207 -15.2131 -15.1929 -15.1248
   -15.0899 -15.0375 -15.0181 -14.9837 -14.9453 -14.9265 -14.9053 -14.8302
   -14.7867 -14.7603 -14.7491 -14.7130 -14.6963 -14.6960 -14.6642 -14.6417
   -14.6322 -14.5651 -14.5527 -14.5322 -14.4306 -14.4111 -14.2795 -14.2611
   -12.7034 -12.7029  -9.2019  -7.7326  -6.9133  -6.1894  -4.3717  -3.6249
    -2.6412  -2.6363  -2.4367  -2.4058  -2.3364  -2.2717  -2.2353  -2.2155
    -2.1680  -2.1619  -2.1216  -2.0993  -2.0625  -2.0360  -2.0270  -2.0096
    -1.9920  -1.9705  -1.9473  -1.9302  -1.9241  -1.8957  -1.8741  -1.8637
    -1.8205  -1.8147  -1.7885  -1.7724  -1.7416  -1.6753  -1.6134  -1.4943
    -1.4558  -1.4327  -1.4128  -1.3991  -1.3724  -1.3259  -1.3103  -1.3029
    -1.2682  -1.2543  -1.1521  -1.0012  -0.9939  -0.8910  -0.8586  -0.8543
    -0.7476  -0.7139  -0.6811  -0.6596  -0.6073  -0.5675  -0.4622  -0.4521
    -0.4106  -0.3425  -0.2445  -0.2340  -0.2178  -0.1881  -0.1656  -0.1588
    -0.1017  -0.0633  -0.0268   0.0245   0.0462   0.0689   0.0985   0.1900
     0.2231   0.3324   0.4599   0.4959   0.5202   0.5540   0.6848   0.7366
     0.7857   0.8594   0.9245   0.9434   1.0469   1.0663   1.0965   1.1476
     1.2204   1.2730   1.2895   1.3165   1.3303   2.1682   2.1762   2.2412
     2.2416   3.8061   4.0068   4.2599   4.3342   4.3564   4.3858   4.4078
     4.4404   4.4656   4.5094   4.5244

     the Fermi energy is     3.8833 ev

!    total energy              =   -2975.12430665 Ry
     estimated scf accuracy    <       0.00000006 Ry
     smearing contrib. (-TS)   =      -0.03114151 Ry
     internal energy E=F+TS    =   -2975.09316513 Ry

     The total energy is F=E-TS. E is the sum of the following terms:
     one-electron contribution =  -23508.03784425 Ry
     hartree contribution      =   11852.37389766 Ry
     xc contribution           =    -494.86793209 Ry
     ewald contribution        =    9175.43510163 Ry
     electric field correction =       0.00361192 Ry

     convergence has been achieved in  91 iterations

     Forces acting on atoms (cartesian axes, Ry/au):

     atom    1 type  1   force =     0.00014612   -0.00021619    0.09450709
     atom    2 type  1   force =    -0.00007313    0.00039733   -0.17565518
     atom    3 type  2   force =     0.00003209   -0.00002910   -0.02144821
     atom    4 type  2   force =     0.00000399   -0.00223483    0.05510373
     atom    5 type  2   force =    -0.00784503   -0.00314451    0.00370428
     atom    6 type  2   force =     0.00956720   -0.00257277    0.00359658
     atom    7 type  1   force =     0.00003256   -0.00298147    0.00570666
     atom    8 type  1   force =    -0.00023388    0.00256066    0.00563046
     atom    9 type  2   force =    -0.00035165   -0.00026968    0.00005972
     atom   10 type  2   force =    -0.00115976   -0.00256788   -0.00848188
     atom   11 type  2   force =    -0.00070007   -0.00067913   -0.00009980
     atom   12 type  2   force =     0.00029808   -0.00068594   -0.00001701
     atom   13 type  1   force =     0.00009777    0.00004658    0.00019728
     atom   14 type  1   force =    -0.00016158   -0.00036472    0.00003971
     atom   15 type  2   force =     0.00012640   -0.00022082    0.00031789
     atom   16 type  2   force =     0.00006192   -0.00076770   -0.00013032
     atom   17 type  2   force =     0.00042868    0.00046472    0.00000201
     atom   18 type  2   force =    -0.00075049    0.00047609   -0.00018242
     atom   19 type  1   force =     0.00034691    0.00018660   -0.00045812
     atom   20 type  1   force =     0.00027487   -0.00088696   -0.00051198
     atom   21 type  2   force =     0.00005539    0.00002665    0.10329203
     atom   22 type  2   force =    -0.00004789    0.00070930   -0.00014074
     atom   23 type  2   force =    -0.07174993   -0.00019846   -0.02723801
     atom   24 type  2   force =     0.07158696    0.00024290   -0.02730162
     atom   25 type  1   force =     0.00006712   -0.00034225    0.09388939
     atom   26 type  1   force =    -0.00017622   -0.00123408   -0.17593616
     atom   27 type  2   force =     0.00013689   -0.00024203   -0.02017364
     atom   28 type  2   force =     0.00003658   -0.00055805    0.05062330
     atom   29 type  2   force =    -0.00679891    0.00148103    0.00206895
     atom   30 type  2   force =     0.00849243    0.00183546    0.00198353
     atom   31 type  1   force =     0.00015210    0.00700437   -0.00373493
     atom   32 type  1   force =    -0.00027812   -0.00257163    0.00508952
     atom   33 type  2   force =    -0.00000629    0.00031061   -0.00008344
     atom   34 type  2   force =    -0.00011886    0.00279738   -0.00818962
     atom   35 type  2   force =     0.00026211    0.00066947   -0.00023441
     atom   36 type  2   force =    -0.00101567    0.00054765   -0.00038144
     atom   37 type  1   force =     0.00012612   -0.00044515   -0.00008512
     atom   38 type  1   force =    -0.00017143   -0.00006457   -0.00016772
     atom   39 type  2   force =    -0.00008052   -0.00000712    0.00065574
     atom   40 type  2   force =    -0.00047040    0.00015148    0.00009133
     atom   41 type  2   force =     0.00025258    0.00017042    0.00010725
     atom   42 type  2   force =     0.00012792    0.00019166    0.00046235
     atom   43 type  1   force =     0.00025960    0.00071356   -0.00064485
     atom   44 type  1   force =    -0.00007882   -0.00008149   -0.00071932
     atom   45 type  2   force =     0.00001813   -0.00010851    0.10305750
     atom   46 type  2   force =    -0.07181317   -0.00004105   -0.02729316
     atom   47 type  2   force =     0.07164863    0.00035249   -0.02733236
     atom   48 type  3   force =    -0.00571109   -0.00132218   -0.01525161
     atom   49 type  4   force =     0.00554765    0.00080203    0.00949805
     atom   50 type  5   force =     0.00115508   -0.00056780    0.00015927
     atom   51 type  5   force =    -0.00137232    0.00017432   -0.00065175
     atom   52 type  3   force =     0.00060395    0.00034896    0.00315509
     atom   53 type  5   force =    -0.00081347    0.00103132   -0.00047308
     atom   54 type  5   force =     0.00069592   -0.00031771   -0.00016512
     atom   55 type  5   force =    -0.00047669    0.00103331    0.00048985
     atom   56 type  2   force =     0.00042629    0.00132245    0.00073590
     atom   57 type  5   force =    -0.00061265   -0.00032503   -0.00104140

     Total force =     0.363239     Total SCF correction =     0.000645
  @ DRIVER MODE: Message from server: STATUS
  @ DRIVER MODE: Message from server: GETFORCE
  @ DRIVER MODE: Returning v,forces,stress,ensemble

     Writing output data file ./calc.save/
  @ DRIVER MODE: Message from server: EXIT
  @ DRIVE MODE: Exiting

     General routines

     Parallel routines

   This run was terminated on:  13:49: 0  23Sep2021

   JOB DONE.