     Program PWSCF v.6.7GPU starts on 22Sep2021 at 14:55:16

     R & G space division:  proc/nbgrp/npool/nimage =      10
     Reading input from /storage/home/hcoda1/3/ntian30/research/carbon/CxH_vib/CH_calc/ads_slab/CHN2OH_a/out_0013/pw.inp
Warning: card &CELL ignored
Warning: card   CELL_DYNAMICS='IPI', ignored
Warning: card / ignored

     Current dimensions of program PWSCF are:
     Max number of different atomic species (ntypx) = 10
     Max number of k-points (npk) =  40000
     Max angular momentum in pseudopotentials (lmaxx) =  3
     Presently no symmetry can be used with electric field

     Message from routine cell_base_init:
     DEPRECATED: use true lattice parameter, not A to a.u. conversion factor

     IMPORTANT: XC functional enforced from input :
     Exchange-correlation= BEEF-VDW
                           (   1   4  43  14   2   0   0)
     Any further DFT definition will be discarded
     Please, verify this is what you really want

  @ DRIVER MODE: Connecting to
 qe_1139763_2934093.sched-torque.pace.gatech.eduqi84bl9n_scratch
  using UNIX socket
  @ DRIVER MODE: Message from server: STATUS
  @ DRIVER MODE: Message from server: INIT
  @ DRIVER MODE: Receiving replica           0          -1
  @ DRIVER MODE: Receiving encoded integer          25
  @ DRIVER MODE:  SCF:  T  FORCE:  T  STRESS:  F  VC:  F  ENSEMBLE:  F
  @ DRIVER MODE:  SCF:  T  FORCE:  T  STRESS:  F  VC:  F  ENSEMBLE:  F

     Using Slab Decomposition

     bravais-lattice index     =            0
     lattice parameter (alat)  =       1.8897  a.u.
     unit-cell volume          =    6658.9804 (a.u.)^3
     number of atoms/cell      =           53
     number of atomic types    =            5
     number of electrons       =       400.00
     number of Kohn-Sham states=          210
     kinetic-energy cutoff     =      29.3995  Ry
     charge density cutoff     =     293.9946  Ry
     scf convergence threshold =      7.3E-08
     mixing beta               =       0.0500
     number of iterations used =            8  plain     mixing
     Exchange-correlation= BEEF-VDW
                           (   1   4  43  14   2   0   0)

     celldm(1)=   1.889726  celldm(2)=   0.000000  celldm(3)=   0.000000
     celldm(4)=   0.000000  celldm(5)=   0.000000  celldm(6)=   0.000000

     crystal axes: (cart. coord. in units of alat)
               a(1) = (   6.579727   0.000000   0.000000 )
               a(2) = (  -0.000775   5.961596   0.000000 )
               a(3) = (   0.000000   0.000000  25.155947 )

     reciprocal axes: (cart. coord. in units 2 pi/alat)
               b(1) = (  0.151982  0.000020  0.000000 )
               b(2) = (  0.000000  0.167740  0.000000 )
               b(3) = (  0.000000  0.000000  0.039752 )

     PseudoPot. # 1 for Ti read from file:
     /storage/coda1/p-amedford6/0/shared/rich_project_chbe-medford/medford-share/data/pseudos_module/espresso/nninc/pbe/van/Ti.UPF
     MD5 check sum: 8e4df49b7f0d34bbd5052bf3f5ea0213
     Pseudo is Ultrasoft, Zval = 12.0
     Generated by new atomic code, or converted to UPF format
     Using radial grid of  851 points,  6 beta functions with:
                l(1) =   0
                l(2) =   0
                l(3) =   1
                l(4) =   1
                l(5) =   2
                l(6) =   2
     Q(r) pseudized with  8 coefficients,  rinner =    1.000   1.000   1.000
                                                       1.000   1.000

     PseudoPot. # 2 for O  read from file:
     /storage/coda1/p-amedford6/0/shared/rich_project_chbe-medford/medford-share/data/pseudos_module/espresso/nninc/pbe/van/O.UPF
     MD5 check sum: 78c19812648e8988a0fe644b0f25305e
     Pseudo is Ultrasoft, Zval =  6.0
     Generated by new atomic code, or converted to UPF format
     Using radial grid of  737 points,  4 beta functions with:
                l(1) =   0
                l(2) =   0
                l(3) =   1
                l(4) =   1
     Q(r) pseudized with  8 coefficients,  rinner =    0.800   0.800   0.800

     PseudoPot. # 3 for N  read from file:
     /storage/coda1/p-amedford6/0/shared/rich_project_chbe-medford/medford-share/data/pseudos_module/espresso/nninc/pbe/van/N.UPF
     MD5 check sum: 90d10febe142ad51ac9d5be1deb811c4
     Pseudo is Ultrasoft, Zval =  5.0
     Generated by new atomic code, or converted to UPF format
     Using radial grid of  729 points,  4 beta functions with:
                l(1) =   0
                l(2) =   0
                l(3) =   1
                l(4) =   1
     Q(r) pseudized with  8 coefficients,  rinner =    0.800   0.800   0.800

     PseudoPot. # 4 for C  read from file:
     /storage/coda1/p-amedford6/0/shared/rich_project_chbe-medford/medford-share/data/pseudos_module/espresso/nninc/pbe/van/C.UPF
     MD5 check sum: 1a69bf6b8db32088f5b2163dbdb77a27
     Pseudo is Ultrasoft, Zval =  4.0
     Generated by new atomic code, or converted to UPF format
     Using radial grid of  721 points,  4 beta functions with:
                l(1) =   0
                l(2) =   0
                l(3) =   1
                l(4) =   1
     Q(r) pseudized with  8 coefficients,  rinner =    0.800   0.800   0.800

     PseudoPot. # 5 for H  read from file:
     /storage/coda1/p-amedford6/0/shared/rich_project_chbe-medford/medford-share/data/pseudos_module/espresso/nninc/pbe/van/H.UPF
     MD5 check sum: b5ee9d7bfd3a09ee7748110bda690ff7
     Pseudo is Ultrasoft, Zval =  1.0
     Generated by new atomic code, or converted to UPF format
     Using radial grid of  615 points,  1 beta functions with:
                l(1) =   0
     Q(r) pseudized with  8 coefficients,  rinner =    0.800

     atomic species   valence    mass     pseudopotential
        Ti1           12.00    47.86700     Ti( 1.00)
        O1             6.00    15.99900     O ( 1.00)
        N1             5.00    14.00700     N ( 1.00)
        C1             4.00    12.01100     C ( 1.00)
        H1             1.00     1.00800     H ( 1.00)

     No symmetry found

   Cartesian axes

     site n.     atom                  positions (alat units)
         1           Ti1 tau(   1) = (   0.0004258   2.9801865   6.0000000  )
         2           Ti1 tau(   2) = (   3.2906075   1.4906267   6.0002472  )
         3           O1  tau(   3) = (   0.0006271   0.0005054   7.9858123  )
         4           O1  tau(   4) = (   3.2906025   0.0005020   7.3038282  )
         5           O1  tau(   5) = (   4.5942328   1.4918067   9.2879030  )
         6           O1  tau(   6) = (   1.9868534   1.4903216   9.2879459  )
         7           Ti1 tau(   7) = (   3.2907910   2.8959150   9.1758416  )
         8           Ti1 tau(   8) = (   0.0015273   1.4827037   9.2680791  )
         9           O1  tau(   9) = (   3.2947431   5.9554071  11.2675382  )
        10           O1  tau(  10) = (   0.0116148   5.9584955  10.6183126  )
        11           O1  tau(  11) = (   1.2939190   1.5012022  12.6324650  )
        12           O1  tau(  12) = (   5.3075194   1.4952059  12.6199201  )
        13           Ti1 tau(  13) = (   0.0106221   2.8553259  12.7114016  )
        14           Ti1 tau(  14) = (   3.3038960   1.3182849  12.6556579  )
        15           O1  tau(  15) = (   6.5780848   0.0092190  14.6493773  )
        16           O1  tau(  16) = (   3.3025004   0.0387551  13.8658611  )
        17           O1  tau(  17) = (   4.5583283   1.5306594  16.0644060  )
        18           O1  tau(  18) = (   2.0361898   1.5392772  16.0217891  )
        19           Ti1 tau(  19) = (   3.3091865   3.0111069  15.6373089  )
        20           Ti1 tau(  20) = (   0.0377650   1.3505479  16.0707495  )
        21           O1  tau(  21) = (   3.2904802   0.0005063   4.7018136  )
        22           O1  tau(  22) = (   0.0439016   5.9493915  17.1867805  )
        23           O1  tau(  23) = (   1.3043587   1.4918075   6.0039043  )
        24           O1  tau(  24) = (   5.2767064   1.4903225   6.0039473  )
        25           Ti1 tau(  25) = (   0.0000382   5.9609847   6.0000000  )
        26           Ti1 tau(  26) = (   3.2902200   4.4714249   6.0002472  )
        27           O1  tau(  27) = (   0.0002396   2.9813036   7.9858123  )
        28           O1  tau(  28) = (   3.2902150   2.9813002   7.3038282  )
        29           O1  tau(  29) = (   4.5938453   4.4726049   9.2879030  )
        30           O1  tau(  30) = (   1.9864658   4.4711199   9.2879459  )
        31           Ti1 tau(  31) = (   3.2891106   5.8743827   9.1763621  )
        32           Ti1 tau(  32) = (   0.0006254   4.4649316   9.2693709  )
        33           O1  tau(  33) = (   3.2958776   3.0336607  11.2353185  )
        34           O1  tau(  34) = (   0.0092240   2.9805883  10.6323155  )
        35           O1  tau(  35) = (   1.3000586   4.4853303  12.6229424  )
        36           O1  tau(  36) = (   5.2993189   4.4901910  12.6110906  )
        37           Ti1 tau(  37) = (   0.0093010   5.8444503  12.6145921  )
        38           Ti1 tau(  38) = (   3.2999333   4.4129019  12.4053696  )
        39           O1  tau(  39) = (   6.5685983   3.0141634  14.6646344  )
        40           O1  tau(  40) = (   3.3157979   2.9893391  13.8470085  )
        41           O1  tau(  41) = (   4.5469136   4.4558096  16.0384726  )
        42           O1  tau(  42) = (   2.0285042   4.4377151  15.9822253  )
        43           Ti1 tau(  43) = (   3.3362675   0.0317196  16.2890182  )
        44           Ti1 tau(  44) = (   0.0499865   4.4862307  15.8577502  )
        45           O1  tau(  45) = (   3.2900926   2.9813045   4.7018136  )
        46           O1  tau(  46) = (   1.3039711   4.4726057   6.0039043  )
        47           O1  tau(  47) = (   5.2763189   4.4711207   6.0039473  )
        48           N1  tau(  48) = (   0.0045878   3.1533891  18.5964175  )
        49           N1  tau(  49) = (   0.0147781   3.0160983  17.3860304  )
        50           C1  tau(  50) = (   0.1435999   3.3096653  19.7680592  )
        51           H1  tau(  51) = (   6.1193577   3.4501394  20.6313668  )
        52           O1  tau(  52) = (   3.1701150   5.9596689  18.1025665  )
        53           H1  tau(  53) = (   2.2867615   0.0439400  18.5018857  )

     number of k points=    10  Fermi-Dirac smearing, width (Ry)=  0.0073
                       cart. coord. in units 2pi/alat
        k(    1) = (   0.0000000   0.0000000   0.0000000), wk =   0.1250000
        k(    2) = (   0.0000000   0.0419351   0.0000000), wk =   0.2500000
        k(    3) = (   0.0000000  -0.0838702   0.0000000), wk =   0.1250000
        k(    4) = (   0.0379955   0.0000049   0.0000000), wk =   0.2500000
        k(    5) = (   0.0379955   0.0419400   0.0000000), wk =   0.2500000
        k(    6) = (   0.0379955  -0.0838652   0.0000000), wk =   0.2500000
        k(    7) = (   0.0379955  -0.0419301   0.0000000), wk =   0.2500000
        k(    8) = (  -0.0759910  -0.0000099   0.0000000), wk =   0.1250000
        k(    9) = (  -0.0759910   0.0419252   0.0000000), wk =   0.2500000
        k(   10) = (  -0.0759910  -0.0838800   0.0000000), wk =   0.1250000

     Initial potential from superposition of free atoms

     starting charge  383.99917, renormalised to  400.00000

     negative rho (up, down):  1.461E-02 0.000E+00

     %%%%%%%%%%%%%%%%%%%%%%%%%%%%%%%%%%%%%%%%%%%%%%%%%%%%%%%%%%%%%%%%%%%%%%%%
     %                                                                      %
     % You are using vdW-DF, which was implemented by the Thonhauser group. %
     % Please cite the following two papers that made this development      %
     % possible and the two reviews that describe the various versions:     %
     %                                                                      %
     %   T. Thonhauser et al., PRL 115, 136402 (2015).                      %
     %   T. Thonhauser et al., PRB 76, 125112 (2007).                       %
     %   K. Berland et al., Rep. Prog. Phys. 78, 066501 (2015).             %
     %   D.C. Langreth et al., J. Phys.: Condens. Matter 21, 084203 (2009). %
     %                                                                      %
     %                                                                      %
     % If you are calculating the stress with vdW-DF, please also cite:     %
     %                                                                      %
     %   R. Sabatini et al., J. Phys.: Condens. Matter 24, 424209 (2012).   %
     %                                                                      %
     %%%%%%%%%%%%%%%%%%%%%%%%%%%%%%%%%%%%%%%%%%%%%%%%%%%%%%%%%%%%%%%%%%%%%%%%

     Adding external electric field

     Computed dipole along edir(3) :
        Dipole              -10.4151 Ry au,        -26.4725 Debye
        Dipole field         -0.0197 Ry au,

        Potential amp.        1.8220 Ry
        Total length         46.3494 bohr

     Starting wfcs are  302 atomic wfcs
  @ DRIVER MODE: Message from server: STATUS
  @ DRIVER MODE: Message from server: POSDATA
  @ DRIVER MODE: Reading and sharing cell
  @ DRIVER MODE: Reading and sharing positions
  @ DRIVER MODE: Received positions

     Self-consistent Calculation

     iteration #  1     ecut=    29.40 Ry     beta= 0.05
     Davidson diagonalization with overlap
     c_bands:  1 eigenvalues not converged
     c_bands:  1 eigenvalues not converged
     c_bands:  1 eigenvalues not converged
     c_bands:  1 eigenvalues not converged
     c_bands:  3 eigenvalues not converged
     c_bands:  2 eigenvalues not converged
     c_bands:  3 eigenvalues not converged
     c_bands:  2 eigenvalues not converged
     c_bands:  4 eigenvalues not converged
     c_bands:  2 eigenvalues not converged
     ethr =  1.00E-05,  avg # of iterations = 20.0

[...]

     total energy              =   -2482.75678555 Ry
     estimated scf accuracy    <    5425.45158931 Ry

     iteration #  2     ecut=    29.40 Ry     beta= 0.05
     Davidson diagonalization with overlap
     ethr =  1.00E-02,  avg # of iterations = 22.9

[...]

     iteration # 41     ecut=    29.40 Ry     beta= 0.05
     Davidson diagonalization with overlap
     c_bands:  1 eigenvalues not converged
     ethr =  2.91E-07,  avg # of iterations =  8.9

[...]

     total energy              =   -2970.22393430 Ry
     estimated scf accuracy    <       0.00000012 Ry

     iteration # 61     ecut=    29.40 Ry     beta= 0.05
     Davidson diagonalization with overlap
     ethr =  1.96E-11,  avg # of iterations =  6.0

     negative rho (up, down):  1.522E-02 0.000E+00

     Adding external electric field

     Computed dipole along edir(3) :
        Dipole                0.3172 Ry au,          0.8063 Debye
        Dipole field          0.0006 Ry au,

        Potential amp.       -0.0555 Ry
        Total length         46.3494 bohr

     End of self-consistent calculation

          k = 0.0000 0.0000 0.0000 ( 18029 PWs)   bands (ev):

   -56.8366 -56.8030 -55.9967 -55.9615 -55.7372 -55.6728 -55.4061 -55.3829
   -55.3722 -55.3688 -55.3029 -55.2508 -55.2495 -55.2393 -55.0577 -55.0515
   -33.2581 -33.1120 -33.0839 -33.0122 -32.9218 -32.8848 -32.4811 -32.2174
   -32.2152 -32.1866 -32.1376 -32.1356 -32.1069 -31.9688 -31.9567 -31.9044
   -31.8778 -31.8636 -31.8371 -31.7874 -31.7522 -31.7378 -31.7314 -31.7277
   -31.7162 -31.6517 -31.6462 -31.6172 -31.6113 -31.6036 -31.5937 -31.5306
   -31.5196 -31.5018 -31.4994 -31.4747 -31.4714 -31.4543 -31.4416 -31.4189
   -31.4139 -31.3940 -31.3182 -31.3024 -31.3010 -31.2698 -31.2668 -31.2561
   -19.0056 -16.9579 -16.4344 -16.1846 -16.1644 -16.0724 -16.0420 -16.0309
   -15.9514 -15.7555 -15.6941 -15.6225 -15.6024 -15.5073 -15.3818 -15.2853
   -15.1571 -15.0818 -15.0179 -15.0079 -14.9985 -14.9783 -14.8643 -14.8610
   -14.8562 -14.8135 -14.7668 -14.6088 -14.5219 -14.3617 -14.3268 -13.9039
   -13.7964 -13.6404  -6.3384  -5.0520  -4.5273  -3.9512  -3.9071  -3.8443
    -3.7336  -3.5865  -3.5629  -3.4353  -3.3670  -3.2445  -3.2331  -3.2171
    -3.1516  -3.1313  -2.9842  -2.9361  -2.9205  -2.8163  -2.7855  -2.6319
    -2.6065  -2.5113  -2.4624  -2.4282  -2.3715  -2.3459  -2.2711  -2.2638
    -2.2455  -2.1573  -2.1570  -2.1256  -2.0443  -2.0340  -1.9648  -1.9174
    -1.8771  -1.8197  -1.7949  -1.7203  -1.7167  -1.5963  -1.5131  -1.4721
    -1.4284  -1.4189  -1.3589  -1.3049  -1.1941  -1.1677  -1.0774  -1.0330
    -1.0205  -0.9702  -0.8817  -0.8542  -0.7847  -0.7118  -0.6927  -0.6092
    -0.5803  -0.5553  -0.4490  -0.4307  -0.3752  -0.3495  -0.3184  -0.3080
    -0.2294  -0.1136  -0.0982  -0.0350   0.0157   0.0444   0.1362   0.2291
     0.2755   0.3263   0.3551   0.3739   0.4494   0.4775   0.4999   0.5513
     0.5807   0.6154   0.6191   0.7237   0.7546   0.8183   0.8757   0.8970
     1.0051   1.0415   1.1010   1.1523   1.1934   1.5348   1.6308   1.8854
     2.4509   2.6172   2.8933   3.0255   3.3501   3.4375   3.4456   3.4516
     3.6887   3.8255

[...]

          k = 0.0380-0.0419 0.0000 ( 17876 PWs)   bands (ev):

[...]

          k =-0.0760-0.0000 0.0000 ( 17886 PWs)   bands (ev):

[...]

          k =-0.0760-0.0839 0.0000 ( 17948 PWs)   bands (ev):

   -56.8203 -56.8192 -55.9843 -55.9737 -55.7323 -55.6776 -55.3897 -55.3885
   -55.3789 -55.3673 -55.3066 -55.2493 -55.2478 -55.2408 -55.0590 -55.0529
   -33.0983 -33.0971 -33.0758 -33.0746 -32.9660 -32.9652 -32.3057 -32.2972
   -32.1793 -32.1672 -32.1644 -32.1575 -32.0395 -31.9959 -31.9622 -31.9529
   -31.9053 -31.9002 -31.7413 -31.7404 -31.7104 -31.6586 -31.6559 -31.6470
   -31.6400 -31.6262 -31.6106 -31.6089 -31.6066 -31.5978 -31.5840 -31.5730
   -31.5716 -31.5706 -31.5424 -31.5176 -31.5027 -31.4907 -31.4571 -31.4491
   -31.4453 -31.4390 -31.4065 -31.3757 -31.3228 -31.2912 -31.2707 -31.2587
   -19.0030 -16.3241 -16.3215 -16.2660 -16.2644 -16.1651 -16.0250 -16.0194
   -15.7718 -15.7420 -15.5479 -15.5069 -15.4576 -15.4039 -15.3665 -15.3634
   -15.2258 -15.2140 -15.1104 -15.0317 -15.0105 -14.9776 -14.9665 -14.9446
   -14.9390 -14.8680 -14.7824 -14.7206 -14.7061 -14.5400 -14.4603 -13.9009
   -13.9002 -13.6449  -6.3372  -5.0198  -3.9520  -3.7709  -3.6115  -3.3895
    -3.3867  -3.3817  -3.3742  -3.1450  -3.1344  -2.9613  -2.9547  -2.9288
    -2.8679  -2.8563  -2.7499  -2.6816  -2.6758  -2.6665  -2.6423  -2.6156
    -2.6100  -2.5468  -2.4910  -2.3830  -2.3598  -2.3248  -2.3046  -2.2903
    -2.1711  -2.1440  -2.1329  -2.1038  -2.0884  -2.0769  -2.0399  -2.0154
    -1.8623  -1.8231  -1.7143  -1.6999  -1.6791  -1.6361  -1.6190  -1.5973
    -1.5718  -1.5367  -1.5324  -1.4453  -1.4220  -1.3654  -1.2830  -1.2049
    -1.1571  -1.1441  -1.0827  -1.0315  -0.9209  -0.8961  -0.8608  -0.8418
    -0.8127  -0.7545  -0.7250  -0.6199  -0.5334  -0.5030  -0.4816  -0.4764
    -0.4419  -0.4088  -0.3860  -0.2718  -0.2598  -0.2437  -0.1450  -0.0504
     0.0324   0.0931   0.1093   0.1870   0.2829   0.3279   0.3927   0.4550
     0.4976   0.5133   0.6862   0.7347   0.8577   0.8823   0.9145   0.9767
     0.9918   0.9963   1.0181   1.0261   1.0562   1.1347   1.5505   1.8002
     3.0380   3.0409   3.0971   3.1032   3.4068   3.4103   3.5156   3.5182
     3.7999   3.8114

     the Fermi energy is     2.2274 ev

!    total energy              =   -2970.22398716 Ry
     estimated scf accuracy    <       0.00000003 Ry
     smearing contrib. (-TS)   =      -0.00329009 Ry
     internal energy E=F+TS    =   -2970.22069708 Ry

     The total energy is F=E-TS. E is the sum of the following terms:
     one-electron contribution =  -23875.06710837 Ry
     hartree contribution      =   12028.75722097 Ry
     xc contribution           =    -491.46511678 Ry
     ewald contribution        =    9367.55411718 Ry
     electric field correction =       0.00018992 Ry

     convergence has been achieved in  61 iterations

     Forces acting on atoms (cartesian axes, Ry/au):

     atom    1 type  1   force =     0.00006444   -0.00042751    0.12337479
     atom    2 type  1   force =    -0.00003864    0.00025506   -0.15536917
     atom    3 type  2   force =     0.00000930   -0.00007094   -0.06312686
     atom    4 type  2   force =     0.00000865    0.00023976    0.01794182
     atom    5 type  2   force =    -0.00301102   -0.00167749   -0.01288075
     atom    6 type  2   force =     0.00469180   -0.00105820   -0.01335401
     atom    7 type  1   force =    -0.00006945   -0.00670505    0.05742046
     atom    8 type  1   force =     0.00033383    0.01201304    0.09284775
     atom    9 type  2   force =    -0.00005464   -0.00007248   -0.00009722
     atom   10 type  2   force =    -0.00146701    0.00206166   -0.05858897
     atom   11 type  2   force =    -0.00001896    0.00037286   -0.00009458
     atom   12 type  2   force =    -0.00007633    0.00059188   -0.00003040
     atom   13 type  1   force =    -0.00016813    0.00091974   -0.00024838
     atom   14 type  1   force =    -0.00007554    0.00063893   -0.00047008
     atom   15 type  2   force =     0.00002584   -0.00066683   -0.00048440
     atom   16 type  2   force =    -0.00012717    0.00008080   -0.00104234
     atom   17 type  2   force =    -0.00011247   -0.00056085   -0.00029849
     atom   18 type  2   force =     0.00004478    0.00033643   -0.00044645
     atom   19 type  1   force =     0.00034712   -0.00024635    0.00110486
     atom   20 type  1   force =    -0.00036278    0.00095314    0.00034423
     atom   21 type  2   force =     0.00003236    0.00021181    0.09797305
     atom   22 type  2   force =     0.00042391   -0.00013539    0.00095439
     atom   23 type  2   force =    -0.08219480    0.00004334   -0.03274963
     atom   24 type  2   force =     0.08207582    0.00048057   -0.03282234
     atom   25 type  1   force =     0.00009716   -0.00059802    0.12339514
     atom   26 type  1   force =    -0.00015733   -0.00149790   -0.15593567
     atom   27 type  2   force =     0.00007020   -0.00069218   -0.06134891
     atom   28 type  2   force =     0.00002037    0.00205868    0.01320702
     atom   29 type  2   force =    -0.00129235    0.00547036   -0.01605630
     atom   30 type  2   force =     0.00296370    0.00580302   -0.01650368
     atom   31 type  1   force =    -0.00011372    0.00212082    0.04126893
     atom   32 type  1   force =     0.00053168   -0.01545038    0.09254437
     atom   33 type  2   force =    -0.00021131   -0.00072907   -0.00054115
     atom   34 type  2   force =    -0.00141021    0.00202823   -0.07245206
     atom   35 type  2   force =     0.00019209   -0.00081252    0.00006343
     atom   36 type  2   force =    -0.00023164   -0.00092263    0.00011183
     atom   37 type  1   force =    -0.00022917   -0.00111472   -0.00033257
     atom   38 type  1   force =    -0.00007729   -0.00148722    0.00065898
     atom   39 type  2   force =     0.00034927   -0.00047536    0.00007579
     atom   40 type  2   force =    -0.00003656   -0.00068429   -0.00125147
     atom   41 type  2   force =     0.00026684    0.00028948    0.00015386
     atom   42 type  2   force =     0.00009215    0.00041789    0.00061105
     atom   43 type  1   force =    -0.00015615   -0.00002237    0.00051824
     atom   44 type  1   force =    -0.00024195   -0.00001359   -0.00070512
     atom   45 type  2   force =     0.00002647    0.00002752    0.09773748
     atom   46 type  2   force =    -0.08226025   -0.00001116   -0.03278048
     atom   47 type  2   force =     0.08211408    0.00043755   -0.03279629
     atom   48 type  3   force =    -0.00222057   -0.00050930    0.00005799
     atom   49 type  3   force =     0.00094203    0.00040365   -0.00022670
     atom   50 type  4   force =     0.00664972   -0.00069133   -0.00654781
     atom   51 type  5   force =    -0.00572597    0.00045456    0.00707831
     atom   52 type  2   force =    -0.00042831   -0.00043271    0.00010095
     atom   53 type  5   force =     0.00019609   -0.00094494    0.00003759

     Total force =     0.412435     Total SCF correction =     0.000390
  @ DRIVER MODE: Message from server: STATUS
  @ DRIVER MODE: Message from server: GETFORCE
  @ DRIVER MODE: Returning v,forces,stress,ensemble

     Writing output data file ./calc.save/
  @ DRIVER MODE: Message from server: EXIT
  @ DRIVE MODE: Exiting

     General routines

     Parallel routines

   This run was terminated on:  15:14:53  22Sep2021

   JOB DONE.