     Program PWSCF v.6.7GPU starts on 22Sep2021 at 22:24:13

     R & G space division:  proc/nbgrp/npool/nimage =       8
     Reading input from /storage/home/hcoda1/3/ntian30/research/carbon/CxH_vib/H2O_calc/ads_slab/CH2OHO_c/out_0001/pw.inp
Warning: card &CELL ignored
Warning: card   CELL_DYNAMICS='IPI', ignored
Warning: card / ignored

     Current dimensions of program PWSCF are:
     Max number of different atomic species (ntypx) = 10
     Max number of k-points (npk) =  40000
     Max angular momentum in pseudopotentials (lmaxx) =  3
     Presently no symmetry can be used with electric field

     Message from routine cell_base_init:
     DEPRECATED: use true lattice parameter, not A to a.u. conversion factor

     IMPORTANT: XC functional enforced from input :
     Exchange-correlation= BEEF-VDW
                           (   1   4  43  14   2   0   0)
     Any further DFT definition will be discarded
     Please, verify this is what you really want

  @ DRIVER MODE: Connecting to
 qe_1139763_2941011.sched-torque.pace.gatech.edugxlmvc5p_scratch
  using UNIX socket
  @ DRIVER MODE: Message from server: STATUS
  @ DRIVER MODE: Message from server: INIT
  @ DRIVER MODE: Receiving replica           0          -1
  @ DRIVER MODE: Receiving encoded integer          25
  @ DRIVER MODE:  SCF:  T  FORCE:  T  STRESS:  F  VC:  F  ENSEMBLE:  F
  @ DRIVER MODE:  SCF:  T  FORCE:  T  STRESS:  F  VC:  F  ENSEMBLE:  F

     Using Slab Decomposition

     bravais-lattice index     =            0
     lattice parameter (alat)  =       1.8897  a.u.
     unit-cell volume          =    6658.9804 (a.u.)^3
     number of atoms/cell      =           53
     number of atomic types    =            4
     number of electrons       =       397.00
     number of Kohn-Sham states=          208
     kinetic-energy cutoff     =      29.3995  Ry
     charge density cutoff     =     293.9946  Ry
     scf convergence threshold =      7.3E-08
     mixing beta               =       0.0500
     number of iterations used =            8  plain     mixing
     Exchange-correlation= BEEF-VDW
                           (   1   4  43  14   2   0   0)

     celldm(1)=   1.889726  celldm(2)=   0.000000  celldm(3)=   0.000000
     celldm(4)=   0.000000  celldm(5)=   0.000000  celldm(6)=   0.000000

     crystal axes: (cart. coord. in units of alat)
               a(1) = (   6.579727   0.000000   0.000000 )
               a(2) = (  -0.000775   5.961596   0.000000 )
               a(3) = (   0.000000   0.000000  25.155947 )

     reciprocal axes: (cart. coord. in units 2 pi/alat)
               b(1) = (  0.151982  0.000020  0.000000 )
               b(2) = (  0.000000  0.167740  0.000000 )
               b(3) = (  0.000000  0.000000  0.039752 )

     PseudoPot. # 1 for O  read from file:
     /storage/coda1/p-amedford6/0/shared/rich_project_chbe-medford/medford-share/data/pseudos_module/espresso/nninc/pbe/van/O.UPF
     MD5 check sum: 78c19812648e8988a0fe644b0f25305e
     Pseudo is Ultrasoft, Zval =  6.0
     Generated by new atomic code, or converted to UPF format
     Using radial grid of  737 points,  4 beta functions with:
                l(1) =   0
                l(2) =   0
                l(3) =   1
                l(4) =   1
     Q(r) pseudized with  8 coefficients,  rinner =    0.800   0.800   0.800

     PseudoPot. # 2 for Ti read from file:
     /storage/coda1/p-amedford6/0/shared/rich_project_chbe-medford/medford-share/data/pseudos_module/espresso/nninc/pbe/van/Ti.UPF
     MD5 check sum: 8e4df49b7f0d34bbd5052bf3f5ea0213
     Pseudo is Ultrasoft, Zval = 12.0
     Generated by new atomic code, or converted to UPF format
     Using radial grid of  851 points,  6 beta functions with:
                l(1) =   0
                l(2) =   0
                l(3) =   1
                l(4) =   1
                l(5) =   2
                l(6) =   2
     Q(r) pseudized with  8 coefficients,  rinner =    1.000   1.000   1.000
                                                       1.000   1.000

     PseudoPot. # 3 for C  read from file:
     /storage/coda1/p-amedford6/0/shared/rich_project_chbe-medford/medford-share/data/pseudos_module/espresso/nninc/pbe/van/C.UPF
     MD5 check sum: 1a69bf6b8db32088f5b2163dbdb77a27
     Pseudo is Ultrasoft, Zval =  4.0
     Generated by new atomic code, or converted to UPF format
     Using radial grid of  721 points,  4 beta functions with:
                l(1) =   0
                l(2) =   0
                l(3) =   1
                l(4) =   1
     Q(r) pseudized with  8 coefficients,  rinner =    0.800   0.800   0.800

     PseudoPot. # 4 for H  read from file:
     /storage/coda1/p-amedford6/0/shared/rich_project_chbe-medford/medford-share/data/pseudos_module/espresso/nninc/pbe/van/H.UPF
     MD5 check sum: b5ee9d7bfd3a09ee7748110bda690ff7
     Pseudo is Ultrasoft, Zval =  1.0
     Generated by new atomic code, or converted to UPF format
     Using radial grid of  615 points,  1 beta functions with:
                l(1) =   0
     Q(r) pseudized with  8 coefficients,  rinner =    0.800

     atomic species   valence    mass     pseudopotential
        O1             6.00    15.99900     O ( 1.00)
        Ti1           12.00    47.86700     Ti( 1.00)
        C1             4.00    12.01100     C ( 1.00)
        H1             1.00     1.00800     H ( 1.00)

     No symmetry found

   Cartesian axes

     site n.     atom                  positions (alat units)
         1           O1  tau(   1) = (   3.2904802   0.0005063   4.7018136  )
         2           O1  tau(   2) = (   3.2900926   2.9813045   4.7018136  )
         3           Ti1 tau(   3) = (   0.0004258   2.9801865   6.0000000  )
         4           Ti1 tau(   4) = (   0.0000382   5.9609847   6.0000000  )
         5           Ti1 tau(   5) = (   3.2906075   1.4906267   6.0002472  )
         6           Ti1 tau(   6) = (   3.2902200   4.4714249   6.0002472  )
         7           O1  tau(   7) = (   1.3043587   1.4918075   6.0039043  )
         8           O1  tau(   8) = (   1.3039711   4.4726057   6.0039043  )
         9           O1  tau(   9) = (   5.2767064   1.4903225   6.0039473  )
        10           O1  tau(  10) = (   5.2763189   4.4711207   6.0039473  )
        11           O1  tau(  11) = (   3.2906025   0.0005020   7.3038282  )
        12           O1  tau(  12) = (   3.2902150   2.9813002   7.3038282  )
        13           O1  tau(  13) = (   0.0006271   0.0005054   7.9858123  )
        14           O1  tau(  14) = (   0.0002396   2.9813036   7.9858123  )
        15           Ti1 tau(  15) = (   3.3202697   0.0919879   9.1698383  )
        16           Ti1 tau(  16) = (   3.3215697   3.0759731   9.1987478  )
        17           Ti1 tau(  17) = (   0.0419684   4.5271873   9.2680259  )
        18           Ti1 tau(  18) = (   0.0391189   1.6041453   9.3419098  )
        19           O1  tau(  19) = (   4.5942328   1.4918067   9.2879030  )
        20           O1  tau(  20) = (   4.5938453   4.4726049   9.2879030  )
        21           O1  tau(  21) = (   1.9868534   1.4903216   9.2879459  )
        22           O1  tau(  22) = (   1.9864658   4.4711199   9.2879459  )
        23           O1  tau(  23) = (   0.0125722   0.0097687  10.5830051  )
        24           O1  tau(  24) = (   0.0081120   2.9918398  10.5664780  )
        25           O1  tau(  25) = (   3.3077729   2.9680546  11.3050536  )
        26           O1  tau(  26) = (   3.3059260   0.0232323  11.3367354  )
        27           Ti1 tau(  27) = (   0.0233359   0.0627999  12.4784840  )
        28           Ti1 tau(  28) = (   3.3058864   4.6637881  12.6801991  )
        29           Ti1 tau(  29) = (   3.3037148   1.5793570  12.4293313  )
        30           Ti1 tau(  30) = (   0.0089448   3.0481173  12.7472709  )
        31           O1  tau(  31) = (   1.2933882   4.4692258  12.6303221  )
        32           O1  tau(  32) = (   1.2985301   1.4993897  12.6236677  )
        33           O1  tau(  33) = (   5.3274268   4.4793405  12.6275207  )
        34           O1  tau(  34) = (   5.3265499   1.4915365  12.6220616  )
        35           O1  tau(  35) = (   3.3295878   2.9786622  13.8932268  )
        36           O1  tau(  36) = (   3.3104420   5.9098017  13.9586718  )
        37           O1  tau(  37) = (   0.0385923   0.0024916  14.6531765  )
        38           O1  tau(  38) = (   0.0086518   2.9873893  14.7004014  )
        39           Ti1 tau(  39) = (   3.3201234   2.9526136  15.6695435  )
        40           Ti1 tau(  40) = (   3.4185286   5.9334276  16.2343674  )
        41           Ti1 tau(  41) = (   0.1049196   4.5923083  15.9423708  )
        42           Ti1 tau(  42) = (   0.0892020   1.3980244  15.8930203  )
        43           O1  tau(  43) = (   4.5900789   4.4270775  16.0984088  )
        44           O1  tau(  44) = (   4.5919070   1.5192920  16.0669747  )
        45           O1  tau(  45) = (   2.0372030   1.5514537  16.0349210  )
        46           O1  tau(  46) = (   2.0392294   4.4021701  16.0428288  )
        47           O1  tau(  47) = (   0.0638787   0.0130652  17.1658208  )
        48           O1  tau(  48) = (   6.5656481   2.9829514  17.4361268  )
        49           C1  tau(  49) = (   6.2652767   2.9703434  18.6584371  )
        50           H1  tau(  50) = (   6.1492679   3.9148029  19.1865895  )
        51           H1  tau(  51) = (   6.0998186   2.0156765  19.1535163  )
        52           O1  tau(  52) = (   3.1909063   0.0039016  18.0657888  )
        53           H1  tau(  53) = (   2.2823347   0.1153277  18.3895531  )

     number of k points=    10  Fermi-Dirac smearing, width (Ry)=  0.0073
                       cart. coord. in units 2pi/alat
        k(    1) = (   0.0000000   0.0000000   0.0000000), wk =   0.1250000
        k(    2) = (   0.0000000   0.0419351   0.0000000), wk =   0.2500000
        k(    3) = (   0.0000000  -0.0838702   0.0000000), wk =   0.1250000
        k(    4) = (   0.0379955   0.0000049   0.0000000), wk =   0.2500000
        k(    5) = (   0.0379955   0.0419400   0.0000000), wk =   0.2500000
        k(    6) = (   0.0379955  -0.0838652   0.0000000), wk =   0.2500000
        k(    7) = (   0.0379955  -0.0419301   0.0000000), wk =   0.2500000
        k(    8) = (  -0.0759910  -0.0000099   0.0000000), wk =   0.1250000
        k(    9) = (  -0.0759910   0.0419252   0.0000000), wk =   0.2500000
        k(   10) = (  -0.0759910  -0.0838800   0.0000000), wk =   0.1250000

     Initial potential from superposition of free atoms

     starting charge  380.99918, renormalised to  397.00000

     negative rho (up, down):  1.769E-02 0.000E+00

     %%%%%%%%%%%%%%%%%%%%%%%%%%%%%%%%%%%%%%%%%%%%%%%%%%%%%%%%%%%%%%%%%%%%%%%%
     %                                                                      %
     % You are using vdW-DF, which was implemented by the Thonhauser group. %
     % Please cite the following two papers that made this development      %
     % possible and the two reviews that describe the various versions:     %
     %                                                                      %
     %   T. Thonhauser et al., PRL 115, 136402 (2015).                      %
     %   T. Thonhauser et al., PRB 76, 125112 (2007).                       %
     %   K. Berland et al., Rep. Prog. Phys. 78, 066501 (2015).             %
     %   D.C. Langreth et al., J. Phys.: Condens. Matter 21, 084203 (2009). %
     %                                                                      %
     %                                                                      %
     % If you are calculating the stress with vdW-DF, please also cite:     %
     %                                                                      %
     %   R. Sabatini et al., J. Phys.: Condens. Matter 24, 424209 (2012).   %
     %                                                                      %
     %%%%%%%%%%%%%%%%%%%%%%%%%%%%%%%%%%%%%%%%%%%%%%%%%%%%%%%%%%%%%%%%%%%%%%%%

     Adding external electric field

     Computed dipole along edir(3) :
        Dipole               -8.4002 Ry au,        -21.3511 Debye
        Dipole field         -0.0159 Ry au,

        Potential amp.        1.4695 Ry
        Total length         46.3494 bohr

     Starting wfcs are  299 atomic wfcs
  @ DRIVER MODE: Message from server: STATUS
  @ DRIVER MODE: Message from server: POSDATA
  @ DRIVER MODE: Reading and sharing cell
  @ DRIVER MODE: Reading and sharing positions
  @ DRIVER MODE: Received positions

     Self-consistent Calculation

     iteration #  1     ecut=    29.40 Ry     beta= 0.05
     Davidson diagonalization with overlap
     c_bands:  1 eigenvalues not converged
     c_bands:  1 eigenvalues not converged
     c_bands:  1 eigenvalues not converged
     c_bands:  1 eigenvalues not converged
     ethr =  1.00E-05,  avg # of iterations = 18.2

[...]

     total energy              =   -2610.75933124 Ry
     estimated scf accuracy    <    3908.72713687 Ry

     iteration #  2     ecut=    29.40 Ry     beta= 0.05
     Davidson diagonalization with overlap
     ethr =  1.00E-02,  avg # of iterations = 24.7

[...]

     iteration # 52     ecut=    29.40 Ry     beta= 0.05
     Davidson diagonalization with overlap
     c_bands:  1 eigenvalues not converged
     c_bands:  1 eigenvalues not converged
     c_bands:  1 eigenvalues not converged
     c_bands:  1 eigenvalues not converged
     c_bands:  3 eigenvalues not converged
     c_bands:  1 eigenvalues not converged
     c_bands:  2 eigenvalues not converged
     ethr =  1.46E-06,  avg # of iterations = 18.7

[...]

     total energy              =   -2963.78478205 Ry
     estimated scf accuracy    <       0.00000018 Ry

     iteration # 76     ecut=    29.40 Ry     beta= 0.05
     Davidson diagonalization with overlap
     ethr =  4.56E-11,  avg # of iterations =  5.8

     negative rho (up, down):  1.717E-02 0.000E+00

     Adding external electric field

     Computed dipole along edir(3) :
        Dipole                0.8884 Ry au,          2.2581 Debye
        Dipole field          0.0017 Ry au,

        Potential amp.       -0.1554 Ry
        Total length         46.3494 bohr

     End of self-consistent calculation

          k = 0.0000 0.0000 0.0000 ( 18029 PWs)   bands (ev):

   -55.9260 -55.8847 -55.7852 -55.7067 -55.6727 -55.6649 -55.6565 -55.6018
   -55.5640 -55.5419 -55.5201 -55.4838 -55.4642 -55.3729 -54.7707 -54.7367
   -32.3780 -32.2486 -32.2199 -32.1851 -32.1825 -32.1333 -32.1235 -32.0846
   -32.0672 -32.0126 -32.0110 -32.0011 -31.9996 -31.9900 -31.9734 -31.9555
   -31.9395 -31.9281 -31.8848 -31.8820 -31.8686 -31.8526 -31.8494 -31.8379
   -31.8083 -31.8055 -31.7754 -31.7689 -31.7669 -31.7580 -31.7460 -31.7413
   -31.7330 -31.7224 -31.6983 -31.6857 -31.6801 -31.6563 -31.6360 -31.6197
   -31.5788 -31.5777 -31.1731 -31.0973 -31.0740 -30.9901 -30.9042 -30.7929
   -20.2459 -16.5719 -16.4229 -16.2511 -16.0612 -15.9665 -15.9052 -15.6901
   -15.6369 -15.5394 -15.4158 -15.3801 -15.3387 -15.3100 -15.2931 -15.2806
   -15.2603 -15.2419 -15.2095 -15.1883 -15.1819 -15.1391 -15.0695 -15.0241
   -15.0172 -14.9747 -14.9169 -14.8756 -14.8399 -14.7973 -14.6218 -13.2715
   -13.1577  -9.4720  -5.8003  -5.7423  -4.1635  -3.8008  -3.7762  -3.7356
    -3.6490  -3.6147  -3.5066  -3.3425  -3.1608  -3.0329  -2.9456  -2.9252
    -2.8864  -2.7739  -2.7229  -2.6913  -2.6481  -2.6191  -2.5991  -2.5589
    -2.5366  -2.4958  -2.4618  -2.4333  -2.3424  -2.3359  -2.2766  -2.2152
    -2.1823  -2.1715  -2.1678  -2.1439  -2.1085  -2.0539  -2.0187  -1.9840
    -1.9474  -1.8292  -1.8112  -1.7961  -1.7240  -1.4823  -1.3507  -1.3114
    -1.2562  -1.2162  -1.1953  -1.1673  -1.1610  -1.1426  -1.1120  -1.0602
    -0.9581  -0.8989  -0.8288  -0.8245  -0.8060  -0.7456  -0.6641  -0.5929
    -0.5559  -0.5239  -0.5024  -0.4267  -0.4254  -0.3511  -0.3209  -0.2502
    -0.1348  -0.0868  -0.0633  -0.0444  -0.0324   0.0213   0.0682   0.1333
     0.1564   0.1713   0.2007   0.2796   0.2891   0.3117   0.3299   0.4268
     0.4906   0.4989   0.5683   0.6588   0.6907   0.7755   0.9043   0.9789
     1.2267   1.2512   1.3357   1.4667   1.8128   1.8568   3.2896   3.3601
     3.3975   3.4968   3.5813   3.5999   3.6779   3.7385   3.8253   3.8666

[...]

          k = 0.0380-0.0419 0.0000 ( 17876 PWs)   bands (ev):

[...]

          k =-0.0760-0.0000 0.0000 ( 17886 PWs)   bands (ev):

[...]

          k =-0.0760-0.0839 0.0000 ( 17948 PWs)   bands (ev):

   -55.9171 -55.8935 -55.7842 -55.6936 -55.6856 -55.6624 -55.6503 -55.6079
   -55.5648 -55.5441 -55.5087 -55.4953 -55.4611 -55.3759 -54.7542 -54.7530
   -32.2140 -32.2031 -32.1832 -32.1772 -32.1586 -32.0577 -32.0439 -32.0438
   -32.0269 -32.0162 -32.0085 -32.0027 -31.9991 -31.9550 -31.9484 -31.9225
   -31.9047 -31.9028 -31.8961 -31.8818 -31.8809 -31.8746 -31.8728 -31.8643
   -31.8557 -31.8409 -31.8201 -31.8109 -31.8009 -31.8005 -31.7706 -31.7617
   -31.7491 -31.7279 -31.7246 -31.7228 -31.7196 -31.7176 -31.6791 -31.6597
   -31.6222 -31.5815 -31.0874 -31.0862 -30.9875 -30.9857 -30.9475 -30.9461
   -20.2401 -16.5384 -15.9352 -15.8803 -15.7285 -15.7027 -15.6586 -15.6055
   -15.5451 -15.5039 -15.4936 -15.4600 -15.4402 -15.4152 -15.3956 -15.3649
   -15.3393 -15.2932 -15.2858 -15.2389 -15.2290 -15.2095 -15.1846 -15.1515
   -15.0969 -15.0838 -15.0683 -15.0325 -15.0110 -14.9231 -14.7588 -13.2612
   -13.2592  -9.4739  -5.7867  -5.7287  -4.1268  -3.8091  -3.1710  -3.0988
    -2.9522  -2.8752  -2.8085  -2.7874  -2.7718  -2.7410  -2.6742  -2.6537
    -2.5996  -2.5957  -2.5863  -2.5759  -2.5633  -2.5197  -2.4910  -2.4751
    -2.4688  -2.4515  -2.4213  -2.4075  -2.3935  -2.3814  -2.3720  -2.3651
    -2.3133  -2.2516  -2.1717  -2.1237  -2.1052  -1.9793  -1.9622  -1.9012
    -1.8883  -1.8808  -1.8496  -1.8458  -1.7734  -1.7193  -1.5670  -1.5503
    -1.5118  -1.4486  -1.4141  -1.3285  -1.3143  -1.2768  -1.2312  -1.2192
    -1.1953  -1.1746  -1.0777  -0.9974  -0.9563  -0.9167  -0.8040  -0.7872
    -0.7727  -0.7088  -0.6871  -0.6779  -0.6694  -0.6050  -0.5441  -0.4946
    -0.4769  -0.4405  -0.4211  -0.3721  -0.3144  -0.2372  -0.1657  -0.0952
    -0.0656   0.0424   0.1181   0.1564   0.2699   0.3269   0.3569   0.3857
     0.4541   0.5103   0.5267   0.6120   0.6817   0.7013   0.7602   0.7935
     0.8325   0.8677   1.6229   1.6358   1.6677   1.6784   3.2521   3.7794
     3.7894   3.8027   3.8218   3.8454   3.8687   3.9556   4.0041   4.0081

     the Fermi energy is     3.2295 ev

!    total energy              =   -2963.78479197 Ry
     estimated scf accuracy    <       0.00000005 Ry
     smearing contrib. (-TS)   =      -0.01875683 Ry
     internal energy E=F+TS    =   -2963.76603513 Ry

     The total energy is F=E-TS. E is the sum of the following terms:
     one-electron contribution =  -24352.20105187 Ry
     hartree contribution      =   12266.23430603 Ry
     xc contribution           =    -489.27797958 Ry
     ewald contribution        =    9611.47720084 Ry
     electric field correction =       0.00148945 Ry

     convergence has been achieved in  76 iterations

     Forces acting on atoms (cartesian axes, Ry/au):

     atom    1 type  1   force =    -0.00006932    0.00012994    0.10165742
     atom    2 type  1   force =    -0.00006724    0.00015985    0.10135971
     atom    3 type  2   force =    -0.00029297   -0.00136611    0.10429377
     atom    4 type  2   force =    -0.00023168    0.00134356    0.11678418
     atom    5 type  2   force =    -0.00034179    0.00599710   -0.16907920
     atom    6 type  2   force =    -0.00007157   -0.00499511   -0.16915487
     atom    7 type  1   force =    -0.07475523    0.00068320   -0.03017770
     atom    8 type  1   force =    -0.07429791   -0.00133216   -0.03017615
     atom    9 type  1   force =     0.07443083    0.00121780   -0.03022562
     atom   10 type  1   force =     0.07411387   -0.00091609   -0.03024282
     atom   11 type  1   force =     0.00083473    0.00106842    0.04731047
     atom   12 type  1   force =     0.00078023    0.00082351    0.04930816
     atom   13 type  1   force =     0.00026546   -0.00562679   -0.03766850
     atom   14 type  1   force =     0.00054060    0.00415988   -0.03205539
     atom   15 type  2   force =    -0.00044375    0.00077998   -0.00022801
     atom   16 type  2   force =    -0.00039484   -0.00081533   -0.00022885
     atom   17 type  2   force =     0.00029147   -0.00003725    0.00046168
     atom   18 type  2   force =     0.00027101    0.00013531    0.00099227
     atom   19 type  1   force =    -0.00989412   -0.00202601    0.00041939
     atom   20 type  1   force =    -0.00988953    0.00492893    0.00133651
     atom   21 type  1   force =     0.01190015   -0.00463451    0.00142567
     atom   22 type  1   force =     0.01108720    0.00174729    0.00190999
     atom   23 type  1   force =    -0.00024964    0.00003748    0.00025610
     atom   24 type  1   force =    -0.00026956    0.00002414   -0.00034038
     atom   25 type  1   force =    -0.00036824   -0.00041835   -0.00034622
     atom   26 type  1   force =    -0.00021355   -0.00007250   -0.00004225
     atom   27 type  2   force =    -0.00031834   -0.00022594   -0.00016073
     atom   28 type  2   force =     0.00016301   -0.00022305    0.00046440
     atom   29 type  2   force =     0.00033412   -0.00043080   -0.00081154
     atom   30 type  2   force =    -0.00015220    0.00028621   -0.00004006
     atom   31 type  1   force =     0.00002969    0.00056550    0.00028055
     atom   32 type  1   force =     0.00040190    0.00020022   -0.00002055
     atom   33 type  1   force =    -0.00032562    0.00030907    0.00065078
     atom   34 type  1   force =    -0.00088661    0.00055893    0.00017855
     atom   35 type  1   force =    -0.00046717   -0.00046227   -0.00072108
     atom   36 type  1   force =    -0.00020827   -0.00019235    0.00004578
     atom   37 type  1   force =    -0.00009654   -0.00038928    0.00059529
     atom   38 type  1   force =     0.00041440    0.00030180    0.00036294
     atom   39 type  2   force =     0.00019780    0.00025743    0.00050021
     atom   40 type  2   force =     0.00009559   -0.00038820    0.00011930
     atom   41 type  2   force =    -0.00049888    0.00037546   -0.00002649
     atom   42 type  2   force =    -0.00063008   -0.00032639   -0.00029007
     atom   43 type  1   force =    -0.00001819    0.00006424   -0.00033892
     atom   44 type  1   force =    -0.00068282   -0.00017005   -0.00040634
     atom   45 type  1   force =     0.00046936    0.00014809    0.00010911
     atom   46 type  1   force =    -0.00068578   -0.00024405    0.00004966
     atom   47 type  1   force =     0.00034823   -0.00059453    0.00040815
     atom   48 type  1   force =     0.00281288    0.00033050   -0.00439116
     atom   49 type  3   force =    -0.00249807   -0.00005927    0.00382641
     atom   50 type  4   force =    -0.00043281    0.00023569    0.00061277
     atom   51 type  4   force =    -0.00010341   -0.00056220    0.00089075
     atom   52 type  1   force =    -0.00080795    0.00028215    0.00139507
     atom   53 type  4   force =     0.00088118   -0.00064311   -0.00083214

     Total force =     0.368704     Total SCF correction =     0.000530
  @ DRIVER MODE: Message from server: STATUS
  @ DRIVER MODE: Message from server: GETFORCE
  @ DRIVER MODE: Returning v,forces,stress,ensemble

     Writing output data file ./calc.save/
  @ DRIVER MODE: Message from server: EXIT
  @ DRIVE MODE: Exiting

     General routines

     Parallel routines

   This run was terminated on:  22:48:14  22Sep2021

   JOB DONE.