     Program PWSCF v.6.7GPU starts on  8Sep2021 at 23:56:49

     R & G space division:  proc/nbgrp/npool/nimage =      10
     Reading input from /storage/home/hcoda1/3/ntian30/research/carbon/CxH_vib/CH2_calc/ads_slab/CH2_a/out_0008/pw.inp
Warning: card &CELL ignored
Warning: card   CELL_DYNAMICS='IPI', ignored
Warning: card / ignored

     Current dimensions of program PWSCF are:
     Max number of different atomic species (ntypx) = 10
     Max number of k-points (npk) =  40000
     Max angular momentum in pseudopotentials (lmaxx) =  3
     Presently no symmetry can be used with electric field

     Message from routine cell_base_init:
     DEPRECATED: use true lattice parameter, not A to a.u. conversion factor

     IMPORTANT: XC functional enforced from input :
     Exchange-correlation= BEEF-VDW
                           (   1   4  43  14   2   0   0)
     Any further DFT definition will be discarded
     Please, verify this is what you really want

  @ DRIVER MODE: Connecting to
 qe_1139763_2767395.sched-torque.pace.gatech.edu5mbt65e9_scratch
  using UNIX socket
  @ DRIVER MODE: Message from server: STATUS
  @ DRIVER MODE: Message from server: INIT
  @ DRIVER MODE: Receiving replica           0          -1
  @ DRIVER MODE: Receiving encoded integer          25
  @ DRIVER MODE:  SCF:  T  FORCE:  T  STRESS:  F  VC:  F  ENSEMBLE:  F
  @ DRIVER MODE:  SCF:  T  FORCE:  T  STRESS:  F  VC:  F  ENSEMBLE:  F

     Using Slab Decomposition

     bravais-lattice index     =            0
     lattice parameter (alat)  =       1.8897  a.u.
     unit-cell volume          =    6658.9804 (a.u.)^3
     number of atoms/cell      =           50
     number of atomic types    =            4
     number of electrons       =       384.00
     number of Kohn-Sham states=          202
     kinetic-energy cutoff     =      29.3995  Ry
     charge density cutoff     =     293.9946  Ry
     scf convergence threshold =      7.3E-08
     mixing beta               =       0.0500
     number of iterations used =            8  plain     mixing
     Exchange-correlation= BEEF-VDW
                           (   1   4  43  14   2   0   0)

     celldm(1)=   1.889726  celldm(2)=   0.000000  celldm(3)=   0.000000
     celldm(4)=   0.000000  celldm(5)=   0.000000  celldm(6)=   0.000000

     crystal axes: (cart. coord. in units of alat)
               a(1) = (   6.579727   0.000000   0.000000 )
               a(2) = (  -0.000775   5.961596   0.000000 )
               a(3) = (   0.000000   0.000000  25.155947 )

     reciprocal axes: (cart. coord. in units 2 pi/alat)
               b(1) = (  0.151982  0.000020  0.000000 )
               b(2) = (  0.000000  0.167740  0.000000 )
               b(3) = (  0.000000  0.000000  0.039752 )

     PseudoPot. # 1 for Ti read from file:
     /storage/coda1/p-amedford6/0/shared/rich_project_chbe-medford/medford-share/data/pseudos_module/espresso/nninc/pbe/van/Ti.UPF
     MD5 check sum: 8e4df49b7f0d34bbd5052bf3f5ea0213
     Pseudo is Ultrasoft, Zval = 12.0
     Generated by new atomic code, or converted to UPF format
     Using radial grid of  851 points,  6 beta functions with:
                l(1) =   0
                l(2) =   0
                l(3) =   1
                l(4) =   1
                l(5) =   2
                l(6) =   2
     Q(r) pseudized with  8 coefficients,  rinner =    1.000   1.000   1.000
                                                       1.000   1.000

     PseudoPot. # 2 for O  read from file:
     /storage/coda1/p-amedford6/0/shared/rich_project_chbe-medford/medford-share/data/pseudos_module/espresso/nninc/pbe/van/O.UPF
     MD5 check sum: 78c19812648e8988a0fe644b0f25305e
     Pseudo is Ultrasoft, Zval =  6.0
     Generated by new atomic code, or converted to UPF format
     Using radial grid of  737 points,  4 beta functions with:
                l(1) =   0
                l(2) =   0
                l(3) =   1
                l(4) =   1
     Q(r) pseudized with  8 coefficients,  rinner =    0.800   0.800   0.800

     PseudoPot. # 3 for C  read from file:
     /storage/coda1/p-amedford6/0/shared/rich_project_chbe-medford/medford-share/data/pseudos_module/espresso/nninc/pbe/van/C.UPF
     MD5 check sum: 1a69bf6b8db32088f5b2163dbdb77a27
     Pseudo is Ultrasoft, Zval =  4.0
     Generated by new atomic code, or converted to UPF format
     Using radial grid of  721 points,  4 beta functions with:
                l(1) =   0
                l(2) =   0
                l(3) =   1
                l(4) =   1
     Q(r) pseudized with  8 coefficients,  rinner =    0.800   0.800   0.800

     PseudoPot. # 4 for H  read from file:
     /storage/coda1/p-amedford6/0/shared/rich_project_chbe-medford/medford-share/data/pseudos_module/espresso/nninc/pbe/van/H.UPF
     MD5 check sum: b5ee9d7bfd3a09ee7748110bda690ff7
     Pseudo is Ultrasoft, Zval =  1.0
     Generated by new atomic code, or converted to UPF format
     Using radial grid of  615 points,  1 beta functions with:
                l(1) =   0
     Q(r) pseudized with  8 coefficients,  rinner =    0.800

     atomic species   valence    mass     pseudopotential
        Ti1           12.00    47.86700     Ti( 1.00)
        O1             6.00    15.99900     O ( 1.00)
        C1             4.00    12.01100     C ( 1.00)
        H1             1.00     1.00800     H ( 1.00)

     No symmetry found

   Cartesian axes

     site n.     atom                  positions (alat units)
         1           Ti1 tau(   1) = (   0.0004258   2.9801865   6.0000000  )
         2           Ti1 tau(   2) = (   3.2906075   1.4906267   6.0002472  )
         3           O1  tau(   3) = (   0.0006271   0.0005054   7.9858123  )
         4           O1  tau(   4) = (   3.2906025   0.0005020   7.3038282  )
         5           O1  tau(   5) = (   4.5942328   1.4918067   9.2879030  )
         6           O1  tau(   6) = (   1.9868534   1.4903216   9.2879459  )
         7           Ti1 tau(   7) = (   3.2756478   2.8760420   9.1630771  )
         8           Ti1 tau(   8) = (   6.5651030   1.4385007   9.3790407  )
         9           O1  tau(   9) = (   3.2651923   0.0045787  11.3553482  )
        10           O1  tau(  10) = (   6.5766178   5.9492394  10.5646413  )
        11           O1  tau(  11) = (   1.2591847   1.4977620  12.6679731  )
        12           O1  tau(  12) = (   5.2482661   1.4982983  12.6347741  )
        13           Ti1 tau(  13) = (   0.0651775   2.9654633  12.8696618  )
        14           Ti1 tau(  14) = (   3.3800656   1.4924449  12.4946823  )
        15           O1  tau(  15) = (   6.5296085   5.9207011  14.6097682  )
        16           O1  tau(  16) = (   3.2682314   0.0147111  13.9481481  )
        17           O1  tau(  17) = (   4.4912147   1.5408453  16.1034427  )
        18           O1  tau(  18) = (   2.0062121   1.5430191  16.1010343  )
        19           Ti1 tau(  19) = (   3.2584153   3.0188911  15.7272741  )
        20           Ti1 tau(  20) = (   6.5595668   1.6180917  16.2090303  )
        21           O1  tau(  21) = (   3.2904802   0.0005063   4.7018136  )
        22           O1  tau(  22) = (   6.5447935   0.0528136  17.2578995  )
        23           O1  tau(  23) = (   1.3043587   1.4918075   6.0039043  )
        24           O1  tau(  24) = (   5.2767064   1.4903225   6.0039473  )
        25           Ti1 tau(  25) = (   0.0000382   5.9609847   6.0000000  )
        26           Ti1 tau(  26) = (   3.2902200   4.4714249   6.0002472  )
        27           O1  tau(  27) = (   0.0002396   2.9813036   7.9858123  )
        28           O1  tau(  28) = (   3.2902150   2.9813002   7.3038282  )
        29           O1  tau(  29) = (   4.5938453   4.4726049   9.2879030  )
        30           O1  tau(  30) = (   1.9864658   4.4711199   9.2879459  )
        31           Ti1 tau(  31) = (   3.2806623   5.8565216   9.1617982  )
        32           Ti1 tau(  32) = (   6.5670484   4.4138833   9.3856844  )
        33           O1  tau(  33) = (   3.2704644   2.9808095  11.3502114  )
        34           O1  tau(  34) = (   6.5770050   2.9672111  10.5601139  )
        35           O1  tau(  35) = (   1.2614422   4.4490125  12.6594447  )
        36           O1  tau(  36) = (   5.2451530   4.4578719  12.6250501  )
        37           Ti1 tau(  37) = (   0.0436288   5.9429386  12.8080954  )
        38           Ti1 tau(  38) = (   3.3780510   4.4695497  12.4860242  )
        39           O1  tau(  39) = (   6.5513063   2.9765972  14.7162787  )
        40           O1  tau(  40) = (   3.2682626   2.9952000  13.9367060  )
        41           O1  tau(  41) = (   4.4851171   4.5114873  16.1027694  )
        42           O1  tau(  42) = (   2.0082088   4.5103763  16.0975713  )
        43           Ti1 tau(  43) = (   3.2690221   0.0357551  15.7449602  )
        44           Ti1 tau(  44) = (   6.5655258   4.6249605  16.1704562  )
        45           O1  tau(  45) = (   3.2900926   2.9813045   4.7018136  )
        46           O1  tau(  46) = (   1.3039711   4.4726057   6.0039043  )
        47           O1  tau(  47) = (   5.2763189   4.4711207   6.0039473  )
        48           C1  tau(  48) = (   6.5259393   3.0234738  17.6125649  )
        49           H1  tau(  49) = (   0.8572112   3.1395175  18.2203151  )
        50           H1  tau(  50) = (   5.6209537   3.1160310  18.2142257  )

     number of k points=    10  Fermi-Dirac smearing, width (Ry)=  0.0073
                       cart. coord. in units 2pi/alat
        k(    1) = (   0.0000000   0.0000000   0.0000000), wk =   0.1250000
        k(    2) = (   0.0000000   0.0419351   0.0000000), wk =   0.2500000
        k(    3) = (   0.0000000  -0.0838702   0.0000000), wk =   0.1250000
        k(    4) = (   0.0379955   0.0000049   0.0000000), wk =   0.2500000
        k(    5) = (   0.0379955   0.0419400   0.0000000), wk =   0.2500000
        k(    6) = (   0.0379955  -0.0838652   0.0000000), wk =   0.2500000
        k(    7) = (   0.0379955  -0.0419301   0.0000000), wk =   0.2500000
        k(    8) = (  -0.0759910  -0.0000099   0.0000000), wk =   0.1250000
        k(    9) = (  -0.0759910   0.0419252   0.0000000), wk =   0.2500000
        k(   10) = (  -0.0759910  -0.0838800   0.0000000), wk =   0.1250000

     Initial potential from superposition of free atoms

     starting charge  367.99919, renormalised to  384.00000

     negative rho (up, down):  2.116E-02 0.000E+00

     %%%%%%%%%%%%%%%%%%%%%%%%%%%%%%%%%%%%%%%%%%%%%%%%%%%%%%%%%%%%%%%%%%%%%%%%
     %                                                                      %
     % You are using vdW-DF, which was implemented by the Thonhauser group. %
     % Please cite the following two papers that made this development      %
     % possible and the two reviews that describe the various versions:     %
     %                                                                      %
     %   T. Thonhauser et al., PRL 115, 136402 (2015).                      %
     %   T. Thonhauser et al., PRB 76, 125112 (2007).                       %
     %   K. Berland et al., Rep. Prog. Phys. 78, 066501 (2015).             %
     %   D.C. Langreth et al., J. Phys.: Condens. Matter 21, 084203 (2009). %
     %                                                                      %
     %                                                                      %
     % If you are calculating the stress with vdW-DF, please also cite:     %
     %                                                                      %
     %   R. Sabatini et al., J. Phys.: Condens. Matter 24, 424209 (2012).   %
     %                                                                      %
     %%%%%%%%%%%%%%%%%%%%%%%%%%%%%%%%%%%%%%%%%%%%%%%%%%%%%%%%%%%%%%%%%%%%%%%%

     Adding external electric field

     Computed dipole along edir(3) :
        Dipole               -0.5194 Ry au,         -1.3201 Debye
        Dipole field         -0.0010 Ry au,

        Potential amp.        0.0909 Ry
        Total length         46.3494 bohr

     Starting wfcs are  290 atomic wfcs
  @ DRIVER MODE: Message from server: STATUS
  @ DRIVER MODE: Message from server: POSDATA
  @ DRIVER MODE: Reading and sharing cell
  @ DRIVER MODE: Reading and sharing positions
  @ DRIVER MODE: Received positions

     Self-consistent Calculation

     iteration #  1     ecut=    29.40 Ry     beta= 0.05
     Davidson diagonalization with overlap
     c_bands:  1 eigenvalues not converged
     c_bands:  2 eigenvalues not converged
     c_bands:  3 eigenvalues not converged
     c_bands:  1 eigenvalues not converged
     c_bands:  1 eigenvalues not converged
     c_bands:  2 eigenvalues not converged
     c_bands:  1 eigenvalues not converged
     c_bands:  2 eigenvalues not converged
     c_bands:  1 eigenvalues not converged
     c_bands:  2 eigenvalues not converged
     ethr =  1.00E-05,  avg # of iterations = 22.0

[...]

     total energy              =   -2899.22636745 Ry
     estimated scf accuracy    <      12.09406968 Ry

     iteration #  2     ecut=    29.40 Ry     beta= 0.05
     Davidson diagonalization with overlap
     ethr =  3.15E-03,  avg # of iterations =  1.0

[...]

     iteration # 37     ecut=    29.40 Ry     beta= 0.05
     Davidson diagonalization with overlap
     c_bands:  2 eigenvalues not converged
     ethr =  1.57E-06,  avg # of iterations =  8.7

[...]

     total energy              =   -2897.72456546 Ry
     estimated scf accuracy    <       0.00000011 Ry

     iteration # 70     ecut=    29.40 Ry     beta= 0.05
     Davidson diagonalization with overlap
     ethr =  2.92E-11,  avg # of iterations =  5.9

     negative rho (up, down):  2.037E-02 0.000E+00

     Adding external electric field

     Computed dipole along edir(3) :
        Dipole                0.2824 Ry au,          0.7178 Debye
        Dipole field          0.0005 Ry au,

        Potential amp.       -0.0494 Ry
        Total length         46.3494 bohr

     End of self-consistent calculation

          k = 0.0000 0.0000 0.0000 ( 18029 PWs)   bands (ev):

   -56.6531 -56.6191 -56.3990 -56.3623 -56.3255 -56.2730 -56.0910 -56.0861
   -56.0521 -55.9842 -55.9592 -55.9209 -55.5523 -55.4718 -55.4378 -55.4274
   -33.0826 -32.9452 -32.9020 -32.8732 -32.8436 -32.7764 -32.7521 -32.7228
   -32.7092 -32.6432 -32.6249 -32.5988 -32.5907 -32.5674 -32.5615 -32.5512
   -32.5481 -32.5304 -32.4594 -32.4538 -32.3871 -32.3493 -32.3377 -32.3256
   -32.3086 -32.3081 -32.2371 -32.2244 -32.2152 -32.1967 -32.1956 -32.1589
   -32.1506 -32.1372 -32.1132 -32.0580 -32.0195 -31.8733 -31.8606 -31.8069
   -31.7953 -31.7716 -31.7461 -31.6916 -31.6065 -31.6044 -31.4945 -31.4745
   -17.0503 -16.8387 -16.6270 -16.4783 -16.3965 -16.3442 -16.0512 -16.0338
   -16.0246 -15.9246 -15.9133 -15.8600 -15.8265 -15.8229 -15.8139 -15.8076
   -15.7719 -15.7289 -15.6975 -15.6619 -15.6289 -15.5951 -15.5043 -15.4657
   -15.4471 -15.3229 -15.2651 -15.2310 -15.0943 -13.9646 -13.8500  -8.3685
    -4.4331  -4.3839  -4.2311  -4.2220  -4.1034  -3.8886  -3.7068  -3.5191
    -3.4875  -3.4581  -3.4522  -3.3485  -3.2955  -3.1852  -3.1840  -3.1526
    -3.1380  -3.1065  -3.0849  -3.0803  -3.0404  -3.0218  -2.9550  -2.9146
    -2.9052  -2.8486  -2.7684  -2.6750  -2.6555  -2.6267  -2.5941  -2.5550
    -2.5376  -2.4388  -2.4326  -2.3669  -2.2321  -2.2096  -2.1616  -2.1331
    -2.1017  -2.0625  -1.9250  -1.7858  -1.7421  -1.7257  -1.6955  -1.6852
    -1.6549  -1.5325  -1.4897  -1.3906  -1.3591  -1.2476  -1.2350  -1.2176
    -1.2019  -1.1716  -1.1029  -1.0754  -1.0406  -0.9584  -0.8976  -0.7676
    -0.7342  -0.7154  -0.6868  -0.6792  -0.6209  -0.5789  -0.5211  -0.5107
    -0.4518  -0.4096  -0.3927  -0.3765  -0.3519  -0.2924  -0.2158  -0.1956
    -0.1327  -0.0947   0.1019   0.1408   0.1687   0.1916   0.2686   0.3015
     0.4788   0.4927   0.5572   0.7599   0.7988   1.1506   1.2300   1.7140
     2.6103   2.7905   2.9855   3.0432   3.0871   3.1669   3.2219   3.2999
     3.3328   3.4544

[...]

          k = 0.0380-0.0419 0.0000 ( 17876 PWs)   bands (ev):

[...]

          k =-0.0760-0.0000 0.0000 ( 17886 PWs)   bands (ev):

[...]

          k =-0.0760-0.0839 0.0000 ( 17948 PWs)   bands (ev):

   -56.6388 -56.6333 -56.3844 -56.3768 -56.3191 -56.2793 -56.0881 -56.0698
   -56.0682 -55.9869 -55.9477 -55.9323 -55.5500 -55.4548 -55.4547 -55.4297
   -32.9023 -32.8977 -32.8906 -32.8838 -32.7984 -32.7937 -32.7530 -32.7466
   -32.6864 -32.6734 -32.6162 -32.6096 -32.5858 -32.5783 -32.5710 -32.5631
   -32.5185 -32.4822 -32.4084 -32.3924 -32.3916 -32.3317 -32.3235 -32.3203
   -32.3077 -32.2931 -32.2882 -32.2846 -32.2625 -32.2537 -32.2340 -32.2176
   -32.1599 -32.1588 -32.1480 -32.1452 -31.9281 -31.8588 -31.8105 -31.7845
   -31.7844 -31.7304 -31.6981 -31.6873 -31.6872 -31.6492 -31.6491 -31.4941
   -16.5194 -16.4922 -16.2737 -16.2602 -16.1503 -16.1477 -16.1355 -16.1344
   -16.0457 -16.0414 -15.9951 -15.9747 -15.9172 -15.9048 -15.8638 -15.8624
   -15.8403 -15.8389 -15.7972 -15.7946 -15.6526 -15.6508 -15.5378 -15.5307
   -15.4932 -15.4512 -15.4111 -15.3984 -15.2347 -13.9523 -13.9519  -8.3704
    -3.8229  -3.7856  -3.4879  -3.4795  -3.2797  -3.2765  -3.2573  -3.2489
    -3.2289  -3.2014  -3.1968  -3.1859  -3.1480  -3.1070  -3.0843  -3.0657
    -3.0548  -3.0472  -3.0425  -3.0416  -3.0214  -3.0022  -2.9869  -2.9624
    -2.9032  -2.8921  -2.8684  -2.8591  -2.7754  -2.6314  -2.5647  -2.5589
    -2.5485  -2.5290  -2.4876  -2.3985  -2.3939  -2.3571  -2.3497  -2.3309
    -2.1375  -2.0731  -2.0696  -2.0076  -1.9788  -1.8751  -1.7286  -1.6950
    -1.6700  -1.6484  -1.5662  -1.5266  -1.5127  -1.4889  -1.4815  -1.4546
    -1.4445  -1.3580  -1.3502  -1.3171  -1.2713  -1.2098  -1.2059  -1.1840
    -1.1634  -1.0644  -0.9958  -0.9796  -0.9653  -0.9234  -0.8553  -0.8036
    -0.7632  -0.6756  -0.6599  -0.3911  -0.3892  -0.2523  -0.2378  -0.1118
    -0.1005  -0.0080   0.0231   0.0668   0.1819   0.1954   0.2002   0.2262
     0.3272   0.3285   0.3643   0.9409   0.9411   1.0065   1.0078   1.9886
     3.0336   3.0506   3.1320   3.1488   3.1534   3.1713   3.2151   3.2175
     3.5119   3.5245

     the Fermi energy is     2.3265 ev

!    total energy              =   -2897.72458141 Ry
     estimated scf accuracy    <       0.00000007 Ry
     smearing contrib. (-TS)   =      -0.00185594 Ry
     internal energy E=F+TS    =   -2897.72272547 Ry

     The total energy is F=E-TS. E is the sum of the following terms:
     one-electron contribution =  -24684.94203013 Ry
     hartree contribution      =   12420.42921190 Ry
     xc contribution           =    -473.85023919 Ry
     ewald contribution        =    9840.64018145 Ry
     electric field correction =       0.00015050 Ry

     convergence has been achieved in  70 iterations

     Forces acting on atoms (cartesian axes, Ry/au):

     atom    1 type  1   force =     0.00029792   -0.00003966    0.14816903
     atom    2 type  1   force =     0.00005558   -0.00032614   -0.17145205
     atom    3 type  2   force =    -0.00004537    0.00265334   -0.05990354
     atom    4 type  2   force =    -0.00032570   -0.00141174    0.04061151
     atom    5 type  2   force =    -0.02536280    0.00094105    0.00495119
     atom    6 type  2   force =     0.02287297    0.00011739    0.00300059
     atom    7 type  1   force =    -0.00051143   -0.00071586   -0.00010635
     atom    8 type  1   force =     0.00074177   -0.00041119    0.00042279
     atom    9 type  2   force =     0.00089549   -0.00028340    0.00034735
     atom   10 type  2   force =    -0.00010414   -0.00000478   -0.00022038
     atom   11 type  2   force =    -0.00016445    0.00003592    0.00015634
     atom   12 type  2   force =     0.00017775    0.00012117    0.00011261
     atom   13 type  1   force =     0.00002910   -0.00100205    0.00036857
     atom   14 type  1   force =    -0.00005136   -0.00114983   -0.00027909
     atom   15 type  2   force =     0.00023578   -0.00031499   -0.00046772
     atom   16 type  2   force =     0.00002443    0.00015351    0.00038817
     atom   17 type  2   force =     0.00111314    0.00011769    0.00030963
     atom   18 type  2   force =    -0.00063710   -0.00023026    0.00028894
     atom   19 type  1   force =     0.00050598   -0.00026351    0.00005122
     atom   20 type  1   force =     0.00022677   -0.00019812    0.00038536
     atom   21 type  2   force =     0.00014199   -0.00010255    0.10276061
     atom   22 type  2   force =     0.00006013   -0.00011157   -0.00029760
     atom   23 type  2   force =    -0.07354746    0.00029611   -0.03463745
     atom   24 type  2   force =     0.07359669    0.00074220   -0.03468849
     atom   25 type  1   force =     0.00007842   -0.00018426    0.14936202
     atom   26 type  1   force =    -0.00000006   -0.00105511   -0.17161166
     atom   27 type  2   force =    -0.00006833    0.00191997   -0.05889244
     atom   28 type  2   force =    -0.00039713   -0.00137144    0.04058324
     atom   29 type  2   force =    -0.02528322    0.00191226    0.00523954
     atom   30 type  2   force =     0.02337438    0.00034502    0.00328835
     atom   31 type  1   force =    -0.00048190   -0.00019547   -0.00005479
     atom   32 type  1   force =     0.00062755   -0.00026998    0.00001822
     atom   33 type  2   force =     0.00005235   -0.00037722    0.00042396
     atom   34 type  2   force =     0.00007438   -0.00014599    0.00004919
     atom   35 type  2   force =    -0.00019611   -0.00035579   -0.00034970
     atom   36 type  2   force =     0.00052434   -0.00063128   -0.00014009
     atom   37 type  1   force =     0.00090033    0.00031435   -0.00001624
     atom   38 type  1   force =    -0.00035080   -0.00015207    0.00025143
     atom   39 type  2   force =     0.00006464    0.00010073   -0.00115466
     atom   40 type  2   force =    -0.00000096    0.00030127   -0.00082217
     atom   41 type  2   force =     0.00027156    0.00019221    0.00031174
     atom   42 type  2   force =     0.00035448    0.00055466    0.00027220
     atom   43 type  1   force =     0.00035006    0.00080375   -0.00078740
     atom   44 type  1   force =    -0.00041944    0.00023342    0.00011604
     atom   45 type  2   force =     0.00013851   -0.00009414    0.10272799
     atom   46 type  2   force =    -0.07357479   -0.00012414   -0.03462809
     atom   47 type  2   force =     0.07363269    0.00033903   -0.03470361
     atom   48 type  3   force =     0.00934393    0.00091341    0.00466593
     atom   49 type  4   force =    -0.00989694   -0.00161696   -0.00493441
     atom   50 type  4   force =     0.00065640    0.00003103    0.00051415

     Total force =     0.404648     Total SCF correction =     0.000942
  @ DRIVER MODE: Message from server: STATUS
  @ DRIVER MODE: Message from server: GETFORCE
  @ DRIVER MODE: Returning v,forces,stress,ensemble

     Writing output data file ./calc.save/
  @ DRIVER MODE: Message from server: EXIT
  @ DRIVE MODE: Exiting

     General routines

     Parallel routines

   This run was terminated on:   0:13:29   9Sep2021

   JOB DONE.