     Program PWSCF v.6.7GPU starts on 16Jul2021 at  9:49: 0

     R & G space division:  proc/nbgrp/npool/nimage =      16
     Reading input from /storage/home/hcoda1/3/ntian30/research/carbon/15Jul_vib/ads_slab/CH3NNH3_a/out_0033/pw.inp
Warning: card &CELL ignored
Warning: card   CELL_DYNAMICS='IPI', ignored
Warning: card / ignored

     Current dimensions of program PWSCF are:
     Max number of different atomic species (ntypx) = 10
     Max number of k-points (npk) =  40000
     Max angular momentum in pseudopotentials (lmaxx) =  3
     Presently no symmetry can be used with electric field

     Message from routine cell_base_init:
     DEPRECATED: use true lattice parameter, not A to a.u. conversion factor

     IMPORTANT: XC functional enforced from input :
     Exchange-correlation= BEEF-VDW
                           (   1   4  43  14   2   0   0)
     Any further DFT definition will be discarded
     Please, verify this is what you really want

  @ DRIVER MODE: Connecting to
 qe_1139763_2351650.sched-torque.pace.gatech.edu64nlu3mq_scratch
  using UNIX socket
  @ DRIVER MODE: Message from server: STATUS
  @ DRIVER MODE: Message from server: INIT
  @ DRIVER MODE: Receiving replica           0          -1
  @ DRIVER MODE: Receiving encoded integer          25
  @ DRIVER MODE:  SCF:  T  FORCE:  T  STRESS:  F  VC:  F  ENSEMBLE:  F
  @ DRIVER MODE:  SCF:  T  FORCE:  T  STRESS:  F  VC:  F  ENSEMBLE:  F

     Using Slab Decomposition

     bravais-lattice index     =            0
     lattice parameter (alat)  =       1.8897  a.u.
     unit-cell volume          =    6658.9804 (a.u.)^3
     number of atoms/cell      =           56
     number of atomic types    =            5
     number of electrons       =       398.00
     number of Kohn-Sham states=          209
     kinetic-energy cutoff     =      29.3995  Ry
     charge density cutoff     =     293.9946  Ry
     scf convergence threshold =      7.3E-08
     mixing beta               =       0.0500
     number of iterations used =            8  plain     mixing
     Exchange-correlation= BEEF-VDW
                           (   1   4  43  14   2   0   0)

     celldm(1)=   1.889726  celldm(2)=   0.000000  celldm(3)=   0.000000
     celldm(4)=   0.000000  celldm(5)=   0.000000  celldm(6)=   0.000000

     crystal axes: (cart. coord. in units of alat)
               a(1) = (   6.579727   0.000000   0.000000 )
               a(2) = (  -0.000775   5.961596   0.000000 )
               a(3) = (   0.000000   0.000000  25.155947 )

     reciprocal axes: (cart. coord. in units 2 pi/alat)
               b(1) = (  0.151982  0.000020  0.000000 )
               b(2) = (  0.000000  0.167740  0.000000 )
               b(3) = (  0.000000  0.000000  0.039752 )

     PseudoPot. # 1 for Ti read from file:
     /storage/coda1/p-amedford6/0/shared/rich_project_chbe-medford/medford-share/data/pseudos_module/espresso/nninc/pbe/van/Ti.UPF
     MD5 check sum: 8e4df49b7f0d34bbd5052bf3f5ea0213
     Pseudo is Ultrasoft, Zval = 12.0
     Generated by new atomic code, or converted to UPF format
     Using radial grid of  851 points,  6 beta functions with:
                l(1) =   0
                l(2) =   0
                l(3) =   1
                l(4) =   1
                l(5) =   2
                l(6) =   2
     Q(r) pseudized with  8 coefficients,  rinner =    1.000   1.000   1.000
                                                       1.000   1.000

     PseudoPot. # 2 for O  read from file:
     /storage/coda1/p-amedford6/0/shared/rich_project_chbe-medford/medford-share/data/pseudos_module/espresso/nninc/pbe/van/O.UPF
     MD5 check sum: 78c19812648e8988a0fe644b0f25305e
     Pseudo is Ultrasoft, Zval =  6.0
     Generated by new atomic code, or converted to UPF format
     Using radial grid of  737 points,  4 beta functions with:
                l(1) =   0
                l(2) =   0
                l(3) =   1
                l(4) =   1
     Q(r) pseudized with  8 coefficients,  rinner =    0.800   0.800   0.800

     PseudoPot. # 3 for N  read from file:
     /storage/coda1/p-amedford6/0/shared/rich_project_chbe-medford/medford-share/data/pseudos_module/espresso/nninc/pbe/van/N.UPF
     MD5 check sum: 90d10febe142ad51ac9d5be1deb811c4
     Pseudo is Ultrasoft, Zval =  5.0
     Generated by new atomic code, or converted to UPF format
     Using radial grid of  729 points,  4 beta functions with:
                l(1) =   0
                l(2) =   0
                l(3) =   1
                l(4) =   1
     Q(r) pseudized with  8 coefficients,  rinner =    0.800   0.800   0.800

     PseudoPot. # 4 for C  read from file:
     /storage/coda1/p-amedford6/0/shared/rich_project_chbe-medford/medford-share/data/pseudos_module/espresso/nninc/pbe/van/C.UPF
     MD5 check sum: 1a69bf6b8db32088f5b2163dbdb77a27
     Pseudo is Ultrasoft, Zval =  4.0
     Generated by new atomic code, or converted to UPF format
     Using radial grid of  721 points,  4 beta functions with:
                l(1) =   0
                l(2) =   0
                l(3) =   1
                l(4) =   1
     Q(r) pseudized with  8 coefficients,  rinner =    0.800   0.800   0.800

     PseudoPot. # 5 for H  read from file:
     /storage/coda1/p-amedford6/0/shared/rich_project_chbe-medford/medford-share/data/pseudos_module/espresso/nninc/pbe/van/H.UPF
     MD5 check sum: b5ee9d7bfd3a09ee7748110bda690ff7
     Pseudo is Ultrasoft, Zval =  1.0
     Generated by new atomic code, or converted to UPF format
     Using radial grid of  615 points,  1 beta functions with:
                l(1) =   0
     Q(r) pseudized with  8 coefficients,  rinner =    0.800

     atomic species   valence    mass     pseudopotential
        Ti1           12.00    47.86700     Ti( 1.00)
        O1             6.00    15.99900     O ( 1.00)
        N1             5.00    14.00700     N ( 1.00)
        C1             4.00    12.01100     C ( 1.00)
        H1             1.00     1.00800     H ( 1.00)

     Starting magnetic structure
     atomic species   magnetization
        Ti1          0.000
        O1           0.000
        N1           0.000
        C1           0.025
        H1           0.000

     No symmetry found

   Cartesian axes

     site n.     atom                  positions (alat units)
         1           Ti1 tau(   1) = (   0.0004258   2.9801865   6.0000000  )
         2           Ti1 tau(   2) = (   3.2906075   1.4906267   6.0002472  )
         3           O1  tau(   3) = (   0.0006271   0.0005054   7.9858123  )
         4           O1  tau(   4) = (   3.2906025   0.0005020   7.3038282  )
         5           O1  tau(   5) = (   4.5942328   1.4918067   9.2879030  )
         6           O1  tau(   6) = (   1.9868534   1.4903216   9.2879459  )
         7           Ti1 tau(   7) = (   3.2907910   2.8959150   9.1758416  )
         8           Ti1 tau(   8) = (   0.0015273   1.4827037   9.2680791  )
         9           O1  tau(   9) = (   3.3019049   5.9598586  11.2958584  )
        10           O1  tau(  10) = (   0.0116148   5.9584955  10.6183126  )
        11           O1  tau(  11) = (   1.3346742   1.4914638  12.6145280  )
        12           O1  tau(  12) = (   5.3113054   1.4894223  12.6320738  )
        13           Ti1 tau(  13) = (   6.4919192   2.9607050  12.7581921  )
        14           Ti1 tau(  14) = (   3.1808934   1.4809541  12.4628303  )
        15           O1  tau(  15) = (   0.0259758   5.9327586  14.5948705  )
        16           O1  tau(  16) = (   3.3179433   0.0111293  13.8771559  )
        17           O1  tau(  17) = (   4.5450242   1.5254396  16.0425357  )
        18           O1  tau(  18) = (   2.0945915   1.5254857  16.0466093  )
        19           Ti1 tau(  19) = (   3.3175380   3.0118254  15.6854273  )
        20           Ti1 tau(  20) = (   0.0287691   1.6153805  16.0968480  )
        21           O1  tau(  21) = (   3.2904802   0.0005063   4.7018136  )
        22           O1  tau(  22) = (   0.0272082   0.0527987  17.2096484  )
        23           O1  tau(  23) = (   1.3043587   1.4918075   6.0039043  )
        24           O1  tau(  24) = (   5.2767064   1.4903225   6.0039473  )
        25           Ti1 tau(  25) = (   0.0000382   5.9609847   6.0000000  )
        26           Ti1 tau(  26) = (   3.2902200   4.4714249   6.0002472  )
        27           O1  tau(  27) = (   0.0002396   2.9813036   7.9858123  )
        28           O1  tau(  28) = (   3.2902150   2.9813002   7.3038282  )
        29           O1  tau(  29) = (   4.5938453   4.4726049   9.2879030  )
        30           O1  tau(  30) = (   1.9864658   4.4711199   9.2879459  )
        31           Ti1 tau(  31) = (   3.2891106   5.8743827   9.1763621  )
        32           Ti1 tau(  32) = (   0.0006254   4.4649316   9.2693709  )
        33           O1  tau(  33) = (   3.3007599   2.9794320  11.2948048  )
        34           O1  tau(  34) = (   0.0092240   2.9805883  10.6323155  )
        35           O1  tau(  35) = (   1.3367187   4.4652043  12.6121808  )
        36           O1  tau(  36) = (   5.3110114   4.4536366  12.6300246  )
        37           Ti1 tau(  37) = (   6.5175235   5.9394146  12.7678677  )
        38           Ti1 tau(  38) = (   3.1810223   4.4618757  12.4682998  )
        39           O1  tau(  39) = (   0.0141956   2.9656780  14.6533049  )
        40           O1  tau(  40) = (   3.3125561   2.9946134  13.8784269  )
        41           O1  tau(  41) = (   4.5469694   4.5079638  16.0550352  )
        42           O1  tau(  42) = (   2.0896055   4.5089645  16.0567747  )
        43           Ti1 tau(  43) = (   3.3249511   0.0336637  15.6879192  )
        44           Ti1 tau(  44) = (   0.0309337   4.5948497  16.1324869  )
        45           O1  tau(  45) = (   3.2900926   2.9813045   4.7018136  )
        46           O1  tau(  46) = (   1.3039711   4.4726057   6.0039043  )
        47           O1  tau(  47) = (   5.2763189   4.4711207   6.0039473  )
        48           N1  tau(  48) = (   0.0510883   3.0100077  17.3315927  )
        49           C1  tau(  49) = (   0.2149723   3.0659314  18.7643681  )
        50           H1  tau(  50) = (   6.1109748   3.7957518  19.2115106  )
        51           H1  tau(  51) = (   0.0391147   2.0919789  19.2277120  )
        52           H1  tau(  52) = (   1.2341903   3.3897193  19.0223879  )
        53           N1  tau(  53) = (   4.7717085   1.8244328  21.5424420  )
        54           H1  tau(  54) = (   4.4711387   2.7986659  21.4441960  )
        55           H1  tau(  55) = (   4.1840297   1.2822813  20.9257432  )
        56           H1  tau(  56) = (   4.5427024   1.5537098  22.4892962  )

     number of k points=    10  Fermi-Dirac smearing, width (Ry)=  0.0073
                       cart. coord. in units 2pi/alat
        k(    1) = (   0.0000000   0.0000000   0.0000000), wk =   0.0625000
        k(    2) = (   0.0000000   0.0419351   0.0000000), wk =   0.1250000
        k(    3) = (   0.0000000  -0.0838702   0.0000000), wk =   0.0625000
        k(    4) = (   0.0379955   0.0000049   0.0000000), wk =   0.1250000
        k(    5) = (   0.0379955   0.0419400   0.0000000), wk =   0.1250000
[...]
     % Please cite the following two papers that made this development      %
     % possible and the two reviews that describe the various versions:     %
     %                                                                      %
     %   T. Thonhauser et al., PRL 115, 136402 (2015).                      %
     %   T. Thonhauser et al., PRB 76, 125112 (2007).                       %
     %   K. Berland et al., Rep. Prog. Phys. 78, 066501 (2015).             %
     %   D.C. Langreth et al., J. Phys.: Condens. Matter 21, 084203 (2009). %
     %                                                                      %
     %                                                                      %
     % If you are calculating the stress with vdW-DF, please also cite:     %
     %                                                                      %
     %   R. Sabatini et al., J. Phys.: Condens. Matter 24, 424209 (2012).   %
     %                                                                      %
     %%%%%%%%%%%%%%%%%%%%%%%%%%%%%%%%%%%%%%%%%%%%%%%%%%%%%%%%%%%%%%%%%%%%%%%%

     Adding external electric field

     Computed dipole along edir(3) :
        Dipole              -11.2917 Ry au,        -28.7007 Debye
        Dipole field         -0.0213 Ry au,

        Potential amp.        1.9753 Ry
        Total length         46.3494 bohr

[...]

     Starting wfcs are  302 atomic wfcs
  @ DRIVER MODE: Message from server: STATUS
  @ DRIVER MODE: Message from server: POSDATA
  @ DRIVER MODE: Reading and sharing cell
  @ DRIVER MODE: Reading and sharing positions
  @ DRIVER MODE: Received positions

     Self-consistent Calculation

     iteration #  1     ecut=    29.40 Ry     beta= 0.05
     Davidson diagonalization with overlap
     c_bands:  1 eigenvalues not converged
     c_bands:  1 eigenvalues not converged
     c_bands:  2 eigenvalues not converged
     c_bands:  1 eigenvalues not converged
     c_bands:  1 eigenvalues not converged
     c_bands:  1 eigenvalues not converged
     c_bands:  2 eigenvalues not converged
     c_bands:  2 eigenvalues not converged
     c_bands:  1 eigenvalues not converged
     c_bands:  1 eigenvalues not converged
     c_bands:  2 eigenvalues not converged
     c_bands:  1 eigenvalues not converged
     c_bands:  1 eigenvalues not converged
     c_bands:  1 eigenvalues not converged
     c_bands:  2 eigenvalues not converged
     c_bands:  2 eigenvalues not converged
     ethr =  1.00E-05,  avg # of iterations = 19.6

[...]

     total energy              =   -2520.82951553 Ry
     estimated scf accuracy    <    4704.41270017 Ry

     total magnetization       =     0.00 Bohr mag/cell
     absolute magnetization    =     0.01 Bohr mag/cell

     iteration #  2     ecut=    29.40 Ry     beta= 0.05
     Davidson diagonalization with overlap
     ethr =  1.00E-02,  avg # of iterations = 21.9

[...]

     iteration # 56     ecut=    29.40 Ry     beta= 0.05
     Davidson diagonalization with overlap
     c_bands:  1 eigenvalues not converged
     c_bands:  1 eigenvalues not converged
     c_bands:  1 eigenvalues not converged
     ethr =  3.98E-07,  avg # of iterations = 11.1

[...]

     total energy              =   -2942.90760337 Ry
     estimated scf accuracy    <       0.00000009 Ry

[...]

     iteration # 85     ecut=    29.40 Ry     beta= 0.05
     Davidson diagonalization with overlap
     ethr =  2.25E-11,  avg # of iterations =  3.5

     negative rho (up, down):  5.679E-03 5.679E-03

[...]

     Adding external electric field

     Computed dipole along edir(3) :
        Dipole                0.4184 Ry au,          1.0635 Debye
        Dipole field          0.0008 Ry au,

        Potential amp.       -0.0732 Ry
        Total length         46.3494 bohr

     Magnetic moment per site  (integrated on atomic sphere of radius R)
     atom   1 (R=0.735)  charge=  8.0053  magn= -0.0002
     atom   2 (R=0.735)  charge=  8.0011  magn= -0.0003
     atom   3 (R=0.735)  charge=  4.9958  magn= -0.0000
     atom   4 (R=0.735)  charge=  5.0345  magn=  0.0000
     atom   5 (R=0.735)  charge=  4.9982  magn= -0.0000
     atom   6 (R=0.735)  charge=  4.9994  magn= -0.0000
     atom   7 (R=0.735)  charge=  7.9947  magn= -0.0000
     atom   8 (R=0.735)  charge=  7.9823  magn=  0.0000
     atom   9 (R=0.735)  charge=  5.0128  magn=  0.0000
     atom  10 (R=0.735)  charge=  4.9434  magn= -0.0001
     atom  11 (R=0.735)  charge=  4.9999  magn=  0.0000
     atom  12 (R=0.735)  charge=  5.0035  magn=  0.0000
     atom  13 (R=0.735)  charge=  7.9933  magn=  0.0000
     atom  14 (R=0.735)  charge=  8.0007  magn= -0.0000
     atom  15 (R=0.735)  charge=  4.9894  magn= -0.0000
     atom  16 (R=0.735)  charge=  5.0146  magn=  0.0000
     atom  17 (R=0.735)  charge=  4.9900  magn= -0.0000
     atom  18 (R=0.735)  charge=  4.9888  magn=  0.0000
     atom  19 (R=0.735)  charge=  8.0209  magn= -0.0000
     atom  20 (R=0.735)  charge=  8.0242  magn=  0.0001
     atom  21 (R=0.735)  charge=  4.8827  magn=  0.0006
     atom  22 (R=0.735)  charge=  4.9720  magn= -0.0000
     atom  23 (R=0.735)  charge=  4.9884  magn=  0.0001
     atom  24 (R=0.735)  charge=  4.9885  magn=  0.0001
     atom  25 (R=0.735)  charge=  8.0053  magn= -0.0002
     atom  26 (R=0.735)  charge=  8.0011  magn= -0.0003
     atom  27 (R=0.735)  charge=  4.9957  magn= -0.0000
     atom  28 (R=0.735)  charge=  5.0347  magn=  0.0000
     atom  29 (R=0.735)  charge=  4.9989  magn= -0.0000
     atom  30 (R=0.735)  charge=  5.0001  magn= -0.0000
     atom  31 (R=0.735)  charge=  7.9948  magn= -0.0000
     atom  32 (R=0.735)  charge=  7.9826  magn=  0.0000
     atom  33 (R=0.735)  charge=  5.0125  magn=  0.0000
     atom  34 (R=0.735)  charge=  4.9424  magn= -0.0000
     atom  35 (R=0.735)  charge=  5.0005  magn=  0.0000
     atom  36 (R=0.735)  charge=  5.0043  magn=  0.0000
     atom  37 (R=0.735)  charge=  7.9990  magn=  0.0000
     atom  38 (R=0.735)  charge=  8.0004  magn= -0.0000
     atom  39 (R=0.735)  charge=  4.9853  magn= -0.0000
     atom  40 (R=0.735)  charge=  5.0160  magn=  0.0000
     atom  41 (R=0.735)  charge=  4.9884  magn=  0.0000
     atom  42 (R=0.735)  charge=  4.9878  magn=  0.0000
     atom  43 (R=0.735)  charge=  8.0214  magn= -0.0000
     atom  44 (R=0.735)  charge=  8.0216  magn=  0.0000
     atom  45 (R=0.735)  charge=  4.8827  magn=  0.0006
     atom  46 (R=0.735)  charge=  4.9884  magn=  0.0001
     atom  47 (R=0.735)  charge=  4.9885  magn=  0.0001
     atom  48 (R=0.417)  charge=  1.3009  magn= -0.0001
     atom  49 (R=0.451)  charge=  0.8534  magn=  0.0000
     atom  50 (R=0.417)  charge=  0.4335  magn= -0.0000
     atom  51 (R=0.417)  charge=  0.4356  magn= -0.0000
     atom  52 (R=0.417)  charge=  0.4306  magn= -0.0000
     atom  53 (R=0.417)  charge=  1.3174  magn=  0.0000
     atom  54 (R=0.417)  charge=  0.4410  magn= -0.0000
     atom  55 (R=0.417)  charge=  0.4516  magn= -0.0000
     atom  56 (R=0.417)  charge=  0.4523  magn= -0.0000

     End of self-consistent calculation

 ------ SPIN UP ------------

          k = 0.0000 0.0000 0.0000 ( 18029 PWs)   bands (ev):

   -56.6309 -56.5973 -55.7558 -55.7438 -55.7209 -55.7109 -55.6103 -55.5750
   -55.3927 -55.3569 -55.2960 -55.2911 -55.2621 -55.1933 -54.7275 -54.6160
   -33.0589 -32.9055 -32.8774 -32.8067 -32.7156 -32.6848 -32.2264 -32.2203
   -32.1530 -32.0398 -31.9936 -31.9695 -31.9509 -31.9298 -31.8961 -31.8916
   -31.8903 -31.8848 -31.8592 -31.8565 -31.8451 -31.8178 -31.7930 -31.7780
   -31.7650 -31.7466 -31.7371 -31.7124 -31.6882 -31.6343 -31.6234 -31.6102
   -31.5339 -31.5309 -31.5069 -31.4669 -31.4587 -31.4234 -31.4213 -31.3970
   -31.3745 -31.3124 -31.2333 -30.9734 -30.9579 -30.8752 -30.8379 -30.7479
   -16.7962 -16.3640 -16.1333 -15.9942 -15.9283 -15.8723 -15.8294 -15.7037
   -15.6357 -15.6277 -15.5861 -15.5580 -15.4865 -15.3469 -15.2483 -15.1956
   -15.1511 -15.0306 -14.9696 -14.9372 -14.9267 -14.8839 -14.8743 -14.6804
   -14.6573 -14.5636 -14.5424 -14.4216 -14.1870 -13.7958 -13.7003 -13.6858
   -12.8002  -7.4982  -4.3614  -3.8598  -3.8154  -3.6855  -3.6212  -3.5349
    -3.4276  -3.4137  -3.3270  -3.2127  -3.1684  -3.1207  -3.0043  -3.0029
    -2.8547  -2.8100  -2.8071  -2.8047  -2.7557  -2.6964  -2.6727  -2.6410
    -2.6320  -2.6025  -2.4759  -2.3797  -2.3080  -2.2849  -2.2790  -2.2433
    -2.1681  -2.1386  -2.1301  -2.1265  -2.0189  -1.8739  -1.8673  -1.8441
    -1.8022  -1.7970  -1.7544  -1.7411  -1.6234  -1.5329  -1.4303  -1.4142
    -1.3703  -1.3138  -1.3062  -1.2163  -1.1380  -1.0473  -1.0461  -0.9366
    -0.8890  -0.8720  -0.7818  -0.7221  -0.6827  -0.6565  -0.6441  -0.5440
    -0.5216  -0.5113  -0.4272  -0.4154  -0.3664  -0.2776  -0.2546  -0.2457
    -0.1634  -0.1608  -0.0656  -0.0237   0.0164   0.0516   0.1676   0.1849
     0.2831   0.3118   0.3394   0.4523   0.4683   0.5335   0.6083   0.6709
     0.6984   0.7244   0.7542   0.7734   0.8484   0.9603   0.9688   1.0716
     1.1037   1.2770   1.3160   1.3879   1.6026   1.6351   2.3055   2.6437
     2.8031   3.1015   3.2889   3.4019   3.6180   3.6340   3.6391   3.8080
     3.8608

[...]

          k =-0.0760-0.0000 0.0000 ( 17886 PWs)   bands (ev):

[...]

 ------ SPIN DOWN ----------

[...]

          k = 0.0380-0.0419 0.0000 ( 17876 PWs)   bands (ev):

[...]

          k =-0.0760-0.0839 0.0000 ( 17948 PWs)   bands (ev):

   -56.6147 -56.6144 -55.7406 -55.7348 -55.7281 -55.7276 -55.5930 -55.5922
   -55.3790 -55.3706 -55.2879 -55.2800 -55.2799 -55.1964 -54.7245 -54.6186
   -32.8919 -32.8917 -32.8761 -32.8759 -32.7602 -32.7600 -32.0563 -32.0540
   -32.0448 -32.0382 -31.9851 -31.9841 -31.9414 -31.9410 -31.9390 -31.9378
   -31.9301 -31.9271 -31.9250 -31.9234 -31.8455 -31.8435 -31.7945 -31.7917
   -31.7297 -31.7194 -31.6606 -31.6527 -31.6241 -31.6240 -31.6171 -31.5773
   -31.5732 -31.5453 -31.5111 -31.5054 -31.5053 -31.4662 -31.4662 -31.4621
   -31.4387 -31.3992 -31.1132 -30.9931 -30.9574 -30.9268 -30.8402 -30.8030
   -16.1448 -16.1427 -16.1098 -16.1096 -15.8412 -15.8376 -15.7949 -15.7924
   -15.6186 -15.6125 -15.4060 -15.3973 -15.3906 -15.3892 -15.2612 -15.2554
   -15.1898 -15.1794 -15.0902 -15.0810 -15.0245 -15.0180 -14.9755 -14.9545
   -14.6444 -14.6351 -14.5144 -14.4970 -14.3307 -13.7873 -13.7872 -13.6995
   -12.8170  -7.4885  -3.8153  -3.7015  -3.2438  -3.2435  -3.1797  -3.1787
    -3.0573  -3.0532  -2.9743  -2.9737  -2.8757  -2.8744  -2.7606  -2.7318
    -2.7287  -2.7277  -2.7110  -2.6630  -2.5752  -2.5721  -2.5617  -2.5472
    -2.4889  -2.4870  -2.4646  -2.3988  -2.3850  -2.3535  -2.3158  -2.2016
    -2.1914  -2.1794  -2.1476  -2.0843  -2.0772  -2.0642  -2.0218  -1.9892
    -1.9124  -1.8400  -1.8016  -1.6883  -1.6837  -1.6718  -1.6599  -1.5064
    -1.4661  -1.4356  -1.4285  -1.4223  -1.3745  -1.2796  -1.2722  -1.1401
    -1.1384  -1.0644  -0.9828  -0.9616  -0.9332  -0.8045  -0.7605  -0.7260
    -0.7183  -0.6902  -0.6700  -0.6484  -0.6047  -0.4690  -0.4573  -0.4184
    -0.3839  -0.3618  -0.3275  -0.2698  -0.1840  -0.1053  -0.1049  -0.0504
     0.0182   0.0788   0.1659   0.1759   0.1814   0.4624   0.5411   0.6307
     0.7065   0.7726   0.8361   0.8671   0.9224   0.9672   1.1040   1.1073
     1.1270   1.1273   1.1857   1.1895   1.3707   1.6412   2.1944   3.2159
     3.2163   3.2830   3.2835   3.6071   3.6129   3.7211   3.7304   3.8377
     3.8424

     the Fermi energy is     2.4837 ev

!    total energy              =   -2942.90761095 Ry
     estimated scf accuracy    <       0.00000006 Ry
     smearing contrib. (-TS)   =      -0.00487592 Ry
     internal energy E=F+TS    =   -2942.90273504 Ry

     The total energy is F=E-TS. E is the sum of the following terms:
     one-electron contribution =  -23242.36146269 Ry
     hartree contribution      =   11711.38068490 Ry
     xc contribution           =    -487.47086450 Ry
     ewald contribution        =    9075.54857687 Ry
     electric field correction =       0.00033038 Ry

     total magnetization       =    -0.00 Bohr mag/cell
     absolute magnetization    =     0.00 Bohr mag/cell

     convergence has been achieved in  85 iterations

     Forces acting on atoms (cartesian axes, Ry/au):

     atom    1 type  1   force =     0.00004306   -0.00041620    0.12408033
     atom    2 type  1   force =    -0.00010558   -0.00057537   -0.16066614
     atom    3 type  2   force =     0.00023527   -0.00026928   -0.06798949
     atom    4 type  2   force =     0.00001251   -0.00029349    0.02758601
     atom    5 type  2   force =    -0.01615386    0.00175295   -0.00935977
     atom    6 type  2   force =     0.01818832    0.00219068   -0.00898198
     atom    7 type  1   force =     0.00114609   -0.00377948    0.02172033
     atom    8 type  1   force =    -0.00057524   -0.00291080    0.11108706
     atom    9 type  2   force =    -0.00018031    0.00030636   -0.00046391
     atom   10 type  2   force =    -0.00195802    0.00129227   -0.07322456
     atom   11 type  2   force =     0.00022492   -0.00010942    0.00016805
     atom   12 type  2   force =    -0.00025732    0.00022189    0.00020372
     atom   13 type  1   force =    -0.00009600    0.00007484   -0.00044264
     atom   14 type  1   force =    -0.00058219    0.00045238    0.00040374
     atom   15 type  2   force =     0.00027708   -0.00000070    0.00016289
     atom   16 type  2   force =    -0.00048902   -0.00036973    0.00057180
     atom   17 type  2   force =    -0.00059699    0.00024210    0.00007985
     atom   18 type  2   force =     0.00002525    0.00024716    0.00008283
     atom   19 type  1   force =     0.00038028   -0.00056371    0.00000610
     atom   20 type  1   force =    -0.00009873    0.00009095    0.00016730
     atom   21 type  2   force =     0.00004938   -0.00000752    0.09973726
     atom   22 type  2   force =     0.00027221   -0.00004341   -0.00040167
     atom   23 type  2   force =    -0.07913902    0.00000105   -0.03242530
     atom   24 type  2   force =     0.07902623    0.00043849   -0.03244764
     atom   25 type  1   force =     0.00001768   -0.00040179    0.12359908
     atom   26 type  1   force =    -0.00009841   -0.00046147   -0.16080550
     atom   27 type  2   force =     0.00033077   -0.00048451   -0.06704030
     atom   28 type  2   force =     0.00002782   -0.00012083    0.02731234
     atom   29 type  2   force =    -0.01662995    0.00127602   -0.00946592
     atom   30 type  2   force =     0.01856064    0.00165471   -0.00909963
     atom   31 type  1   force =     0.00115863   -0.00138247    0.02114789
     atom   32 type  1   force =    -0.00052291    0.00034698    0.11172309
     atom   33 type  2   force =    -0.00016110   -0.00024996    0.00005980
     atom   34 type  2   force =    -0.00132457    0.00066806   -0.07267522
     atom   35 type  2   force =    -0.00078735   -0.00043199   -0.00002534
     atom   36 type  2   force =     0.00011061   -0.00001993    0.00010899
     atom   37 type  1   force =     0.00006652    0.00063892    0.00021259
     atom   38 type  1   force =    -0.00020988    0.00002814   -0.00017326
     atom   39 type  2   force =     0.00013329   -0.00018336    0.00090171
     atom   40 type  2   force =    -0.00018220   -0.00046500    0.00033220
     atom   41 type  2   force =     0.00008270   -0.00009365    0.00005168
     atom   42 type  2   force =     0.00039887    0.00001546    0.00001142
     atom   43 type  1   force =    -0.00024145   -0.00011769    0.00006347
     atom   44 type  1   force =    -0.00027098    0.00051287    0.00007571
     atom   45 type  2   force =     0.00002453   -0.00003062    0.09976653
     atom   46 type  2   force =    -0.07914628    0.00005311   -0.03242469
     atom   47 type  2   force =     0.07902782    0.00047621   -0.03243919
     atom   48 type  3   force =     0.00089995    0.00074166   -0.00135985
     atom   49 type  4   force =     0.00008998   -0.00049659    0.00007952
     atom   50 type  5   force =    -0.00007797    0.00077052    0.00080758
     atom   51 type  5   force =     0.00026023    0.00048664   -0.00011888
     atom   52 type  5   force =    -0.00027828   -0.00024464   -0.00000343
     atom   53 type  3   force =     0.00208045    0.02191613   -0.00037160
     atom   54 type  5   force =     0.00502230   -0.01351598    0.00027141
     atom   55 type  5   force =    -0.00535510   -0.00563042   -0.00501235
     atom   56 type  5   force =    -0.00265469   -0.00322652    0.00483599

     Total force =     0.425340     Total SCF correction =     0.000465
  @ DRIVER MODE: Message from server: STATUS
  @ DRIVER MODE: Message from server: GETFORCE
  @ DRIVER MODE: Returning v,forces,stress,ensemble

     Writing output data file ./calc.save/
  @ DRIVER MODE: Message from server: EXIT
  @ DRIVE MODE: Exiting

     General routines

     Parallel routines

   This run was terminated on:  10:23:43  16Jul2021

   JOB DONE.