     Program PWSCF v.6.7GPU starts on 23Aug2021 at 18:20:25

     R & G space division:  proc/nbgrp/npool/nimage =       6
     Reading input from /storage/home/hcoda1/3/ntian30/research/carbon/CH_vib/ads_slab/CHN_a/out_0012/pw.inp
Warning: card &CELL ignored
Warning: card   CELL_DYNAMICS='IPI', ignored
Warning: card / ignored

     Current dimensions of program PWSCF are:
     Max number of different atomic species (ntypx) = 10
     Max number of k-points (npk) =  40000
     Max angular momentum in pseudopotentials (lmaxx) =  3
     Presently no symmetry can be used with electric field

     Message from routine cell_base_init:
     DEPRECATED: use true lattice parameter, not A to a.u. conversion factor

     IMPORTANT: XC functional enforced from input :
     Exchange-correlation= BEEF-VDW
                           (   1   4  43  14   2   0   0)
     Any further DFT definition will be discarded
     Please, verify this is what you really want

  @ DRIVER MODE: Connecting to
 qe_1139763_2632801.sched-torque.pace.gatech.edugxme8bdc_scratch
  using UNIX socket
  @ DRIVER MODE: Message from server: STATUS
  @ DRIVER MODE: Message from server: INIT
  @ DRIVER MODE: Receiving replica           0          -1
  @ DRIVER MODE: Receiving encoded integer          25
  @ DRIVER MODE:  SCF:  T  FORCE:  T  STRESS:  F  VC:  F  ENSEMBLE:  F
  @ DRIVER MODE:  SCF:  T  FORCE:  T  STRESS:  F  VC:  F  ENSEMBLE:  F

     Using Slab Decomposition

     bravais-lattice index     =            0
     lattice parameter (alat)  =       1.8897  a.u.
     unit-cell volume          =    6658.9804 (a.u.)^3
     number of atoms/cell      =           50
     number of atomic types    =            5
     number of electrons       =       388.00
     number of Kohn-Sham states=          204
     kinetic-energy cutoff     =      29.3995  Ry
     charge density cutoff     =     293.9946  Ry
     scf convergence threshold =      7.3E-08
     mixing beta               =       0.0500
     number of iterations used =            8  plain     mixing
     Exchange-correlation= BEEF-VDW
                           (   1   4  43  14   2   0   0)

     celldm(1)=   1.889726  celldm(2)=   0.000000  celldm(3)=   0.000000
     celldm(4)=   0.000000  celldm(5)=   0.000000  celldm(6)=   0.000000

     crystal axes: (cart. coord. in units of alat)
               a(1) = (   6.579727   0.000000   0.000000 )
               a(2) = (  -0.000775   5.961596   0.000000 )
               a(3) = (   0.000000   0.000000  25.155947 )

     reciprocal axes: (cart. coord. in units 2 pi/alat)
               b(1) = (  0.151982  0.000020  0.000000 )
               b(2) = (  0.000000  0.167740  0.000000 )
               b(3) = (  0.000000  0.000000  0.039752 )

     PseudoPot. # 1 for Ti read from file:
     /storage/coda1/p-amedford6/0/shared/rich_project_chbe-medford/medford-share/data/pseudos_module/espresso/nninc/pbe/van/Ti.UPF
     MD5 check sum: 8e4df49b7f0d34bbd5052bf3f5ea0213
     Pseudo is Ultrasoft, Zval = 12.0
     Generated by new atomic code, or converted to UPF format
     Using radial grid of  851 points,  6 beta functions with:
                l(1) =   0
                l(2) =   0
                l(3) =   1
                l(4) =   1
                l(5) =   2
                l(6) =   2
     Q(r) pseudized with  8 coefficients,  rinner =    1.000   1.000   1.000
                                                       1.000   1.000

     PseudoPot. # 2 for O  read from file:
     /storage/coda1/p-amedford6/0/shared/rich_project_chbe-medford/medford-share/data/pseudos_module/espresso/nninc/pbe/van/O.UPF
     MD5 check sum: 78c19812648e8988a0fe644b0f25305e
     Pseudo is Ultrasoft, Zval =  6.0
     Generated by new atomic code, or converted to UPF format
     Using radial grid of  737 points,  4 beta functions with:
                l(1) =   0
                l(2) =   0
                l(3) =   1
                l(4) =   1
     Q(r) pseudized with  8 coefficients,  rinner =    0.800   0.800   0.800

     PseudoPot. # 3 for N  read from file:
     /storage/coda1/p-amedford6/0/shared/rich_project_chbe-medford/medford-share/data/pseudos_module/espresso/nninc/pbe/van/N.UPF
     MD5 check sum: 90d10febe142ad51ac9d5be1deb811c4
     Pseudo is Ultrasoft, Zval =  5.0
     Generated by new atomic code, or converted to UPF format
     Using radial grid of  729 points,  4 beta functions with:
                l(1) =   0
                l(2) =   0
                l(3) =   1
                l(4) =   1
     Q(r) pseudized with  8 coefficients,  rinner =    0.800   0.800   0.800

     PseudoPot. # 4 for C  read from file:
     /storage/coda1/p-amedford6/0/shared/rich_project_chbe-medford/medford-share/data/pseudos_module/espresso/nninc/pbe/van/C.UPF
     MD5 check sum: 1a69bf6b8db32088f5b2163dbdb77a27
     Pseudo is Ultrasoft, Zval =  4.0
     Generated by new atomic code, or converted to UPF format
     Using radial grid of  721 points,  4 beta functions with:
                l(1) =   0
                l(2) =   0
                l(3) =   1
                l(4) =   1
     Q(r) pseudized with  8 coefficients,  rinner =    0.800   0.800   0.800

     PseudoPot. # 5 for H  read from file:
     /storage/coda1/p-amedford6/0/shared/rich_project_chbe-medford/medford-share/data/pseudos_module/espresso/nninc/pbe/van/H.UPF
     MD5 check sum: b5ee9d7bfd3a09ee7748110bda690ff7
     Pseudo is Ultrasoft, Zval =  1.0
     Generated by new atomic code, or converted to UPF format
     Using radial grid of  615 points,  1 beta functions with:
                l(1) =   0
     Q(r) pseudized with  8 coefficients,  rinner =    0.800

     atomic species   valence    mass     pseudopotential
        Ti1           12.00    47.86700     Ti( 1.00)
        O1             6.00    15.99900     O ( 1.00)
        N1             5.00    14.00700     N ( 1.00)
        C1             4.00    12.01100     C ( 1.00)
        H1             1.00     1.00800     H ( 1.00)

     No symmetry found

   Cartesian axes

     site n.     atom                  positions (alat units)
         1           Ti1 tau(   1) = (   0.0004258   2.9801865   6.0000000  )
         2           Ti1 tau(   2) = (   3.2906075   1.4906267   6.0002472  )
         3           O1  tau(   3) = (   0.0006271   0.0005054   7.9858123  )
         4           O1  tau(   4) = (   3.2906025   0.0005020   7.3038282  )
         5           O1  tau(   5) = (   4.5942328   1.4918067   9.2879030  )
         6           O1  tau(   6) = (   1.9868534   1.4903216   9.2879459  )
         7           Ti1 tau(   7) = (   3.2907910   2.8959150   9.1758416  )
         8           Ti1 tau(   8) = (   0.0015273   1.4827037   9.2680791  )
         9           O1  tau(   9) = (   3.3014052   0.0114069  11.3737528  )
        10           O1  tau(  10) = (   0.0116148   5.9584955  10.6183126  )
        11           O1  tau(  11) = (   1.3012034   1.4994444  12.6801950  )
        12           O1  tau(  12) = (   5.3042999   1.4981222  12.6788946  )
        13           Ti1 tau(  13) = (   0.0222102   2.9879630  12.5217794  )
        14           Ti1 tau(  14) = (   3.3166014   1.4969944  12.5290657  )
        15           O1  tau(  15) = (   0.0131148   5.9114811  14.6787674  )
        16           O1  tau(  16) = (   3.3052116   5.9585997  13.9918696  )
        17           O1  tau(  17) = (   4.5573354   1.5165695  16.1403462  )
        18           O1  tau(  18) = (   2.0429717   1.5180214  16.1331141  )
        19           Ti1 tau(  19) = (   3.3061463   3.0045039  15.7576854  )
        20           Ti1 tau(  20) = (   0.0190008   1.3629876  15.8180984  )
        21           O1  tau(  21) = (   3.2904802   0.0005063   4.7018136  )
        22           O1  tau(  22) = (   0.0120025   0.1123878  17.2186474  )
        23           O1  tau(  23) = (   1.3043587   1.4918075   6.0039043  )
        24           O1  tau(  24) = (   5.2767064   1.4903225   6.0039473  )
        25           Ti1 tau(  25) = (   0.0000382   5.9609847   6.0000000  )
        26           Ti1 tau(  26) = (   3.2902200   4.4714249   6.0002472  )
        27           O1  tau(  27) = (   0.0002396   2.9813036   7.9858123  )
        28           O1  tau(  28) = (   3.2902150   2.9813002   7.3038282  )
        29           O1  tau(  29) = (   4.5938453   4.4726049   9.2879030  )
        30           O1  tau(  30) = (   1.9864658   4.4711199   9.2879459  )
        31           Ti1 tau(  31) = (   3.2891106   5.8743827   9.1763621  )
        32           Ti1 tau(  32) = (   0.0006254   4.4649316   9.2693709  )
        33           O1  tau(  33) = (   3.3015003   2.9799855  11.3692792  )
        34           O1  tau(  34) = (   0.0092240   2.9805883  10.6323155  )
        35           O1  tau(  35) = (   1.3024855   4.4701597  12.6493271  )
        36           O1  tau(  36) = (   5.3029933   4.4710749  12.6473438  )
        37           Ti1 tau(  37) = (   0.0213219   5.9581237  12.5009821  )
        38           Ti1 tau(  38) = (   3.3165689   4.4756321  12.5216884  )
        39           O1  tau(  39) = (   0.0062450   3.0260372  14.9395602  )
        40           O1  tau(  40) = (   3.3068494   3.0035608  13.9656762  )
        41           O1  tau(  41) = (   4.5532872   4.4785133  16.2063021  )
        42           O1  tau(  42) = (   2.0453360   4.4758230  16.1992630  )
        43           Ti1 tau(  43) = (   3.3068391   0.0190840  15.7907057  )
        44           Ti1 tau(  44) = (   0.0173475   4.5946531  16.0781683  )
        45           O1  tau(  45) = (   3.2900926   2.9813045   4.7018136  )
        46           O1  tau(  46) = (   1.3039711   4.4726057   6.0039043  )
        47           O1  tau(  47) = (   5.2763189   4.4711207   6.0039473  )
        48           N1  tau(  48) = (   0.0050225   3.2246995  17.9653954  )
        49           C1  tau(  49) = (   6.5749124   2.4458835  18.8235322  )
        50           H1  tau(  50) = (   6.5624368   1.6931146  19.5645906  )

     number of k points=    10  Fermi-Dirac smearing, width (Ry)=  0.0073
                       cart. coord. in units 2pi/alat
        k(    1) = (   0.0000000   0.0000000   0.0000000), wk =   0.1250000
        k(    2) = (   0.0000000   0.0419351   0.0000000), wk =   0.2500000
        k(    3) = (   0.0000000  -0.0838702   0.0000000), wk =   0.1250000
        k(    4) = (   0.0379955   0.0000049   0.0000000), wk =   0.2500000
        k(    5) = (   0.0379955   0.0419400   0.0000000), wk =   0.2500000
        k(    6) = (   0.0379955  -0.0838652   0.0000000), wk =   0.2500000
        k(    7) = (   0.0379955  -0.0419301   0.0000000), wk =   0.2500000
        k(    8) = (  -0.0759910  -0.0000099   0.0000000), wk =   0.1250000
        k(    9) = (  -0.0759910   0.0419252   0.0000000), wk =   0.2500000
        k(   10) = (  -0.0759910  -0.0838800   0.0000000), wk =   0.1250000

     Initial potential from superposition of free atoms

     starting charge  371.99919, renormalised to  388.00000

     negative rho (up, down):  1.808E-02 0.000E+00

     %%%%%%%%%%%%%%%%%%%%%%%%%%%%%%%%%%%%%%%%%%%%%%%%%%%%%%%%%%%%%%%%%%%%%%%%
     %                                                                      %
     % You are using vdW-DF, which was implemented by the Thonhauser group. %
     % Please cite the following two papers that made this development      %
     % possible and the two reviews that describe the various versions:     %
     %                                                                      %
     %   T. Thonhauser et al., PRL 115, 136402 (2015).                      %
     %   T. Thonhauser et al., PRB 76, 125112 (2007).                       %
     %   K. Berland et al., Rep. Prog. Phys. 78, 066501 (2015).             %
     %   D.C. Langreth et al., J. Phys.: Condens. Matter 21, 084203 (2009). %
     %                                                                      %
     %                                                                      %
     % If you are calculating the stress with vdW-DF, please also cite:     %
     %                                                                      %
     %   R. Sabatini et al., J. Phys.: Condens. Matter 24, 424209 (2012).   %
     %                                                                      %
     %%%%%%%%%%%%%%%%%%%%%%%%%%%%%%%%%%%%%%%%%%%%%%%%%%%%%%%%%%%%%%%%%%%%%%%%

     Adding external electric field

     Computed dipole along edir(3) :
        Dipole               -4.8617 Ry au,        -12.3573 Debye
        Dipole field         -0.0092 Ry au,

        Potential amp.        0.8505 Ry
        Total length         46.3494 bohr

     Starting wfcs are  293 atomic wfcs
  @ DRIVER MODE: Message from server: STATUS
  @ DRIVER MODE: Message from server: POSDATA
  @ DRIVER MODE: Reading and sharing cell
  @ DRIVER MODE: Reading and sharing positions
  @ DRIVER MODE: Received positions

     Self-consistent Calculation

     iteration #  1     ecut=    29.40 Ry     beta= 0.05
     Davidson diagonalization with overlap
     c_bands:  5 eigenvalues not converged
     c_bands:  5 eigenvalues not converged
     c_bands:  4 eigenvalues not converged
     c_bands:  5 eigenvalues not converged
     c_bands:  3 eigenvalues not converged
     c_bands:  5 eigenvalues not converged
     c_bands:  4 eigenvalues not converged
     c_bands:  3 eigenvalues not converged
     c_bands:  1 eigenvalues not converged
     ethr =  1.00E-05,  avg # of iterations = 20.0

[...]

     total energy              =   -2846.12154536 Ry
     estimated scf accuracy    <     790.49261806 Ry

     iteration #  2     ecut=    29.40 Ry     beta= 0.05
     Davidson diagonalization with overlap
     ethr =  1.00E-02,  avg # of iterations = 15.4

[...]

     iteration # 40     ecut=    29.40 Ry     beta= 0.05
     Davidson diagonalization with overlap
     c_bands:  1 eigenvalues not converged
     ethr =  2.17E-06,  avg # of iterations =  2.9

[...]

     total energy              =   -2916.61446013 Ry
     estimated scf accuracy    <       0.00000009 Ry

     iteration # 60     ecut=    29.40 Ry     beta= 0.05
     Davidson diagonalization with overlap
     ethr =  2.39E-11,  avg # of iterations =  9.4

     negative rho (up, down):  1.827E-02 0.000E+00

     Adding external electric field

     Computed dipole along edir(3) :
        Dipole                1.5039 Ry au,          3.8226 Debye
        Dipole field          0.0028 Ry au,

        Potential amp.       -0.2631 Ry
        Total length         46.3494 bohr

     End of self-consistent calculation

          k = 0.0000 0.0000 0.0000 ( 18029 PWs)   bands (ev):

   -55.4553 -55.4193 -55.4116 -55.3775 -55.3337 -55.3300 -55.2941 -55.2740
   -55.2589 -55.2517 -55.2413 -55.2396 -55.2077 -55.1416 -54.4378 -54.4037
   -32.0217 -31.9036 -31.8502 -31.8186 -31.7643 -31.7632 -31.7576 -31.7458
   -31.7007 -31.6863 -31.6640 -31.6562 -31.6499 -31.6256 -31.6090 -31.5953
   -31.5921 -31.5765 -31.5721 -31.5638 -31.5422 -31.5306 -31.5250 -31.5095
   -31.5043 -31.4776 -31.4762 -31.4687 -31.4610 -31.4577 -31.4505 -31.4391
   -31.4332 -31.4251 -31.4223 -31.4202 -31.3878 -31.3723 -31.3695 -31.3518
   -31.3494 -31.2619 -30.8470 -30.7531 -30.7310 -30.6634 -30.5766 -30.4657
   -17.3234 -16.2708 -16.0021 -15.8478 -15.7437 -15.6497 -15.5140 -15.4959
   -15.3713 -15.2810 -15.1589 -15.1041 -15.0856 -15.0643 -15.0574 -15.0396
   -14.9965 -14.9920 -14.9606 -14.9494 -14.9265 -14.8892 -14.8837 -14.8504
   -14.8313 -14.7570 -14.6858 -14.6100 -14.5438 -14.2320 -12.9403 -12.8229
    -9.1034  -4.6815  -3.6137  -3.4676  -3.4603  -3.3664  -3.3496  -3.2614
    -3.1980  -3.1936  -3.0340  -2.8543  -2.7902  -2.7180  -2.6551  -2.6429
    -2.6138  -2.4541  -2.4161  -2.3652  -2.3121  -2.2873  -2.2616  -2.2386
    -2.2015  -2.1851  -2.1789  -2.1714  -2.0177  -1.9419  -1.9126  -1.8621
    -1.8463  -1.7946  -1.7728  -1.7403  -1.7366  -1.7298  -1.6789  -1.6608
    -1.6273  -1.5283  -1.4740  -1.3385  -1.2968  -1.1522  -1.0921  -1.0288
    -1.0162  -0.9381  -0.8971  -0.8884  -0.8359  -0.8031  -0.7900  -0.6674
    -0.5643  -0.5173  -0.4614  -0.4324  -0.3836  -0.3472  -0.2564  -0.2345
    -0.2180  -0.2065  -0.0627  -0.0377   0.0474   0.0706   0.1027   0.1037
     0.2131   0.2254   0.2991   0.3483   0.3793   0.4381   0.4882   0.4912
     0.5144   0.5368   0.5468   0.6389   0.6589   0.6734   0.7423   0.8879
     1.1236   1.1594   1.1740   1.4916   1.5043   1.5850   1.7693   2.1608
     2.2088   3.6431   3.7151   3.7846   3.7935   3.8337   3.8798   4.1128
     4.1241   4.1438   4.1503   4.1856

[...]

          k = 0.0380-0.0419 0.0000 ( 17876 PWs)   bands (ev):

[...]

          k =-0.0760-0.0000 0.0000 ( 17886 PWs)   bands (ev):

[...]

          k =-0.0760-0.0839 0.0000 ( 17948 PWs)   bands (ev):

   -55.4388 -55.4356 -55.3947 -55.3942 -55.3299 -55.3172 -55.3068 -55.2578
   -55.2560 -55.2555 -55.2552 -55.2249 -55.2242 -55.1442 -54.4208 -54.4206
   -31.8266 -31.8241 -31.7742 -31.7298 -31.7189 -31.7185 -31.7063 -31.6862
   -31.6858 -31.6629 -31.6536 -31.6506 -31.6407 -31.5982 -31.5909 -31.5875
   -31.5848 -31.5812 -31.5799 -31.5736 -31.5423 -31.5377 -31.5317 -31.5308
   -31.5186 -31.5142 -31.5139 -31.5127 -31.4997 -31.4906 -31.4879 -31.4830
   -31.4713 -31.4684 -31.4545 -31.4527 -31.4491 -31.4440 -31.4052 -31.4046
   -31.3540 -31.3514 -30.7438 -30.7436 -30.6596 -30.6594 -30.6201 -30.6200
   -17.3175 -15.7827 -15.6754 -15.6429 -15.4618 -15.4513 -15.4145 -15.4026
   -15.2592 -15.2132 -15.2096 -15.1969 -15.1517 -15.1467 -15.1446 -15.1181
   -15.0511 -15.0449 -15.0402 -15.0239 -14.9681 -14.9568 -14.9538 -14.9368
   -14.9055 -14.9015 -14.8074 -14.8043 -14.6913 -14.5868 -12.9244 -12.9244
    -9.1010  -4.6685  -3.3580  -3.2075  -2.9453  -2.9089  -2.9047  -2.6721
    -2.6442  -2.6127  -2.5672  -2.4959  -2.4490  -2.4245  -2.4230  -2.3557
    -2.3064  -2.2992  -2.2917  -2.2746  -2.2651  -2.2464  -2.2114  -2.1798
    -2.1701  -2.1396  -2.1227  -2.1059  -2.0875  -2.0515  -2.0386  -2.0136
    -2.0084  -1.9024  -1.8812  -1.7998  -1.7565  -1.7255  -1.6574  -1.6517
    -1.5484  -1.5444  -1.4920  -1.4803  -1.4372  -1.3318  -1.2467  -1.1973
    -1.1931  -1.1839  -1.0735  -1.0155  -0.9850  -0.9524  -0.9274  -0.8429
    -0.7882  -0.7686  -0.7258  -0.6437  -0.6378  -0.5744  -0.4735  -0.4311
    -0.4157  -0.4106  -0.3863  -0.3368  -0.3255  -0.2635  -0.2206  -0.1857
    -0.1749  -0.1286   0.0818   0.0857   0.1335   0.2442   0.2895   0.4344
     0.5117   0.5315   0.6057   0.6415   0.6637   0.7314   0.8396   0.8560
     0.8741   0.9407   0.9801   1.0034   1.0130   1.9421   1.9426   2.0287
     2.0289   3.7649   3.8764   3.9126   3.9604   3.9996   4.0590   4.1630
     4.1839   4.2270   4.2280   4.2976

     the Fermi energy is     3.7024 ev

!    total energy              =   -2916.61451229 Ry
     estimated scf accuracy    <       0.00000006 Ry
     smearing contrib. (-TS)   =      -0.03750470 Ry
     internal energy E=F+TS    =   -2916.57700759 Ry

     The total energy is F=E-TS. E is the sum of the following terms:
     one-electron contribution =  -24442.50603286 Ry
     hartree contribution      =   12308.64156566 Ry
     xc contribution           =    -478.36098106 Ry
     ewald contribution        =    9695.64417225 Ry
     electric field correction =       0.00426841 Ry

     convergence has been achieved in  60 iterations

     Forces acting on atoms (cartesian axes, Ry/au):

     atom    1 type  1   force =    -0.00000827   -0.00029209    0.09346903
     atom    2 type  1   force =    -0.00018568   -0.00047116   -0.17790397
     atom    3 type  2   force =     0.00002346   -0.00033100   -0.02062854
     atom    4 type  2   force =    -0.00003662   -0.00186326    0.05836365
     atom    5 type  2   force =    -0.01035295   -0.00073573    0.00709560
     atom    6 type  2   force =     0.01202025   -0.00013741    0.00686565
     atom    7 type  1   force =    -0.00011073    0.00194700   -0.01366993
     atom    8 type  1   force =    -0.00009371    0.00174590   -0.00207895
     atom    9 type  2   force =    -0.00004597   -0.00044570   -0.00034984
     atom   10 type  2   force =    -0.00120503    0.00260575   -0.00303356
     atom   11 type  2   force =    -0.00066736   -0.00012382    0.00008709
     atom   12 type  2   force =     0.00050047   -0.00008164   -0.00010751
     atom   13 type  1   force =    -0.00006947   -0.00002672    0.00024334
     atom   14 type  1   force =    -0.00001014   -0.00005215    0.00033398
     atom   15 type  2   force =    -0.00011022    0.00009275   -0.00018946
     atom   16 type  2   force =    -0.00002888   -0.00011261   -0.00028510
     atom   17 type  2   force =     0.00038770   -0.00000886   -0.00031908
     atom   18 type  2   force =     0.00005717   -0.00002488    0.00005951
     atom   19 type  1   force =    -0.00026035    0.00031650    0.00059128
     atom   20 type  1   force =    -0.00013554    0.00050173    0.00095064
     atom   21 type  2   force =    -0.00002326   -0.00012038    0.10387364
     atom   22 type  2   force =    -0.00007724    0.00025013   -0.00004794
     atom   23 type  2   force =    -0.07051076   -0.00020830   -0.02695679
     atom   24 type  2   force =     0.07029645    0.00022933   -0.02700635
     atom   25 type  1   force =    -0.00000168   -0.00034201    0.09302306
     atom   26 type  1   force =    -0.00019065   -0.00053531   -0.17812043
     atom   27 type  2   force =     0.00005950   -0.00024211   -0.01962870
     atom   28 type  2   force =     0.00001267   -0.00164139    0.05784078
     atom   29 type  2   force =    -0.01086978   -0.00057284    0.00759308
     atom   30 type  2   force =     0.01239327   -0.00022603    0.00733292
     atom   31 type  1   force =    -0.00003802    0.00593724   -0.01475762
     atom   32 type  1   force =    -0.00012122   -0.00212339   -0.00202169
     atom   33 type  2   force =     0.00002141   -0.00006149   -0.00031235
     atom   34 type  2   force =    -0.00064579   -0.00101621   -0.00068308
     atom   35 type  2   force =    -0.00011704   -0.00007427    0.00008611
     atom   36 type  2   force =    -0.00008363   -0.00001447    0.00016167
     atom   37 type  1   force =     0.00021977   -0.00079258    0.00025084
     atom   38 type  1   force =    -0.00004469   -0.00008998    0.00028747
     atom   39 type  2   force =     0.00011503   -0.00056778   -0.00016578
     atom   40 type  2   force =    -0.00021830   -0.00011441   -0.00053699
     atom   41 type  2   force =     0.00011982   -0.00008854   -0.00062485
     atom   42 type  2   force =     0.00029594    0.00013756   -0.00021172
     atom   43 type  1   force =    -0.00014591   -0.00002240    0.00045682
     atom   44 type  1   force =     0.00009462    0.00009753    0.00102352
     atom   45 type  2   force =    -0.00002317   -0.00014581    0.10382607
     atom   46 type  2   force =    -0.07048068   -0.00017781   -0.02694204
     atom   47 type  2   force =     0.07028476    0.00024948   -0.02699774
     atom   48 type  3   force =    -0.00001642   -0.02146818    0.02523023
     atom   49 type  4   force =     0.00010813    0.02982931   -0.03367246
     atom   50 type  5   force =    -0.00008126   -0.00858749    0.00820648

     Total force =     0.370296     Total SCF correction =     0.000691
  @ DRIVER MODE: Message from server: STATUS
  @ DRIVER MODE: Message from server: GETFORCE
  @ DRIVER MODE: Returning v,forces,stress,ensemble

     Writing output data file ./calc.save/
  @ DRIVER MODE: Message from server: EXIT
  @ DRIVE MODE: Exiting

     General routines

     Parallel routines

   This run was terminated on:  18:46:34  23Aug2021

   JOB DONE.