     Program PWSCF v.6.7GPU starts on 23Sep2021 at  6:18:13

     R & G space division:  proc/nbgrp/npool/nimage =       8
     Reading input from /storage/home/hcoda1/3/ntian30/research/carbon/CxH_vib/H2O_calc/ads_slab/CH3HO_a/out_0024/pw.inp
Warning: card &CELL ignored
Warning: card   CELL_DYNAMICS='IPI', ignored
Warning: card / ignored

     Current dimensions of program PWSCF are:
     Max number of different atomic species (ntypx) = 10
     Max number of k-points (npk) =  40000
     Max angular momentum in pseudopotentials (lmaxx) =  3
     Presently no symmetry can be used with electric field

     Message from routine cell_base_init:
     DEPRECATED: use true lattice parameter, not A to a.u. conversion factor

     IMPORTANT: XC functional enforced from input :
     Exchange-correlation= BEEF-VDW
                           (   1   4  43  14   2   0   0)
     Any further DFT definition will be discarded
     Please, verify this is what you really want

  @ DRIVER MODE: Connecting to
 qe_1139763_2941010.sched-torque.pace.gatech.edua34s0es4_scratch
  using UNIX socket
  @ DRIVER MODE: Message from server: STATUS
  @ DRIVER MODE: Message from server: INIT
  @ DRIVER MODE: Receiving replica           0          -1
  @ DRIVER MODE: Receiving encoded integer          25
  @ DRIVER MODE:  SCF:  T  FORCE:  T  STRESS:  F  VC:  F  ENSEMBLE:  F
  @ DRIVER MODE:  SCF:  T  FORCE:  T  STRESS:  F  VC:  F  ENSEMBLE:  F

     Using Slab Decomposition

     bravais-lattice index     =            0
     lattice parameter (alat)  =       1.8897  a.u.
     unit-cell volume          =    6658.9804 (a.u.)^3
     number of atoms/cell      =           53
     number of atomic types    =            4
     number of electrons       =       392.00
     number of Kohn-Sham states=          206
     kinetic-energy cutoff     =      29.3995  Ry
     charge density cutoff     =     293.9946  Ry
     scf convergence threshold =      7.3E-08
     mixing beta               =       0.0500
     number of iterations used =            8  plain     mixing
     Exchange-correlation= BEEF-VDW
                           (   1   4  43  14   2   0   0)

     celldm(1)=   1.889726  celldm(2)=   0.000000  celldm(3)=   0.000000
     celldm(4)=   0.000000  celldm(5)=   0.000000  celldm(6)=   0.000000

     crystal axes: (cart. coord. in units of alat)
               a(1) = (   6.579727   0.000000   0.000000 )
               a(2) = (  -0.000775   5.961596   0.000000 )
               a(3) = (   0.000000   0.000000  25.155947 )

     reciprocal axes: (cart. coord. in units 2 pi/alat)
               b(1) = (  0.151982  0.000020  0.000000 )
               b(2) = (  0.000000  0.167740  0.000000 )
               b(3) = (  0.000000  0.000000  0.039752 )

     PseudoPot. # 1 for Ti read from file:
     /storage/coda1/p-amedford6/0/shared/rich_project_chbe-medford/medford-share/data/pseudos_module/espresso/nninc/pbe/van/Ti.UPF
     MD5 check sum: 8e4df49b7f0d34bbd5052bf3f5ea0213
     Pseudo is Ultrasoft, Zval = 12.0
     Generated by new atomic code, or converted to UPF format
     Using radial grid of  851 points,  6 beta functions with:
                l(1) =   0
                l(2) =   0
                l(3) =   1
                l(4) =   1
                l(5) =   2
                l(6) =   2
     Q(r) pseudized with  8 coefficients,  rinner =    1.000   1.000   1.000
                                                       1.000   1.000

     PseudoPot. # 2 for O  read from file:
     /storage/coda1/p-amedford6/0/shared/rich_project_chbe-medford/medford-share/data/pseudos_module/espresso/nninc/pbe/van/O.UPF
     MD5 check sum: 78c19812648e8988a0fe644b0f25305e
     Pseudo is Ultrasoft, Zval =  6.0
     Generated by new atomic code, or converted to UPF format
     Using radial grid of  737 points,  4 beta functions with:
                l(1) =   0
                l(2) =   0
                l(3) =   1
                l(4) =   1
     Q(r) pseudized with  8 coefficients,  rinner =    0.800   0.800   0.800

     PseudoPot. # 3 for C  read from file:
     /storage/coda1/p-amedford6/0/shared/rich_project_chbe-medford/medford-share/data/pseudos_module/espresso/nninc/pbe/van/C.UPF
     MD5 check sum: 1a69bf6b8db32088f5b2163dbdb77a27
     Pseudo is Ultrasoft, Zval =  4.0
     Generated by new atomic code, or converted to UPF format
     Using radial grid of  721 points,  4 beta functions with:
                l(1) =   0
                l(2) =   0
                l(3) =   1
                l(4) =   1
     Q(r) pseudized with  8 coefficients,  rinner =    0.800   0.800   0.800

     PseudoPot. # 4 for H  read from file:
     /storage/coda1/p-amedford6/0/shared/rich_project_chbe-medford/medford-share/data/pseudos_module/espresso/nninc/pbe/van/H.UPF
     MD5 check sum: b5ee9d7bfd3a09ee7748110bda690ff7
     Pseudo is Ultrasoft, Zval =  1.0
     Generated by new atomic code, or converted to UPF format
     Using radial grid of  615 points,  1 beta functions with:
                l(1) =   0
     Q(r) pseudized with  8 coefficients,  rinner =    0.800

     atomic species   valence    mass     pseudopotential
        Ti1           12.00    47.86700     Ti( 1.00)
        O1             6.00    15.99900     O ( 1.00)
        C1             4.00    12.01100     C ( 1.00)
        H1             1.00     1.00800     H ( 1.00)

     No symmetry found

   Cartesian axes

     site n.     atom                  positions (alat units)
         1           Ti1 tau(   1) = (   0.0004258   2.9801865   6.0000000  )
         2           Ti1 tau(   2) = (   3.2906075   1.4906267   6.0002472  )
         3           O1  tau(   3) = (   0.0006271   0.0005054   7.9858123  )
         4           O1  tau(   4) = (   3.2906025   0.0005020   7.3038282  )
         5           O1  tau(   5) = (   4.5942328   1.4918067   9.2879030  )
         6           O1  tau(   6) = (   1.9868534   1.4903216   9.2879459  )
         7           Ti1 tau(   7) = (   3.2776386   2.8603028   9.2190116  )
         8           Ti1 tau(   8) = (   6.5598479   1.4304724   9.3580194  )
         9           O1  tau(   9) = (   3.2889234   5.9509398  11.3217173  )
        10           O1  tau(  10) = (   6.5764018   5.9495644  10.5876710  )
        11           O1  tau(  11) = (   1.2812264   1.4943635  12.6442538  )
        12           O1  tau(  12) = (   5.3065913   1.4950901  12.6410841  )
        13           Ti1 tau(  13) = (   0.0201148   2.8652118  12.8170930  )
        14           Ti1 tau(  14) = (   3.2957237   1.3106547  12.6889287  )
        15           O1  tau(  15) = (   6.5548780   5.9443598  14.6367865  )
        16           O1  tau(  16) = (   3.2877845   0.0417723  13.9217912  )
        17           O1  tau(  17) = (   4.5532326   1.5761655  16.0783859  )
        18           O1  tau(  18) = (   2.0366504   1.5601698  16.0762102  )
        19           Ti1 tau(  19) = (   3.2678531   3.0297845  15.6708759  )
        20           Ti1 tau(  20) = (   6.4629285   1.5188837  16.1410570  )
        21           O1  tau(  21) = (   3.2904802   0.0005063   4.7018136  )
        22           O1  tau(  22) = (   6.5629482   0.0231895  17.1619738  )
        23           O1  tau(  23) = (   1.3043587   1.4918075   6.0039043  )
        24           O1  tau(  24) = (   5.2767064   1.4903225   6.0039473  )
        25           Ti1 tau(  25) = (   0.0000382   5.9609847   6.0000000  )
        26           Ti1 tau(  26) = (   3.2902200   4.4714249   6.0002472  )
        27           O1  tau(  27) = (   0.0002396   2.9813036   7.9858123  )
        28           O1  tau(  28) = (   3.2902150   2.9813002   7.3038282  )
        29           O1  tau(  29) = (   4.5938453   4.4726049   9.2879030  )
        30           O1  tau(  30) = (   1.9864658   4.4711199   9.2879459  )
        31           Ti1 tau(  31) = (   3.2699525   5.8470351   9.1790592  )
        32           Ti1 tau(  32) = (   6.5580068   4.3764721   9.3475679  )
        33           O1  tau(  33) = (   3.2877686   3.0124297  11.2895287  )
        34           O1  tau(  34) = (   0.0005883   2.9642609  10.5504472  )
        35           O1  tau(  35) = (   1.2748618   4.4645017  12.6259732  )
        36           O1  tau(  36) = (   5.2954498   4.4639995  12.6225180  )
        37           Ti1 tau(  37) = (   6.5558271   5.8472513  12.6028672  )
        38           Ti1 tau(  38) = (   3.2807834   4.4064534  12.4217905  )
        39           O1  tau(  39) = (   6.5786029   2.9813041  14.7145626  )
        40           O1  tau(  40) = (   3.2869290   2.9992676  13.8921391  )
        41           O1  tau(  41) = (   4.5413935   4.4541386  16.0960746  )
        42           O1  tau(  42) = (   2.0104822   4.4576224  16.0708021  )
        43           Ti1 tau(  43) = (   3.1667734   0.0431258  16.3165854  )
        44           Ti1 tau(  44) = (   6.5007865   4.6242813  15.9014112  )
        45           O1  tau(  45) = (   3.2900926   2.9813045   4.7018136  )
        46           O1  tau(  46) = (   1.3039711   4.4726057   6.0039043  )
        47           O1  tau(  47) = (   5.2763189   4.4711207   6.0039473  )
        48           C1  tau(  48) = (   0.0287742   2.9159372  17.8309569  )
        49           H1  tau(  49) = (   0.0209232   3.9694834  18.1111783  )
        50           H1  tau(  50) = (   0.9459818   2.5003430  18.2552837  )
        51           H1  tau(  51) = (   5.7514102   2.4667126  18.3542606  )
        52           O1  tau(  52) = (   3.2249103   0.0683284  18.1361362  )
        53           H1  tau(  53) = (   3.4857875   5.2839856  18.6954204  )

     number of k points=    10  Fermi-Dirac smearing, width (Ry)=  0.0073
                       cart. coord. in units 2pi/alat
        k(    1) = (   0.0000000   0.0000000   0.0000000), wk =   0.1250000
        k(    2) = (   0.0000000   0.0419351   0.0000000), wk =   0.2500000
        k(    3) = (   0.0000000  -0.0838702   0.0000000), wk =   0.1250000
        k(    4) = (   0.0379955   0.0000049   0.0000000), wk =   0.2500000
        k(    5) = (   0.0379955   0.0419400   0.0000000), wk =   0.2500000
        k(    6) = (   0.0379955  -0.0838652   0.0000000), wk =   0.2500000
        k(    7) = (   0.0379955  -0.0419301   0.0000000), wk =   0.2500000
        k(    8) = (  -0.0759910  -0.0000099   0.0000000), wk =   0.1250000
        k(    9) = (  -0.0759910   0.0419252   0.0000000), wk =   0.2500000
        k(   10) = (  -0.0759910  -0.0838800   0.0000000), wk =   0.1250000

     Initial potential from superposition of free atoms

     starting charge  375.99917, renormalised to  392.00000

     negative rho (up, down):  1.890E-02 0.000E+00

     %%%%%%%%%%%%%%%%%%%%%%%%%%%%%%%%%%%%%%%%%%%%%%%%%%%%%%%%%%%%%%%%%%%%%%%%
     %                                                                      %
     % You are using vdW-DF, which was implemented by the Thonhauser group. %
     % Please cite the following two papers that made this development      %
     % possible and the two reviews that describe the various versions:     %
     %                                                                      %
     %   T. Thonhauser et al., PRL 115, 136402 (2015).                      %
     %   T. Thonhauser et al., PRB 76, 125112 (2007).                       %
     %   K. Berland et al., Rep. Prog. Phys. 78, 066501 (2015).             %
     %   D.C. Langreth et al., J. Phys.: Condens. Matter 21, 084203 (2009). %
     %                                                                      %
     %                                                                      %
     % If you are calculating the stress with vdW-DF, please also cite:     %
     %                                                                      %
     %   R. Sabatini et al., J. Phys.: Condens. Matter 24, 424209 (2012).   %
     %                                                                      %
     %%%%%%%%%%%%%%%%%%%%%%%%%%%%%%%%%%%%%%%%%%%%%%%%%%%%%%%%%%%%%%%%%%%%%%%%

     Adding external electric field

     Computed dipole along edir(3) :
        Dipole               -5.0042 Ry au,        -12.7194 Debye
        Dipole field         -0.0094 Ry au,

        Potential amp.        0.8754 Ry
        Total length         46.3494 bohr

     Starting wfcs are  296 atomic wfcs
  @ DRIVER MODE: Message from server: STATUS
  @ DRIVER MODE: Message from server: POSDATA
  @ DRIVER MODE: Reading and sharing cell
  @ DRIVER MODE: Reading and sharing positions
  @ DRIVER MODE: Received positions

     Self-consistent Calculation

     iteration #  1     ecut=    29.40 Ry     beta= 0.05
     Davidson diagonalization with overlap
     c_bands:  5 eigenvalues not converged
     c_bands:  4 eigenvalues not converged
     c_bands:  5 eigenvalues not converged
     c_bands:  3 eigenvalues not converged
     c_bands:  2 eigenvalues not converged
     c_bands:  2 eigenvalues not converged
     c_bands:  1 eigenvalues not converged
     c_bands:  2 eigenvalues not converged
     c_bands:  3 eigenvalues not converged
     ethr =  1.00E-05,  avg # of iterations = 19.7

[...]

     total energy              =   -2842.07067654 Ry
     estimated scf accuracy    <    1001.30778583 Ry

     iteration #  2     ecut=    29.40 Ry     beta= 0.05
     Davidson diagonalization with overlap
     ethr =  1.00E-02,  avg # of iterations = 15.9

[...]

     iteration # 41     ecut=    29.40 Ry     beta= 0.05
     Davidson diagonalization with overlap
     c_bands:  1 eigenvalues not converged
     ethr =  2.34E-08,  avg # of iterations =  8.3

[...]

     total energy              =   -2932.63112494 Ry
     estimated scf accuracy    <       0.00000010 Ry

     iteration # 63     ecut=    29.40 Ry     beta= 0.05
     Davidson diagonalization with overlap
     ethr =  2.64E-11,  avg # of iterations =  5.0

     negative rho (up, down):  1.832E-02 0.000E+00

     Adding external electric field

     Computed dipole along edir(3) :
        Dipole                0.4018 Ry au,          1.0214 Debye
        Dipole field          0.0008 Ry au,

        Potential amp.       -0.0703 Ry
        Total length         46.3494 bohr

     End of self-consistent calculation

          k = 0.0000 0.0000 0.0000 ( 18029 PWs)   bands (ev):

   -56.6138 -56.5637 -56.0777 -56.0399 -56.0050 -55.9344 -55.9085 -55.8945
   -55.8549 -55.8482 -55.8057 -55.7828 -55.7273 -55.6358 -55.2249 -55.1910
   -33.0256 -32.8788 -32.8245 -32.7925 -32.6968 -32.6517 -32.5038 -32.4886
   -32.4501 -32.3439 -32.3253 -32.3184 -32.3127 -32.3050 -32.2865 -32.2691
   -32.2456 -32.2250 -32.2189 -32.1435 -32.1404 -32.1385 -32.1256 -32.1139
   -32.1086 -32.1038 -32.0924 -32.0902 -32.0851 -32.0541 -32.0405 -32.0400
   -32.0100 -31.9997 -31.9957 -31.9836 -31.9679 -31.9513 -31.8923 -31.8593
   -31.8456 -31.8388 -31.6195 -31.5652 -31.5408 -31.4363 -31.3514 -31.2405
   -16.9217 -16.7701 -16.6317 -16.4089 -16.2686 -16.1582 -15.9407 -15.9297
   -15.8079 -15.8038 -15.7620 -15.6365 -15.6221 -15.5858 -15.5739 -15.5491
   -15.5366 -15.5262 -15.5220 -15.4976 -15.4619 -15.4392 -15.3959 -15.3246
   -15.2588 -15.2421 -15.2034 -15.1400 -15.1073 -14.8729 -13.7267 -13.6181
    -9.3641  -4.6672  -4.2963  -4.0805  -3.9663  -3.9240  -3.7867  -3.6407
    -3.4639  -3.3690  -3.2410  -3.2342  -3.1644  -3.1221  -3.1111  -3.1049
    -3.0212  -2.9742  -2.9420  -2.9176  -2.9042  -2.8519  -2.8174  -2.7756
    -2.7543  -2.7531  -2.7086  -2.6804  -2.5347  -2.5031  -2.4849  -2.4779
    -2.4411  -2.4240  -2.3887  -2.3726  -2.2906  -2.2090  -2.1896  -2.1294
    -2.0647  -2.0145  -1.8277  -1.8158  -1.7162  -1.6390  -1.6160  -1.5697
    -1.5301  -1.4888  -1.4219  -1.3941  -1.3079  -1.2535  -1.2005  -1.1872
    -1.1564  -1.1214  -1.0804  -0.9756  -0.9265  -0.9209  -0.8108  -0.7581
    -0.6927  -0.6881  -0.6320  -0.5989  -0.4963  -0.4779  -0.4454  -0.4097
    -0.3779  -0.3539  -0.2966  -0.2760  -0.2465  -0.1856  -0.1464  -0.1267
    -0.0975  -0.0825  -0.0185   0.0381   0.0571   0.1636   0.1825   0.2182
     0.2896   0.3793   0.4327   0.5201   0.6932   0.7924   0.8262   0.9305
     1.0066   1.0530   1.3437   1.3897   2.6877   2.8498   3.1291   3.2816
     3.3043   3.3596   3.4066   3.4624   3.6214   3.6528

[...]

          k = 0.0380-0.0419 0.0000 ( 17876 PWs)   bands (ev):

[...]

          k =-0.0760-0.0000 0.0000 ( 17886 PWs)   bands (ev):

[...]

          k =-0.0760-0.0839 0.0000 ( 17948 PWs)   bands (ev):

   -56.6073 -56.5700 -56.0766 -56.0377 -56.0004 -55.9388 -55.9106 -55.8954
   -55.8529 -55.8398 -55.8141 -55.7809 -55.7292 -55.6376 -55.2081 -55.2076
   -32.8746 -32.8581 -32.8285 -32.8261 -32.7591 -32.7274 -32.3826 -32.3578
   -32.3443 -32.3226 -32.2925 -32.2902 -32.2673 -32.2634 -32.2505 -32.2437
   -32.2201 -32.2175 -32.2078 -32.1884 -32.1841 -32.1660 -32.1610 -32.1374
   -32.1342 -32.1337 -32.1202 -32.1039 -32.1001 -32.0707 -32.0622 -32.0504
   -32.0479 -32.0410 -32.0071 -32.0046 -31.9910 -31.9876 -31.9691 -31.8935
   -31.8819 -31.8491 -31.5540 -31.5537 -31.4351 -31.4333 -31.3935 -31.3926
   -16.9071 -16.1667 -16.0832 -16.0769 -16.0661 -16.0363 -15.9911 -15.9219
   -15.9191 -15.8259 -15.7939 -15.7582 -15.7241 -15.7083 -15.6549 -15.6499
   -15.6331 -15.5690 -15.5265 -15.4999 -15.4818 -15.4774 -15.4494 -15.4298
   -15.4182 -15.3991 -15.3333 -15.2994 -15.2231 -15.0130 -13.7225 -13.7212
    -9.3786  -4.6746  -3.3951  -3.3253  -3.2541  -3.2350  -3.1570  -3.1111
    -3.0982  -3.0721  -3.0472  -3.0170  -2.9853  -2.9733  -2.9265  -2.9155
    -2.9092  -2.9058  -2.8978  -2.8850  -2.8590  -2.8059  -2.7961  -2.7898
    -2.7690  -2.7626  -2.7465  -2.7245  -2.6803  -2.6646  -2.6221  -2.4562
    -2.4304  -2.4229  -2.3746  -2.3515  -2.3008  -2.2722  -2.1937  -2.1813
    -2.1748  -2.1402  -2.0270  -1.9094  -1.7804  -1.7710  -1.7339  -1.6648
    -1.6299  -1.5644  -1.5368  -1.5129  -1.4878  -1.4451  -1.4256  -1.3383
    -1.3283  -1.2878  -1.2732  -1.2576  -1.1748  -1.1133  -1.0853  -1.0627
    -1.0234  -0.9882  -0.9282  -0.8823  -0.8697  -0.8402  -0.8217  -0.7044
    -0.6705  -0.6403  -0.4922  -0.4561  -0.4505  -0.4023  -0.2506  -0.2078
    -0.1576  -0.1131  -0.0842   0.0463   0.0910   0.1375   0.1448   0.1998
     0.3184   0.3415   0.3860   0.4524   0.4758   0.4864   0.5264   1.0220
     1.1853   1.1880   1.1963   1.2017   3.2292   3.2535   3.2661   3.2972
     3.4696   3.5394   3.5757   3.6037   3.6497   3.7436

     the Fermi energy is     2.0968 ev

!    total energy              =   -2932.63116108 Ry
     estimated scf accuracy    <       0.00000004 Ry
     smearing contrib. (-TS)   =      -0.00015672 Ry
     internal energy E=F+TS    =   -2932.63100436 Ry

     The total energy is F=E-TS. E is the sum of the following terms:
     one-electron contribution =  -24307.54436697 Ry
     hartree contribution      =   12237.94566575 Ry
     xc contribution           =    -482.64775963 Ry
     ewald contribution        =    9619.61515175 Ry
     electric field correction =       0.00030474 Ry

     convergence has been achieved in  63 iterations

     Forces acting on atoms (cartesian axes, Ry/au):

     atom    1 type  1   force =     0.00035538   -0.00031037    0.13238071
     atom    2 type  1   force =     0.00005517    0.00687906   -0.15776214
     atom    3 type  2   force =     0.00014760    0.00441262   -0.05306312
     atom    4 type  2   force =    -0.00038301   -0.00087135    0.04047286
     atom    5 type  2   force =    -0.00906482   -0.00264974    0.00214914
     atom    6 type  2   force =     0.00916957   -0.00496336    0.00181975
     atom    7 type  1   force =     0.00069052    0.00107652    0.00044520
     atom    8 type  1   force =    -0.00078995   -0.00013627   -0.00012520
     atom    9 type  2   force =     0.00000679   -0.00016931    0.00050439
     atom   10 type  2   force =     0.00004986   -0.00007151   -0.00010799
     atom   11 type  2   force =    -0.00058820    0.00020191   -0.00038947
     atom   12 type  2   force =    -0.00051429   -0.00055561   -0.00059764
     atom   13 type  1   force =     0.00095941   -0.00086016   -0.00003725
     atom   14 type  1   force =    -0.00105502   -0.00093870    0.00009480
     atom   15 type  2   force =     0.00000673    0.00008343   -0.00078062
     atom   16 type  2   force =     0.00009065    0.00003505   -0.00042208
     atom   17 type  2   force =     0.00002166   -0.00015444    0.00004675
     atom   18 type  2   force =    -0.00017389   -0.00004372    0.00020701
     atom   19 type  1   force =     0.00016860   -0.00016639   -0.00084936
     atom   20 type  1   force =    -0.00037934   -0.00037324    0.00022354
     atom   21 type  2   force =     0.00016211    0.00008707    0.09922790
     atom   22 type  2   force =     0.00015343    0.00015641   -0.00009788
     atom   23 type  2   force =    -0.08041292    0.00141550   -0.03414833
     atom   24 type  2   force =     0.08050190    0.00191549   -0.03419087
     atom   25 type  1   force =     0.00021293   -0.00004515    0.14218179
     atom   26 type  1   force =     0.00010218   -0.00847823   -0.15823422
     atom   27 type  2   force =    -0.00010940   -0.00043536   -0.05128644
     atom   28 type  2   force =    -0.00024847   -0.00030665    0.04226555
     atom   29 type  2   force =    -0.00855971    0.00487149    0.00031474
     atom   30 type  2   force =     0.00771041    0.00352084    0.00001715
     atom   31 type  1   force =     0.00054091   -0.00128722    0.00086674
     atom   32 type  1   force =    -0.00091239    0.00037660   -0.00077509
     atom   33 type  2   force =     0.00001973   -0.00028833   -0.00017902
     atom   34 type  2   force =     0.00000448   -0.00100341    0.00036148
     atom   35 type  2   force =    -0.00039223    0.00005501   -0.00020328
     atom   36 type  2   force =     0.00021565   -0.00021428   -0.00022588
     atom   37 type  1   force =     0.00101336    0.00078595    0.00044513
     atom   38 type  1   force =    -0.00047736    0.00001288    0.00020497
     atom   39 type  2   force =    -0.00023605   -0.00026777   -0.00009526
     atom   40 type  2   force =     0.00024748   -0.00028128   -0.00005735
     atom   41 type  2   force =     0.00011111   -0.00008923   -0.00011238
     atom   42 type  2   force =    -0.00004534    0.00025814   -0.00001513
     atom   43 type  1   force =     0.00005588    0.00041227   -0.00072585
     atom   44 type  1   force =     0.00019849    0.00034594   -0.00002658
     atom   45 type  2   force =     0.00015787    0.00004314    0.09876076
     atom   46 type  2   force =    -0.08045076   -0.00101198   -0.03415622
     atom   47 type  2   force =     0.08054304   -0.00053027   -0.03418960
     atom   48 type  3   force =    -0.00431516   -0.00235830    0.00313435
     atom   49 type  4   force =     0.00013515    0.00030218    0.00047482
     atom   50 type  4   force =     0.00047384   -0.00009388    0.00029493
     atom   51 type  4   force =     0.00342883    0.00188460   -0.00318733
     atom   52 type  2   force =     0.00062880   -0.00163906   -0.00051938
     atom   53 type  4   force =     0.00076879    0.00146247   -0.00033353

     Total force =     0.383826     Total SCF correction =     0.000580
  @ DRIVER MODE: Message from server: STATUS
  @ DRIVER MODE: Message from server: GETFORCE
  @ DRIVER MODE: Returning v,forces,stress,ensemble

     Writing output data file ./calc.save/
  @ DRIVER MODE: Message from server: EXIT
  @ DRIVE MODE: Exiting

     General routines

     Parallel routines

   This run was terminated on:   6:37:53  23Sep2021

   JOB DONE.