     Program PWSCF v.6.7GPU starts on 15Jul2021 at 23:38:15

     R & G space division:  proc/nbgrp/npool/nimage =      16
     Reading input from /storage/home/hcoda1/3/ntian30/research/carbon/15Jul_vib/ads_slab/CH3NH_a/out_0015/pw.inp
Warning: card &CELL ignored
Warning: card   CELL_DYNAMICS='IPI', ignored
Warning: card / ignored

     Current dimensions of program PWSCF are:
     Max number of different atomic species (ntypx) = 10
     Max number of k-points (npk) =  40000
     Max angular momentum in pseudopotentials (lmaxx) =  3
     Presently no symmetry can be used with electric field

     Message from routine cell_base_init:
     DEPRECATED: use true lattice parameter, not A to a.u. conversion factor

     IMPORTANT: XC functional enforced from input :
     Exchange-correlation= BEEF-VDW
                           (   1   4  43  14   2   0   0)
     Any further DFT definition will be discarded
     Please, verify this is what you really want

  @ DRIVER MODE: Connecting to
 qe_1139763_2351648.sched-torque.pace.gatech.eduoptq0dey_scratch
  using UNIX socket
  @ DRIVER MODE: Message from server: STATUS
  @ DRIVER MODE: Message from server: INIT
  @ DRIVER MODE: Receiving replica           0          -1
  @ DRIVER MODE: Receiving encoded integer          25
  @ DRIVER MODE:  SCF:  T  FORCE:  T  STRESS:  F  VC:  F  ENSEMBLE:  F
  @ DRIVER MODE:  SCF:  T  FORCE:  T  STRESS:  F  VC:  F  ENSEMBLE:  F

     Using Slab Decomposition

     bravais-lattice index     =            0
     lattice parameter (alat)  =       1.8897  a.u.
     unit-cell volume          =    6658.9804 (a.u.)^3
     number of atoms/cell      =           53
     number of atomic types    =            5
     number of electrons       =       391.00
     number of Kohn-Sham states=          205
     kinetic-energy cutoff     =      29.3995  Ry
     charge density cutoff     =     293.9946  Ry
     scf convergence threshold =      7.3E-08
     mixing beta               =       0.0500
     number of iterations used =            8  plain     mixing
     Exchange-correlation= BEEF-VDW
                           (   1   4  43  14   2   0   0)

     celldm(1)=   1.889726  celldm(2)=   0.000000  celldm(3)=   0.000000
     celldm(4)=   0.000000  celldm(5)=   0.000000  celldm(6)=   0.000000

     crystal axes: (cart. coord. in units of alat)
               a(1) = (   6.579727   0.000000   0.000000 )
               a(2) = (  -0.000775   5.961596   0.000000 )
               a(3) = (   0.000000   0.000000  25.155947 )

     reciprocal axes: (cart. coord. in units 2 pi/alat)
               b(1) = (  0.151982  0.000020  0.000000 )
               b(2) = (  0.000000  0.167740  0.000000 )
               b(3) = (  0.000000  0.000000  0.039752 )

     PseudoPot. # 1 for Ti read from file:
     /storage/coda1/p-amedford6/0/shared/rich_project_chbe-medford/medford-share/data/pseudos_module/espresso/nninc/pbe/van/Ti.UPF
     MD5 check sum: 8e4df49b7f0d34bbd5052bf3f5ea0213
     Pseudo is Ultrasoft, Zval = 12.0
     Generated by new atomic code, or converted to UPF format
     Using radial grid of  851 points,  6 beta functions with:
                l(1) =   0
                l(2) =   0
                l(3) =   1
                l(4) =   1
                l(5) =   2
                l(6) =   2
     Q(r) pseudized with  8 coefficients,  rinner =    1.000   1.000   1.000
                                                       1.000   1.000

     PseudoPot. # 2 for O  read from file:
     /storage/coda1/p-amedford6/0/shared/rich_project_chbe-medford/medford-share/data/pseudos_module/espresso/nninc/pbe/van/O.UPF
     MD5 check sum: 78c19812648e8988a0fe644b0f25305e
     Pseudo is Ultrasoft, Zval =  6.0
     Generated by new atomic code, or converted to UPF format
     Using radial grid of  737 points,  4 beta functions with:
                l(1) =   0
                l(2) =   0
                l(3) =   1
                l(4) =   1
     Q(r) pseudized with  8 coefficients,  rinner =    0.800   0.800   0.800

     PseudoPot. # 3 for H  read from file:
     /storage/coda1/p-amedford6/0/shared/rich_project_chbe-medford/medford-share/data/pseudos_module/espresso/nninc/pbe/van/H.UPF
     MD5 check sum: b5ee9d7bfd3a09ee7748110bda690ff7
     Pseudo is Ultrasoft, Zval =  1.0
     Generated by new atomic code, or converted to UPF format
     Using radial grid of  615 points,  1 beta functions with:
                l(1) =   0
     Q(r) pseudized with  8 coefficients,  rinner =    0.800

     PseudoPot. # 4 for N  read from file:
     /storage/coda1/p-amedford6/0/shared/rich_project_chbe-medford/medford-share/data/pseudos_module/espresso/nninc/pbe/van/N.UPF
     MD5 check sum: 90d10febe142ad51ac9d5be1deb811c4
     Pseudo is Ultrasoft, Zval =  5.0
     Generated by new atomic code, or converted to UPF format
     Using radial grid of  729 points,  4 beta functions with:
                l(1) =   0
                l(2) =   0
                l(3) =   1
                l(4) =   1
     Q(r) pseudized with  8 coefficients,  rinner =    0.800   0.800   0.800

     PseudoPot. # 5 for C  read from file:
     /storage/coda1/p-amedford6/0/shared/rich_project_chbe-medford/medford-share/data/pseudos_module/espresso/nninc/pbe/van/C.UPF
     MD5 check sum: 1a69bf6b8db32088f5b2163dbdb77a27
     Pseudo is Ultrasoft, Zval =  4.0
     Generated by new atomic code, or converted to UPF format
     Using radial grid of  721 points,  4 beta functions with:
                l(1) =   0
                l(2) =   0
                l(3) =   1
                l(4) =   1
     Q(r) pseudized with  8 coefficients,  rinner =    0.800   0.800   0.800

     atomic species   valence    mass     pseudopotential
        Ti1           12.00    47.86700     Ti( 1.00)
        O1             6.00    15.99900     O ( 1.00)
        H1             1.00     1.00800     H ( 1.00)
        N1             5.00    14.00700     N ( 1.00)
        C1             4.00    12.01100     C ( 1.00)

     Starting magnetic structure
     atomic species   magnetization
        Ti1          0.000
        O1           0.000
        H1           0.000
        N1           0.000
        C1           0.025

     No symmetry found

   Cartesian axes

     site n.     atom                  positions (alat units)
         1           Ti1 tau(   1) = (   0.0004258   2.9801865   6.0000000  )
         2           Ti1 tau(   2) = (   3.2906075   1.4906267   6.0002472  )
         3           O1  tau(   3) = (   0.0006271   0.0005054   7.9858123  )
         4           O1  tau(   4) = (   3.2906025   0.0005020   7.3038282  )
         5           O1  tau(   5) = (   4.5942328   1.4918067   9.2879030  )
         6           O1  tau(   6) = (   1.9868534   1.4903216   9.2879459  )
         7           Ti1 tau(   7) = (   3.2907910   2.8959150   9.1758416  )
         8           Ti1 tau(   8) = (   0.0015273   1.4827037   9.2680791  )
         9           O1  tau(   9) = (   3.2884659   0.0075485  11.3235732  )
        10           O1  tau(  10) = (   0.0116148   5.9584955  10.6183126  )
        11           O1  tau(  11) = (   1.3171120   1.5008813  12.6157184  )
        12           O1  tau(  12) = (   5.2946386   1.4924346  12.6071097  )
        13           Ti1 tau(  13) = (   6.5241923   2.9548932  12.6217359  )
        14           Ti1 tau(  14) = (   3.2094326   1.4975571  12.4685497  )
        15           O1  tau(  15) = (   6.5712017   0.0435206  14.6415704  )
        16           O1  tau(  16) = (   3.3105969   0.0188825  13.9167609  )
        17           O1  tau(  17) = (   4.5276945   1.5520673  16.0775932  )
        18           O1  tau(  18) = (   2.0451199   1.5488911  16.0433559  )
        19           Ti1 tau(  19) = (   3.3056363   3.0248959  15.6834923  )
        20           Ti1 tau(  20) = (   0.0598299   1.5678558  15.8702049  )
        21           O1  tau(  21) = (   3.2904802   0.0005063   4.7018136  )
        22           O1  tau(  22) = (   0.0261329   0.0581799  17.1997403  )
        23           O1  tau(  23) = (   1.3043587   1.4918075   6.0039043  )
        24           O1  tau(  24) = (   5.2767064   1.4903225   6.0039473  )
        25           Ti1 tau(  25) = (   0.0000382   5.9609847   6.0000000  )
        26           Ti1 tau(  26) = (   3.2902200   4.4714249   6.0002472  )
        27           O1  tau(  27) = (   0.0002396   2.9813036   7.9858123  )
        28           O1  tau(  28) = (   3.2902150   2.9813002   7.3038282  )
        29           O1  tau(  29) = (   4.5938453   4.4726049   9.2879030  )
        30           O1  tau(  30) = (   1.9864658   4.4711199   9.2879459  )
        31           Ti1 tau(  31) = (   3.2891106   5.8743827   9.1763621  )
        32           Ti1 tau(  32) = (   0.0006254   4.4649316   9.2693709  )
        33           O1  tau(  33) = (   3.2900467   2.9919642  11.3219399  )
        34           O1  tau(  34) = (   0.0092240   2.9805883  10.6323155  )
        35           O1  tau(  35) = (   1.3109590   4.4888342  12.6262493  )
        36           O1  tau(  36) = (   5.2962169   4.4808628  12.6191006  )
        37           Ti1 tau(  37) = (   6.5213093   5.9327278  12.5667326  )
        38           Ti1 tau(  38) = (   3.2063601   4.4772876  12.4706241  )
        39           O1  tau(  39) = (   6.5765807   2.9606619  14.6437028  )
        40           O1  tau(  40) = (   3.3047873   3.0036736  13.8926904  )
        41           O1  tau(  41) = (   4.5386289   4.5058657  16.0833063  )
        42           O1  tau(  42) = (   2.0584685   4.5123608  16.0729366  )
        43           Ti1 tau(  43) = (   3.3398093   0.0384087  15.7085799  )
        44           Ti1 tau(  44) = (   0.0478225   4.6849499  16.0879628  )
        45           O1  tau(  45) = (   3.2900926   2.9813045   4.7018136  )
        46           O1  tau(  46) = (   1.3039711   4.4726057   6.0039043  )
        47           O1  tau(  47) = (   5.2763189   4.4711207   6.0039473  )
        48           H1  tau(  48) = (   5.6109407   2.9912845  17.7881963  )
        49           N1  tau(  49) = (   6.5652763   3.0051276  17.4431066  )
        50           C1  tau(  50) = (   0.8863280   2.9791452  18.6126320  )
        51           H1  tau(  51) = (   1.3596840   3.9617220  18.7724638  )
        52           H1  tau(  52) = (   0.3315535   2.7344040  19.5171108  )
        53           H1  tau(  53) = (   1.6705027   2.2407838  18.4910999  )

     number of k points=    10  Fermi-Dirac smearing, width (Ry)=  0.0073
                       cart. coord. in units 2pi/alat
        k(    1) = (   0.0000000   0.0000000   0.0000000), wk =   0.0625000
        k(    2) = (   0.0000000   0.0419351   0.0000000), wk =   0.1250000
        k(    3) = (   0.0000000  -0.0838702   0.0000000), wk =   0.0625000
        k(    4) = (   0.0379955   0.0000049   0.0000000), wk =   0.1250000
        k(    5) = (   0.0379955   0.0419400   0.0000000), wk =   0.1250000
        k(    6) = (   0.0379955  -0.0838652   0.0000000), wk =   0.1250000
        k(    7) = (   0.0379955  -0.0419301   0.0000000), wk =   0.1250000
        k(    8) = (  -0.0759910  -0.0000099   0.0000000), wk =   0.0625000
[...]

     Initial potential from superposition of free atoms

     starting charge  374.99916, renormalised to  391.00000

     negative rho (up, down):  8.890E-03 8.897E-03

     %%%%%%%%%%%%%%%%%%%%%%%%%%%%%%%%%%%%%%%%%%%%%%%%%%%%%%%%%%%%%%%%%%%%%%%%
     %                                                                      %
     % You are using vdW-DF, which was implemented by the Thonhauser group. %
     % Please cite the following two papers that made this development      %
     % possible and the two reviews that describe the various versions:     %
     %                                                                      %
     %   T. Thonhauser et al., PRL 115, 136402 (2015).                      %
     %   T. Thonhauser et al., PRB 76, 125112 (2007).                       %
     %   K. Berland et al., Rep. Prog. Phys. 78, 066501 (2015).             %
     %   D.C. Langreth et al., J. Phys.: Condens. Matter 21, 084203 (2009). %
     %                                                                      %
     %                                                                      %
     % If you are calculating the stress with vdW-DF, please also cite:     %
     %                                                                      %
     %   R. Sabatini et al., J. Phys.: Condens. Matter 24, 424209 (2012).   %
     %                                                                      %
     %%%%%%%%%%%%%%%%%%%%%%%%%%%%%%%%%%%%%%%%%%%%%%%%%%%%%%%%%%%%%%%%%%%%%%%%

     Adding external electric field

     Computed dipole along edir(3) :
        Dipole               -5.8084 Ry au,        -14.7635 Debye
        Dipole field         -0.0110 Ry au,

        Potential amp.        1.0161 Ry
        Total length         46.3494 bohr

[...]

     Starting wfcs are  296 atomic wfcs
  @ DRIVER MODE: Message from server: STATUS
  @ DRIVER MODE: Message from server: POSDATA
  @ DRIVER MODE: Reading and sharing cell
  @ DRIVER MODE: Reading and sharing positions
  @ DRIVER MODE: Received positions

     Self-consistent Calculation

     iteration #  1     ecut=    29.40 Ry     beta= 0.05
     Davidson diagonalization with overlap
     c_bands:  2 eigenvalues not converged
     c_bands:  1 eigenvalues not converged
     c_bands:  1 eigenvalues not converged
     c_bands:  2 eigenvalues not converged
     c_bands:  4 eigenvalues not converged
     c_bands:  2 eigenvalues not converged
     c_bands:  1 eigenvalues not converged
     c_bands:  1 eigenvalues not converged
     c_bands:  2 eigenvalues not converged
     c_bands:  3 eigenvalues not converged
     c_bands:  1 eigenvalues not converged
     c_bands:  1 eigenvalues not converged
     c_bands:  2 eigenvalues not converged
     c_bands:  4 eigenvalues not converged
     c_bands:  2 eigenvalues not converged
     c_bands:  1 eigenvalues not converged
     c_bands:  1 eigenvalues not converged
     c_bands:  2 eigenvalues not converged
     ethr =  1.00E-05,  avg # of iterations = 19.5

[...]

     total energy              =   -2770.93492117 Ry
     estimated scf accuracy    <    1638.42927293 Ry

     total magnetization       =     0.01 Bohr mag/cell
     absolute magnetization    =     0.02 Bohr mag/cell

[...]

     iteration #  4     ecut=    29.40 Ry     beta= 0.05
     Davidson diagonalization with overlap
     ethr =  1.00E-02,  avg # of iterations =  7.7

[...]

     iteration # 60     ecut=    29.40 Ry     beta= 0.05
     Davidson diagonalization with overlap
     c_bands:  1 eigenvalues not converged
     ethr =  6.73E-10,  avg # of iterations = 10.2

[...]

     total energy              =   -2920.42029467 Ry
     estimated scf accuracy    <       0.00000008 Ry

[...]

     iteration # 70     ecut=    29.40 Ry     beta= 0.05
     Davidson diagonalization with overlap
     ethr =  1.99E-11,  avg # of iterations =  4.5

     negative rho (up, down):  9.151E-03 9.150E-03

[...]

     Adding external electric field

     Computed dipole along edir(3) :
        Dipole                0.6949 Ry au,          1.7663 Debye
        Dipole field          0.0013 Ry au,

        Potential amp.       -0.1216 Ry
        Total length         46.3494 bohr

     Magnetic moment per site  (integrated on atomic sphere of radius R)
     atom   1 (R=0.717)  charge=  7.8575  magn= -0.0041
     atom   2 (R=0.717)  charge=  7.8411  magn= -0.0004
     atom   3 (R=0.717)  charge=  4.8649  magn=  0.0002
     atom   4 (R=0.717)  charge=  4.9003  magn=  0.0001
     atom   5 (R=0.717)  charge=  4.8705  magn=  0.0000
     atom   6 (R=0.717)  charge=  4.8712  magn=  0.0000
     atom   7 (R=0.717)  charge=  7.8399  magn= -0.0001
     atom   8 (R=0.717)  charge=  7.8316  magn= -0.0008
     atom   9 (R=0.717)  charge=  4.8873  magn= -0.0000
     atom  10 (R=0.717)  charge=  4.8598  magn=  0.0000
     atom  11 (R=0.717)  charge=  4.8722  magn= -0.0000
     atom  12 (R=0.717)  charge=  4.8711  magn= -0.0000
     atom  13 (R=0.717)  charge=  7.8297  magn= -0.0001
     atom  14 (R=0.717)  charge=  7.8426  magn=  0.0001
     atom  15 (R=0.717)  charge=  4.8599  magn= -0.0000
     atom  16 (R=0.717)  charge=  4.8822  magn= -0.0001
     atom  17 (R=0.717)  charge=  4.8579  magn= -0.0000
     atom  18 (R=0.717)  charge=  4.8645  magn= -0.0000
     atom  19 (R=0.717)  charge=  7.8685  magn=  0.0001
     atom  20 (R=0.717)  charge=  7.8398  magn=  0.0000
     atom  21 (R=0.717)  charge=  4.7571  magn=  0.0005
     atom  22 (R=0.717)  charge=  4.8380  magn= -0.0000
     atom  23 (R=0.717)  charge=  4.8628  magn=  0.0005
     atom  24 (R=0.717)  charge=  4.8628  magn=  0.0005
     atom  25 (R=0.717)  charge=  7.8575  magn= -0.0040
     atom  26 (R=0.717)  charge=  7.8411  magn= -0.0004
     atom  27 (R=0.717)  charge=  4.8641  magn=  0.0002
     atom  28 (R=0.717)  charge=  4.9005  magn=  0.0001
     atom  29 (R=0.717)  charge=  4.8713  magn=  0.0000
     atom  30 (R=0.717)  charge=  4.8719  magn=  0.0000
     atom  31 (R=0.717)  charge=  7.8400  magn= -0.0001
     atom  32 (R=0.717)  charge=  7.8317  magn= -0.0008
     atom  33 (R=0.717)  charge=  4.8864  magn= -0.0000
     atom  34 (R=0.717)  charge=  4.8464  magn=  0.0000
     atom  35 (R=0.717)  charge=  4.8727  magn= -0.0000
     atom  36 (R=0.717)  charge=  4.8718  magn= -0.0000
     atom  37 (R=0.717)  charge=  7.8315  magn= -0.0001
     atom  38 (R=0.717)  charge=  7.8428  magn=  0.0001
     atom  39 (R=0.717)  charge=  4.8525  magn= -0.0000
     atom  40 (R=0.717)  charge=  4.8881  magn= -0.0000
     atom  41 (R=0.717)  charge=  4.8602  magn= -0.0000
     atom  42 (R=0.717)  charge=  4.8621  magn= -0.0000
     atom  43 (R=0.717)  charge=  7.8659  magn=  0.0001
     atom  44 (R=0.717)  charge=  7.8696  magn=  0.0000
     atom  45 (R=0.717)  charge=  4.7571  magn=  0.0005
     atom  46 (R=0.717)  charge=  4.8628  magn=  0.0005
     atom  47 (R=0.717)  charge=  4.8628  magn=  0.0005
     atom  48 (R=0.419)  charge=  0.4540  magn=  0.0000
     atom  49 (R=0.419)  charge=  1.3226  magn= -0.0000
     atom  50 (R=0.447)  charge=  0.8343  magn=  0.0000
     atom  51 (R=0.419)  charge=  0.4371  magn= -0.0000
     atom  52 (R=0.419)  charge=  0.4453  magn= -0.0000
     atom  53 (R=0.419)  charge=  0.4471  magn= -0.0000

     End of self-consistent calculation

 ------ SPIN UP ------------

          k = 0.0000 0.0000 0.0000 ( 18029 PWs)   bands (ev):

   -55.9779 -55.9731 -55.9438 -55.9370 -55.8854 -55.8244 -55.8195 -55.7860
   -55.7849 -55.7521 -55.7457 -55.7120 -55.5539 -55.2760 -54.9537 -54.9196
   -32.5329 -32.4614 -32.3342 -32.3207 -32.3003 -32.2840 -32.2704 -32.2368
   -32.2205 -32.2196 -32.1960 -32.1890 -32.1562 -32.1290 -32.1247 -32.1181
   -32.1159 -32.0833 -32.0641 -32.0340 -32.0306 -32.0262 -32.0109 -31.9887
   -31.9795 -31.9773 -31.9722 -31.9624 -31.9490 -31.9426 -31.9400 -31.9348
   -31.9223 -31.9164 -31.8989 -31.8927 -31.8583 -31.8187 -31.7228 -31.5497
   -31.5436 -31.4724 -31.3604 -31.2727 -31.2502 -31.1771 -31.0906 -30.9796
   -16.7423 -16.4591 -16.2797 -16.1368 -16.1034 -16.0183 -15.8180 -15.6928
   -15.6797 -15.5766 -15.5388 -15.5162 -15.5082 -15.4812 -15.4783 -15.4192
   -15.4162 -15.4039 -15.3916 -15.3354 -15.3113 -15.2715 -15.1773 -15.1533
   -15.1378 -15.1116 -15.0303 -15.0230 -14.5830 -14.1008 -13.4571 -13.3409
    -8.9344  -4.3777  -4.1131  -3.9362  -3.8974  -3.8838  -3.8353  -3.5836
    -3.5674  -3.2971  -3.2006  -3.1691  -3.1675  -3.1501  -3.1371  -3.1170
    -2.8804  -2.8097  -2.7961  -2.7731  -2.7669  -2.7636  -2.7514  -2.7471
    -2.7052  -2.6469  -2.5290  -2.5164  -2.4085  -2.3613  -2.3390  -2.2907
    -2.2464  -2.2407  -2.2284  -2.2118  -2.1980  -2.1777  -2.1597  -2.0252
    -1.9614  -1.8338  -1.7856  -1.7792  -1.5821  -1.5378  -1.4477  -1.4244
    -1.4079  -1.4004  -1.3682  -1.2880  -1.1965  -1.1395  -1.1270  -1.0733
    -0.9968  -0.9851  -0.8751  -0.8703  -0.8111  -0.7506  -0.7413  -0.7318
    -0.6867  -0.6164  -0.5380  -0.4661  -0.4161  -0.3955  -0.3678  -0.2889
    -0.2590  -0.1625  -0.1442  -0.0970  -0.0940  -0.0449  -0.0033   0.0067
     0.0135   0.0281   0.0458   0.1944   0.3014   0.3585   0.3912   0.4022
     0.5578   0.5939   0.6818   0.7694   0.9947   1.0676   1.1617   1.2606
     1.3297   1.6380   1.6835   3.1635   3.2452   3.2947   3.3023   3.4038
     3.4066   3.6138   3.6244   3.6349   3.7031

[...]

          k =-0.0760-0.0000 0.0000 ( 17886 PWs)   bands (ev):

[...]

 ------ SPIN DOWN ----------

[...]

          k = 0.0380-0.0419 0.0000 ( 17876 PWs)   bands (ev):

[...]

          k =-0.0760-0.0839 0.0000 ( 17948 PWs)   bands (ev):

   -55.9687 -55.9681 -55.9556 -55.9536 -55.8796 -55.8292 -55.8045 -55.8001
   -55.7709 -55.7691 -55.7298 -55.7286 -55.5527 -55.2768 -54.9377 -54.9376
   -32.3371 -32.3342 -32.2802 -32.2797 -32.2655 -32.2645 -32.2639 -32.2450
   -32.1827 -32.1818 -32.1753 -32.1715 -32.1483 -32.1199 -32.1015 -32.0974
   -32.0886 -32.0880 -32.0876 -32.0834 -32.0821 -32.0697 -32.0673 -32.0353
   -32.0248 -32.0189 -31.9946 -31.9853 -31.9675 -31.9670 -31.9626 -31.9615
   -31.9447 -31.9440 -31.9420 -31.9402 -31.8870 -31.8212 -31.7178 -31.6130
   -31.5456 -31.4977 -31.2640 -31.2639 -31.1741 -31.1739 -31.1349 -31.1349
   -16.1943 -16.1609 -15.9254 -15.9156 -15.9069 -15.8906 -15.7461 -15.6942
   -15.6857 -15.6789 -15.6547 -15.6310 -15.5797 -15.5491 -15.5155 -15.5087
   -15.5021 -15.4970 -15.4405 -15.4341 -15.4117 -15.4043 -15.2908 -15.2867
   -15.2852 -15.2091 -15.1448 -15.0116 -14.7532 -14.1220 -13.4411 -13.4410
    -8.9382  -4.3889  -3.4888  -3.4506  -3.2750  -3.1781  -3.1620  -3.1520
    -3.1318  -3.0510  -2.8918  -2.8773  -2.8588  -2.8456  -2.8056  -2.8004
    -2.7888  -2.7754  -2.7684  -2.7501  -2.7163  -2.6762  -2.6466  -2.6398
    -2.6309  -2.6065  -2.5941  -2.5684  -2.5622  -2.5292  -2.5213  -2.5025
    -2.4786  -2.2181  -2.1985  -2.1812  -2.1118  -2.1050  -2.0700  -2.0620
    -2.0431  -2.0295  -1.9780  -1.8771  -1.7137  -1.6803  -1.6712  -1.6522
    -1.5865  -1.5657  -1.4159  -1.3873  -1.3710  -1.3321  -1.2829  -1.2525
    -1.2156  -1.1753  -1.1388  -1.0781  -1.0701  -0.9910  -0.9409  -0.9403
    -0.9136  -0.8435  -0.7652  -0.7475  -0.7358  -0.6944  -0.6811  -0.5994
    -0.5765  -0.4783  -0.4655  -0.3982  -0.3633  -0.2960  -0.0948   0.0039
     0.0627   0.0864   0.1392   0.2369   0.2911   0.3051   0.3384   0.3435
     0.4030   0.4438   0.5581   0.5657   0.6341   0.7377   1.2766   1.4329
     1.4335   1.5046   1.5046   3.4237   3.4296   3.4789   3.5097   3.6590
     3.6633   3.6868   3.6878   3.8112   3.8276

     the Fermi energy is     3.1548 ev

!    total energy              =   -2920.42030986 Ry
     estimated scf accuracy    <       0.00000005 Ry
     smearing contrib. (-TS)   =      -0.02202837 Ry
     internal energy E=F+TS    =   -2920.39828149 Ry

     The total energy is F=E-TS. E is the sum of the following terms:
     one-electron contribution =  -24727.72053675 Ry
     hartree contribution      =   12448.53351877 Ry
     xc contribution           =    -480.87673091 Ry
     ewald contribution        =    9839.66455605 Ry
     electric field correction =       0.00091134 Ry

     total magnetization       =    -0.01 Bohr mag/cell
     absolute magnetization    =     0.02 Bohr mag/cell

     convergence has been achieved in  70 iterations

     Forces acting on atoms (cartesian axes, Ry/au):

     atom    1 type  1   force =     0.00009534   -0.00018323    0.09688326
     atom    2 type  1   force =     0.00004762   -0.00050547   -0.17506742
     atom    3 type  2   force =     0.00012907    0.00000741   -0.02535139
     atom    4 type  2   force =    -0.00003240   -0.00128554    0.05235579
     atom    5 type  2   force =    -0.01222309   -0.00000823    0.00298940
     atom    6 type  2   force =     0.01365220    0.00058647    0.00232409
     atom    7 type  1   force =     0.00058508    0.00033627   -0.01303726
     atom    8 type  1   force =     0.00047772    0.00728843    0.03067712
     atom    9 type  2   force =     0.00055864    0.00003329   -0.00020267
     atom   10 type  2   force =    -0.00267697    0.00210677   -0.01739310
     atom   11 type  2   force =    -0.00013798    0.00007493   -0.00002901
     atom   12 type  2   force =     0.00047195    0.00033958    0.00018166
     atom   13 type  1   force =    -0.00011231   -0.00056171   -0.00017676
     atom   14 type  1   force =    -0.00042912    0.00005711    0.00081694
     atom   15 type  2   force =    -0.00001625   -0.00089690    0.00082556
     atom   16 type  2   force =     0.00026124    0.00063381   -0.00047968
     atom   17 type  2   force =     0.00056042    0.00006880    0.00061631
     atom   18 type  2   force =    -0.00006647   -0.00004883    0.00009521
     atom   19 type  1   force =     0.00002102    0.00050782   -0.00029649
     atom   20 type  1   force =    -0.00031019   -0.00048739   -0.00006368
     atom   21 type  2   force =     0.00005562   -0.00002745    0.10313013
     atom   22 type  2   force =     0.00013398   -0.00085863    0.00100226
     atom   23 type  2   force =    -0.07165984   -0.00015242   -0.02782839
     atom   24 type  2   force =     0.07156303    0.00034361   -0.02788507
     atom   25 type  1   force =     0.00008854   -0.00014250    0.09658845
     atom   26 type  1   force =     0.00009230   -0.00023856   -0.17519738
     atom   27 type  2   force =     0.00011779   -0.00011503   -0.02441711
     atom   28 type  2   force =     0.00004369   -0.00104116    0.05227199
     atom   29 type  2   force =    -0.01242090    0.00064084    0.00277981
     atom   30 type  2   force =     0.01372399    0.00098457    0.00212711
     atom   31 type  1   force =     0.00045195    0.00313971   -0.01358384
     atom   32 type  1   force =     0.00033463   -0.00951537    0.03107169
     atom   33 type  2   force =    -0.00007051    0.00031476   -0.00059927
     atom   34 type  2   force =    -0.00206562    0.00181788   -0.02538527
     atom   35 type  2   force =    -0.00017535   -0.00029029    0.00037123
     atom   36 type  2   force =     0.00025839   -0.00078392    0.00039563
     atom   37 type  1   force =     0.00002815    0.00022805    0.00101574
     atom   38 type  1   force =    -0.00021400    0.00041640    0.00078422
     atom   39 type  2   force =    -0.00006622   -0.00016812   -0.00056349
     atom   40 type  2   force =     0.00042672    0.00007816    0.00058473
     atom   41 type  2   force =     0.00036181   -0.00028783    0.00000979
     atom   42 type  2   force =    -0.00049868   -0.00042392   -0.00037933
     atom   43 type  1   force =    -0.00076722   -0.00019534    0.00044009
     atom   44 type  1   force =    -0.00027204   -0.00064473    0.00059539
     atom   45 type  2   force =     0.00003761   -0.00004827    0.10313961
     atom   46 type  2   force =    -0.07165399   -0.00006858   -0.02782563
     atom   47 type  2   force =     0.07157473    0.00034651   -0.02788952
     atom   48 type  3   force =    -0.00001834   -0.00040951   -0.00001245
     atom   49 type  4   force =    -0.00011790   -0.00230600   -0.00033566
     atom   50 type  5   force =     0.00004783    0.01941697    0.00052297
     atom   51 type  3   force =    -0.00406437   -0.00878938   -0.00055716
     atom   52 type  3   force =    -0.00096622   -0.00285552    0.00133079
     atom   53 type  3   force =     0.00483495   -0.00642835   -0.00136997

     Total force =     0.369219     Total SCF correction =     0.000533
  @ DRIVER MODE: Message from server: STATUS
  @ DRIVER MODE: Message from server: GETFORCE
  @ DRIVER MODE: Returning v,forces,stress,ensemble

     Writing output data file ./calc.save/
  @ DRIVER MODE: Message from server: EXIT
  @ DRIVE MODE: Exiting

     General routines

     Parallel routines

   This run was terminated on:   0: 9:23  16Jul2021

   JOB DONE.