     Program PWSCF v.6.7GPU starts on 23Sep2021 at 13:43:38

     R & G space division:  proc/nbgrp/npool/nimage =       8
     Reading input from /storage/home/hcoda1/3/ntian30/research/carbon/CxH_vib/H2O_calc/ads_slab/CH2NNHHHO_a/out_0007/pw.inp
Warning: card &CELL ignored
Warning: card   CELL_DYNAMICS='IPI', ignored
Warning: card / ignored

     Current dimensions of program PWSCF are:
     Max number of different atomic species (ntypx) = 10
     Max number of k-points (npk) =  40000
     Max angular momentum in pseudopotentials (lmaxx) =  3
     Presently no symmetry can be used with electric field

     Message from routine cell_base_init:
     DEPRECATED: use true lattice parameter, not A to a.u. conversion factor

     IMPORTANT: XC functional enforced from input :
     Exchange-correlation= BEEF-VDW
                           (   1   4  43  14   2   0   0)
     Any further DFT definition will be discarded
     Please, verify this is what you really want

  @ DRIVER MODE: Connecting to
 qe_1139763_2947314.sched-torque.pace.gatech.edux5a1_1kz_scratch
  using UNIX socket
  @ DRIVER MODE: Message from server: STATUS
  @ DRIVER MODE: Message from server: INIT
  @ DRIVER MODE: Receiving replica           0          -1
  @ DRIVER MODE: Receiving encoded integer          25
  @ DRIVER MODE:  SCF:  T  FORCE:  T  STRESS:  F  VC:  F  ENSEMBLE:  F
  @ DRIVER MODE:  SCF:  T  FORCE:  T  STRESS:  F  VC:  F  ENSEMBLE:  F

     Using Slab Decomposition

     bravais-lattice index     =            0
     lattice parameter (alat)  =       1.8897  a.u.
     unit-cell volume          =    6658.9804 (a.u.)^3
     number of atoms/cell      =           56
     number of atomic types    =            5
     number of electrons       =       403.00
     number of Kohn-Sham states=          211
     kinetic-energy cutoff     =      29.3995  Ry
     charge density cutoff     =     293.9946  Ry
     scf convergence threshold =      7.3E-08
     mixing beta               =       0.0500
     number of iterations used =            8  plain     mixing
     Exchange-correlation= BEEF-VDW
                           (   1   4  43  14   2   0   0)

     celldm(1)=   1.889726  celldm(2)=   0.000000  celldm(3)=   0.000000
     celldm(4)=   0.000000  celldm(5)=   0.000000  celldm(6)=   0.000000

     crystal axes: (cart. coord. in units of alat)
               a(1) = (   6.579727   0.000000   0.000000 )
               a(2) = (  -0.000775   5.961596   0.000000 )
               a(3) = (   0.000000   0.000000  25.155947 )

     reciprocal axes: (cart. coord. in units 2 pi/alat)
               b(1) = (  0.151982  0.000020  0.000000 )
               b(2) = (  0.000000  0.167740  0.000000 )
               b(3) = (  0.000000  0.000000  0.039752 )

     PseudoPot. # 1 for Ti read from file:
     /storage/coda1/p-amedford6/0/shared/rich_project_chbe-medford/medford-share/data/pseudos_module/espresso/nninc/pbe/van/Ti.UPF
     MD5 check sum: 8e4df49b7f0d34bbd5052bf3f5ea0213
     Pseudo is Ultrasoft, Zval = 12.0
     Generated by new atomic code, or converted to UPF format
     Using radial grid of  851 points,  6 beta functions with:
                l(1) =   0
                l(2) =   0
                l(3) =   1
                l(4) =   1
                l(5) =   2
                l(6) =   2
     Q(r) pseudized with  8 coefficients,  rinner =    1.000   1.000   1.000
                                                       1.000   1.000

     PseudoPot. # 2 for O  read from file:
     /storage/coda1/p-amedford6/0/shared/rich_project_chbe-medford/medford-share/data/pseudos_module/espresso/nninc/pbe/van/O.UPF
     MD5 check sum: 78c19812648e8988a0fe644b0f25305e
     Pseudo is Ultrasoft, Zval =  6.0
     Generated by new atomic code, or converted to UPF format
     Using radial grid of  737 points,  4 beta functions with:
                l(1) =   0
                l(2) =   0
                l(3) =   1
                l(4) =   1
     Q(r) pseudized with  8 coefficients,  rinner =    0.800   0.800   0.800

     PseudoPot. # 3 for N  read from file:
     /storage/coda1/p-amedford6/0/shared/rich_project_chbe-medford/medford-share/data/pseudos_module/espresso/nninc/pbe/van/N.UPF
     MD5 check sum: 90d10febe142ad51ac9d5be1deb811c4
     Pseudo is Ultrasoft, Zval =  5.0
     Generated by new atomic code, or converted to UPF format
     Using radial grid of  729 points,  4 beta functions with:
                l(1) =   0
                l(2) =   0
                l(3) =   1
                l(4) =   1
     Q(r) pseudized with  8 coefficients,  rinner =    0.800   0.800   0.800

     PseudoPot. # 4 for C  read from file:
     /storage/coda1/p-amedford6/0/shared/rich_project_chbe-medford/medford-share/data/pseudos_module/espresso/nninc/pbe/van/C.UPF
     MD5 check sum: 1a69bf6b8db32088f5b2163dbdb77a27
     Pseudo is Ultrasoft, Zval =  4.0
     Generated by new atomic code, or converted to UPF format
     Using radial grid of  721 points,  4 beta functions with:
                l(1) =   0
                l(2) =   0
                l(3) =   1
                l(4) =   1
     Q(r) pseudized with  8 coefficients,  rinner =    0.800   0.800   0.800

     PseudoPot. # 5 for H  read from file:
     /storage/coda1/p-amedford6/0/shared/rich_project_chbe-medford/medford-share/data/pseudos_module/espresso/nninc/pbe/van/H.UPF
     MD5 check sum: b5ee9d7bfd3a09ee7748110bda690ff7
     Pseudo is Ultrasoft, Zval =  1.0
     Generated by new atomic code, or converted to UPF format
     Using radial grid of  615 points,  1 beta functions with:
                l(1) =   0
     Q(r) pseudized with  8 coefficients,  rinner =    0.800

     atomic species   valence    mass     pseudopotential
        Ti1           12.00    47.86700     Ti( 1.00)
        O1             6.00    15.99900     O ( 1.00)
        N1             5.00    14.00700     N ( 1.00)
        C1             4.00    12.01100     C ( 1.00)
        H1             1.00     1.00800     H ( 1.00)

     No symmetry found

   Cartesian axes

     site n.     atom                  positions (alat units)
         1           Ti1 tau(   1) = (   0.0004258   2.9801865   6.0000000  )
         2           Ti1 tau(   2) = (   3.2906075   1.4906267   6.0002472  )
         3           O1  tau(   3) = (   0.0006271   0.0005054   7.9858123  )
         4           O1  tau(   4) = (   3.2906025   0.0005020   7.3038282  )
         5           O1  tau(   5) = (   4.5942328   1.4918067   9.2879030  )
         6           O1  tau(   6) = (   1.9868534   1.4903216   9.2879459  )
         7           Ti1 tau(   7) = (   3.2907910   2.8959150   9.1758416  )
         8           Ti1 tau(   8) = (   0.0015273   1.4827037   9.2680791  )
         9           O1  tau(   9) = (   3.2834828   5.9254549  11.3560997  )
        10           O1  tau(  10) = (   0.0116148   5.9584955  10.6183126  )
        11           O1  tau(  11) = (   1.2632982   1.4794151  12.6467768  )
        12           O1  tau(  12) = (   5.2979234   1.4912170  12.6376735  )
        13           Ti1 tau(  13) = (   6.5593102   2.9584919  12.5255918  )
        14           Ti1 tau(  14) = (   3.2941082   1.2876829  12.7086691  )
        15           O1  tau(  15) = (   6.5459232   0.0848410  14.6672212  )
        16           O1  tau(  16) = (   3.2899079   0.0686032  13.9983899  )
        17           O1  tau(  17) = (   4.5347701   1.5447734  16.1667714  )
        18           O1  tau(  18) = (   1.9898569   1.5359154  16.1924900  )
        19           Ti1 tau(  19) = (   3.2532585   2.9792413  15.6887139  )
        20           Ti1 tau(  20) = (   6.5162390   1.4193964  16.0443711  )
        21           O1  tau(  21) = (   3.2904802   0.0005063   4.7018136  )
        22           O1  tau(  22) = (   6.5314393   5.8470953  17.1670503  )
        23           O1  tau(  23) = (   1.3043587   1.4918075   6.0039043  )
        24           O1  tau(  24) = (   5.2767064   1.4903225   6.0039473  )
        25           Ti1 tau(  25) = (   0.0000382   5.9609847   6.0000000  )
        26           Ti1 tau(  26) = (   3.2902200   4.4714249   6.0002472  )
        27           O1  tau(  27) = (   0.0002396   2.9813036   7.9858123  )
        28           O1  tau(  28) = (   3.2902150   2.9813002   7.3038282  )
        29           O1  tau(  29) = (   4.5938453   4.4726049   9.2879030  )
        30           O1  tau(  30) = (   1.9864658   4.4711199   9.2879459  )
        31           Ti1 tau(  31) = (   3.2891106   5.8743827   9.1763621  )
        32           Ti1 tau(  32) = (   0.0006254   4.4649316   9.2693709  )
        33           O1  tau(  33) = (   3.2801501   3.0037454  11.3162440  )
        34           O1  tau(  34) = (   0.0092240   2.9805883  10.6323155  )
        35           O1  tau(  35) = (   1.2628463   4.4620516  12.6871769  )
        36           O1  tau(  36) = (   5.2965349   4.4479299  12.6783795  )
        37           Ti1 tau(  37) = (   0.0245004   5.9521619  12.5031165  )
        38           Ti1 tau(  38) = (   3.2934334   4.3725749  12.4478892  )
        39           O1  tau(  39) = (   0.0012172   2.9324930  14.9038371  )
        40           O1  tau(  40) = (   3.2612729   2.9642313  13.9201381  )
        41           O1  tau(  41) = (   4.5459169   4.3864222  16.0774642  )
        42           O1  tau(  42) = (   2.0085495   4.4473877  16.1057765  )
        43           Ti1 tau(  43) = (   3.2275989   5.9528725  16.3079466  )
        44           Ti1 tau(  44) = (   6.5418721   4.6299905  15.7990834  )
        45           O1  tau(  45) = (   3.2900926   2.9813045   4.7018136  )
        46           O1  tau(  46) = (   1.3039711   4.4726057   6.0039043  )
        47           O1  tau(  47) = (   5.2763189   4.4711207   6.0039473  )
        48           N1  tau(  48) = (   6.5153795   2.7269917  18.1720481  )
        49           C1  tau(  49) = (   0.9614328   2.6352729  18.9176740  )
        50           H1  tau(  50) = (   0.9613011   2.9697384  19.9541300  )
        51           H1  tau(  51) = (   1.8619620   2.1844435  18.5121220  )
        52           N1  tau(  52) = (   5.3313596   3.1722530  18.7397816  )
        53           H1  tau(  53) = (   5.4931776   3.7097374  19.5894643  )
        54           H1  tau(  54) = (   4.8256156   3.7472006  18.0707398  )
        55           O1  tau(  55) = (   3.3867674   5.8992794  18.1610867  )
        56           H1  tau(  56) = (   4.0349165   0.5560778  18.5374839  )

     number of k points=    10  Fermi-Dirac smearing, width (Ry)=  0.0073
                       cart. coord. in units 2pi/alat
        k(    1) = (   0.0000000   0.0000000   0.0000000), wk =   0.1250000
        k(    2) = (   0.0000000   0.0419351   0.0000000), wk =   0.2500000
        k(    3) = (   0.0000000  -0.0838702   0.0000000), wk =   0.1250000
        k(    4) = (   0.0379955   0.0000049   0.0000000), wk =   0.2500000
        k(    5) = (   0.0379955   0.0419400   0.0000000), wk =   0.2500000
        k(    6) = (   0.0379955  -0.0838652   0.0000000), wk =   0.2500000
        k(    7) = (   0.0379955  -0.0419301   0.0000000), wk =   0.2500000
        k(    8) = (  -0.0759910  -0.0000099   0.0000000), wk =   0.1250000
        k(    9) = (  -0.0759910   0.0419252   0.0000000), wk =   0.2500000
        k(   10) = (  -0.0759910  -0.0838800   0.0000000), wk =   0.1250000

     Initial potential from superposition of free atoms

     starting charge  386.99914, renormalised to  403.00000

     negative rho (up, down):  1.547E-02 0.000E+00

     %%%%%%%%%%%%%%%%%%%%%%%%%%%%%%%%%%%%%%%%%%%%%%%%%%%%%%%%%%%%%%%%%%%%%%%%
     %                                                                      %
     % You are using vdW-DF, which was implemented by the Thonhauser group. %
     % Please cite the following two papers that made this development      %
     % possible and the two reviews that describe the various versions:     %
     %                                                                      %
     %   T. Thonhauser et al., PRL 115, 136402 (2015).                      %
     %   T. Thonhauser et al., PRB 76, 125112 (2007).                       %
     %   K. Berland et al., Rep. Prog. Phys. 78, 066501 (2015).             %
     %   D.C. Langreth et al., J. Phys.: Condens. Matter 21, 084203 (2009). %
     %                                                                      %
     %                                                                      %
     % If you are calculating the stress with vdW-DF, please also cite:     %
     %                                                                      %
     %   R. Sabatini et al., J. Phys.: Condens. Matter 24, 424209 (2012).   %
     %                                                                      %
     %%%%%%%%%%%%%%%%%%%%%%%%%%%%%%%%%%%%%%%%%%%%%%%%%%%%%%%%%%%%%%%%%%%%%%%%

     Adding external electric field

     Computed dipole along edir(3) :
        Dipole              -13.0228 Ry au,        -33.1008 Debye
        Dipole field         -0.0246 Ry au,

        Potential amp.        2.2781 Ry
        Total length         46.3494 bohr

     Starting wfcs are  305 atomic wfcs
  @ DRIVER MODE: Message from server: STATUS
  @ DRIVER MODE: Message from server: POSDATA
  @ DRIVER MODE: Reading and sharing cell
  @ DRIVER MODE: Reading and sharing positions
  @ DRIVER MODE: Received positions

     Self-consistent Calculation

     iteration #  1     ecut=    29.40 Ry     beta= 0.05
     Davidson diagonalization with overlap
     c_bands:  3 eigenvalues not converged
     c_bands:  4 eigenvalues not converged
     c_bands:  3 eigenvalues not converged
     c_bands:  5 eigenvalues not converged
     c_bands:  1 eigenvalues not converged
     c_bands:  5 eigenvalues not converged
     c_bands:  2 eigenvalues not converged
     c_bands:  3 eigenvalues not converged
     ethr =  1.00E-05,  avg # of iterations = 26.8

[...]

     total energy              =   -2311.54049604 Ry
     estimated scf accuracy    <    7504.52924957 Ry

     iteration #  2     ecut=    29.40 Ry     beta= 0.05
     Davidson diagonalization with overlap
     ethr =  1.00E-02,  avg # of iterations = 25.2

[...]

     iteration # 45     ecut=    29.40 Ry     beta= 0.05
     Davidson diagonalization with overlap
     c_bands:  2 eigenvalues not converged
     c_bands:  1 eigenvalues not converged
     c_bands:  1 eigenvalues not converged
     c_bands:  1 eigenvalues not converged
     c_bands:  1 eigenvalues not converged
     ethr =  3.42E-07,  avg # of iterations = 17.4

[...]

     total energy              =   -2974.00128999 Ry
     estimated scf accuracy    <       0.00000012 Ry

     iteration # 64     ecut=    29.40 Ry     beta= 0.05
     Davidson diagonalization with overlap
     ethr =  2.27E-11,  avg # of iterations = 10.3

     negative rho (up, down):  1.592E-02 0.000E+00

     Adding external electric field

     Computed dipole along edir(3) :
        Dipole                1.0882 Ry au,          2.7659 Debye
        Dipole field          0.0021 Ry au,

        Potential amp.       -0.1904 Ry
        Total length         46.3494 bohr

     End of self-consistent calculation

          k = 0.0000 0.0000 0.0000 ( 18029 PWs)   bands (ev):

   -55.5960 -55.5312 -55.4971 -55.3802 -55.3750 -55.3578 -55.3438 -55.3311
   -55.3239 -55.2959 -55.2483 -55.1482 -55.1334 -55.0560 -54.4993 -54.4653
   -32.0156 -31.9332 -31.8991 -31.8654 -31.8607 -31.8253 -31.8221 -31.8073
   -31.7808 -31.7770 -31.7578 -31.6837 -31.6571 -31.6495 -31.6375 -31.6339
   -31.6222 -31.6131 -31.5889 -31.5887 -31.5820 -31.5544 -31.5438 -31.5382
   -31.5208 -31.5163 -31.5118 -31.4984 -31.4881 -31.4854 -31.4772 -31.4681
   -31.4680 -31.4446 -31.4222 -31.4036 -31.3457 -31.3371 -31.3043 -31.2951
   -31.2746 -31.2623 -30.9049 -30.8195 -30.7970 -30.7226 -30.6362 -30.5243
   -18.4199 -16.4380 -16.1679 -16.0008 -15.7882 -15.7083 -15.6696 -15.4765
   -15.3841 -15.3227 -15.0938 -15.0708 -15.0653 -15.0400 -15.0297 -15.0143
   -14.9973 -14.9578 -14.9490 -14.9405 -14.9169 -14.9022 -14.8702 -14.8183
   -14.7756 -14.7592 -14.6646 -14.5960 -14.5494 -14.3147 -14.2173 -13.5316
   -12.9976 -12.8813  -8.5385  -6.2599  -5.8759  -4.0356  -3.8293  -3.5298
    -3.4343  -3.4130  -3.3532  -3.2890  -3.0474  -2.9876  -2.8887  -2.8376
    -2.7620  -2.6469  -2.5986  -2.5277  -2.4564  -2.4473  -2.3998  -2.3714
    -2.3092  -2.2956  -2.2597  -2.2528  -2.1826  -2.1632  -2.0621  -2.0498
    -2.0361  -1.9010  -1.8869  -1.8447  -1.8369  -1.8367  -1.7981  -1.7792
    -1.7635  -1.7469  -1.6417  -1.6036  -1.5823  -1.5110  -1.4782  -1.1612
    -1.1301  -1.0869  -1.0679  -1.0165  -0.9646  -0.9412  -0.9190  -0.8542
    -0.8166  -0.7650  -0.7355  -0.6995  -0.6194  -0.5834  -0.5416  -0.4586
    -0.3843  -0.3094  -0.3043  -0.2598  -0.2317  -0.2054  -0.1071  -0.0816
    -0.0686   0.0310   0.0514   0.1264   0.1668   0.2102   0.2488   0.2967
     0.3609   0.3788   0.4042   0.4403   0.4478   0.5032   0.5234   0.5820
     0.6348   0.6499   0.7482   0.8059   0.8204   0.8393   0.9444   1.0246
     1.1449   1.1528   1.2540   1.4794   1.5274   1.5714   1.7207   2.0936
     2.1387   3.5555   3.7042   3.7209   3.7653   3.8120   3.8962   4.0423
     4.1051   4.2433   4.2596

[...]

          k = 0.0380-0.0419 0.0000 ( 17876 PWs)   bands (ev):

[...]

          k =-0.0760-0.0000 0.0000 ( 17886 PWs)   bands (ev):

[...]

          k =-0.0760-0.0839 0.0000 ( 17948 PWs)   bands (ev):

   -55.5952 -55.5143 -55.5139 -55.3737 -55.3669 -55.3569 -55.3409 -55.3404
   -55.3317 -55.2889 -55.2553 -55.1452 -55.1346 -55.0589 -54.4826 -54.4818
   -31.8788 -31.8310 -31.8308 -31.8296 -31.8164 -31.8077 -31.8074 -31.8002
   -31.7328 -31.6859 -31.6771 -31.6667 -31.6617 -31.6343 -31.6341 -31.6324
   -31.6302 -31.6161 -31.6134 -31.5986 -31.5870 -31.5769 -31.5675 -31.5565
   -31.5477 -31.5439 -31.5351 -31.5343 -31.5189 -31.5135 -31.5111 -31.5070
   -31.5066 -31.4784 -31.4745 -31.4161 -31.3972 -31.3745 -31.3482 -31.3408
   -31.3108 -31.2662 -30.8100 -30.8094 -30.7184 -30.7172 -30.6797 -30.6791
   -18.4170 -16.4223 -15.7495 -15.6233 -15.4983 -15.4939 -15.3731 -15.2957
   -15.2783 -15.2494 -15.2376 -15.2033 -15.1858 -15.1497 -15.1182 -15.0875
   -15.0474 -15.0266 -15.0132 -14.9740 -14.9632 -14.9461 -14.9365 -14.9135
   -14.8720 -14.8367 -14.8258 -14.6828 -14.6272 -14.5814 -14.4412 -13.5404
   -12.9834 -12.9830  -8.5154  -6.2265  -5.8946  -3.9897  -3.8998  -3.0023
    -2.9232  -2.8189  -2.7145  -2.6191  -2.5655  -2.5300  -2.4922  -2.4479
    -2.4256  -2.3754  -2.3344  -2.3143  -2.3058  -2.2730  -2.2643  -2.2491
    -2.2290  -2.2137  -2.1991  -2.1888  -2.1607  -2.1434  -2.1427  -2.1088
    -2.0977  -2.0701  -2.0620  -2.0091  -1.9127  -1.8818  -1.7897  -1.6897
    -1.6823  -1.6689  -1.6449  -1.6073  -1.5962  -1.5706  -1.5341  -1.4742
    -1.4650  -1.3018  -1.2475  -1.2171  -1.1440  -1.0883  -1.0576  -1.0304
    -0.9868  -0.9622  -0.8889  -0.8583  -0.7639  -0.7087  -0.6815  -0.6223
    -0.5461  -0.4820  -0.4733  -0.4673  -0.4401  -0.4172  -0.3916  -0.3601
    -0.3366  -0.2660  -0.2285  -0.2097  -0.1998  -0.1448  -0.0986   0.0039
     0.1301   0.2392   0.2556   0.2865   0.3252   0.4759   0.5198   0.5809
     0.6288   0.6598   0.6901   0.7836   0.7949   0.8781   0.9020   0.9379
     0.9854   1.0105   1.0430   1.0724   1.0813   1.8909   1.8982   1.9590
     1.9593   3.7733   4.0519   4.0767   4.0848   4.1041   4.1229   4.1384
     4.1577   4.2279   4.2341

     the Fermi energy is     3.5910 ev

!    total energy              =   -2974.00132688 Ry
     estimated scf accuracy    <       0.00000003 Ry
     smearing contrib. (-TS)   =      -0.01962075 Ry
     internal energy E=F+TS    =   -2973.98170613 Ry

     The total energy is F=E-TS. E is the sum of the following terms:
     one-electron contribution =  -23472.19277821 Ry
     hartree contribution      =   11831.50453542 Ry
     xc contribution           =    -494.07093898 Ry
     ewald contribution        =    9160.77524091 Ry
     electric field correction =       0.00223473 Ry

     convergence has been achieved in  64 iterations

     Forces acting on atoms (cartesian axes, Ry/au):

     atom    1 type  1   force =     0.00012977   -0.00018412    0.09456010
     atom    2 type  1   force =    -0.00003438    0.00034993   -0.17511269
     atom    3 type  2   force =    -0.00002508   -0.00002772   -0.02134787
     atom    4 type  2   force =     0.00001471   -0.00189508    0.05323502
     atom    5 type  2   force =    -0.00694667   -0.00239476    0.00356454
     atom    6 type  2   force =     0.00805682   -0.00192979    0.00204375
     atom    7 type  1   force =    -0.00070701   -0.00277589    0.01003630
     atom    8 type  1   force =     0.00060869    0.00275757    0.00501495
     atom    9 type  2   force =     0.00003256   -0.00046171    0.00023027
     atom   10 type  2   force =    -0.00253832   -0.00140522   -0.01078659
     atom   11 type  2   force =     0.00128031   -0.00017564    0.00054843
     atom   12 type  2   force =    -0.00081207   -0.00022396    0.00065515
     atom   13 type  1   force =    -0.00095135   -0.00096057    0.00043627
     atom   14 type  1   force =     0.00031615    0.00034346    0.00008517
     atom   15 type  2   force =     0.00012051    0.00029660   -0.00033493
     atom   16 type  2   force =    -0.00046067    0.00020212    0.00008478
     atom   17 type  2   force =    -0.00011497    0.00027961    0.00014768
     atom   18 type  2   force =     0.00093848   -0.00018237   -0.00035576
     atom   19 type  1   force =     0.00119739    0.00061822    0.00015808
     atom   20 type  1   force =    -0.00072365   -0.00015817   -0.00028449
     atom   21 type  2   force =     0.00006334    0.00009658    0.10308126
     atom   22 type  2   force =     0.00061370    0.00077682    0.00052467
     atom   23 type  2   force =    -0.07213465   -0.00013611   -0.02734779
     atom   24 type  2   force =     0.07201991    0.00029538   -0.02734788
     atom   25 type  1   force =     0.00002008   -0.00014064    0.09405639
     atom   26 type  1   force =    -0.00015497   -0.00109259   -0.17521016
     atom   27 type  2   force =     0.00012202   -0.00024851   -0.02013612
     atom   28 type  2   force =    -0.00000272   -0.00027040    0.04930821
     atom   29 type  2   force =    -0.00563978    0.00192354    0.00158324
     atom   30 type  2   force =     0.00666605    0.00249493   -0.00001477
     atom   31 type  1   force =    -0.00072093    0.00678213   -0.00108480
     atom   32 type  1   force =     0.00049931   -0.00385405    0.00432077
     atom   33 type  2   force =     0.00016161   -0.00010933   -0.00081290
     atom   34 type  2   force =    -0.00187455    0.00169846   -0.01047047
     atom   35 type  2   force =     0.00116785    0.00028972   -0.00017333
     atom   36 type  2   force =    -0.00055718    0.00042942   -0.00026065
     atom   37 type  1   force =    -0.00065078    0.00045478   -0.00029250
     atom   38 type  1   force =     0.00055715    0.00013281    0.00013078
     atom   39 type  2   force =     0.00033205   -0.00040016    0.00047678
     atom   40 type  2   force =     0.00020359    0.00013465   -0.00036472
     atom   41 type  2   force =     0.00006762   -0.00010297   -0.00112261
     atom   42 type  2   force =     0.00029341   -0.00037215    0.00042017
     atom   43 type  1   force =     0.00015904   -0.00071697    0.00056727
     atom   44 type  1   force =    -0.00052582   -0.00003194    0.00003080
     atom   45 type  2   force =     0.00007568   -0.00006793    0.10286504
     atom   46 type  2   force =    -0.07217625   -0.00002938   -0.02734695
     atom   47 type  2   force =     0.07209376    0.00040693   -0.02738333
     atom   48 type  3   force =    -0.01390155    0.00164202   -0.00760071
     atom   49 type  4   force =     0.02872324   -0.00697638    0.00437082
     atom   50 type  5   force =    -0.00232995   -0.00002013    0.00016641
     atom   51 type  5   force =    -0.00905353    0.00411011    0.00362521
     atom   52 type  3   force =    -0.00378096    0.00017261   -0.00056216
     atom   53 type  5   force =     0.00022101   -0.00007189    0.00000081
     atom   54 type  5   force =    -0.00006985    0.00031172   -0.00034011
     atom   55 type  2   force =    -0.00020649    0.00087503   -0.00004910
     atom   56 type  5   force =     0.00033834   -0.00045868   -0.00018571

     Total force =     0.363692     Total SCF correction =     0.000486
  @ DRIVER MODE: Message from server: STATUS
  @ DRIVER MODE: Message from server: GETFORCE
  @ DRIVER MODE: Returning v,forces,stress,ensemble

     Writing output data file ./calc.save/
  @ DRIVER MODE: Message from server: EXIT
  @ DRIVE MODE: Exiting

     General routines

     Parallel routines

   This run was terminated on:  14: 7: 2  23Sep2021

   JOB DONE.