     Program PWSCF v.6.7GPU starts on 12Oct2021 at 17:18:52

     R & G space division:  proc/nbgrp/npool/nimage =       8
     Reading input from /storage/home/hcoda1/3/ntian30/research/carbon/CxH_vib/CH_calc/ads_slab/CHNHH_b/out_0014/pw.inp
Warning: card &CELL ignored
Warning: card   CELL_DYNAMICS='IPI', ignored
Warning: card / ignored

     Current dimensions of program PWSCF are:
     Max number of different atomic species (ntypx) = 10
     Max number of k-points (npk) =  40000
     Max angular momentum in pseudopotentials (lmaxx) =  3
     Presently no symmetry can be used with electric field

     Message from routine cell_base_init:
     DEPRECATED: use true lattice parameter, not A to a.u. conversion factor

     IMPORTANT: XC functional enforced from input :
     Exchange-correlation= BEEF-VDW
                           (   1   4  43  14   2   0   0)
     Any further DFT definition will be discarded
     Please, verify this is what you really want

  @ DRIVER MODE: Connecting to
 qe_1139763_3182856.sched-torque.pace.gatech.eduyrhavcxp_scratch
  using UNIX socket
  @ DRIVER MODE: Message from server: STATUS
  @ DRIVER MODE: Message from server: INIT
  @ DRIVER MODE: Receiving replica           0          -1
  @ DRIVER MODE: Receiving encoded integer          25
  @ DRIVER MODE:  SCF:  T  FORCE:  T  STRESS:  F  VC:  F  ENSEMBLE:  F
  @ DRIVER MODE:  SCF:  T  FORCE:  T  STRESS:  F  VC:  F  ENSEMBLE:  F

     Using Slab Decomposition

     bravais-lattice index     =            0
     lattice parameter (alat)  =       1.8897  a.u.
     unit-cell volume          =    6658.9804 (a.u.)^3
     number of atoms/cell      =           52
     number of atomic types    =            5
     number of electrons       =       390.00
     number of Kohn-Sham states=          205
     kinetic-energy cutoff     =      29.3995  Ry
     charge density cutoff     =     293.9946  Ry
     scf convergence threshold =      7.3E-08
     mixing beta               =       0.0500
     number of iterations used =            8  plain     mixing
     Exchange-correlation= BEEF-VDW
                           (   1   4  43  14   2   0   0)

     celldm(1)=   1.889726  celldm(2)=   0.000000  celldm(3)=   0.000000
     celldm(4)=   0.000000  celldm(5)=   0.000000  celldm(6)=   0.000000

     crystal axes: (cart. coord. in units of alat)
               a(1) = (   6.579727   0.000000   0.000000 )
               a(2) = (  -0.000775   5.961596   0.000000 )
               a(3) = (   0.000000   0.000000  25.155947 )

     reciprocal axes: (cart. coord. in units 2 pi/alat)
               b(1) = (  0.151982  0.000020  0.000000 )
               b(2) = (  0.000000  0.167740  0.000000 )
               b(3) = (  0.000000  0.000000  0.039752 )

     PseudoPot. # 1 for Ti read from file:
     /storage/coda1/p-amedford6/0/shared/rich_project_chbe-medford/medford-share/data/pseudos_module/espresso/nninc/pbe/van/Ti.UPF
     MD5 check sum: 8e4df49b7f0d34bbd5052bf3f5ea0213
     Pseudo is Ultrasoft, Zval = 12.0
     Generated by new atomic code, or converted to UPF format
     Using radial grid of  851 points,  6 beta functions with:
                l(1) =   0
                l(2) =   0
                l(3) =   1
                l(4) =   1
                l(5) =   2
                l(6) =   2
     Q(r) pseudized with  8 coefficients,  rinner =    1.000   1.000   1.000
                                                       1.000   1.000

     PseudoPot. # 2 for O  read from file:
     /storage/coda1/p-amedford6/0/shared/rich_project_chbe-medford/medford-share/data/pseudos_module/espresso/nninc/pbe/van/O.UPF
     MD5 check sum: 78c19812648e8988a0fe644b0f25305e
     Pseudo is Ultrasoft, Zval =  6.0
     Generated by new atomic code, or converted to UPF format
     Using radial grid of  737 points,  4 beta functions with:
                l(1) =   0
                l(2) =   0
                l(3) =   1
                l(4) =   1
     Q(r) pseudized with  8 coefficients,  rinner =    0.800   0.800   0.800

     PseudoPot. # 3 for C  read from file:
     /storage/coda1/p-amedford6/0/shared/rich_project_chbe-medford/medford-share/data/pseudos_module/espresso/nninc/pbe/van/C.UPF
     MD5 check sum: 1a69bf6b8db32088f5b2163dbdb77a27
     Pseudo is Ultrasoft, Zval =  4.0
     Generated by new atomic code, or converted to UPF format
     Using radial grid of  721 points,  4 beta functions with:
                l(1) =   0
                l(2) =   0
                l(3) =   1
                l(4) =   1
     Q(r) pseudized with  8 coefficients,  rinner =    0.800   0.800   0.800

     PseudoPot. # 4 for H  read from file:
     /storage/coda1/p-amedford6/0/shared/rich_project_chbe-medford/medford-share/data/pseudos_module/espresso/nninc/pbe/van/H.UPF
     MD5 check sum: b5ee9d7bfd3a09ee7748110bda690ff7
     Pseudo is Ultrasoft, Zval =  1.0
     Generated by new atomic code, or converted to UPF format
     Using radial grid of  615 points,  1 beta functions with:
                l(1) =   0
     Q(r) pseudized with  8 coefficients,  rinner =    0.800

     PseudoPot. # 5 for N  read from file:
     /storage/coda1/p-amedford6/0/shared/rich_project_chbe-medford/medford-share/data/pseudos_module/espresso/nninc/pbe/van/N.UPF
     MD5 check sum: 90d10febe142ad51ac9d5be1deb811c4
     Pseudo is Ultrasoft, Zval =  5.0
     Generated by new atomic code, or converted to UPF format
     Using radial grid of  729 points,  4 beta functions with:
                l(1) =   0
                l(2) =   0
                l(3) =   1
                l(4) =   1
     Q(r) pseudized with  8 coefficients,  rinner =    0.800   0.800   0.800

     atomic species   valence    mass     pseudopotential
        Ti1           12.00    47.86700     Ti( 1.00)
        O1             6.00    15.99900     O ( 1.00)
        C1             4.00    12.01100     C ( 1.00)
        H1             1.00     1.00800     H ( 1.00)
        N1             5.00    14.00700     N ( 1.00)

     No symmetry found

   Cartesian axes

     site n.     atom                  positions (alat units)
         1           Ti1 tau(   1) = (   0.0004258   2.9801865   6.0000000  )
         2           Ti1 tau(   2) = (   3.2906075   1.4906267   6.0002472  )
         3           O1  tau(   3) = (   0.0006271   0.0005054   7.9858123  )
         4           O1  tau(   4) = (   3.2906025   0.0005020   7.3038282  )
         5           O1  tau(   5) = (   4.5942328   1.4918067   9.2879030  )
         6           O1  tau(   6) = (   1.9868534   1.4903216   9.2879459  )
         7           Ti1 tau(   7) = (   3.2907309   2.9776765   9.1658812  )
         8           Ti1 tau(   8) = (   0.0014263   1.4814950   9.2876947  )
         9           O1  tau(   9) = (   3.2944750   0.0002302  11.3604974  )
        10           O1  tau(  10) = (   0.0008895   5.9586890  10.6035392  )
        11           O1  tau(  11) = (   1.2972031   1.4939413  12.6393260  )
        12           O1  tau(  12) = (   5.2935702   1.4970258  12.6342454  )
        13           Ti1 tau(  13) = (   6.5783930   2.9813526  12.8381062  )
        14           Ti1 tau(  14) = (   3.2906537   1.4978773  12.4963327  )
        15           O1  tau(  15) = (   6.5733175   0.0290402  14.6574804  )
        16           O1  tau(  16) = (   3.3054662   0.0216765  13.9740687  )
        17           O1  tau(  17) = (   4.5350609   1.5403548  16.2059549  )
        18           O1  tau(  18) = (   2.0349166   1.5291342  16.1470642  )
        19           Ti1 tau(  19) = (   3.2872240   3.0047607  15.7234092  )
        20           Ti1 tau(  20) = (   0.0410825   1.5194215  16.1276637  )
        21           O1  tau(  21) = (   3.2904802   0.0005063   4.7018136  )
        22           O1  tau(  22) = (   6.5652676   5.8907541  17.2497628  )
        23           O1  tau(  23) = (   1.3043587   1.4918075   6.0039043  )
        24           O1  tau(  24) = (   5.2767064   1.4903225   6.0039473  )
        25           Ti1 tau(  25) = (   0.0000382   5.9609847   6.0000000  )
        26           Ti1 tau(  26) = (   3.2902200   4.4714249   6.0002472  )
        27           O1  tau(  27) = (   0.0002396   2.9813036   7.9858123  )
        28           O1  tau(  28) = (   3.2902150   2.9813002   7.3038282  )
        29           O1  tau(  29) = (   4.5938453   4.4726049   9.2879030  )
        30           O1  tau(  30) = (   1.9864658   4.4711199   9.2879459  )
        31           Ti1 tau(  31) = (   3.2906741   5.9584693   9.1623309  )
        32           Ti1 tau(  32) = (   0.0012165   4.4014169   9.3465426  )
        33           O1  tau(  33) = (   3.2924083   2.9889881  11.3543434  )
        34           O1  tau(  34) = (   0.0022264   2.9772995  10.5544931  )
        35           O1  tau(  35) = (   1.2986444   4.4679898  12.6568800  )
        36           O1  tau(  36) = (   5.2923799   4.4657857  12.6543205  )
        37           Ti1 tau(  37) = (   0.0025552   0.0092372  12.5181211  )
        38           Ti1 tau(  38) = (   3.2887235   4.4740353  12.4983661  )
        39           O1  tau(  39) = (   0.0036310   2.9570434  14.7349056  )
        40           O1  tau(  40) = (   3.2990611   2.9752856  13.9364830  )
        41           O1  tau(  41) = (   4.5418486   4.4722619  16.1017917  )
        42           O1  tau(  42) = (   2.0452692   4.4787779  16.1069431  )
        43           Ti1 tau(  43) = (   3.3182015   0.0155015  15.7624703  )
        44           Ti1 tau(  44) = (   0.0016332   4.6944760  15.9151726  )
        45           O1  tau(  45) = (   3.2900926   2.9813045   4.7018136  )
        46           C1  tau(  46) = (   0.0781255   2.7894620  17.8686468  )
        47           O1  tau(  47) = (   1.3039711   4.4726057   6.0039043  )
        48           O1  tau(  48) = (   5.2763189   4.4711207   6.0039473  )
        49           H1  tau(  49) = (   0.9954384   3.2332450  18.2619424  )
        50           H1  tau(  50) = (   4.7824221   2.4647446  18.5698542  )
        51           N1  tau(  51) = (   5.6845287   2.8438018  18.7814782  )
        52           H1  tau(  52) = (   5.7759989   3.3395087  19.6567880  )

     number of k points=    10  Fermi-Dirac smearing, width (Ry)=  0.0073
                       cart. coord. in units 2pi/alat
        k(    1) = (   0.0000000   0.0000000   0.0000000), wk =   0.1250000
        k(    2) = (   0.0000000   0.0419351   0.0000000), wk =   0.2500000
        k(    3) = (   0.0000000  -0.0838702   0.0000000), wk =   0.1250000
        k(    4) = (   0.0379955   0.0000049   0.0000000), wk =   0.2500000
        k(    5) = (   0.0379955   0.0419400   0.0000000), wk =   0.2500000
        k(    6) = (   0.0379955  -0.0838652   0.0000000), wk =   0.2500000
        k(    7) = (   0.0379955  -0.0419301   0.0000000), wk =   0.2500000
        k(    8) = (  -0.0759910  -0.0000099   0.0000000), wk =   0.1250000
        k(    9) = (  -0.0759910   0.0419252   0.0000000), wk =   0.2500000
        k(   10) = (  -0.0759910  -0.0838800   0.0000000), wk =   0.1250000

     Initial potential from superposition of free atoms

     starting charge  373.99917, renormalised to  390.00000

     negative rho (up, down):  1.780E-02 0.000E+00

     %%%%%%%%%%%%%%%%%%%%%%%%%%%%%%%%%%%%%%%%%%%%%%%%%%%%%%%%%%%%%%%%%%%%%%%%
     %                                                                      %
     % You are using vdW-DF, which was implemented by the Thonhauser group. %
     % Please cite the following two papers that made this development      %
     % possible and the two reviews that describe the various versions:     %
     %                                                                      %
     %   T. Thonhauser et al., PRL 115, 136402 (2015).                      %
     %   T. Thonhauser et al., PRB 76, 125112 (2007).                       %
     %   K. Berland et al., Rep. Prog. Phys. 78, 066501 (2015).             %
     %   D.C. Langreth et al., J. Phys.: Condens. Matter 21, 084203 (2009). %
     %                                                                      %
     %                                                                      %
     % If you are calculating the stress with vdW-DF, please also cite:     %
     %                                                                      %
     %   R. Sabatini et al., J. Phys.: Condens. Matter 24, 424209 (2012).   %
     %                                                                      %
     %%%%%%%%%%%%%%%%%%%%%%%%%%%%%%%%%%%%%%%%%%%%%%%%%%%%%%%%%%%%%%%%%%%%%%%%

     Adding external electric field

     Computed dipole along edir(3) :
        Dipole               -5.3776 Ry au,        -13.6685 Debye
        Dipole field         -0.0101 Ry au,

        Potential amp.        0.9407 Ry
        Total length         46.3494 bohr

     Starting wfcs are  295 atomic wfcs
  @ DRIVER MODE: Message from server: STATUS
  @ DRIVER MODE: Message from server: POSDATA
  @ DRIVER MODE: Reading and sharing cell
  @ DRIVER MODE: Reading and sharing positions
  @ DRIVER MODE: Received positions

     Self-consistent Calculation

     iteration #  1     ecut=    29.40 Ry     beta= 0.05
     Davidson diagonalization with overlap
     c_bands:  5 eigenvalues not converged
     c_bands:  5 eigenvalues not converged
     c_bands:  1 eigenvalues not converged
     c_bands:  2 eigenvalues not converged
     c_bands:  4 eigenvalues not converged
     c_bands:  1 eigenvalues not converged
     c_bands:  5 eigenvalues not converged
     c_bands:  1 eigenvalues not converged
     c_bands:  1 eigenvalues not converged
     c_bands:  1 eigenvalues not converged
     ethr =  1.00E-05,  avg # of iterations = 20.0

[...]

     total energy              =   -2827.04630236 Ry
     estimated scf accuracy    <    1024.78614387 Ry

     iteration #  2     ecut=    29.40 Ry     beta= 0.05
     Davidson diagonalization with overlap
     ethr =  1.00E-02,  avg # of iterations = 16.2

[...]

     iteration # 78     ecut=    29.40 Ry     beta= 0.05
     Davidson diagonalization with overlap
     c_bands:  1 eigenvalues not converged
     ethr =  2.51E-11,  avg # of iterations = 13.6

[...]

     total energy              =   -2919.05153368 Ry
     estimated scf accuracy    <       0.00000029 Ry

     iteration # 79     ecut=    29.40 Ry     beta= 0.05
     Davidson diagonalization with overlap
     ethr =  2.51E-11,  avg # of iterations =  8.5

     negative rho (up, down):  1.781E-02 0.000E+00

     Adding external electric field

     Computed dipole along edir(3) :
        Dipole                1.2275 Ry au,          3.1201 Debye
        Dipole field          0.0023 Ry au,

        Potential amp.       -0.2147 Ry
        Total length         46.3494 bohr

     End of self-consistent calculation

          k = 0.0000 0.0000 0.0000 ( 18029 PWs)   bands (ev):

   -55.6390 -55.6200 -55.5986 -55.5838 -55.5448 -55.5008 -55.4518 -55.4434
   -55.3956 -55.3831 -55.3608 -55.2988 -55.0196 -54.9622 -54.6209 -54.5868
   -32.1902 -32.1003 -31.9707 -31.9595 -31.9545 -31.9300 -31.8939 -31.8807
   -31.8670 -31.8523 -31.8330 -31.8239 -31.8026 -31.8004 -31.7683 -31.7669
   -31.7496 -31.7226 -31.7176 -31.7049 -31.6813 -31.6680 -31.6616 -31.6439
   -31.6428 -31.6303 -31.6144 -31.6015 -31.5927 -31.5823 -31.5508 -31.5481
   -31.5331 -31.5084 -31.4913 -31.4879 -31.4572 -31.3720 -31.3165 -31.2519
   -31.0758 -31.0399 -31.0301 -30.9354 -30.9128 -30.8463 -30.7600 -30.6493
   -16.5768 -16.3772 -16.0734 -15.9476 -15.7842 -15.7437 -15.6641 -15.4503
   -15.3318 -15.2586 -15.2392 -15.2234 -15.2046 -15.1961 -15.1527 -15.1405
   -15.1194 -15.0735 -15.0513 -15.0220 -15.0164 -14.9932 -14.9373 -14.8962
   -14.8955 -14.7775 -14.7371 -14.6110 -14.5735 -14.4309 -13.1231 -13.0056
    -9.1729  -6.9137  -4.3945  -3.7314  -3.5391  -3.5110  -3.5052  -3.4340
    -3.2097  -3.1881  -2.8563  -2.7971  -2.7873  -2.7538  -2.7364  -2.5927
    -2.5417  -2.4777  -2.4406  -2.4303  -2.4234  -2.4093  -2.3896  -2.3586
    -2.3441  -2.3168  -2.2262  -2.1537  -2.0511  -2.0403  -1.9746  -1.9242
    -1.8890  -1.8803  -1.8457  -1.8331  -1.8091  -1.7924  -1.7604  -1.7150
    -1.5291  -1.5230  -1.4855  -1.4403  -1.2880  -1.2540  -1.2210  -1.0922
    -1.0460  -1.0192  -0.9428  -0.9391  -0.9276  -0.8703  -0.8311  -0.7763
    -0.6799  -0.6547  -0.5704  -0.5548  -0.4998  -0.4683  -0.3484  -0.3386
    -0.3201  -0.3045  -0.1170  -0.1095  -0.0819  -0.0686   0.0321   0.0707
     0.0923   0.1666   0.1778   0.1930   0.2147   0.3349   0.3724   0.3799
     0.4007   0.4086   0.4175   0.5823   0.6106   0.6808   0.7040   0.7611
     0.9178   0.9419   1.0414   1.1069   1.3092   1.4015   1.4683   1.5787
     1.9885   2.0533   3.4368   3.5691   3.5747   3.6269   3.6532   3.7090
     3.9142   3.9513   3.9775   4.0111   4.0370

[...]

          k = 0.0380-0.0419 0.0000 ( 17876 PWs)   bands (ev):

[...]

          k =-0.0760-0.0000 0.0000 ( 17886 PWs)   bands (ev):

[...]

          k =-0.0760-0.0839 0.0000 ( 17948 PWs)   bands (ev):

   -55.6297 -55.6077 -55.6032 -55.6004 -55.5414 -55.4959 -55.4549 -55.4482
   -55.3800 -55.3799 -55.3757 -55.3023 -55.0147 -54.9670 -54.6040 -54.6035
   -31.9937 -31.9916 -31.9327 -31.9267 -31.9215 -31.9056 -31.8868 -31.8862
   -31.8325 -31.8305 -31.8251 -31.7987 -31.7957 -31.7580 -31.7460 -31.7432
   -31.7427 -31.7411 -31.7371 -31.7200 -31.7069 -31.6963 -31.6944 -31.6878
   -31.6613 -31.6599 -31.6551 -31.6275 -31.6272 -31.6205 -31.5817 -31.5792
   -31.5688 -31.5673 -31.5149 -31.4979 -31.4806 -31.3762 -31.3106 -31.2544
   -31.1516 -31.0427 -30.9258 -30.9252 -30.8431 -30.8427 -30.8035 -30.8029
   -16.5675 -15.8501 -15.7912 -15.5751 -15.5545 -15.5540 -15.4694 -15.3973
   -15.3913 -15.3605 -15.3418 -15.3172 -15.3088 -15.2553 -15.2317 -15.1664
   -15.1428 -15.1263 -15.1242 -15.0670 -15.0589 -15.0265 -15.0067 -14.9933
   -14.9702 -14.9395 -14.9289 -14.8013 -14.7633 -14.5585 -13.1088 -13.1051
    -9.1829  -6.9172  -4.3521  -3.1412  -3.0718  -2.7865  -2.7779  -2.7612
    -2.6564  -2.5753  -2.5621  -2.5295  -2.4727  -2.4484  -2.4434  -2.4299
    -2.4116  -2.4069  -2.4016  -2.3931  -2.3489  -2.3231  -2.2932  -2.2492
    -2.2409  -2.2299  -2.2177  -2.1746  -2.1638  -2.1554  -2.1505  -2.1412
    -2.0914  -1.9158  -1.8900  -1.8715  -1.7636  -1.7429  -1.7079  -1.6797
    -1.6779  -1.6366  -1.6276  -1.5570  -1.4612  -1.3733  -1.3388  -1.3191
    -1.2862  -1.2448  -1.1514  -1.0463  -1.0077  -0.9791  -0.9463  -0.9129
    -0.8809  -0.8773  -0.7695  -0.7200  -0.7005  -0.6482  -0.5923  -0.5694
    -0.5384  -0.4940  -0.4833  -0.4335  -0.3612  -0.3434  -0.2823  -0.2326
    -0.2061  -0.2053  -0.1501  -0.1380  -0.0268   0.0216   0.2134   0.2843
     0.3567   0.3977   0.4144   0.5582   0.5675   0.6728   0.7257   0.7339
     0.7680   0.8476   0.9254   0.9401   0.9717   1.0268   1.7630   1.7654
     1.8484   1.8620   3.5632   3.7339   3.7654   3.7711   3.8711   4.0153
     4.0291   4.0393   4.0492   4.1501   4.2094

     the Fermi energy is     3.5181 ev

!    total energy              =   -2919.05154023 Ry
     estimated scf accuracy    <       0.00000005 Ry
     smearing contrib. (-TS)   =      -0.03130864 Ry
     internal energy E=F+TS    =   -2919.02023159 Ry

     The total energy is F=E-TS. E is the sum of the following terms:
     one-electron contribution =  -24311.62808120 Ry
     hartree contribution      =   12243.30456757 Ry
     xc contribution           =    -479.93584499 Ry
     ewald contribution        =    9629.23628347 Ry
     electric field correction =       0.00284356 Ry

     convergence has been achieved in  79 iterations

     Forces acting on atoms (cartesian axes, Ry/au):

     atom    1 type  1   force =     0.00006869    0.00097022    0.10694766
     atom    2 type  1   force =    -0.00004754    0.00020394   -0.17812776
     atom    3 type  2   force =     0.00008049    0.00468285   -0.03577288
     atom    4 type  2   force =     0.00003212    0.00016477    0.04948571
     atom    5 type  2   force =    -0.02037404   -0.00163640    0.00504296
     atom    6 type  2   force =     0.02053939   -0.00127953    0.00512611
     atom    7 type  1   force =     0.00005684    0.00148529   -0.00758025
     atom    8 type  1   force =     0.00002397   -0.00050994   -0.00007678
     atom    9 type  2   force =    -0.00002923    0.00000971   -0.00042646
     atom   10 type  2   force =     0.00010309   -0.00036124    0.00070090
     atom   11 type  2   force =     0.00037072   -0.00019001    0.00001637
     atom   12 type  2   force =    -0.00028591   -0.00020239   -0.00008426
     atom   13 type  1   force =    -0.00021607   -0.00063501   -0.00019784
     atom   14 type  1   force =    -0.00011954   -0.00008194    0.00005375
     atom   15 type  2   force =     0.00008668    0.00024749    0.00056202
     atom   16 type  2   force =     0.00011922    0.00024133   -0.00059987
     atom   17 type  2   force =    -0.00029853   -0.00003337    0.00030619
     atom   18 type  2   force =     0.00050602   -0.00015719    0.00008652
     atom   19 type  1   force =     0.00004417    0.00023812    0.00038904
     atom   20 type  1   force =    -0.00026564   -0.00007344    0.00039686
     atom   21 type  2   force =     0.00003818    0.00000118    0.10384955
     atom   22 type  2   force =     0.00000865   -0.00025979   -0.00167573
     atom   23 type  2   force =    -0.06935462    0.00127664   -0.03015836
     atom   24 type  2   force =     0.06922893    0.00170661   -0.03020110
     atom   25 type  1   force =     0.00003511   -0.00089097    0.12350432
     atom   26 type  1   force =    -0.00008048   -0.00068092   -0.17774110
     atom   27 type  2   force =     0.00001175   -0.00219781   -0.03268224
     atom   28 type  2   force =     0.00001387   -0.00014436    0.05055023
     atom   29 type  2   force =    -0.02135935    0.00085909    0.00494613
     atom   30 type  2   force =     0.02155856    0.00148964    0.00503833
     atom   31 type  1   force =     0.00025536   -0.00214271   -0.00796602
     atom   32 type  1   force =     0.00000627   -0.00075374    0.00063276
     atom   33 type  2   force =    -0.00002881   -0.00000203   -0.00021299
     atom   34 type  2   force =     0.00002259    0.00023816    0.00079946
     atom   35 type  2   force =     0.00022428    0.00028555   -0.00008335
     atom   36 type  2   force =    -0.00014885    0.00031911   -0.00020677
     atom   37 type  1   force =    -0.00000735    0.00056803    0.00114422
     atom   38 type  1   force =    -0.00010069   -0.00033465    0.00035396
     atom   39 type  2   force =    -0.00002439    0.00053289    0.00011280
     atom   40 type  2   force =     0.00004471    0.00024338   -0.00125853
     atom   41 type  2   force =    -0.00093855    0.00052175    0.00038254
     atom   42 type  2   force =     0.00108994    0.00049064    0.00051310
     atom   43 type  1   force =     0.00013658    0.00030480    0.00010062
     atom   44 type  1   force =     0.00043541    0.00015608    0.00101140
     atom   45 type  2   force =     0.00005136    0.00006958    0.10390624
     atom   46 type  3   force =     0.00127884    0.00019501    0.00027613
     atom   47 type  2   force =    -0.06958994   -0.00177494   -0.03014488
     atom   48 type  2   force =     0.06950066   -0.00133309   -0.03020768
     atom   49 type  4   force =    -0.00071418    0.00005585   -0.00000145
     atom   50 type  4   force =    -0.01379410   -0.00602577   -0.00299899
     atom   51 type  5   force =     0.01271033    0.00478654    0.00219841
     atom   52 type  4   force =    -0.00090499   -0.00064301   -0.00002902

     Total force =     0.379924     Total SCF correction =     0.000783
  @ DRIVER MODE: Message from server: STATUS
  @ DRIVER MODE: Message from server: GETFORCE
  @ DRIVER MODE: Returning v,forces,stress,ensemble

     Writing output data file ./calc.save/
  @ DRIVER MODE: Message from server: EXIT
  @ DRIVE MODE: Exiting

     General routines

     Parallel routines

   This run was terminated on:  17:50:13  12Oct2021

   JOB DONE.