     Program PWSCF v.6.7GPU starts on  9Sep2021 at  9:39:22

     R & G space division:  proc/nbgrp/npool/nimage =      10
     Reading input from /storage/home/hcoda1/3/ntian30/research/carbon/CxH_vib/CH3_calc/ads_slab/CH3NH2NH_c/out_0035/pw.inp
Warning: card &CELL ignored
Warning: card   CELL_DYNAMICS='IPI', ignored
Warning: card / ignored

     Current dimensions of program PWSCF are:
     Max number of different atomic species (ntypx) = 10
     Max number of k-points (npk) =  40000
     Max angular momentum in pseudopotentials (lmaxx) =  3
     Presently no symmetry can be used with electric field

     Message from routine cell_base_init:
     DEPRECATED: use true lattice parameter, not A to a.u. conversion factor

     IMPORTANT: XC functional enforced from input :
     Exchange-correlation= BEEF-VDW
                           (   1   4  43  14   2   0   0)
     Any further DFT definition will be discarded
     Please, verify this is what you really want

  @ DRIVER MODE: Connecting to
 qe_1139763_2767400.sched-torque.pace.gatech.edu1tryix8w_scratch
  using UNIX socket
  @ DRIVER MODE: Message from server: STATUS
  @ DRIVER MODE: Message from server: INIT
  @ DRIVER MODE: Receiving replica           0          -1
  @ DRIVER MODE: Receiving encoded integer          25
  @ DRIVER MODE:  SCF:  T  FORCE:  T  STRESS:  F  VC:  F  ENSEMBLE:  F
  @ DRIVER MODE:  SCF:  T  FORCE:  T  STRESS:  F  VC:  F  ENSEMBLE:  F

     Using Slab Decomposition

     bravais-lattice index     =            0
     lattice parameter (alat)  =       1.8897  a.u.
     unit-cell volume          =    6658.9804 (a.u.)^3
     number of atoms/cell      =           56
     number of atomic types    =            5
     number of electrons       =       398.00
     number of Kohn-Sham states=          209
     kinetic-energy cutoff     =      29.3995  Ry
     charge density cutoff     =     293.9946  Ry
     scf convergence threshold =      7.3E-08
     mixing beta               =       0.0500
     number of iterations used =            8  plain     mixing
     Exchange-correlation= BEEF-VDW
                           (   1   4  43  14   2   0   0)

     celldm(1)=   1.889726  celldm(2)=   0.000000  celldm(3)=   0.000000
     celldm(4)=   0.000000  celldm(5)=   0.000000  celldm(6)=   0.000000

     crystal axes: (cart. coord. in units of alat)
               a(1) = (   6.579727   0.000000   0.000000 )
               a(2) = (  -0.000775   5.961596   0.000000 )
               a(3) = (   0.000000   0.000000  25.155947 )

     reciprocal axes: (cart. coord. in units 2 pi/alat)
               b(1) = (  0.151982  0.000020  0.000000 )
               b(2) = (  0.000000  0.167740  0.000000 )
               b(3) = (  0.000000  0.000000  0.039752 )

     PseudoPot. # 1 for Ti read from file:
     /storage/coda1/p-amedford6/0/shared/rich_project_chbe-medford/medford-share/data/pseudos_module/espresso/nninc/pbe/van/Ti.UPF
     MD5 check sum: 8e4df49b7f0d34bbd5052bf3f5ea0213
     Pseudo is Ultrasoft, Zval = 12.0
     Generated by new atomic code, or converted to UPF format
     Using radial grid of  851 points,  6 beta functions with:
                l(1) =   0
                l(2) =   0
                l(3) =   1
                l(4) =   1
                l(5) =   2
                l(6) =   2
     Q(r) pseudized with  8 coefficients,  rinner =    1.000   1.000   1.000
                                                       1.000   1.000

     PseudoPot. # 2 for O  read from file:
     /storage/coda1/p-amedford6/0/shared/rich_project_chbe-medford/medford-share/data/pseudos_module/espresso/nninc/pbe/van/O.UPF
     MD5 check sum: 78c19812648e8988a0fe644b0f25305e
     Pseudo is Ultrasoft, Zval =  6.0
     Generated by new atomic code, or converted to UPF format
     Using radial grid of  737 points,  4 beta functions with:
                l(1) =   0
                l(2) =   0
                l(3) =   1
                l(4) =   1
     Q(r) pseudized with  8 coefficients,  rinner =    0.800   0.800   0.800

     PseudoPot. # 3 for N  read from file:
     /storage/coda1/p-amedford6/0/shared/rich_project_chbe-medford/medford-share/data/pseudos_module/espresso/nninc/pbe/van/N.UPF
     MD5 check sum: 90d10febe142ad51ac9d5be1deb811c4
     Pseudo is Ultrasoft, Zval =  5.0
     Generated by new atomic code, or converted to UPF format
     Using radial grid of  729 points,  4 beta functions with:
                l(1) =   0
                l(2) =   0
                l(3) =   1
                l(4) =   1
     Q(r) pseudized with  8 coefficients,  rinner =    0.800   0.800   0.800

     PseudoPot. # 4 for C  read from file:
     /storage/coda1/p-amedford6/0/shared/rich_project_chbe-medford/medford-share/data/pseudos_module/espresso/nninc/pbe/van/C.UPF
     MD5 check sum: 1a69bf6b8db32088f5b2163dbdb77a27
     Pseudo is Ultrasoft, Zval =  4.0
     Generated by new atomic code, or converted to UPF format
     Using radial grid of  721 points,  4 beta functions with:
                l(1) =   0
                l(2) =   0
                l(3) =   1
                l(4) =   1
     Q(r) pseudized with  8 coefficients,  rinner =    0.800   0.800   0.800

     PseudoPot. # 5 for H  read from file:
     /storage/coda1/p-amedford6/0/shared/rich_project_chbe-medford/medford-share/data/pseudos_module/espresso/nninc/pbe/van/H.UPF
     MD5 check sum: b5ee9d7bfd3a09ee7748110bda690ff7
     Pseudo is Ultrasoft, Zval =  1.0
     Generated by new atomic code, or converted to UPF format
     Using radial grid of  615 points,  1 beta functions with:
                l(1) =   0
     Q(r) pseudized with  8 coefficients,  rinner =    0.800

     atomic species   valence    mass     pseudopotential
        Ti1           12.00    47.86700     Ti( 1.00)
        O1             6.00    15.99900     O ( 1.00)
        N1             5.00    14.00700     N ( 1.00)
        C1             4.00    12.01100     C ( 1.00)
        H1             1.00     1.00800     H ( 1.00)

     No symmetry found

   Cartesian axes

     site n.     atom                  positions (alat units)
         1           Ti1 tau(   1) = (   0.0004258   2.9801865   6.0000000  )
         2           Ti1 tau(   2) = (   3.2906075   1.4906267   6.0002472  )
         3           O1  tau(   3) = (   0.0006271   0.0005054   7.9858123  )
         4           O1  tau(   4) = (   3.2906025   0.0005020   7.3038282  )
         5           O1  tau(   5) = (   4.5942328   1.4918067   9.2879030  )
         6           O1  tau(   6) = (   1.9868534   1.4903216   9.2879459  )
         7           Ti1 tau(   7) = (   3.2907910   2.8959150   9.1758416  )
         8           Ti1 tau(   8) = (   0.0015273   1.4827037   9.2680791  )
         9           O1  tau(   9) = (   3.3032705   0.0110091  11.3485381  )
        10           O1  tau(  10) = (   0.0116148   5.9584955  10.6183126  )
        11           O1  tau(  11) = (   1.3020657   1.4959176  12.6398190  )
        12           O1  tau(  12) = (   5.2896457   1.4919019  12.6612249  )
        13           Ti1 tau(  13) = (   0.0353884   3.0012823  12.5523301  )
        14           Ti1 tau(  14) = (   3.3275346   1.5008247  12.4978572  )
        15           O1  tau(  15) = (   0.0424128   0.0047235  14.7277795  )
        16           O1  tau(  16) = (   3.2762846   0.0047332  13.9819514  )
        17           O1  tau(  17) = (   4.5591522   1.5298593  16.0930730  )
        18           O1  tau(  18) = (   2.0612242   1.5646392  16.2256692  )
        19           Ti1 tau(  19) = (   3.3170857   3.0293758  15.7013767  )
        20           Ti1 tau(  20) = (   6.5267591   1.5471840  15.7818195  )
        21           O1  tau(  21) = (   3.2904802   0.0005063   4.7018136  )
        22           O1  tau(  22) = (   0.0258072   0.0396315  17.3287798  )
        23           O1  tau(  23) = (   1.3043587   1.4918075   6.0039043  )
        24           O1  tau(  24) = (   5.2767064   1.4903225   6.0039473  )
        25           Ti1 tau(  25) = (   0.0000382   5.9609847   6.0000000  )
        26           Ti1 tau(  26) = (   3.2902200   4.4714249   6.0002472  )
        27           O1  tau(  27) = (   0.0002396   2.9813036   7.9858123  )
        28           O1  tau(  28) = (   3.2902150   2.9813002   7.3038282  )
        29           O1  tau(  29) = (   4.5938453   4.4726049   9.2879030  )
        30           O1  tau(  30) = (   1.9864658   4.4711199   9.2879459  )
        31           Ti1 tau(  31) = (   3.2891106   5.8743827   9.1763621  )
        32           Ti1 tau(  32) = (   0.0006254   4.4649316   9.2693709  )
        33           O1  tau(  33) = (   3.3047253   2.9863606  11.3412877  )
        34           O1  tau(  34) = (   0.0092240   2.9805883  10.6323155  )
        35           O1  tau(  35) = (   1.3023160   4.4818153  12.6295520  )
        36           O1  tau(  36) = (   5.2910779   4.4839738  12.6480862  )
        37           Ti1 tau(  37) = (   0.0306270   0.0097343  12.5156175  )
        38           Ti1 tau(  38) = (   3.3295341   4.4791655  12.4867326  )
        39           O1  tau(  39) = (   0.0319336   2.9935560  14.7343221  )
        40           O1  tau(  40) = (   3.2835893   3.0037955  13.9224844  )
        41           O1  tau(  41) = (   4.5669158   4.4809188  16.1713821  )
        42           O1  tau(  42) = (   2.0542530   4.4668402  16.2247519  )
        43           Ti1 tau(  43) = (   3.3000170   0.0150779  15.7669526  )
        44           Ti1 tau(  44) = (   0.0416703   4.6955124  16.1636639  )
        45           O1  tau(  45) = (   3.2900926   2.9813045   4.7018136  )
        46           O1  tau(  46) = (   1.3039711   4.4726057   6.0039043  )
        47           O1  tau(  47) = (   5.2763189   4.4711207   6.0039473  )
        48           N1  tau(  48) = (   0.9019483   2.4226080  18.4567899  )
        49           N1  tau(  49) = (   6.4923839   2.9153054  17.5348467  )
        50           C1  tau(  50) = (   1.2734633   3.3482217  19.5544901  )
        51           H1  tau(  51) = (   0.3921683   3.5464126  20.1615046  )
        52           H1  tau(  52) = (   2.0553077   2.8833093  20.1573268  )
        53           H1  tau(  53) = (   1.6239766   4.2728770  19.0944814  )
        54           H1  tau(  54) = (   0.5870980   1.4942747  18.7832689  )
        55           H1  tau(  55) = (   5.5983569   2.8486818  18.0159164  )
        56           H1  tau(  56) = (   1.7025450   2.1792920  17.8234971  )

     number of k points=    10  Fermi-Dirac smearing, width (Ry)=  0.0073
                       cart. coord. in units 2pi/alat
        k(    1) = (   0.0000000   0.0000000   0.0000000), wk =   0.1250000
        k(    2) = (   0.0000000   0.0419351   0.0000000), wk =   0.2500000
        k(    3) = (   0.0000000  -0.0838702   0.0000000), wk =   0.1250000
        k(    4) = (   0.0379955   0.0000049   0.0000000), wk =   0.2500000
        k(    5) = (   0.0379955   0.0419400   0.0000000), wk =   0.2500000
        k(    6) = (   0.0379955  -0.0838652   0.0000000), wk =   0.2500000
        k(    7) = (   0.0379955  -0.0419301   0.0000000), wk =   0.2500000
        k(    8) = (  -0.0759910  -0.0000099   0.0000000), wk =   0.1250000
        k(    9) = (  -0.0759910   0.0419252   0.0000000), wk =   0.2500000
        k(   10) = (  -0.0759910  -0.0838800   0.0000000), wk =   0.1250000

     Initial potential from superposition of free atoms

     starting charge  381.99914, renormalised to  398.00000

     negative rho (up, down):  1.484E-02 0.000E+00

     %%%%%%%%%%%%%%%%%%%%%%%%%%%%%%%%%%%%%%%%%%%%%%%%%%%%%%%%%%%%%%%%%%%%%%%%
     %                                                                      %
     % You are using vdW-DF, which was implemented by the Thonhauser group. %
     % Please cite the following two papers that made this development      %
     % possible and the two reviews that describe the various versions:     %
     %                                                                      %
     %   T. Thonhauser et al., PRL 115, 136402 (2015).                      %
     %   T. Thonhauser et al., PRB 76, 125112 (2007).                       %
     %   K. Berland et al., Rep. Prog. Phys. 78, 066501 (2015).             %
     %   D.C. Langreth et al., J. Phys.: Condens. Matter 21, 084203 (2009). %
     %                                                                      %
     %                                                                      %
     % If you are calculating the stress with vdW-DF, please also cite:     %
     %                                                                      %
     %   R. Sabatini et al., J. Phys.: Condens. Matter 24, 424209 (2012).   %
     %                                                                      %
     %%%%%%%%%%%%%%%%%%%%%%%%%%%%%%%%%%%%%%%%%%%%%%%%%%%%%%%%%%%%%%%%%%%%%%%%

     Adding external electric field

     Computed dipole along edir(3) :
        Dipole              -10.9098 Ry au,        -27.7300 Debye
        Dipole field         -0.0206 Ry au,

        Potential amp.        1.9085 Ry
        Total length         46.3494 bohr

     Starting wfcs are  302 atomic wfcs
  @ DRIVER MODE: Message from server: STATUS
  @ DRIVER MODE: Message from server: POSDATA
  @ DRIVER MODE: Reading and sharing cell
  @ DRIVER MODE: Reading and sharing positions
  @ DRIVER MODE: Received positions

     Self-consistent Calculation

     iteration #  1     ecut=    29.40 Ry     beta= 0.05
     Davidson diagonalization with overlap
     c_bands:  5 eigenvalues not converged
     c_bands:  3 eigenvalues not converged
     c_bands:  1 eigenvalues not converged
     c_bands:  2 eigenvalues not converged
     c_bands:  3 eigenvalues not converged
     c_bands:  4 eigenvalues not converged
     c_bands:  4 eigenvalues not converged
     ethr =  1.00E-05,  avg # of iterations = 24.4

[...]

     total energy              =   -2445.36786940 Ry
     estimated scf accuracy    <    5568.55218222 Ry

     iteration #  2     ecut=    29.40 Ry     beta= 0.05
     Davidson diagonalization with overlap
     ethr =  1.00E-02,  avg # of iterations = 22.8

[...]

     iteration # 71     ecut=    29.40 Ry     beta= 0.05
     Davidson diagonalization with overlap
     c_bands:  2 eigenvalues not converged
     c_bands:  2 eigenvalues not converged
     ethr =  9.27E-11,  avg # of iterations = 11.3

[...]

     total energy              =   -2942.84148879 Ry
     estimated scf accuracy    <       0.00000007 Ry

     iteration # 74     ecut=    29.40 Ry     beta= 0.05
     Davidson diagonalization with overlap
     ethr =  1.87E-11,  avg # of iterations = 12.0

     negative rho (up, down):  1.048E-02 0.000E+00

     Adding external electric field

     Computed dipole along edir(3) :
        Dipole                1.5783 Ry au,          4.0117 Debye
        Dipole field          0.0030 Ry au,

        Potential amp.       -0.2761 Ry
        Total length         46.3494 bohr

     End of self-consistent calculation

          k = 0.0000 0.0000 0.0000 ( 18029 PWs)   bands (ev):

   -55.0908 -55.0552 -55.0517 -55.0211 -54.9678 -54.9653 -54.9278 -54.8911
   -54.8828 -54.8686 -54.8554 -54.8506 -54.8038 -54.7591 -54.0656 -54.0316
   -31.6648 -31.5447 -31.4547 -31.4250 -31.3860 -31.3814 -31.3797 -31.3501
   -31.3472 -31.3454 -31.3025 -31.3003 -31.2998 -31.2653 -31.2471 -31.2276
   -31.2077 -31.2039 -31.1947 -31.1928 -31.1662 -31.1489 -31.1474 -31.1214
   -31.1119 -31.0979 -31.0955 -31.0931 -31.0895 -31.0765 -31.0715 -31.0643
   -31.0517 -31.0410 -31.0226 -31.0145 -31.0068 -31.0013 -30.9965 -30.9908
   -30.9864 -30.9518 -30.4740 -30.3822 -30.3600 -30.2905 -30.2038 -30.0929
   -19.1621 -15.9335 -15.6590 -15.5363 -15.3257 -15.2761 -15.2032 -15.0079
   -14.9432 -14.8874 -14.8770 -14.8654 -14.8485 -14.7773 -14.6982 -14.6177
   -14.6150 -14.6085 -14.5976 -14.5797 -14.5724 -14.5099 -14.5026 -14.4706
   -14.4586 -14.4186 -14.3115 -14.2297 -14.1728 -14.0220 -13.3263 -12.5678
   -12.4508 -11.1013  -7.8807  -6.5460  -5.8605  -4.1055  -3.9408  -3.2786
    -3.0934  -3.0702  -3.0088  -2.9837  -2.8090  -2.7594  -2.5556  -2.4479
    -2.3604  -2.3214  -2.3091  -2.2925  -2.1425  -2.0746  -2.0402  -1.9930
    -1.9692  -1.9465  -1.9050  -1.8975  -1.8669  -1.8488  -1.8404  -1.6630
    -1.5872  -1.5388  -1.5087  -1.4705  -1.4208  -1.3925  -1.3742  -1.3696
    -1.3644  -1.3454  -1.3139  -1.2528  -1.2243  -1.1680  -1.1001  -1.0735
    -0.9837  -0.9018  -0.7140  -0.6687  -0.6508  -0.6146  -0.5545  -0.5058
    -0.4714  -0.4366  -0.4225  -0.3562  -0.2869  -0.2545  -0.1919  -0.1275
    -0.1168  -0.0539  -0.0467   0.1147   0.1264   0.1478   0.2388   0.3252
     0.3731   0.3811   0.4396   0.5136   0.5358   0.5455   0.5819   0.6023
     0.6789   0.7881   0.8128   0.8545   0.8661   0.8998   0.9227   0.9773
     1.0011   1.0639   1.0702   1.1746   1.2235   1.2564   1.5064   1.5395
     1.8699   1.9033   1.9573   2.1440   2.5311   2.5783   4.0176   4.0803
     4.0942   4.1431   4.1665   4.1854   4.2576   4.4783   4.5036   4.5097
     4.5171

[...]

          k = 0.0380-0.0419 0.0000 ( 17876 PWs)   bands (ev):

[...]

          k =-0.0760-0.0000 0.0000 ( 17886 PWs)   bands (ev):

[...]

          k =-0.0760-0.0839 0.0000 ( 17948 PWs)   bands (ev):

   -55.0787 -55.0636 -55.0382 -55.0381 -54.9647 -54.9542 -54.9388 -54.8740
   -54.8714 -54.8705 -54.8687 -54.8663 -54.7978 -54.7650 -54.0485 -54.0485
   -31.4724 -31.4628 -31.3999 -31.3598 -31.3598 -31.3585 -31.3309 -31.3307
   -31.2997 -31.2957 -31.2908 -31.2848 -31.2594 -31.2248 -31.2179 -31.2118
   -31.2097 -31.2059 -31.2051 -31.1963 -31.1642 -31.1631 -31.1594 -31.1573
   -31.1571 -31.1543 -31.1498 -31.1334 -31.1081 -31.1044 -31.0985 -31.0890
   -31.0872 -31.0852 -31.0841 -31.0681 -31.0498 -31.0485 -31.0376 -31.0320
   -31.0073 -30.9908 -30.3726 -30.3726 -30.2866 -30.2866 -30.2473 -30.2472
   -19.1581 -15.4167 -15.3264 -15.1781 -15.1585 -15.1095 -15.0613 -15.0448
   -15.0274 -14.9715 -14.9319 -14.8859 -14.8373 -14.7941 -14.7919 -14.7534
   -14.6813 -14.6599 -14.6577 -14.6432 -14.5923 -14.5815 -14.5540 -14.5352
   -14.5301 -14.4871 -14.4274 -14.4238 -14.3847 -14.2058 -13.3366 -12.5524
   -12.5523 -11.1038  -7.8908  -6.5299  -5.8497  -4.0770  -3.9338  -2.6856
    -2.5864  -2.5278  -2.4199  -2.3331  -2.2928  -2.2581  -2.1234  -2.1040
    -2.0853  -2.0593  -2.0464  -2.0123  -2.0045  -1.9564  -1.9272  -1.9168
    -1.9105  -1.8976  -1.8755  -1.8277  -1.8052  -1.7955  -1.7861  -1.7474
    -1.7334  -1.7015  -1.6955  -1.6566  -1.6351  -1.5502  -1.4609  -1.4211
    -1.3710  -1.3058  -1.2714  -1.2647  -1.1715  -1.1633  -1.1401  -1.1067
    -1.0615  -0.9411  -0.8836  -0.8207  -0.8167  -0.8037  -0.6970  -0.6592
    -0.6286  -0.5934  -0.5562  -0.5260  -0.4877  -0.4408  -0.3640  -0.3332
    -0.2937  -0.2574  -0.1851  -0.0971  -0.0779  -0.0467  -0.0425   0.0432
     0.0686   0.1069   0.1161   0.1353   0.1919   0.2051   0.2922   0.3822
     0.4466   0.5348   0.6484   0.6530   0.7302   0.8223   0.9098   0.9478
     0.9996   1.0651   1.0673   1.1010   1.2223   1.2295   1.3509   1.3898
     1.3985   1.4209   2.3163   2.3173   2.3984   2.3985   4.1464   4.2442
     4.2832   4.3244   4.3763   4.5218   4.5449   4.5908   4.5910   4.6615
     4.6747

     the Fermi energy is     4.0640 ev

!    total energy              =   -2942.84151170 Ry
     estimated scf accuracy    <       0.00000006 Ry
     smearing contrib. (-TS)   =      -0.03725076 Ry
     internal energy E=F+TS    =   -2942.80426094 Ry

     The total energy is F=E-TS. E is the sum of the following terms:
     one-electron contribution =  -23856.96479976 Ry
     hartree contribution      =   12023.82224230 Ry
     xc contribution           =    -487.75299760 Ry
     ewald contribution        =    9378.08659309 Ry
     electric field correction =       0.00470104 Ry

     convergence has been achieved in  74 iterations

     Forces acting on atoms (cartesian axes, Ry/au):

     atom    1 type  1   force =     0.00002634   -0.00022870    0.09434941
     atom    2 type  1   force =    -0.00015876   -0.00054250   -0.17708134
     atom    3 type  2   force =     0.00001673   -0.00024105   -0.02146847
     atom    4 type  2   force =    -0.00001481   -0.00167115    0.05642613
     atom    5 type  2   force =    -0.01049291   -0.00075142    0.00561634
     atom    6 type  2   force =     0.01225913   -0.00009637    0.00550753
     atom    7 type  1   force =    -0.00024129    0.00106262   -0.01571665
     atom    8 type  1   force =    -0.00007013    0.00524945    0.00655268
     atom    9 type  2   force =    -0.00030571    0.00055532    0.00021174
     atom   10 type  2   force =    -0.00199717    0.00266285   -0.00434521
     atom   11 type  2   force =     0.00039669   -0.00022704    0.00027651
     atom   12 type  2   force =    -0.00007888   -0.00029499   -0.00019814
     atom   13 type  1   force =    -0.00073774    0.00044905   -0.00005032
     atom   14 type  1   force =     0.00037836   -0.00016557    0.00002579
     atom   15 type  2   force =    -0.00018434   -0.00060977   -0.00039265
     atom   16 type  2   force =     0.00004998    0.00037202   -0.00031375
     atom   17 type  2   force =     0.00079640    0.00016440    0.00041715
     atom   18 type  2   force =    -0.00014541    0.00008566   -0.00011904
     atom   19 type  1   force =     0.00032098    0.00075066    0.00032686
     atom   20 type  1   force =    -0.00046425    0.00019094    0.00056624
     atom   21 type  2   force =    -0.00002039   -0.00011431    0.10366187
     atom   22 type  2   force =     0.00017056    0.00028995    0.00038330
     atom   23 type  2   force =    -0.07091688   -0.00021546   -0.02721310
     atom   24 type  2   force =     0.07071531    0.00023578   -0.02725906
     atom   25 type  1   force =     0.00002573   -0.00026151    0.09401714
     atom   26 type  1   force =    -0.00024626   -0.00055230   -0.17735320
     atom   27 type  2   force =     0.00005826   -0.00008550   -0.02060079
     atom   28 type  2   force =     0.00002429   -0.00136929    0.05571778
     atom   29 type  2   force =    -0.01079897   -0.00000220    0.00591096
     atom   30 type  2   force =     0.01248869    0.00028499    0.00576387
     atom   31 type  1   force =    -0.00016948    0.00517455   -0.01628998
     atom   32 type  1   force =    -0.00009390   -0.00625532    0.00669358
     atom   33 type  2   force =    -0.00009694   -0.00047574    0.00023976
     atom   34 type  2   force =    -0.00163542    0.00066277   -0.00774405
     atom   35 type  2   force =    -0.00033224    0.00005886    0.00042063
     atom   36 type  2   force =     0.00058020    0.00005773   -0.00007240
     atom   37 type  1   force =    -0.00082982   -0.00078412   -0.00009935
     atom   38 type  1   force =     0.00048553    0.00001158    0.00043295
     atom   39 type  2   force =    -0.00028504   -0.00018591    0.00058993
     atom   40 type  2   force =    -0.00005533   -0.00018851   -0.00023423
     atom   41 type  2   force =     0.00012732   -0.00047744    0.00031090
     atom   42 type  2   force =    -0.00020909   -0.00029349    0.00055896
     atom   43 type  1   force =     0.00002696   -0.00066665   -0.00020138
     atom   44 type  1   force =     0.00023169    0.00044360    0.00032316
     atom   45 type  2   force =    -0.00002302   -0.00011549    0.10365838
     atom   46 type  2   force =    -0.07092824   -0.00013710   -0.02718384
     atom   47 type  2   force =     0.07073133    0.00028443   -0.02725623
     atom   48 type  3   force =    -0.00064826   -0.00016047    0.00081999
     atom   49 type  3   force =     0.00040276   -0.00088408    0.00085311
     atom   50 type  4   force =     0.00224235    0.00388049   -0.00390385
     atom   51 type  5   force =     0.00035020   -0.00000857    0.00043083
     atom   52 type  5   force =    -0.00017189    0.00084357   -0.00013666
     atom   53 type  5   force =    -0.00101479   -0.00412293    0.00419660
     atom   54 type  5   force =     0.00013758   -0.00030888   -0.00017865
     atom   55 type  5   force =    -0.00016943   -0.00054450    0.00016668
     atom   56 type  5   force =     0.00049345   -0.00073298   -0.00001444

     Total force =     0.365773     Total SCF correction =     0.000776
  @ DRIVER MODE: Message from server: STATUS
  @ DRIVER MODE: Message from server: GETFORCE
  @ DRIVER MODE: Returning v,forces,stress,ensemble

     Writing output data file ./calc.save/
  @ DRIVER MODE: Message from server: EXIT
  @ DRIVE MODE: Exiting

     General routines

     Parallel routines

   This run was terminated on:   9:59:20   9Sep2021

   JOB DONE.