     Program PWSCF v.6.7GPU starts on 23Aug2021 at 20:21:57

     R & G space division:  proc/nbgrp/npool/nimage =       6
     Reading input from /storage/home/hcoda1/3/ntian30/research/carbon/CH2_vib/ads_slab/CH2N2_b/out_0017/pw.inp
Warning: card &CELL ignored
Warning: card   CELL_DYNAMICS='IPI', ignored
Warning: card / ignored

     Current dimensions of program PWSCF are:
     Max number of different atomic species (ntypx) = 10
     Max number of k-points (npk) =  40000
     Max angular momentum in pseudopotentials (lmaxx) =  3
     Presently no symmetry can be used with electric field

     Message from routine cell_base_init:
     DEPRECATED: use true lattice parameter, not A to a.u. conversion factor

     IMPORTANT: XC functional enforced from input :
     Exchange-correlation= BEEF-VDW
                           (   1   4  43  14   2   0   0)
     Any further DFT definition will be discarded
     Please, verify this is what you really want

  @ DRIVER MODE: Connecting to
 qe_1139763_2632805.sched-torque.pace.gatech.edugbczd4g1_scratch
  using UNIX socket
  @ DRIVER MODE: Message from server: STATUS
  @ DRIVER MODE: Message from server: INIT
  @ DRIVER MODE: Receiving replica           0          -1
  @ DRIVER MODE: Receiving encoded integer          25
  @ DRIVER MODE:  SCF:  T  FORCE:  T  STRESS:  F  VC:  F  ENSEMBLE:  F
  @ DRIVER MODE:  SCF:  T  FORCE:  T  STRESS:  F  VC:  F  ENSEMBLE:  F

     Using Slab Decomposition

     bravais-lattice index     =            0
     lattice parameter (alat)  =       1.8897  a.u.
     unit-cell volume          =    6658.9804 (a.u.)^3
     number of atoms/cell      =           52
     number of atomic types    =            5
     number of electrons       =       394.00
     number of Kohn-Sham states=          207
     kinetic-energy cutoff     =      29.3995  Ry
     charge density cutoff     =     293.9946  Ry
     scf convergence threshold =      7.3E-08
     mixing beta               =       0.0500
     number of iterations used =            8  plain     mixing
     Exchange-correlation= BEEF-VDW
                           (   1   4  43  14   2   0   0)

     celldm(1)=   1.889726  celldm(2)=   0.000000  celldm(3)=   0.000000
     celldm(4)=   0.000000  celldm(5)=   0.000000  celldm(6)=   0.000000

     crystal axes: (cart. coord. in units of alat)
               a(1) = (   6.579727   0.000000   0.000000 )
               a(2) = (  -0.000775   5.961596   0.000000 )
               a(3) = (   0.000000   0.000000  25.155947 )

     reciprocal axes: (cart. coord. in units 2 pi/alat)
               b(1) = (  0.151982  0.000020  0.000000 )
               b(2) = (  0.000000  0.167740  0.000000 )
               b(3) = (  0.000000  0.000000  0.039752 )

     PseudoPot. # 1 for Ti read from file:
     /storage/coda1/p-amedford6/0/shared/rich_project_chbe-medford/medford-share/data/pseudos_module/espresso/nninc/pbe/van/Ti.UPF
     MD5 check sum: 8e4df49b7f0d34bbd5052bf3f5ea0213
     Pseudo is Ultrasoft, Zval = 12.0
     Generated by new atomic code, or converted to UPF format
     Using radial grid of  851 points,  6 beta functions with:
                l(1) =   0
                l(2) =   0
                l(3) =   1
                l(4) =   1
                l(5) =   2
                l(6) =   2
     Q(r) pseudized with  8 coefficients,  rinner =    1.000   1.000   1.000
                                                       1.000   1.000

     PseudoPot. # 2 for O  read from file:
     /storage/coda1/p-amedford6/0/shared/rich_project_chbe-medford/medford-share/data/pseudos_module/espresso/nninc/pbe/van/O.UPF
     MD5 check sum: 78c19812648e8988a0fe644b0f25305e
     Pseudo is Ultrasoft, Zval =  6.0
     Generated by new atomic code, or converted to UPF format
     Using radial grid of  737 points,  4 beta functions with:
                l(1) =   0
                l(2) =   0
                l(3) =   1
                l(4) =   1
     Q(r) pseudized with  8 coefficients,  rinner =    0.800   0.800   0.800

     PseudoPot. # 3 for N  read from file:
     /storage/coda1/p-amedford6/0/shared/rich_project_chbe-medford/medford-share/data/pseudos_module/espresso/nninc/pbe/van/N.UPF
     MD5 check sum: 90d10febe142ad51ac9d5be1deb811c4
     Pseudo is Ultrasoft, Zval =  5.0
     Generated by new atomic code, or converted to UPF format
     Using radial grid of  729 points,  4 beta functions with:
                l(1) =   0
                l(2) =   0
                l(3) =   1
                l(4) =   1
     Q(r) pseudized with  8 coefficients,  rinner =    0.800   0.800   0.800

     PseudoPot. # 4 for C  read from file:
     /storage/coda1/p-amedford6/0/shared/rich_project_chbe-medford/medford-share/data/pseudos_module/espresso/nninc/pbe/van/C.UPF
     MD5 check sum: 1a69bf6b8db32088f5b2163dbdb77a27
     Pseudo is Ultrasoft, Zval =  4.0
     Generated by new atomic code, or converted to UPF format
     Using radial grid of  721 points,  4 beta functions with:
                l(1) =   0
                l(2) =   0
                l(3) =   1
                l(4) =   1
     Q(r) pseudized with  8 coefficients,  rinner =    0.800   0.800   0.800

     PseudoPot. # 5 for H  read from file:
     /storage/coda1/p-amedford6/0/shared/rich_project_chbe-medford/medford-share/data/pseudos_module/espresso/nninc/pbe/van/H.UPF
     MD5 check sum: b5ee9d7bfd3a09ee7748110bda690ff7
     Pseudo is Ultrasoft, Zval =  1.0
     Generated by new atomic code, or converted to UPF format
     Using radial grid of  615 points,  1 beta functions with:
                l(1) =   0
     Q(r) pseudized with  8 coefficients,  rinner =    0.800

     atomic species   valence    mass     pseudopotential
        Ti1           12.00    47.86700     Ti( 1.00)
        O1             6.00    15.99900     O ( 1.00)
        N1             5.00    14.00700     N ( 1.00)
        C1             4.00    12.01100     C ( 1.00)
        H1             1.00     1.00800     H ( 1.00)

     No symmetry found

   Cartesian axes

     site n.     atom                  positions (alat units)
         1           Ti1 tau(   1) = (   0.0004258   2.9801865   6.0000000  )
         2           Ti1 tau(   2) = (   3.2906075   1.4906267   6.0002472  )
         3           O1  tau(   3) = (   0.0006271   0.0005054   7.9858123  )
         4           O1  tau(   4) = (   3.2906025   0.0005020   7.3038282  )
         5           O1  tau(   5) = (   4.5942328   1.4918067   9.2879030  )
         6           O1  tau(   6) = (   1.9868534   1.4903216   9.2879459  )
         7           Ti1 tau(   7) = (   3.2907910   2.8959150   9.1758416  )
         8           Ti1 tau(   8) = (   0.0015273   1.4827037   9.2680791  )
         9           O1  tau(   9) = (   3.2944872   5.9444814  11.3088555  )
        10           O1  tau(  10) = (   0.0116148   5.9584955  10.6183126  )
        11           O1  tau(  11) = (   1.2913257   1.4757505  12.6225222  )
        12           O1  tau(  12) = (   5.2743172   1.4729811  12.6021195  )
        13           Ti1 tau(  13) = (   0.0890023   2.9564894  12.7220187  )
        14           Ti1 tau(  14) = (   3.4221593   1.4702301  12.4648352  )
        15           O1  tau(  15) = (   0.0068176   5.9411714  14.5947238  )
        16           O1  tau(  16) = (   3.2944910   5.9492763  13.8828731  )
        17           O1  tau(  17) = (   4.5250581   1.4982466  16.0456249  )
        18           O1  tau(  18) = (   2.0665045   1.4881935  16.0281199  )
        19           Ti1 tau(  19) = (   3.2778778   2.9684174  15.6871799  )
        20           Ti1 tau(  20) = (   6.5490154   1.5309925  16.0314916  )
        21           O1  tau(  21) = (   3.2904802   0.0005063   4.7018136  )
        22           O1  tau(  22) = (   0.0123181   0.0076990  17.1679072  )
        23           O1  tau(  23) = (   1.3043587   1.4918075   6.0039043  )
        24           O1  tau(  24) = (   5.2767064   1.4903225   6.0039473  )
        25           Ti1 tau(  25) = (   0.0000382   5.9609847   6.0000000  )
        26           Ti1 tau(  26) = (   3.2902200   4.4714249   6.0002472  )
        27           O1  tau(  27) = (   0.0002396   2.9813036   7.9858123  )
        28           O1  tau(  28) = (   3.2902150   2.9813002   7.3038282  )
        29           O1  tau(  29) = (   4.5938453   4.4726049   9.2879030  )
        30           O1  tau(  30) = (   1.9864658   4.4711199   9.2879459  )
        31           Ti1 tau(  31) = (   3.2891106   5.8743827   9.1763621  )
        32           Ti1 tau(  32) = (   0.0006254   4.4649316   9.2693709  )
        33           O1  tau(  33) = (   3.2980042   2.9668427  11.3079272  )
        34           O1  tau(  34) = (   0.0092240   2.9805883  10.6323155  )
        35           O1  tau(  35) = (   1.2899229   4.4488879  12.6271902  )
        36           O1  tau(  36) = (   5.2743549   4.4545148  12.6090941  )
        37           Ti1 tau(  37) = (   0.1039690   5.9375691  12.6739196  )
        38           Ti1 tau(  38) = (   3.4213609   4.4493060  12.4702176  )
        39           O1  tau(  39) = (   6.5648181   2.9459624  14.6378081  )
        40           O1  tau(  40) = (   3.2943236   2.9658899  13.8785053  )
        41           O1  tau(  41) = (   4.5287159   4.4634493  16.0515226  )
        42           O1  tau(  42) = (   2.0597896   4.4749507  16.0164256  )
        43           Ti1 tau(  43) = (   3.2714021   5.9517381  15.6902239  )
        44           Ti1 tau(  44) = (   6.5616293   4.5902425  16.0297769  )
        45           O1  tau(  45) = (   3.2900926   2.9813045   4.7018136  )
        46           O1  tau(  46) = (   1.3039711   4.4726057   6.0039043  )
        47           O1  tau(  47) = (   5.2763189   4.4711207   6.0039473  )
        48           N1  tau(  48) = (   0.6459789   3.0609845  18.5091170  )
        49           N1  tau(  49) = (   0.0956274   2.9759187  17.3381616  )
        50           C1  tau(  50) = (   0.0579326   3.2697647  19.6166723  )
        51           H1  tau(  51) = (   5.5568954   3.3836083  19.7010695  )
        52           H1  tau(  52) = (   0.6727643   3.3288843  20.5134281  )

     number of k points=    10  Fermi-Dirac smearing, width (Ry)=  0.0073
                       cart. coord. in units 2pi/alat
        k(    1) = (   0.0000000   0.0000000   0.0000000), wk =   0.1250000
        k(    2) = (   0.0000000   0.0419351   0.0000000), wk =   0.2500000
        k(    3) = (   0.0000000  -0.0838702   0.0000000), wk =   0.1250000
        k(    4) = (   0.0379955   0.0000049   0.0000000), wk =   0.2500000
        k(    5) = (   0.0379955   0.0419400   0.0000000), wk =   0.2500000
        k(    6) = (   0.0379955  -0.0838652   0.0000000), wk =   0.2500000
        k(    7) = (   0.0379955  -0.0419301   0.0000000), wk =   0.2500000
        k(    8) = (  -0.0759910  -0.0000099   0.0000000), wk =   0.1250000
        k(    9) = (  -0.0759910   0.0419252   0.0000000), wk =   0.2500000
        k(   10) = (  -0.0759910  -0.0838800   0.0000000), wk =   0.1250000

     Initial potential from superposition of free atoms

     starting charge  377.99917, renormalised to  394.00000

     negative rho (up, down):  1.509E-02 0.000E+00

     %%%%%%%%%%%%%%%%%%%%%%%%%%%%%%%%%%%%%%%%%%%%%%%%%%%%%%%%%%%%%%%%%%%%%%%%
     %                                                                      %
     % You are using vdW-DF, which was implemented by the Thonhauser group. %
     % Please cite the following two papers that made this development      %
     % possible and the two reviews that describe the various versions:     %
     %                                                                      %
     %   T. Thonhauser et al., PRL 115, 136402 (2015).                      %
     %   T. Thonhauser et al., PRB 76, 125112 (2007).                       %
     %   K. Berland et al., Rep. Prog. Phys. 78, 066501 (2015).             %
     %   D.C. Langreth et al., J. Phys.: Condens. Matter 21, 084203 (2009). %
     %                                                                      %
     %                                                                      %
     % If you are calculating the stress with vdW-DF, please also cite:     %
     %                                                                      %
     %   R. Sabatini et al., J. Phys.: Condens. Matter 24, 424209 (2012).   %
     %                                                                      %
     %%%%%%%%%%%%%%%%%%%%%%%%%%%%%%%%%%%%%%%%%%%%%%%%%%%%%%%%%%%%%%%%%%%%%%%%

     Adding external electric field

     Computed dipole along edir(3) :
        Dipole               -7.6405 Ry au,        -19.4203 Debye
        Dipole field         -0.0144 Ry au,

        Potential amp.        1.3366 Ry
        Total length         46.3494 bohr

     Starting wfcs are  298 atomic wfcs
  @ DRIVER MODE: Message from server: STATUS
  @ DRIVER MODE: Message from server: POSDATA
  @ DRIVER MODE: Reading and sharing cell
  @ DRIVER MODE: Reading and sharing positions
  @ DRIVER MODE: Received positions

     Self-consistent Calculation

     iteration #  1     ecut=    29.40 Ry     beta= 0.05
     Davidson diagonalization with overlap
     c_bands:  1 eigenvalues not converged
     c_bands:  1 eigenvalues not converged
     c_bands:  1 eigenvalues not converged
     c_bands:  1 eigenvalues not converged
     c_bands:  1 eigenvalues not converged
     c_bands:  1 eigenvalues not converged
     ethr =  1.00E-05,  avg # of iterations = 18.6

[...]

     total energy              =   -2699.58707715 Ry
     estimated scf accuracy    <    2638.41878719 Ry

[...]

     iteration #  3     ecut=    29.40 Ry     beta= 0.05
     Davidson diagonalization with overlap
     ethr =  1.00E-02,  avg # of iterations = 15.6

[...]

     iteration # 46     ecut=    29.40 Ry     beta= 0.05
     Davidson diagonalization with overlap
     c_bands:  3 eigenvalues not converged
     ethr =  3.79E-06,  avg # of iterations = 12.0

[...]

     total energy              =   -2937.89127225 Ry
     estimated scf accuracy    <       0.00000008 Ry

     iteration # 79     ecut=    29.40 Ry     beta= 0.05
     Davidson diagonalization with overlap
     ethr =  2.13E-11,  avg # of iterations =  6.0

     negative rho (up, down):  1.608E-02 0.000E+00

     Adding external electric field

     Computed dipole along edir(3) :
        Dipole                0.5194 Ry au,          1.3202 Debye
        Dipole field          0.0010 Ry au,

        Potential amp.       -0.0909 Ry
        Total length         46.3494 bohr

     End of self-consistent calculation

          k = 0.0000 0.0000 0.0000 ( 18029 PWs)   bands (ev):

   -56.3173 -56.2834 -55.8951 -55.8940 -55.8601 -55.8591 -55.8312 -55.7975
   -55.6766 -55.6682 -55.6372 -55.6317 -55.1650 -55.1340 -55.1310 -55.0570
   -32.7732 -32.6093 -32.5820 -32.4762 -32.4364 -32.3967 -32.3830 -32.3590
   -32.3176 -32.1931 -32.1795 -32.1513 -32.1399 -32.1178 -32.1091 -32.0771
   -32.0631 -32.0610 -32.0592 -32.0324 -32.0266 -32.0243 -32.0205 -32.0097
   -31.9948 -31.9939 -31.9832 -31.9415 -31.9110 -31.9072 -31.8430 -31.8290
   -31.8132 -31.8015 -31.7870 -31.7409 -31.6598 -31.5668 -31.4918 -31.4685
   -31.3868 -31.3840 -31.3450 -31.3111 -31.2984 -31.2596 -31.1874 -31.1835
   -17.7708 -16.6884 -16.5313 -16.2534 -16.0266 -15.9992 -15.8624 -15.8298
   -15.8068 -15.7795 -15.6590 -15.6185 -15.5797 -15.4636 -15.4193 -15.4081
   -15.3894 -15.3725 -15.3657 -15.2754 -15.2512 -15.2341 -15.1827 -15.0902
   -15.0570 -15.0162 -14.8754 -14.8570 -14.7620 -14.4993 -13.6659 -13.5520
   -11.9632  -6.6207  -4.6333  -4.1573  -4.0665  -4.0188  -3.8660  -3.7827
    -3.5944  -3.5629  -3.4684  -3.2414  -3.1584  -3.1470  -3.0708  -3.0554
    -3.0394  -2.9434  -2.8773  -2.8461  -2.8231  -2.8022  -2.7426  -2.6662
    -2.6213  -2.5858  -2.5692  -2.5331  -2.4291  -2.3709  -2.3560  -2.3342
    -2.2730  -2.2590  -2.2352  -2.2314  -2.1955  -2.1827  -2.1022  -2.0678
    -1.9455  -1.8718  -1.7487  -1.7430  -1.6690  -1.6528  -1.6259  -1.4286
    -1.4012  -1.3277  -1.2937  -1.2377  -1.2102  -1.1471  -1.0943  -1.0603
    -0.9635  -0.9381  -0.9055  -0.8701  -0.8498  -0.8203  -0.8002  -0.7400
    -0.6922  -0.5175  -0.4748  -0.4387  -0.3478  -0.3331  -0.3023  -0.2635
    -0.2433  -0.1965  -0.1916  -0.1781  -0.1194  -0.1040  -0.0197   0.0474
     0.0535   0.1010   0.1783   0.2401   0.2768   0.3935   0.4427   0.5096
     0.6045   0.6131   0.6742   0.8230   0.8393   0.8566   0.8627   1.0690
     1.3186   1.4187   1.4606   1.5573   2.7664   2.9035   3.0126   3.2093
     3.3257   3.3443   3.5232   3.6644   3.7007   3.7560   3.7637

[...]

          k = 0.0380-0.0419 0.0000 ( 17876 PWs)   bands (ev):

[...]

          k =-0.0760-0.0000 0.0000 ( 17886 PWs)   bands (ev):

[...]

          k =-0.0760-0.0839 0.0000 ( 17948 PWs)   bands (ev):

   -56.3005 -56.3001 -55.8794 -55.8794 -55.8747 -55.8743 -55.8153 -55.8135
   -55.6661 -55.6557 -55.6476 -55.6441 -55.1482 -55.1478 -55.1298 -55.0610
   -32.5951 -32.5945 -32.5890 -32.5887 -32.4279 -32.4274 -32.2433 -32.2395
   -32.1845 -32.1789 -32.1558 -32.1537 -32.1361 -32.1331 -32.0928 -32.0890
   -32.0690 -32.0632 -32.0567 -32.0544 -32.0432 -32.0417 -32.0284 -32.0273
   -32.0142 -32.0011 -31.9808 -31.9721 -31.9455 -31.9348 -31.8863 -31.8801
   -31.8719 -31.8467 -31.8151 -31.8117 -31.5489 -31.4816 -31.4812 -31.4038
   -31.3805 -31.3802 -31.3556 -31.3415 -31.3411 -31.3400 -31.2667 -31.2412
   -17.7650 -16.0472 -16.0450 -16.0423 -16.0360 -15.9176 -15.9155 -15.7578
   -15.7557 -15.7313 -15.7259 -15.5785 -15.5552 -15.5148 -15.5140 -15.4740
   -15.4640 -15.3938 -15.3912 -15.3834 -15.3778 -15.3612 -15.3567 -15.3114
   -15.2702 -15.0324 -14.9591 -14.9002 -14.7859 -14.6896 -13.6545 -13.6544
   -11.9675  -6.6152  -4.5720  -4.0624  -3.3372  -3.3326  -3.1711  -3.1532
    -3.0983  -3.0968  -3.0319  -2.9738  -2.9728  -2.8577  -2.8348  -2.7935
    -2.7902  -2.7762  -2.7736  -2.7394  -2.7331  -2.7116  -2.7046  -2.6494
    -2.6345  -2.6273  -2.6224  -2.5473  -2.5051  -2.4759  -2.4425  -2.4100
    -2.3784  -2.2917  -2.2883  -2.2489  -2.2262  -2.1699  -2.1662  -2.1115
    -2.0763  -2.0082  -1.9986  -1.7863  -1.7422  -1.7328  -1.6792  -1.5955
    -1.5731  -1.4285  -1.3969  -1.3337  -1.3131  -1.2713  -1.2535  -1.2459
    -1.1591  -1.1520  -1.1418  -1.0624  -1.0571  -0.9957  -0.9599  -0.9237
    -0.8435  -0.8294  -0.7898  -0.7867  -0.7776  -0.7092  -0.6626  -0.5912
    -0.5433  -0.5296  -0.4112  -0.3612  -0.2874  -0.2325  -0.1885  -0.0857
    -0.0443  -0.0346   0.1750   0.1855   0.2317   0.3229   0.4435   0.4445
     0.4827   0.5751   0.5959   0.6225   0.6394   0.8358   0.9089   1.2364
     1.2375   1.2773   1.2777   1.5221   2.7252   3.4282   3.4291   3.4543
     3.4548   3.5936   3.6173   3.6535   3.6625   3.7454   3.7484

     the Fermi energy is     2.8528 ev

!    total energy              =   -2937.89128383 Ry
     estimated scf accuracy    <       0.00000006 Ry
     smearing contrib. (-TS)   =      -0.01392950 Ry
     internal energy E=F+TS    =   -2937.87735433 Ry

     The total energy is F=E-TS. E is the sum of the following terms:
     one-electron contribution =  -24295.77129488 Ry
     hartree contribution      =   12234.22176894 Ry
     xc contribution           =    -484.32011896 Ry
     ewald contribution        =    9607.99178143 Ry
     electric field correction =       0.00050914 Ry

     convergence has been achieved in  79 iterations

     Forces acting on atoms (cartesian axes, Ry/au):

     atom    1 type  1   force =     0.00010528   -0.00021267    0.10747637
     atom    2 type  1   force =    -0.00011907   -0.00062913   -0.16926822
     atom    3 type  2   force =    -0.00016096    0.00000608   -0.04197368
     atom    4 type  2   force =     0.00005523   -0.00091968    0.04199801
     atom    5 type  2   force =    -0.01491049    0.00022164   -0.00302898
     atom    6 type  2   force =     0.01654588    0.00103706   -0.00400610
     atom    7 type  1   force =    -0.00113390   -0.00213552    0.00248489
     atom    8 type  1   force =     0.00131772    0.00452397    0.07566402
     atom    9 type  2   force =     0.00004280    0.00010877    0.00039101
     atom   10 type  2   force =    -0.00132686    0.00009975   -0.04731389
     atom   11 type  2   force =    -0.00046855    0.00032270    0.00021251
     atom   12 type  2   force =    -0.00009138    0.00050529    0.00012268
     atom   13 type  1   force =     0.00044798   -0.00041642    0.00087461
     atom   14 type  1   force =    -0.00013742   -0.00012043   -0.00000328
     atom   15 type  2   force =    -0.00019724   -0.00019397   -0.00004743
     atom   16 type  2   force =     0.00019854    0.00024473   -0.00022132
     atom   17 type  2   force =     0.00007406    0.00048637    0.00027068
     atom   18 type  2   force =    -0.00035767   -0.00006593   -0.00030772
     atom   19 type  1   force =     0.00019938    0.00077158   -0.00022583
     atom   20 type  1   force =     0.00017820    0.00055381    0.00048720
     atom   21 type  2   force =     0.00007081    0.00004374    0.10163090
     atom   22 type  2   force =    -0.00040346    0.00038381    0.00016258
     atom   23 type  2   force =    -0.07420517   -0.00003300   -0.02981876
     atom   24 type  2   force =     0.07416143    0.00042009   -0.02982070
     atom   25 type  1   force =     0.00025593   -0.00034059    0.10697768
     atom   26 type  1   force =    -0.00002700   -0.00037330   -0.16934897
     atom   27 type  2   force =    -0.00004196   -0.00029379   -0.04091734
     atom   28 type  2   force =     0.00011017   -0.00074587    0.04196801
     atom   29 type  2   force =    -0.01521314    0.00063932   -0.00331520
     atom   30 type  2   force =     0.01677639    0.00101297   -0.00428697
     atom   31 type  1   force =    -0.00133090    0.00037416    0.00224177
     atom   32 type  1   force =     0.00130707   -0.00711523    0.07629115
     atom   33 type  2   force =    -0.00004952    0.00016808    0.00011996
     atom   34 type  2   force =    -0.00146703   -0.00007916   -0.05561262
     atom   35 type  2   force =     0.00001003    0.00005667    0.00009287
     atom   36 type  2   force =    -0.00004737    0.00021527   -0.00016835
     atom   37 type  1   force =     0.00022041    0.00028166    0.00059911
     atom   38 type  1   force =     0.00012141    0.00022838   -0.00025377
     atom   39 type  2   force =    -0.00024158   -0.00003259   -0.00082460
     atom   40 type  2   force =     0.00008156    0.00026650    0.00011326
     atom   41 type  2   force =    -0.00047790    0.00025045   -0.00046450
     atom   42 type  2   force =     0.00023900    0.00023038    0.00022935
     atom   43 type  1   force =    -0.00011535    0.00061248    0.00025025
     atom   44 type  1   force =    -0.00023822   -0.00021328    0.00017776
     atom   45 type  2   force =     0.00006314   -0.00000596    0.10164617
     atom   46 type  2   force =    -0.07419851    0.00001348   -0.02978840
     atom   47 type  2   force =     0.07415362    0.00044470   -0.02980620
     atom   48 type  3   force =     0.00728107   -0.00159061   -0.01494269
     atom   49 type  3   force =    -0.00005624   -0.00077932   -0.00531951
     atom   50 type  4   force =    -0.00148034    0.00224820    0.02984260
     atom   51 type  5   force =     0.00046907    0.00017074   -0.00266314
     atom   52 type  5   force =    -0.00598895   -0.00064637   -0.00857723

     Total force =     0.391006     Total SCF correction =     0.000723
  @ DRIVER MODE: Message from server: STATUS
  @ DRIVER MODE: Message from server: GETFORCE
  @ DRIVER MODE: Returning v,forces,stress,ensemble

     Writing output data file ./calc.save/
  @ DRIVER MODE: Message from server: EXIT
  @ DRIVE MODE: Exiting

     General routines

     Parallel routines

   This run was terminated on:  20:51:19  23Aug2021

   JOB DONE.