     Program PWSCF v.6.7GPU starts on 21Sep2021 at 20:24: 6

     R & G space division:  proc/nbgrp/npool/nimage =      10
     Reading input from /storage/home/hcoda1/3/ntian30/research/carbon/CxH_vib/CH3_calc/ads_slab/CH3ON2_a/out_0025/pw.inp
Warning: card &CELL ignored
Warning: card   CELL_DYNAMICS='IPI', ignored
Warning: card / ignored

     Current dimensions of program PWSCF are:
     Max number of different atomic species (ntypx) = 10
     Max number of k-points (npk) =  40000
     Max angular momentum in pseudopotentials (lmaxx) =  3
     Presently no symmetry can be used with electric field

     Message from routine cell_base_init:
     DEPRECATED: use true lattice parameter, not A to a.u. conversion factor

     IMPORTANT: XC functional enforced from input :
     Exchange-correlation= BEEF-VDW
                           (   1   4  43  14   2   0   0)
     Any further DFT definition will be discarded
     Please, verify this is what you really want

  @ DRIVER MODE: Connecting to
 qe_1139763_2922197.sched-torque.pace.gatech.edugmm1s2mv_scratch
  using UNIX socket
  @ DRIVER MODE: Message from server: STATUS
  @ DRIVER MODE: Message from server: INIT
  @ DRIVER MODE: Receiving replica           0          -1
  @ DRIVER MODE: Receiving encoded integer          25
  @ DRIVER MODE:  SCF:  T  FORCE:  T  STRESS:  F  VC:  F  ENSEMBLE:  F
  @ DRIVER MODE:  SCF:  T  FORCE:  T  STRESS:  F  VC:  F  ENSEMBLE:  F

     Using Slab Decomposition

     bravais-lattice index     =            0
     lattice parameter (alat)  =       1.8897  a.u.
     unit-cell volume          =    6658.9804 (a.u.)^3
     number of atoms/cell      =           54
     number of atomic types    =            5
     number of electrons       =       401.00
     number of Kohn-Sham states=          210
     kinetic-energy cutoff     =      29.3995  Ry
     charge density cutoff     =     293.9946  Ry
     scf convergence threshold =      7.3E-08
     mixing beta               =       0.0500
     number of iterations used =            8  plain     mixing
     Exchange-correlation= BEEF-VDW
                           (   1   4  43  14   2   0   0)

     celldm(1)=   1.889726  celldm(2)=   0.000000  celldm(3)=   0.000000
     celldm(4)=   0.000000  celldm(5)=   0.000000  celldm(6)=   0.000000

     crystal axes: (cart. coord. in units of alat)
               a(1) = (   6.579727   0.000000   0.000000 )
               a(2) = (  -0.000775   5.961596   0.000000 )
               a(3) = (   0.000000   0.000000  25.155947 )

     reciprocal axes: (cart. coord. in units 2 pi/alat)
               b(1) = (  0.151982  0.000020  0.000000 )
               b(2) = (  0.000000  0.167740  0.000000 )
               b(3) = (  0.000000  0.000000  0.039752 )

     PseudoPot. # 1 for Ti read from file:
     /storage/coda1/p-amedford6/0/shared/rich_project_chbe-medford/medford-share/data/pseudos_module/espresso/nninc/pbe/van/Ti.UPF
     MD5 check sum: 8e4df49b7f0d34bbd5052bf3f5ea0213
     Pseudo is Ultrasoft, Zval = 12.0
     Generated by new atomic code, or converted to UPF format
     Using radial grid of  851 points,  6 beta functions with:
                l(1) =   0
                l(2) =   0
                l(3) =   1
                l(4) =   1
                l(5) =   2
                l(6) =   2
     Q(r) pseudized with  8 coefficients,  rinner =    1.000   1.000   1.000
                                                       1.000   1.000

     PseudoPot. # 2 for O  read from file:
     /storage/coda1/p-amedford6/0/shared/rich_project_chbe-medford/medford-share/data/pseudos_module/espresso/nninc/pbe/van/O.UPF
     MD5 check sum: 78c19812648e8988a0fe644b0f25305e
     Pseudo is Ultrasoft, Zval =  6.0
     Generated by new atomic code, or converted to UPF format
     Using radial grid of  737 points,  4 beta functions with:
                l(1) =   0
                l(2) =   0
                l(3) =   1
                l(4) =   1
     Q(r) pseudized with  8 coefficients,  rinner =    0.800   0.800   0.800

     PseudoPot. # 3 for C  read from file:
     /storage/coda1/p-amedford6/0/shared/rich_project_chbe-medford/medford-share/data/pseudos_module/espresso/nninc/pbe/van/C.UPF
     MD5 check sum: 1a69bf6b8db32088f5b2163dbdb77a27
     Pseudo is Ultrasoft, Zval =  4.0
     Generated by new atomic code, or converted to UPF format
     Using radial grid of  721 points,  4 beta functions with:
                l(1) =   0
                l(2) =   0
                l(3) =   1
                l(4) =   1
     Q(r) pseudized with  8 coefficients,  rinner =    0.800   0.800   0.800

     PseudoPot. # 4 for H  read from file:
     /storage/coda1/p-amedford6/0/shared/rich_project_chbe-medford/medford-share/data/pseudos_module/espresso/nninc/pbe/van/H.UPF
     MD5 check sum: b5ee9d7bfd3a09ee7748110bda690ff7
     Pseudo is Ultrasoft, Zval =  1.0
     Generated by new atomic code, or converted to UPF format
     Using radial grid of  615 points,  1 beta functions with:
                l(1) =   0
     Q(r) pseudized with  8 coefficients,  rinner =    0.800

     PseudoPot. # 5 for N  read from file:
     /storage/coda1/p-amedford6/0/shared/rich_project_chbe-medford/medford-share/data/pseudos_module/espresso/nninc/pbe/van/N.UPF
     MD5 check sum: 90d10febe142ad51ac9d5be1deb811c4
     Pseudo is Ultrasoft, Zval =  5.0
     Generated by new atomic code, or converted to UPF format
     Using radial grid of  729 points,  4 beta functions with:
                l(1) =   0
                l(2) =   0
                l(3) =   1
                l(4) =   1
     Q(r) pseudized with  8 coefficients,  rinner =    0.800   0.800   0.800

     atomic species   valence    mass     pseudopotential
        Ti1           12.00    47.86700     Ti( 1.00)
        O1             6.00    15.99900     O ( 1.00)
        C1             4.00    12.01100     C ( 1.00)
        H1             1.00     1.00800     H ( 1.00)
        N1             5.00    14.00700     N ( 1.00)

     No symmetry found

   Cartesian axes

     site n.     atom                  positions (alat units)
         1           Ti1 tau(   1) = (   0.0004258   2.9801865   6.0000000  )
         2           Ti1 tau(   2) = (   3.2906075   1.4906267   6.0002472  )
         3           O1  tau(   3) = (   0.0006271   0.0005054   7.9858123  )
         4           O1  tau(   4) = (   3.2906025   0.0005020   7.3038282  )
         5           O1  tau(   5) = (   4.5942328   1.4918067   9.2879030  )
         6           O1  tau(   6) = (   1.9868534   1.4903216   9.2879459  )
         7           Ti1 tau(   7) = (   3.3204934   3.0328528   9.1574130  )
         8           Ti1 tau(   8) = (   0.0292148   1.6159158   9.3632543  )
         9           O1  tau(   9) = (   3.3070435   0.0102262  11.3480939  )
        10           O1  tau(  10) = (   0.0088878   0.0096727  10.6115680  )
        11           O1  tau(  11) = (   1.3030819   1.4981340  12.6442205  )
        12           O1  tau(  12) = (   5.3040506   1.5010416  12.6455732  )
        13           Ti1 tau(  13) = (   0.0403577   3.0063940  12.8112948  )
        14           Ti1 tau(  14) = (   3.3464846   1.5065728  12.4912112  )
        15           O1  tau(  15) = (   0.0134291   0.0009660  14.7247257  )
        16           O1  tau(  16) = (   3.3093041   0.0058478  13.9373560  )
        17           O1  tau(  17) = (   4.5500255   1.4945122  16.1009386  )
        18           O1  tau(  18) = (   2.0583445   1.4942802  16.1012567  )
        19           Ti1 tau(  19) = (   3.3037885   2.9813703  15.7231771  )
        20           Ti1 tau(  20) = (   0.0263689   1.3683668  16.1009981  )
        21           O1  tau(  21) = (   3.2904802   0.0005063   4.7018136  )
        22           O1  tau(  22) = (   0.0160251   5.9515368  17.2504238  )
        23           O1  tau(  23) = (   1.3043587   1.4918075   6.0039043  )
        24           O1  tau(  24) = (   5.2767064   1.4903225   6.0039473  )
        25           Ti1 tau(  25) = (   0.0000382   5.9609847   6.0000000  )
        26           Ti1 tau(  26) = (   3.2902200   4.4714249   6.0002472  )
        27           O1  tau(  27) = (   0.0002396   2.9813036   7.9858123  )
        28           O1  tau(  28) = (   3.2902150   2.9813002   7.3038282  )
        29           O1  tau(  29) = (   4.5938453   4.4726049   9.2879030  )
        30           O1  tau(  30) = (   1.9864658   4.4711199   9.2879459  )
        31           Ti1 tau(  31) = (   3.3068128   0.0556959   9.1539818  )
        32           Ti1 tau(  32) = (   0.0329352   4.5395830   9.2719105  )
        33           O1  tau(  33) = (   3.3067668   2.9902038  11.3487497  )
        34           O1  tau(  34) = (   0.0086428   2.9933526  10.5732881  )
        35           O1  tau(  35) = (   1.3040514   4.4849883  12.6410176  )
        36           O1  tau(  36) = (   5.3019722   4.4792838  12.6433842  )
        37           Ti1 tau(  37) = (   0.0449501   0.0247790  12.5283380  )
        38           Ti1 tau(  38) = (   3.3452221   4.4882979  12.4886840  )
        39           O1  tau(  39) = (   0.0326844   3.0101588  14.7024583  )
        40           O1  tau(  40) = (   3.3056340   2.9839048  13.9300935  )
        41           O1  tau(  41) = (   4.5482541   4.4683137  16.0944903  )
        42           O1  tau(  42) = (   2.0564524   4.4684886  16.0889558  )
        43           Ti1 tau(  43) = (   3.3155465   0.0028818  15.7289974  )
        44           Ti1 tau(  44) = (   0.0293978   4.5260084  15.9878609  )
        45           O1  tau(  45) = (   3.2900926   2.9813045   4.7018136  )
        46           O1  tau(  46) = (   1.3039711   4.4726057   6.0039043  )
        47           O1  tau(  47) = (   5.2763189   4.4711207   6.0039473  )
        48           C1  tau(  48) = (   6.0941187   3.0165090  18.6783144  )
        49           O1  tau(  49) = (   6.5649259   2.9843894  17.3344459  )
        50           H1  tau(  50) = (   5.0084317   2.8724860  18.7083625  )
        51           H1  tau(  51) = (   6.5664557   2.2147430  19.2506469  )
        52           H1  tau(  52) = (   6.3218479   3.9831036  19.1258517  )
        53           N1  tau(  53) = (   6.0286935   3.0693532  22.8641725  )
        54           N1  tau(  54) = (   5.2900788   3.1330812  22.0463807  )

     number of k points=    10  Fermi-Dirac smearing, width (Ry)=  0.0073
                       cart. coord. in units 2pi/alat
        k(    1) = (   0.0000000   0.0000000   0.0000000), wk =   0.1250000
        k(    2) = (   0.0000000   0.0419351   0.0000000), wk =   0.2500000
        k(    3) = (   0.0000000  -0.0838702   0.0000000), wk =   0.1250000
        k(    4) = (   0.0379955   0.0000049   0.0000000), wk =   0.2500000
        k(    5) = (   0.0379955   0.0419400   0.0000000), wk =   0.2500000
        k(    6) = (   0.0379955  -0.0838652   0.0000000), wk =   0.2500000
        k(    7) = (   0.0379955  -0.0419301   0.0000000), wk =   0.2500000
        k(    8) = (  -0.0759910  -0.0000099   0.0000000), wk =   0.1250000
        k(    9) = (  -0.0759910   0.0419252   0.0000000), wk =   0.2500000
        k(   10) = (  -0.0759910  -0.0838800   0.0000000), wk =   0.1250000

     Initial potential from superposition of free atoms

     starting charge  384.99916, renormalised to  401.00000

     negative rho (up, down):  1.014E-02 0.000E+00

     %%%%%%%%%%%%%%%%%%%%%%%%%%%%%%%%%%%%%%%%%%%%%%%%%%%%%%%%%%%%%%%%%%%%%%%%
     %                                                                      %
     % You are using vdW-DF, which was implemented by the Thonhauser group. %
     % Please cite the following two papers that made this development      %
     % possible and the two reviews that describe the various versions:     %
     %                                                                      %
     %   T. Thonhauser et al., PRL 115, 136402 (2015).                      %
     %   T. Thonhauser et al., PRB 76, 125112 (2007).                       %
     %   K. Berland et al., Rep. Prog. Phys. 78, 066501 (2015).             %
     %   D.C. Langreth et al., J. Phys.: Condens. Matter 21, 084203 (2009). %
     %                                                                      %
     %                                                                      %
     % If you are calculating the stress with vdW-DF, please also cite:     %
     %                                                                      %
     %   R. Sabatini et al., J. Phys.: Condens. Matter 24, 424209 (2012).   %
     %                                                                      %
     %%%%%%%%%%%%%%%%%%%%%%%%%%%%%%%%%%%%%%%%%%%%%%%%%%%%%%%%%%%%%%%%%%%%%%%%

     Adding external electric field

     Computed dipole along edir(3) :
        Dipole              -14.4684 Ry au,        -36.7751 Debye
        Dipole field         -0.0273 Ry au,

        Potential amp.        2.5310 Ry
        Total length         46.3494 bohr

     Starting wfcs are  303 atomic wfcs
  @ DRIVER MODE: Message from server: STATUS
  @ DRIVER MODE: Message from server: POSDATA
  @ DRIVER MODE: Reading and sharing cell
  @ DRIVER MODE: Reading and sharing positions
  @ DRIVER MODE: Received positions

     Self-consistent Calculation

     iteration #  1     ecut=    29.40 Ry     beta= 0.05
     Davidson diagonalization with overlap
     c_bands:  3 eigenvalues not converged
     c_bands:  3 eigenvalues not converged
     c_bands:  4 eigenvalues not converged
     c_bands:  3 eigenvalues not converged
     c_bands:  5 eigenvalues not converged
     c_bands:  3 eigenvalues not converged
     c_bands:  5 eigenvalues not converged
     c_bands:  3 eigenvalues not converged
     c_bands:  3 eigenvalues not converged
     c_bands:  1 eigenvalues not converged
     ethr =  1.00E-05,  avg # of iterations = 24.0

[...]

     total energy              =   -2414.27553217 Ry
     estimated scf accuracy    <    6341.48225158 Ry

     iteration #  2     ecut=    29.40 Ry     beta= 0.05
     Davidson diagonalization with overlap
     ethr =  1.00E-02,  avg # of iterations = 24.4

[...]

     iteration # 80     ecut=    29.40 Ry     beta= 0.05
     Davidson diagonalization with overlap
     c_bands:  1 eigenvalues not converged
     ethr =  2.61E-11,  avg # of iterations = 16.2

[...]

     total energy              =   -2971.68369833 Ry
     estimated scf accuracy    <       0.00000014 Ry

     iteration # 82     ecut=    29.40 Ry     beta= 0.05
     Davidson diagonalization with overlap
     ethr =  2.61E-11,  avg # of iterations = 10.3

     negative rho (up, down):  1.202E-02 0.000E+00

     Adding external electric field

     Computed dipole along edir(3) :
        Dipole                0.7569 Ry au,          1.9239 Debye
        Dipole field          0.0014 Ry au,

        Potential amp.       -0.1324 Ry
        Total length         46.3494 bohr

     End of self-consistent calculation

          k = 0.0000 0.0000 0.0000 ( 18029 PWs)   bands (ev):

   -55.6081 -55.5932 -55.5715 -55.5570 -55.5027 -55.4920 -55.4687 -55.4408
   -55.4344 -55.3801 -55.3713 -55.3645 -55.3308 -55.2517 -54.6223 -54.5882
   -32.1592 -32.0760 -32.0116 -31.9571 -31.9273 -31.9077 -31.8994 -31.8766
   -31.8439 -31.8323 -31.8141 -31.8088 -31.8067 -31.7746 -31.7683 -31.7526
   -31.7464 -31.7387 -31.7270 -31.6984 -31.6970 -31.6731 -31.6702 -31.6574
   -31.6487 -31.6470 -31.6246 -31.6179 -31.6089 -31.5964 -31.5892 -31.5890
   -31.5835 -31.5667 -31.5462 -31.5387 -31.5346 -31.5087 -31.4755 -31.4683
   -31.4467 -31.4399 -31.0322 -30.9348 -30.9125 -30.8487 -30.7627 -30.6516
   -21.1875 -17.3490 -16.3456 -16.0530 -15.8905 -15.7566 -15.7261 -15.6219
   -15.4322 -15.2942 -15.2753 -15.2125 -15.1747 -15.1631 -15.1341 -15.1296
   -15.1169 -15.1139 -15.0644 -15.0327 -15.0290 -15.0112 -14.9874 -14.9258
   -14.8853 -14.8058 -14.7582 -14.7266 -14.6704 -14.6084 -14.5924 -13.1231
   -13.0048  -9.1823  -6.3543  -4.3292  -4.3102  -4.0651  -3.8274  -3.7051
    -3.5324  -3.5211  -3.4973  -3.4730  -3.4112  -3.1643  -3.1474  -3.0489
    -2.8299  -2.7715  -2.7477  -2.7327  -2.7275  -2.4849  -2.4654  -2.4351
    -2.4251  -2.4153  -2.3886  -2.3619  -2.3584  -2.3271  -2.3089  -2.2169
    -2.1375  -2.1259  -2.0199  -1.9835  -1.9572  -1.9095  -1.8790  -1.8636
    -1.8471  -1.8194  -1.8056  -1.7765  -1.7736  -1.6750  -1.5502  -1.4384
    -1.4090  -1.3715  -1.3080  -1.1025  -1.0536  -1.0222  -1.0092  -0.9511
    -0.9251  -0.9159  -0.8383  -0.8058  -0.7843  -0.6767  -0.6147  -0.5942
    -0.5651  -0.5023  -0.4699  -0.4247  -0.3469  -0.3316  -0.3185  -0.1005
    -0.0788  -0.0693  -0.0598   0.0543   0.1048   0.1627   0.1748   0.1837
     0.2140   0.2951   0.3468   0.3660   0.3862   0.4075   0.4454   0.5193
     0.5431   0.5720   0.5973   0.6255   0.7161   0.7673   0.9081   1.0380
     1.0629   1.1597   1.3053   1.4018   1.4762   1.5726   1.9909   2.0503
     3.5792   3.6070   3.6402   3.6697   3.7325   3.8463   3.9656   4.0149
     4.0379   4.0618

[...]

          k = 0.0380-0.0419 0.0000 ( 17876 PWs)   bands (ev):

[...]

          k =-0.0760-0.0000 0.0000 ( 17886 PWs)   bands (ev):

[...]

          k =-0.0760-0.0839 0.0000 ( 17948 PWs)   bands (ev):

   -55.5966 -55.5829 -55.5760 -55.5740 -55.5001 -55.4863 -55.4522 -55.4509
   -55.4465 -55.3773 -55.3736 -55.3500 -55.3456 -55.2539 -54.6057 -54.6046
   -31.9635 -31.9580 -31.9117 -31.8996 -31.8885 -31.8850 -31.8670 -31.8625
   -31.8590 -31.8173 -31.7947 -31.7890 -31.7877 -31.7493 -31.7388 -31.7330
   -31.7231 -31.7228 -31.7188 -31.7138 -31.7103 -31.6930 -31.6881 -31.6829
   -31.6783 -31.6721 -31.6654 -31.6546 -31.6543 -31.6498 -31.6261 -31.6024
   -31.6016 -31.5989 -31.5937 -31.5765 -31.5718 -31.5607 -31.5545 -31.5440
   -31.4840 -31.4483 -30.9258 -30.9245 -30.8456 -30.8447 -30.8062 -30.8052
   -21.1874 -17.3126 -15.7827 -15.7717 -15.5278 -15.5257 -15.5234 -15.4548
   -15.3635 -15.3463 -15.3280 -15.3235 -15.2655 -15.2582 -15.2437 -15.1836
   -15.1439 -15.1248 -15.1127 -15.1103 -15.0575 -15.0533 -15.0006 -14.9783
   -14.9633 -14.9563 -14.9388 -14.9321 -14.8426 -14.8392 -14.7669 -13.1073
   -13.1049  -9.1829  -6.3548  -4.3268  -4.3172  -3.9426  -3.7941  -3.5250
    -3.0750  -3.0609  -3.0398  -2.7695  -2.7447  -2.7429  -2.6491  -2.5621
    -2.5231  -2.4859  -2.4481  -2.4451  -2.4436  -2.4245  -2.4052  -2.3932
    -2.3711  -2.3569  -2.3455  -2.2860  -2.2494  -2.2412  -2.2365  -2.2282
    -2.2004  -2.1809  -2.1594  -2.1534  -2.1432  -2.1230  -2.0299  -1.8907
    -1.8567  -1.7473  -1.7373  -1.7073  -1.6931  -1.6615  -1.6542  -1.6349
    -1.5280  -1.4590  -1.3371  -1.3246  -1.3067  -1.2548  -1.1856  -1.1121
    -1.0545  -1.0236  -1.0052  -0.9147  -0.9028  -0.8243  -0.8125  -0.7600
    -0.7246  -0.7059  -0.6140  -0.5754  -0.5625  -0.5499  -0.4789  -0.4634
    -0.4390  -0.4047  -0.3457  -0.3360  -0.2615  -0.2300  -0.1817  -0.1208
    -0.0993  -0.0470   0.0409   0.2086   0.3027   0.4024   0.4383   0.4965
     0.5094   0.6061   0.6495   0.6681   0.6731   0.7576   0.8247   0.8508
     0.9177   0.9321   0.9547   1.0179   1.7618   1.7633   1.8536   1.8638
     3.7848   3.8130   3.8330   3.8796   4.0387   4.0433   4.0625   4.0659
     4.1413   4.2050

     the Fermi energy is     3.5470 ev

!    total energy              =   -2971.68371306 Ry
     estimated scf accuracy    <       0.00000005 Ry
     smearing contrib. (-TS)   =      -0.02321048 Ry
     internal energy E=F+TS    =   -2971.66050258 Ry

     The total energy is F=E-TS. E is the sum of the following terms:
     one-electron contribution =  -22785.48184788 Ry
     hartree contribution      =   11484.71227515 Ry
     xc contribution           =    -492.27035520 Ry
     ewald contribution        =    8821.37834415 Ry
     electric field correction =       0.00108119 Ry

     convergence has been achieved in  82 iterations

     Forces acting on atoms (cartesian axes, Ry/au):

     atom    1 type  1   force =    -0.00021056   -0.00154618    0.10612901
     atom    2 type  1   force =    -0.00045357    0.00047837   -0.17981214
     atom    3 type  2   force =     0.00026699   -0.00689364   -0.03319164
     atom    4 type  2   force =     0.00054060    0.00050685    0.04562213
     atom    5 type  2   force =    -0.01838899    0.00015760    0.00401030
     atom    6 type  2   force =     0.02060876   -0.00127845    0.00460429
     atom    7 type  1   force =    -0.00033789   -0.00019625    0.00007369
     atom    8 type  1   force =    -0.00017681   -0.00127097    0.00020230
     atom    9 type  2   force =     0.00001369    0.00011450   -0.00076920
     atom   10 type  2   force =    -0.00005612    0.00002594   -0.00041549
     atom   11 type  2   force =     0.00005329    0.00007602    0.00041700
     atom   12 type  2   force =    -0.00071408    0.00015027    0.00037887
     atom   13 type  1   force =    -0.00000441    0.00042726    0.00050956
     atom   14 type  1   force =    -0.00014611    0.00087609    0.00019669
     atom   15 type  2   force =    -0.00044651   -0.00028238    0.00003888
     atom   16 type  2   force =    -0.00019001    0.00013309   -0.00072227
     atom   17 type  2   force =    -0.00038195    0.00005614    0.00011799
     atom   18 type  2   force =     0.00037401   -0.00009725   -0.00046769
     atom   19 type  1   force =    -0.00003424    0.00069656   -0.00053736
     atom   20 type  1   force =    -0.00029173    0.00007056   -0.00041785
     atom   21 type  2   force =    -0.00006539    0.00009744    0.10413222
     atom   22 type  2   force =    -0.00010172   -0.00044096   -0.00071005
     atom   23 type  2   force =    -0.06901261    0.00067879   -0.02955460
     atom   24 type  2   force =     0.06866841    0.00115463   -0.02961356
     atom   25 type  1   force =    -0.00013070    0.00147019    0.11714544
     atom   26 type  1   force =    -0.00022602    0.00000026   -0.17988848
     atom   27 type  2   force =     0.00042402    0.00389740   -0.02758281
     atom   28 type  2   force =     0.00072572    0.00077722    0.04706915
     atom   29 type  2   force =    -0.01716859    0.00151733    0.00339340
     atom   30 type  2   force =     0.01882175    0.00099558    0.00381330
     atom   31 type  1   force =    -0.00038565    0.00043805   -0.00028852
     atom   32 type  1   force =    -0.00022303    0.00075917    0.00041591
     atom   33 type  2   force =    -0.00028298   -0.00010140   -0.00017758
     atom   34 type  2   force =    -0.00003229    0.00048475    0.00030710
     atom   35 type  2   force =    -0.00004737    0.00005967    0.00054555
     atom   36 type  2   force =    -0.00067693   -0.00005860    0.00042576
     atom   37 type  1   force =    -0.00005743   -0.00017372    0.00008037
     atom   38 type  1   force =    -0.00007417   -0.00115016    0.00008542
     atom   39 type  2   force =    -0.00021554    0.00001484    0.00049976
     atom   40 type  2   force =    -0.00022300    0.00020249    0.00071750
     atom   41 type  2   force =    -0.00091348   -0.00039423   -0.00019749
     atom   42 type  2   force =     0.00080609   -0.00015796   -0.00004625
     atom   43 type  1   force =     0.00021814   -0.00085724    0.00025914
     atom   44 type  1   force =     0.00004559    0.00116761   -0.00021601
     atom   45 type  2   force =    -0.00006246    0.00007290    0.10418999
     atom   46 type  2   force =    -0.06859568   -0.00128385   -0.02959972
     atom   47 type  2   force =     0.06835532   -0.00086110   -0.02968389
     atom   48 type  3   force =    -0.00223034   -0.00269340   -0.00126838
     atom   49 type  2   force =    -0.00001840    0.00085169    0.00053764
     atom   50 type  4   force =    -0.00008431   -0.00104194   -0.00078878
     atom   51 type  4   force =     0.00015092    0.00046290   -0.00008486
     atom   52 type  4   force =     0.00273397    0.00200891    0.00047281
     atom   53 type  5   force =     0.00055836    0.00001330    0.00077367
     atom   54 type  5   force =    -0.00070457   -0.00011469   -0.00113021

     Total force =     0.376169     Total SCF correction =     0.000581
  @ DRIVER MODE: Message from server: STATUS
  @ DRIVER MODE: Message from server: GETFORCE
  @ DRIVER MODE: Returning v,forces,stress,ensemble

     Writing output data file ./calc.save/
  @ DRIVER MODE: Message from server: EXIT
  @ DRIVE MODE: Exiting

     General routines

     Parallel routines

   This run was terminated on:  20:46:19  21Sep2021

   JOB DONE.