     Program PWSCF v.6.7GPU starts on 24Aug2021 at 10:26:28

     R & G space division:  proc/nbgrp/npool/nimage =      72
     Reading input from /storage/home/hcoda1/3/ntian30/research/carbon/CH2_vib/ads_slab/CH2NH_a/out_0002/pw.inp
Warning: card &CELL ignored
Warning: card   CELL_DYNAMICS='IPI', ignored
Warning: card / ignored

     Current dimensions of program PWSCF are:
     Max number of different atomic species (ntypx) = 10
     Max number of k-points (npk) =  40000
     Max angular momentum in pseudopotentials (lmaxx) =  3
     Presently no symmetry can be used with electric field

     Message from routine cell_base_init:
     DEPRECATED: use true lattice parameter, not A to a.u. conversion factor

     IMPORTANT: XC functional enforced from input :
     Exchange-correlation= BEEF-VDW
                           (   1   4  43  14   2   0   0)
     Any further DFT definition will be discarded
     Please, verify this is what you really want

  @ DRIVER MODE: Connecting to
 qe_1139763_2641438.sched-torque.pace.gatech.eduahr0it1g_scratch
  using UNIX socket
  @ DRIVER MODE: Message from server: STATUS
  @ DRIVER MODE: Message from server: INIT
  @ DRIVER MODE: Receiving replica           0          -1
  @ DRIVER MODE: Receiving encoded integer          25
  @ DRIVER MODE:  SCF:  T  FORCE:  T  STRESS:  F  VC:  F  ENSEMBLE:  F
  @ DRIVER MODE:  SCF:  T  FORCE:  T  STRESS:  F  VC:  F  ENSEMBLE:  F

     Using Slab Decomposition

     bravais-lattice index     =            0
     lattice parameter (alat)  =       1.8897  a.u.
     unit-cell volume          =    6658.9804 (a.u.)^3
     number of atoms/cell      =           52
     number of atomic types    =            5
     number of electrons       =       390.00
     number of Kohn-Sham states=          205
     kinetic-energy cutoff     =      29.3995  Ry
     charge density cutoff     =     293.9946  Ry
     scf convergence threshold =      7.3E-08
     mixing beta               =       0.0500
     number of iterations used =            8  plain     mixing
     Exchange-correlation= BEEF-VDW
                           (   1   4  43  14   2   0   0)

     celldm(1)=   1.889726  celldm(2)=   0.000000  celldm(3)=   0.000000
     celldm(4)=   0.000000  celldm(5)=   0.000000  celldm(6)=   0.000000

     crystal axes: (cart. coord. in units of alat)
               a(1) = (   6.579727   0.000000   0.000000 )
               a(2) = (  -0.000775   5.961596   0.000000 )
               a(3) = (   0.000000   0.000000  25.155947 )

     reciprocal axes: (cart. coord. in units 2 pi/alat)
               b(1) = (  0.151982  0.000020  0.000000 )
               b(2) = (  0.000000  0.167740  0.000000 )
               b(3) = (  0.000000  0.000000  0.039752 )

     PseudoPot. # 1 for Ti read from file:
     /storage/coda1/p-amedford6/0/shared/rich_project_chbe-medford/medford-share/data/pseudos_module/espresso/nninc/pbe/van/Ti.UPF
     MD5 check sum: 8e4df49b7f0d34bbd5052bf3f5ea0213
     Pseudo is Ultrasoft, Zval = 12.0
     Generated by new atomic code, or converted to UPF format
     Using radial grid of  851 points,  6 beta functions with:
                l(1) =   0
                l(2) =   0
                l(3) =   1
                l(4) =   1
                l(5) =   2
                l(6) =   2
     Q(r) pseudized with  8 coefficients,  rinner =    1.000   1.000   1.000
                                                       1.000   1.000

     PseudoPot. # 2 for O  read from file:
     /storage/coda1/p-amedford6/0/shared/rich_project_chbe-medford/medford-share/data/pseudos_module/espresso/nninc/pbe/van/O.UPF
     MD5 check sum: 78c19812648e8988a0fe644b0f25305e
     Pseudo is Ultrasoft, Zval =  6.0
     Generated by new atomic code, or converted to UPF format
     Using radial grid of  737 points,  4 beta functions with:
                l(1) =   0
                l(2) =   0
                l(3) =   1
                l(4) =   1
     Q(r) pseudized with  8 coefficients,  rinner =    0.800   0.800   0.800

     PseudoPot. # 3 for N  read from file:
     /storage/coda1/p-amedford6/0/shared/rich_project_chbe-medford/medford-share/data/pseudos_module/espresso/nninc/pbe/van/N.UPF
     MD5 check sum: 90d10febe142ad51ac9d5be1deb811c4
     Pseudo is Ultrasoft, Zval =  5.0
     Generated by new atomic code, or converted to UPF format
     Using radial grid of  729 points,  4 beta functions with:
                l(1) =   0
                l(2) =   0
                l(3) =   1
                l(4) =   1
     Q(r) pseudized with  8 coefficients,  rinner =    0.800   0.800   0.800

     PseudoPot. # 4 for C  read from file:
     /storage/coda1/p-amedford6/0/shared/rich_project_chbe-medford/medford-share/data/pseudos_module/espresso/nninc/pbe/van/C.UPF
     MD5 check sum: 1a69bf6b8db32088f5b2163dbdb77a27
     Pseudo is Ultrasoft, Zval =  4.0
     Generated by new atomic code, or converted to UPF format
     Using radial grid of  721 points,  4 beta functions with:
                l(1) =   0
                l(2) =   0
                l(3) =   1
                l(4) =   1
     Q(r) pseudized with  8 coefficients,  rinner =    0.800   0.800   0.800

     PseudoPot. # 5 for H  read from file:
     /storage/coda1/p-amedford6/0/shared/rich_project_chbe-medford/medford-share/data/pseudos_module/espresso/nninc/pbe/van/H.UPF
     MD5 check sum: b5ee9d7bfd3a09ee7748110bda690ff7
     Pseudo is Ultrasoft, Zval =  1.0
     Generated by new atomic code, or converted to UPF format
     Using radial grid of  615 points,  1 beta functions with:
                l(1) =   0
     Q(r) pseudized with  8 coefficients,  rinner =    0.800

     atomic species   valence    mass     pseudopotential
        Ti1           12.00    47.86700     Ti( 1.00)
        O1             6.00    15.99900     O ( 1.00)
        N1             5.00    14.00700     N ( 1.00)
        C1             4.00    12.01100     C ( 1.00)
        H1             1.00     1.00800     H ( 1.00)

     No symmetry found

   Cartesian axes

     site n.     atom                  positions (alat units)
         1           Ti1 tau(   1) = (   0.0004258   2.9801865   6.0000000  )
         2           Ti1 tau(   2) = (   3.2906075   1.4906267   6.0002472  )
         3           O1  tau(   3) = (   0.0006271   0.0005054   7.9858123  )
         4           O1  tau(   4) = (   3.2906025   0.0005020   7.3038282  )
         5           O1  tau(   5) = (   4.5942328   1.4918067   9.2879030  )
         6           O1  tau(   6) = (   1.9868534   1.4903216   9.2879459  )
         7           Ti1 tau(   7) = (   3.2907910   2.8959150   9.1758416  )
         8           Ti1 tau(   8) = (   0.0015273   1.4827037   9.2680791  )
         9           O1  tau(   9) = (   3.2859541   5.9290403  11.3715426  )
        10           O1  tau(  10) = (   0.0116148   5.9584955  10.6183126  )
        11           O1  tau(  11) = (   1.2917987   1.4688796  12.6526629  )
        12           O1  tau(  12) = (   5.2888266   1.4686376  12.6403033  )
        13           Ti1 tau(  13) = (   0.0074927   2.9495069  12.5376589  )
        14           Ti1 tau(  14) = (   3.2957121   1.4606513  12.5174744  )
        15           O1  tau(  15) = (   6.5702453   0.0264740  14.6787910  )
        16           O1  tau(  16) = (   3.3001739   5.9406727  13.9930656  )
        17           O1  tau(  17) = (   4.5367710   1.4643441  16.2106543  )
        18           O1  tau(  18) = (   2.0349547   1.4576396  16.1973481  )
        19           Ti1 tau(  19) = (   3.2821410   2.9383233  15.7467721  )
        20           Ti1 tau(  20) = (   6.5624771   1.3975196  16.0657228  )
        21           O1  tau(  21) = (   3.2904802   0.0005063   4.7018136  )
        22           O1  tau(  22) = (   0.0049924   5.8117904  17.2112648  )
        23           O1  tau(  23) = (   1.3043587   1.4918075   6.0039043  )
        24           O1  tau(  24) = (   5.2767064   1.4903225   6.0039473  )
        25           Ti1 tau(  25) = (   0.0000382   5.9609847   6.0000000  )
        26           Ti1 tau(  26) = (   3.2902200   4.4714249   6.0002472  )
        27           O1  tau(  27) = (   0.0002396   2.9813036   7.9858123  )
        28           O1  tau(  28) = (   3.2902150   2.9813002   7.3038282  )
        29           O1  tau(  29) = (   4.5938453   4.4726049   9.2879030  )
        30           O1  tau(  30) = (   1.9864658   4.4711199   9.2879459  )
        31           Ti1 tau(  31) = (   3.2891106   5.8743827   9.1763621  )
        32           Ti1 tau(  32) = (   0.0006254   4.4649316   9.2693709  )
        33           O1  tau(  33) = (   3.2878059   2.9597088  11.3652031  )
        34           O1  tau(  34) = (   0.0092240   2.9805883  10.6323155  )
        35           O1  tau(  35) = (   1.2887225   4.4431869  12.6829221  )
        36           O1  tau(  36) = (   5.2901277   4.4428847  12.6690855  )
        37           Ti1 tau(  37) = (   0.0035388   5.9380168  12.5099366  )
        38           Ti1 tau(  38) = (   3.2962120   4.4389810  12.5267566  )
        39           O1  tau(  39) = (   6.5655450   2.9014274  14.9049457  )
        40           O1  tau(  40) = (   3.2937888   2.9365130  13.9572806  )
        41           O1  tau(  41) = (   4.5374039   4.4072578  16.1608974  )
        42           O1  tau(  42) = (   2.0345115   4.4188705  16.1151926  )
        43           Ti1 tau(  43) = (   3.2925710   5.9161036  15.7896908  )
        44           Ti1 tau(  44) = (   0.0121651   4.6006060  15.8502786  )
        45           O1  tau(  45) = (   3.2900926   2.9813045   4.7018136  )
        46           O1  tau(  46) = (   1.3039711   4.4726057   6.0039043  )
        47           O1  tau(  47) = (   5.2763189   4.4711207   6.0039473  )
        48           N1  tau(  48) = (   6.5681919   2.6818180  17.9522317  )
        49           C1  tau(  49) = (   0.8403426   2.5546117  18.8965076  )
        50           H1  tau(  50) = (   0.6793733   2.9585088  19.8916666  )
        51           H1  tau(  51) = (   1.7584391   2.0155774  18.6961775  )
        52           H1  tau(  52) = (   5.7198555   3.1867788  18.2393814  )

     number of k points=    10  Fermi-Dirac smearing, width (Ry)=  0.0073
                       cart. coord. in units 2pi/alat
        k(    1) = (   0.0000000   0.0000000   0.0000000), wk =   0.1250000
        k(    2) = (   0.0000000   0.0419351   0.0000000), wk =   0.2500000
        k(    3) = (   0.0000000  -0.0838702   0.0000000), wk =   0.1250000
        k(    4) = (   0.0379955   0.0000049   0.0000000), wk =   0.2500000
        k(    5) = (   0.0379955   0.0419400   0.0000000), wk =   0.2500000
        k(    6) = (   0.0379955  -0.0838652   0.0000000), wk =   0.2500000
        k(    7) = (   0.0379955  -0.0419301   0.0000000), wk =   0.2500000
        k(    8) = (  -0.0759910  -0.0000099   0.0000000), wk =   0.1250000
        k(    9) = (  -0.0759910   0.0419252   0.0000000), wk =   0.2500000
        k(   10) = (  -0.0759910  -0.0838800   0.0000000), wk =   0.1250000

     Initial potential from superposition of free atoms

     starting charge  373.99917, renormalised to  390.00000

     negative rho (up, down):  1.699E-02 0.000E+00

     %%%%%%%%%%%%%%%%%%%%%%%%%%%%%%%%%%%%%%%%%%%%%%%%%%%%%%%%%%%%%%%%%%%%%%%%
     %                                                                      %
     % You are using vdW-DF, which was implemented by the Thonhauser group. %
     % Please cite the following two papers that made this development      %
     % possible and the two reviews that describe the various versions:     %
     %                                                                      %
     %   T. Thonhauser et al., PRL 115, 136402 (2015).                      %
     %   T. Thonhauser et al., PRB 76, 125112 (2007).                       %
     %   K. Berland et al., Rep. Prog. Phys. 78, 066501 (2015).             %
     %   D.C. Langreth et al., J. Phys.: Condens. Matter 21, 084203 (2009). %
     %                                                                      %
     %                                                                      %
     % If you are calculating the stress with vdW-DF, please also cite:     %
     %                                                                      %
     %   R. Sabatini et al., J. Phys.: Condens. Matter 24, 424209 (2012).   %
     %                                                                      %
     %%%%%%%%%%%%%%%%%%%%%%%%%%%%%%%%%%%%%%%%%%%%%%%%%%%%%%%%%%%%%%%%%%%%%%%%

     Adding external electric field

     Computed dipole along edir(3) :
        Dipole               -6.0480 Ry au,        -15.3725 Debye
        Dipole field         -0.0114 Ry au,

        Potential amp.        1.0580 Ry
        Total length         46.3494 bohr

     Starting wfcs are  295 atomic wfcs
  @ DRIVER MODE: Message from server: STATUS
  @ DRIVER MODE: Message from server: POSDATA
  @ DRIVER MODE: Reading and sharing cell
  @ DRIVER MODE: Reading and sharing positions
  @ DRIVER MODE: Received positions

     Self-consistent Calculation

     iteration #  1     ecut=    29.40 Ry     beta= 0.05
     Davidson diagonalization with overlap
     c_bands:  1 eigenvalues not converged
     c_bands:  1 eigenvalues not converged
     ethr =  1.00E-05,  avg # of iterations = 16.8

[...]

     total energy              =   -2758.76670468 Ry
     estimated scf accuracy    <    1760.44348109 Ry

     iteration #  2     ecut=    29.40 Ry     beta= 0.05
     Davidson diagonalization with overlap
     ethr =  1.00E-02,  avg # of iterations = 18.3

[...]

     iteration # 64     ecut=    29.40 Ry     beta= 0.05
     Davidson diagonalization with overlap
     c_bands:  1 eigenvalues not converged
     ethr =  1.25E-10,  avg # of iterations = 14.9

[...]

     total energy              =   -2919.11565135 Ry
     estimated scf accuracy    <       0.00000009 Ry

     iteration # 66     ecut=    29.40 Ry     beta= 0.05
     Davidson diagonalization with overlap
     ethr =  2.23E-11,  avg # of iterations =  8.8

     negative rho (up, down):  1.721E-02 0.000E+00

     Adding external electric field

     Computed dipole along edir(3) :
        Dipole                1.2707 Ry au,          3.2297 Debye
        Dipole field          0.0024 Ry au,

        Potential amp.       -0.2223 Ry
        Total length         46.3494 bohr

     End of self-consistent calculation

          k = 0.0000 0.0000 0.0000 ( 18029 PWs)   bands (ev):

   -55.5382 -55.5015 -55.5002 -55.4661 -55.4306 -55.4137 -55.3762 -55.3534
   -55.3533 -55.3282 -55.3190 -55.3079 -55.2948 -55.1263 -54.5206 -54.4865
   -32.1048 -31.9912 -31.9013 -31.8597 -31.8534 -31.8426 -31.8350 -31.8299
   -31.7898 -31.7783 -31.7465 -31.7450 -31.7447 -31.7091 -31.6915 -31.6735
   -31.6688 -31.6606 -31.6544 -31.6504 -31.6127 -31.6092 -31.5937 -31.5836
   -31.5571 -31.5555 -31.5554 -31.5453 -31.5404 -31.5358 -31.5247 -31.5165
   -31.5082 -31.5065 -31.5023 -31.4749 -31.4677 -31.4648 -31.4567 -31.4379
   -31.3495 -31.2677 -30.9296 -30.8364 -30.8143 -30.7460 -30.6593 -30.5484
   -16.6062 -16.3365 -16.0692 -15.8954 -15.7886 -15.7275 -15.5913 -15.5167
   -15.4378 -15.3349 -15.2445 -15.1780 -15.1633 -15.1442 -15.1380 -15.0752
   -15.0717 -15.0512 -15.0303 -15.0288 -14.9748 -14.9668 -14.9350 -14.9230
   -14.9121 -14.8424 -14.7559 -14.6868 -14.6265 -14.2052 -13.0233 -12.9060
    -9.2880  -6.3026  -4.7075  -3.6931  -3.5397  -3.4458  -3.4342  -3.4152
    -3.2642  -3.1269  -2.9223  -2.8421  -2.7942  -2.7455  -2.7165  -2.6991
    -2.6311  -2.5133  -2.4418  -2.3954  -2.3730  -2.3602  -2.3449  -2.3171
    -2.3070  -2.2719  -2.2353  -2.1997  -2.0884  -1.9992  -1.9604  -1.9231
    -1.8667  -1.8577  -1.8291  -1.8223  -1.8155  -1.7966  -1.7566  -1.7485
    -1.6991  -1.5654  -1.5467  -1.4290  -1.3941  -1.2796  -1.1819  -1.1724
    -1.0861  -1.0834  -1.0141  -0.9651  -0.9316  -0.9214  -0.8707  -0.8258
    -0.7333  -0.6409  -0.5798  -0.5375  -0.5026  -0.4744  -0.4086  -0.3143
    -0.3098  -0.2987  -0.2001  -0.1184  -0.0951  -0.0442  -0.0102   0.0333
     0.0496   0.1592   0.2009   0.2443   0.2607   0.3395   0.3627   0.4185
     0.4234   0.4588   0.4671   0.5307   0.5812   0.6008   0.6467   0.6693
     0.8270   1.0807   1.0863   1.1308   1.4109   1.4408   1.5019   1.6868
     2.0772   2.1250   3.5613   3.6337   3.6988   3.7116   3.7519   3.7981
     3.9699   4.0461   4.0623   4.0669   4.0985

[...]

          k = 0.0380-0.0419 0.0000 ( 17876 PWs)   bands (ev):

[...]

          k =-0.0760-0.0000 0.0000 ( 17886 PWs)   bands (ev):

[...]

          k =-0.0760-0.0839 0.0000 ( 17948 PWs)   bands (ev):

   -55.5235 -55.5159 -55.4833 -55.4828 -55.4266 -55.4026 -55.3872 -55.3572
   -55.3372 -55.3346 -55.3118 -55.3114 -55.3062 -55.1279 -54.5035 -54.5035
   -31.9112 -31.9061 -31.8225 -31.8066 -31.8060 -31.7977 -31.7754 -31.7749
   -31.7548 -31.7451 -31.7377 -31.7359 -31.7307 -31.6927 -31.6708 -31.6675
   -31.6633 -31.6590 -31.6553 -31.6504 -31.6458 -31.6267 -31.6126 -31.6119
   -31.6025 -31.6023 -31.5997 -31.5824 -31.5700 -31.5671 -31.5569 -31.5505
   -31.5482 -31.5479 -31.5369 -31.5363 -31.5068 -31.4914 -31.4911 -31.4826
   -31.3546 -31.3490 -30.8269 -30.8269 -30.7422 -30.7421 -30.7027 -30.7026
   -16.5869 -15.7732 -15.7415 -15.7237 -15.5194 -15.5115 -15.5038 -15.4861
   -15.3260 -15.3138 -15.2871 -15.2692 -15.2371 -15.2341 -15.2060 -15.1733
   -15.1177 -15.1133 -15.1049 -15.1027 -15.0425 -15.0382 -15.0180 -14.9893
   -14.9873 -14.9812 -14.8864 -14.8844 -14.7161 -14.5260 -13.0076 -13.0075
    -9.2924  -6.2985  -4.6902  -3.0480  -2.9867  -2.9271  -2.7294  -2.7259
    -2.6948  -2.6142  -2.5550  -2.5427  -2.5051  -2.4866  -2.4769  -2.4258
    -2.3823  -2.3731  -2.3610  -2.3559  -2.3367  -2.3224  -2.2925  -2.2549
    -2.2460  -2.2180  -2.2039  -2.1776  -2.1752  -2.1389  -2.1151  -2.1011
    -2.0894  -2.0344  -1.9278  -1.8739  -1.7906  -1.7665  -1.7320  -1.7260
    -1.6456  -1.6175  -1.5913  -1.5501  -1.5395  -1.5060  -1.3013  -1.2700
    -1.2618  -1.2486  -1.2262  -1.0734  -1.0654  -1.0145  -0.9830  -0.9396
    -0.8798  -0.8422  -0.8308  -0.7480  -0.7147  -0.6716  -0.6330  -0.5093
    -0.5046  -0.4974  -0.4949  -0.4790  -0.3908  -0.3791  -0.3358  -0.3022
    -0.2611  -0.2470  -0.1827  -0.0001   0.0152   0.0812   0.1894   0.2806
     0.3762   0.4567   0.4752   0.5271   0.5692   0.5918   0.6701   0.7643
     0.7762   0.8407   0.8891   0.9317   0.9359   0.9405   1.8598   1.8604
     1.9449   1.9451   3.6853   3.8090   3.8290   3.8682   3.8859   4.0339
     4.0809   4.1181   4.1417   4.2211   4.2264

     the Fermi energy is     3.6168 ev

!    total energy              =   -2919.11567627 Ry
     estimated scf accuracy    <       0.00000005 Ry
     smearing contrib. (-TS)   =      -0.03731770 Ry
     internal energy E=F+TS    =   -2919.07835857 Ry

     The total energy is F=E-TS. E is the sum of the following terms:
     one-electron contribution =  -24307.48718615 Ry
     hartree contribution      =   12241.21188057 Ry
     xc contribution           =    -480.01872762 Ry
     ewald contribution        =    9627.21262776 Ry
     electric field correction =       0.00304687 Ry

     convergence has been achieved in  66 iterations

     Forces acting on atoms (cartesian axes, Ry/au):

     atom    1 type  1   force =     0.00004840   -0.00015244    0.09381949
     atom    2 type  1   force =    -0.00016682   -0.00018272   -0.17778476
     atom    3 type  2   force =     0.00002466   -0.00022300   -0.02116821
     atom    4 type  2   force =    -0.00001553   -0.00199095    0.05775156
     atom    5 type  2   force =    -0.01109041   -0.00164437    0.00749560
     atom    6 type  2   force =     0.01245228   -0.00098086    0.00637902
     atom    7 type  1   force =    -0.00048334    0.00246138   -0.01334284
     atom    8 type  1   force =     0.00029979    0.00291986    0.00274771
     atom    9 type  2   force =     0.00007672   -0.00007757    0.00014192
     atom   10 type  2   force =    -0.00176542   -0.00228222   -0.00363354
     atom   11 type  2   force =     0.00016197    0.00060047   -0.00025043
     atom   12 type  2   force =     0.00044563    0.00053328   -0.00006934
     atom   13 type  1   force =    -0.00071371   -0.00094949   -0.00044688
     atom   14 type  1   force =     0.00081729    0.00025435   -0.00056029
     atom   15 type  2   force =     0.00030657    0.00019156    0.00017207
     atom   16 type  2   force =    -0.00007411    0.00034496   -0.00056511
     atom   17 type  2   force =     0.00048456    0.00029326    0.00069938
     atom   18 type  2   force =     0.00057614   -0.00004241    0.00023379
     atom   19 type  1   force =     0.00010800   -0.00096974    0.00009532
     atom   20 type  1   force =     0.00034574    0.00009616   -0.00061523
     atom   21 type  2   force =     0.00004498   -0.00002753    0.10379861
     atom   22 type  2   force =    -0.00004303   -0.00058538    0.00048521
     atom   23 type  2   force =    -0.07057793   -0.00015386   -0.02706436
     atom   24 type  2   force =     0.07045626    0.00030913   -0.02711137
     atom   25 type  1   force =     0.00009693   -0.00017876    0.09360209
     atom   26 type  1   force =    -0.00009458   -0.00025883   -0.17782198
     atom   27 type  2   force =     0.00008270   -0.00044911   -0.02018304
     atom   28 type  2   force =     0.00002670   -0.00168997    0.05723274
     atom   29 type  2   force =    -0.01117553   -0.00115208    0.00695666
     atom   30 type  2   force =     0.01243029   -0.00080981    0.00581933
     atom   31 type  1   force =    -0.00039874    0.00468384   -0.01442321
     atom   32 type  1   force =     0.00037048   -0.00359345    0.00245414
     atom   33 type  2   force =    -0.00000455    0.00057668    0.00040904
     atom   34 type  2   force =    -0.00118015   -0.00058354   -0.00101039
     atom   35 type  2   force =     0.00039011    0.00025361    0.00024037
     atom   36 type  2   force =     0.00014494    0.00032895    0.00021194
     atom   37 type  1   force =    -0.00052159    0.00132063   -0.00002239
     atom   38 type  1   force =     0.00086899    0.00007945   -0.00091582
     atom   39 type  2   force =     0.00007617    0.00047621    0.00060394
     atom   40 type  2   force =     0.00018369    0.00020275   -0.00046333
     atom   41 type  2   force =     0.00047648   -0.00000113   -0.00051952
     atom   42 type  2   force =    -0.00019300    0.00004276   -0.00063699
     atom   43 type  1   force =    -0.00010757    0.00105818   -0.00004418
     atom   44 type  1   force =    -0.00009490    0.00052348   -0.00121551
     atom   45 type  2   force =     0.00004321   -0.00003775    0.10378448
     atom   46 type  2   force =    -0.07061343   -0.00005819   -0.02706252
     atom   47 type  2   force =     0.07048526    0.00035689   -0.02709272
     atom   48 type  3   force =    -0.02322498    0.00713328   -0.00665955
     atom   49 type  4   force =     0.00960247   -0.00155026    0.00860346
     atom   50 type  5   force =    -0.00048155    0.00113858    0.00053562
     atom   51 type  5   force =     0.00082952   -0.00007007    0.00130906
     atom   52 type  5   force =     0.01026388   -0.00548419   -0.00489901

     Total force =     0.367211     Total SCF correction =     0.000495
  @ DRIVER MODE: Message from server: STATUS
  @ DRIVER MODE: Message from server: GETFORCE
  @ DRIVER MODE: Returning v,forces,stress,ensemble

     Writing output data file ./calc.save/
  @ DRIVER MODE: Message from server: EXIT
  @ DRIVE MODE: Exiting

     General routines

     Parallel routines

   This run was terminated on:  10:44:42  24Aug2021

   JOB DONE.