     Program PWSCF v.6.7GPU starts on 24Aug2021 at  0:13:51

     R & G space division:  proc/nbgrp/npool/nimage =       6
     Reading input from /storage/home/hcoda1/3/ntian30/research/carbon/CH2_vib/ads_slab/CH2N2H_a/out_0022/pw.inp
Warning: card &CELL ignored
Warning: card   CELL_DYNAMICS='IPI', ignored
Warning: card / ignored

     Current dimensions of program PWSCF are:
     Max number of different atomic species (ntypx) = 10
     Max number of k-points (npk) =  40000
     Max angular momentum in pseudopotentials (lmaxx) =  3
     Presently no symmetry can be used with electric field

     Message from routine cell_base_init:
     DEPRECATED: use true lattice parameter, not A to a.u. conversion factor

     IMPORTANT: XC functional enforced from input :
     Exchange-correlation= BEEF-VDW
                           (   1   4  43  14   2   0   0)
     Any further DFT definition will be discarded
     Please, verify this is what you really want

  @ DRIVER MODE: Connecting to
 qe_1139763_2632802.sched-torque.pace.gatech.edukypldbkh_scratch
  using UNIX socket
  @ DRIVER MODE: Message from server: STATUS
  @ DRIVER MODE: Message from server: INIT
  @ DRIVER MODE: Receiving replica           0          -1
  @ DRIVER MODE: Receiving encoded integer          25
  @ DRIVER MODE:  SCF:  T  FORCE:  T  STRESS:  F  VC:  F  ENSEMBLE:  F
  @ DRIVER MODE:  SCF:  T  FORCE:  T  STRESS:  F  VC:  F  ENSEMBLE:  F

     Using Slab Decomposition

     bravais-lattice index     =            0
     lattice parameter (alat)  =       1.8897  a.u.
     unit-cell volume          =    6658.9804 (a.u.)^3
     number of atoms/cell      =           53
     number of atomic types    =            5
     number of electrons       =       395.00
     number of Kohn-Sham states=          207
     kinetic-energy cutoff     =      29.3995  Ry
     charge density cutoff     =     293.9946  Ry
     scf convergence threshold =      7.3E-08
     mixing beta               =       0.0500
     number of iterations used =            8  plain     mixing
     Exchange-correlation= BEEF-VDW
                           (   1   4  43  14   2   0   0)

     celldm(1)=   1.889726  celldm(2)=   0.000000  celldm(3)=   0.000000
     celldm(4)=   0.000000  celldm(5)=   0.000000  celldm(6)=   0.000000

     crystal axes: (cart. coord. in units of alat)
               a(1) = (   6.579727   0.000000   0.000000 )
               a(2) = (  -0.000775   5.961596   0.000000 )
               a(3) = (   0.000000   0.000000  25.155947 )

     reciprocal axes: (cart. coord. in units 2 pi/alat)
               b(1) = (  0.151982  0.000020  0.000000 )
               b(2) = (  0.000000  0.167740  0.000000 )
               b(3) = (  0.000000  0.000000  0.039752 )

     PseudoPot. # 1 for Ti read from file:
     /storage/coda1/p-amedford6/0/shared/rich_project_chbe-medford/medford-share/data/pseudos_module/espresso/nninc/pbe/van/Ti.UPF
     MD5 check sum: 8e4df49b7f0d34bbd5052bf3f5ea0213
     Pseudo is Ultrasoft, Zval = 12.0
     Generated by new atomic code, or converted to UPF format
     Using radial grid of  851 points,  6 beta functions with:
                l(1) =   0
                l(2) =   0
                l(3) =   1
                l(4) =   1
                l(5) =   2
                l(6) =   2
     Q(r) pseudized with  8 coefficients,  rinner =    1.000   1.000   1.000
                                                       1.000   1.000

     PseudoPot. # 2 for O  read from file:
     /storage/coda1/p-amedford6/0/shared/rich_project_chbe-medford/medford-share/data/pseudos_module/espresso/nninc/pbe/van/O.UPF
     MD5 check sum: 78c19812648e8988a0fe644b0f25305e
     Pseudo is Ultrasoft, Zval =  6.0
     Generated by new atomic code, or converted to UPF format
     Using radial grid of  737 points,  4 beta functions with:
                l(1) =   0
                l(2) =   0
                l(3) =   1
                l(4) =   1
     Q(r) pseudized with  8 coefficients,  rinner =    0.800   0.800   0.800

     PseudoPot. # 3 for N  read from file:
     /storage/coda1/p-amedford6/0/shared/rich_project_chbe-medford/medford-share/data/pseudos_module/espresso/nninc/pbe/van/N.UPF
     MD5 check sum: 90d10febe142ad51ac9d5be1deb811c4
     Pseudo is Ultrasoft, Zval =  5.0
     Generated by new atomic code, or converted to UPF format
     Using radial grid of  729 points,  4 beta functions with:
                l(1) =   0
                l(2) =   0
                l(3) =   1
                l(4) =   1
     Q(r) pseudized with  8 coefficients,  rinner =    0.800   0.800   0.800

     PseudoPot. # 4 for C  read from file:
     /storage/coda1/p-amedford6/0/shared/rich_project_chbe-medford/medford-share/data/pseudos_module/espresso/nninc/pbe/van/C.UPF
     MD5 check sum: 1a69bf6b8db32088f5b2163dbdb77a27
     Pseudo is Ultrasoft, Zval =  4.0
     Generated by new atomic code, or converted to UPF format
     Using radial grid of  721 points,  4 beta functions with:
                l(1) =   0
                l(2) =   0
                l(3) =   1
                l(4) =   1
     Q(r) pseudized with  8 coefficients,  rinner =    0.800   0.800   0.800

     PseudoPot. # 5 for H  read from file:
     /storage/coda1/p-amedford6/0/shared/rich_project_chbe-medford/medford-share/data/pseudos_module/espresso/nninc/pbe/van/H.UPF
     MD5 check sum: b5ee9d7bfd3a09ee7748110bda690ff7
     Pseudo is Ultrasoft, Zval =  1.0
     Generated by new atomic code, or converted to UPF format
     Using radial grid of  615 points,  1 beta functions with:
                l(1) =   0
     Q(r) pseudized with  8 coefficients,  rinner =    0.800

     atomic species   valence    mass     pseudopotential
        Ti1           12.00    47.86700     Ti( 1.00)
        O1             6.00    15.99900     O ( 1.00)
        N1             5.00    14.00700     N ( 1.00)
        C1             4.00    12.01100     C ( 1.00)
        H1             1.00     1.00800     H ( 1.00)

     No symmetry found

   Cartesian axes

     site n.     atom                  positions (alat units)
         1           Ti1 tau(   1) = (   0.0004258   2.9801865   6.0000000  )
         2           Ti1 tau(   2) = (   3.2906075   1.4906267   6.0002472  )
         3           O1  tau(   3) = (   0.0006271   0.0005054   7.9858123  )
         4           O1  tau(   4) = (   3.2906025   0.0005020   7.3038282  )
         5           O1  tau(   5) = (   4.5942328   1.4918067   9.2879030  )
         6           O1  tau(   6) = (   1.9868534   1.4903216   9.2879459  )
         7           Ti1 tau(   7) = (   3.2907910   2.8959150   9.1758416  )
         8           Ti1 tau(   8) = (   0.0015273   1.4827037   9.2680791  )
         9           O1  tau(   9) = (   3.3007851   0.0027079  11.3193151  )
        10           O1  tau(  10) = (   0.0116148   5.9584955  10.6183126  )
        11           O1  tau(  11) = (   1.3147357   1.5019762  12.6210215  )
        12           O1  tau(  12) = (   5.3120411   1.4917641  12.6342566  )
        13           Ti1 tau(  13) = (   6.5359925   2.9538565  12.6086018  )
        14           Ti1 tau(  14) = (   3.2189980   1.4905645  12.4770757  )
        15           O1  tau(  15) = (   0.0426301   5.9606301  14.6312846  )
        16           O1  tau(  16) = (   3.3149351   0.0098317  13.8848037  )
        17           O1  tau(  17) = (   4.5523768   1.5206755  16.0744300  )
        18           O1  tau(  18) = (   2.0715852   1.4807026  15.9918588  )
        19           Ti1 tau(  19) = (   3.2935730   2.9941335  15.6827836  )
        20           Ti1 tau(  20) = (   0.0200723   1.3023755  15.9747514  )
        21           O1  tau(  21) = (   3.2904802   0.0005063   4.7018136  )
        22           O1  tau(  22) = (   6.5179923   0.0002674  17.1556216  )
        23           O1  tau(  23) = (   1.3043587   1.4918075   6.0039043  )
        24           O1  tau(  24) = (   5.2767064   1.4903225   6.0039473  )
        25           Ti1 tau(  25) = (   0.0000382   5.9609847   6.0000000  )
        26           Ti1 tau(  26) = (   3.2902200   4.4714249   6.0002472  )
        27           O1  tau(  27) = (   0.0002396   2.9813036   7.9858123  )
        28           O1  tau(  28) = (   3.2902150   2.9813002   7.3038282  )
        29           O1  tau(  29) = (   4.5938453   4.4726049   9.2879030  )
        30           O1  tau(  30) = (   1.9864658   4.4711199   9.2879459  )
        31           Ti1 tau(  31) = (   3.2891106   5.8743827   9.1763621  )
        32           Ti1 tau(  32) = (   0.0006254   4.4649316   9.2693709  )
        33           O1  tau(  33) = (   3.3053585   2.9833221  11.3185053  )
        34           O1  tau(  34) = (   0.0092240   2.9805883  10.6323155  )
        35           O1  tau(  35) = (   1.3157767   4.4721532  12.6203727  )
        36           O1  tau(  36) = (   5.3104355   4.4689601  12.6331991  )
        37           Ti1 tau(  37) = (   6.5385524   5.9338372  12.5465384  )
        38           Ti1 tau(  38) = (   3.2200853   4.4710709  12.4725482  )
        39           O1  tau(  39) = (   0.0068575   2.9964749  14.7765288  )
        40           O1  tau(  40) = (   3.3021705   2.9848394  13.8818356  )
        41           O1  tau(  41) = (   4.5334443   4.4765196  15.9883447  )
        42           O1  tau(  42) = (   2.0816803   4.4801587  16.0471567  )
        43           Ti1 tau(  43) = (   3.3155128   0.0116264  15.6901768  )
        44           Ti1 tau(  44) = (   6.5575601   4.4671909  15.9479714  )
        45           O1  tau(  45) = (   3.2900926   2.9813045   4.7018136  )
        46           O1  tau(  46) = (   1.3039711   4.4726057   6.0039043  )
        47           O1  tau(  47) = (   5.2763189   4.4711207   6.0039473  )
        48           N1  tau(  48) = (   0.4270260   2.3853988  17.9668900  )
        49           C1  tau(  49) = (   0.9469377   1.9340014  19.0583692  )
        50           H1  tau(  50) = (   1.0789317   2.5769861  19.9249762  )
        51           H1  tau(  51) = (   1.2326487   0.9059138  19.0941702  )
        52           N1  tau(  52) = (   0.0025679   3.6232397  17.7996529  )
        53           H1  tau(  53) = (   0.1020252   4.2324666  18.6151602  )

     number of k points=    10  Fermi-Dirac smearing, width (Ry)=  0.0073
                       cart. coord. in units 2pi/alat
        k(    1) = (   0.0000000   0.0000000   0.0000000), wk =   0.1250000
        k(    2) = (   0.0000000   0.0419351   0.0000000), wk =   0.2500000
        k(    3) = (   0.0000000  -0.0838702   0.0000000), wk =   0.1250000
        k(    4) = (   0.0379955   0.0000049   0.0000000), wk =   0.2500000
        k(    5) = (   0.0379955   0.0419400   0.0000000), wk =   0.2500000
        k(    6) = (   0.0379955  -0.0838652   0.0000000), wk =   0.2500000
        k(    7) = (   0.0379955  -0.0419301   0.0000000), wk =   0.2500000
        k(    8) = (  -0.0759910  -0.0000099   0.0000000), wk =   0.1250000
        k(    9) = (  -0.0759910   0.0419252   0.0000000), wk =   0.2500000
        k(   10) = (  -0.0759910  -0.0838800   0.0000000), wk =   0.1250000

     Initial potential from superposition of free atoms

     starting charge  378.99916, renormalised to  395.00000

     negative rho (up, down):  1.649E-02 0.000E+00

     %%%%%%%%%%%%%%%%%%%%%%%%%%%%%%%%%%%%%%%%%%%%%%%%%%%%%%%%%%%%%%%%%%%%%%%%
     %                                                                      %
     % You are using vdW-DF, which was implemented by the Thonhauser group. %
     % Please cite the following two papers that made this development      %
     % possible and the two reviews that describe the various versions:     %
     %                                                                      %
     %   T. Thonhauser et al., PRL 115, 136402 (2015).                      %
     %   T. Thonhauser et al., PRB 76, 125112 (2007).                       %
     %   K. Berland et al., Rep. Prog. Phys. 78, 066501 (2015).             %
     %   D.C. Langreth et al., J. Phys.: Condens. Matter 21, 084203 (2009). %
     %                                                                      %
     %                                                                      %
     % If you are calculating the stress with vdW-DF, please also cite:     %
     %                                                                      %
     %   R. Sabatini et al., J. Phys.: Condens. Matter 24, 424209 (2012).   %
     %                                                                      %
     %%%%%%%%%%%%%%%%%%%%%%%%%%%%%%%%%%%%%%%%%%%%%%%%%%%%%%%%%%%%%%%%%%%%%%%%

     Adding external electric field

     Computed dipole along edir(3) :
        Dipole               -8.3970 Ry au,        -21.3430 Debye
        Dipole field         -0.0158 Ry au,

        Potential amp.        1.4689 Ry
        Total length         46.3494 bohr

     Starting wfcs are  299 atomic wfcs
  @ DRIVER MODE: Message from server: STATUS
  @ DRIVER MODE: Message from server: POSDATA
  @ DRIVER MODE: Reading and sharing cell
  @ DRIVER MODE: Reading and sharing positions
  @ DRIVER MODE: Received positions

     Self-consistent Calculation

     iteration #  1     ecut=    29.40 Ry     beta= 0.05
     Davidson diagonalization with overlap
     c_bands:  2 eigenvalues not converged
     c_bands:  1 eigenvalues not converged
     c_bands:  2 eigenvalues not converged
     c_bands:  3 eigenvalues not converged
     c_bands:  3 eigenvalues not converged
     c_bands:  2 eigenvalues not converged
     c_bands:  1 eigenvalues not converged
     ethr =  1.00E-05,  avg # of iterations = 19.3

[...]

     total energy              =   -2613.92828996 Ry
     estimated scf accuracy    <    3601.29981912 Ry

[...]

     iteration #  3     ecut=    29.40 Ry     beta= 0.05
     Davidson diagonalization with overlap
     ethr =  1.00E-02,  avg # of iterations = 14.4

[...]

     iteration # 43     ecut=    29.40 Ry     beta= 0.05
     Davidson diagonalization with overlap
     c_bands:  1 eigenvalues not converged
     c_bands:  1 eigenvalues not converged
     c_bands:  3 eigenvalues not converged
     c_bands:  3 eigenvalues not converged
     c_bands:  1 eigenvalues not converged
     ethr =  1.07E-06,  avg # of iterations = 17.9

[...]

     total energy              =   -2939.13526344 Ry
     estimated scf accuracy    <       0.00000022 Ry

     iteration # 65     ecut=    29.40 Ry     beta= 0.05
     Davidson diagonalization with overlap
     ethr =  2.57E-11,  avg # of iterations = 12.9

     negative rho (up, down):  1.682E-02 0.000E+00

     Adding external electric field

     Computed dipole along edir(3) :
        Dipole                0.7877 Ry au,          2.0021 Debye
        Dipole field          0.0015 Ry au,

        Potential amp.       -0.1378 Ry
        Total length         46.3494 bohr

     End of self-consistent calculation

          k = 0.0000 0.0000 0.0000 ( 18029 PWs)   bands (ev):

   -55.8525 -55.8512 -55.8184 -55.8152 -55.7455 -55.7025 -55.6647 -55.6630
   -55.6297 -55.6290 -55.6243 -55.5906 -55.1898 -55.1439 -54.8282 -54.7942
   -32.4053 -32.3354 -32.2412 -32.1629 -32.1490 -32.1446 -32.1307 -32.1161
   -32.0955 -32.0822 -32.0293 -32.0114 -32.0049 -32.0030 -31.9929 -31.9894
   -31.9573 -31.9453 -31.9393 -31.9366 -31.9098 -31.9072 -31.8914 -31.8893
   -31.8585 -31.8543 -31.8521 -31.8510 -31.8259 -31.8108 -31.8033 -31.7930
   -31.7810 -31.7788 -31.7711 -31.7378 -31.7311 -31.4542 -31.4170 -31.3896
   -31.3371 -31.3021 -31.2350 -31.1474 -31.1250 -31.0521 -30.9656 -30.8542
   -17.9109 -16.6116 -16.3315 -16.0761 -16.0009 -15.9970 -15.8634 -15.7006
   -15.5878 -15.5209 -15.4406 -15.4108 -15.3890 -15.3533 -15.3470 -15.3092
   -15.3003 -15.2748 -15.2715 -15.2091 -15.2057 -15.1982 -15.1884 -15.1043
   -15.0466 -14.9951 -14.9876 -14.9141 -14.8801 -14.3518 -13.3298 -13.2135
   -12.1674  -7.8825  -5.3796  -4.5549  -3.9884  -3.8290  -3.7595  -3.7249
    -3.6489  -3.4886  -3.4098  -3.1277  -3.0791  -3.0234  -3.0140  -2.9775
    -2.9327  -2.7810  -2.7034  -2.6767  -2.6611  -2.6388  -2.6237  -2.6115
    -2.5957  -2.5763  -2.4954  -2.4143  -2.3702  -2.2933  -2.2796  -2.2444
    -2.1648  -2.1644  -2.1244  -2.1039  -2.0856  -2.0694  -2.0610  -2.0457
    -1.9060  -1.8496  -1.8343  -1.6543  -1.6387  -1.5880  -1.4636  -1.4557
    -1.3383  -1.3232  -1.2829  -1.2453  -1.1725  -1.1508  -1.0392  -0.9979
    -0.9364  -0.8890  -0.8741  -0.7984  -0.7337  -0.6961  -0.6826  -0.6170
    -0.6103  -0.5972  -0.4624  -0.3857  -0.3326  -0.2766  -0.2543  -0.1984
    -0.1588  -0.1155  -0.0282  -0.0010   0.0106   0.0689   0.0905   0.1160
     0.1277   0.1474   0.1763   0.2319   0.3500   0.3817   0.4577   0.4720
     0.5330   0.6668   0.8048   0.8721   0.9245   1.0204   1.1254   1.1948
     1.2681   1.3871   1.7650   1.8105   2.1381   3.2673   3.3693   3.4021
     3.4131   3.5162   3.6652   3.7265   3.7416   3.7830   3.8168

[...]

          k = 0.0380-0.0419 0.0000 ( 17876 PWs)   bands (ev):

[...]

          k =-0.0760-0.0000 0.0000 ( 17886 PWs)   bands (ev):

[...]

          k =-0.0760-0.0839 0.0000 ( 17948 PWs)   bands (ev):

   -55.8356 -55.8351 -55.8337 -55.8325 -55.7369 -55.7111 -55.6479 -55.6463
   -55.6462 -55.6453 -55.6082 -55.6069 -55.1819 -55.1517 -54.8112 -54.8110
   -32.2075 -32.2059 -32.1508 -32.1505 -32.1302 -32.1298 -32.0961 -32.0931
   -32.0839 -32.0674 -32.0017 -31.9990 -31.9935 -31.9917 -31.9697 -31.9620
   -31.9553 -31.9548 -31.9496 -31.9482 -31.9464 -31.9347 -31.9290 -31.9223
   -31.9102 -31.9051 -31.8602 -31.8500 -31.8482 -31.8474 -31.8391 -31.8383
   -31.8251 -31.8245 -31.8239 -31.8227 -31.6837 -31.4495 -31.4158 -31.4113
   -31.3932 -31.3382 -31.1377 -31.1376 -31.0478 -31.0477 -31.0089 -31.0088
   -17.8974 -16.0267 -16.0239 -15.8163 -15.7773 -15.7582 -15.7523 -15.6625
   -15.5768 -15.5434 -15.5404 -15.4533 -15.4272 -15.4111 -15.3950 -15.3895
   -15.3807 -15.3510 -15.3160 -15.3085 -15.2944 -15.2887 -15.2768 -15.2198
   -15.1686 -15.1644 -15.1418 -15.0697 -14.8309 -14.6919 -13.3153 -13.3152
   -12.1282  -7.8230  -5.4246  -4.6151  -3.3212  -3.3117  -3.0654  -3.0225
    -3.0184  -2.9923  -2.9504  -2.7895  -2.7769  -2.7577  -2.7497  -2.7049
    -2.6815  -2.6612  -2.6416  -2.6364  -2.6074  -2.5813  -2.5662  -2.5292
    -2.5223  -2.5133  -2.4819  -2.4712  -2.4250  -2.4193  -2.3985  -2.3710
    -2.3616  -2.3282  -2.1799  -2.1070  -2.0788  -1.9940  -1.9871  -1.9487
    -1.9255  -1.9038  -1.8991  -1.8683  -1.8306  -1.6942  -1.6117  -1.5500
    -1.5414  -1.4568  -1.4294  -1.3679  -1.2779  -1.2525  -1.2314  -1.1597
    -1.0841  -1.0459  -0.9949  -0.9814  -0.9139  -0.9053  -0.8478  -0.8109
    -0.8089  -0.7318  -0.7014  -0.6543  -0.6179  -0.6010  -0.5780  -0.5514
    -0.5357  -0.5127  -0.4369  -0.3526  -0.3010  -0.2401  -0.1473  -0.0183
     0.1024   0.2152   0.2371   0.2813   0.3341   0.3682   0.4615   0.4653
     0.5285   0.5520   0.5937   0.6711   0.6823   0.7068   0.8178   0.8489
     1.5593   1.5597   1.6304   1.6305   2.0786   3.5902   3.6191   3.6382
     3.6699   3.7994   3.8055   3.8157   3.8166   3.9521   3.9602

     the Fermi energy is     3.2772 ev

!    total energy              =   -2939.13529406 Ry
     estimated scf accuracy    <       0.00000003 Ry
     smearing contrib. (-TS)   =      -0.02098907 Ry
     internal energy E=F+TS    =   -2939.11430499 Ry

     The total energy is F=E-TS. E is the sum of the following terms:
     one-electron contribution =  -24492.43104944 Ry
     hartree contribution      =   12334.17284379 Ry
     xc contribution           =    -485.37786979 Ry
     ewald contribution        =    9704.52059958 Ry
     electric field correction =       0.00117086 Ry

     convergence has been achieved in  65 iterations

     Forces acting on atoms (cartesian axes, Ry/au):

     atom    1 type  1   force =     0.00008243   -0.00023958    0.09634404
     atom    2 type  1   force =     0.00005347   -0.00057048   -0.17516233
     atom    3 type  2   force =     0.00015131   -0.00013214   -0.02409614
     atom    4 type  2   force =    -0.00000356   -0.00124820    0.05221973
     atom    5 type  2   force =    -0.01056590   -0.00047408    0.00250717
     atom    6 type  2   force =     0.01238495    0.00022545    0.00287985
     atom    7 type  1   force =     0.00098213    0.00026850   -0.01173938
     atom    8 type  1   force =    -0.00013488    0.00775538    0.02263236
     atom    9 type  2   force =    -0.00019834   -0.00015469   -0.00027634
     atom   10 type  2   force =    -0.00262159    0.00115232   -0.01268378
     atom   11 type  2   force =     0.00006781   -0.00012158    0.00005049
     atom   12 type  2   force =     0.00009749    0.00018545   -0.00039303
     atom   13 type  1   force =     0.00043926   -0.00034863    0.00023755
     atom   14 type  1   force =     0.00014913    0.00032372   -0.00015393
     atom   15 type  2   force =    -0.00022789    0.00014634    0.00001904
     atom   16 type  2   force =     0.00011003   -0.00021354    0.00034722
     atom   17 type  2   force =     0.00048254   -0.00002109    0.00036944
     atom   18 type  2   force =     0.00069167   -0.00017940    0.00027746
     atom   19 type  1   force =    -0.00118023   -0.00002676    0.00024986
     atom   20 type  1   force =     0.00031826   -0.00038178   -0.00045284
     atom   21 type  2   force =     0.00004800    0.00000241    0.10311380
     atom   22 type  2   force =     0.00016367   -0.00025949    0.00004546
     atom   23 type  2   force =    -0.07163113   -0.00015352   -0.02765677
     atom   24 type  2   force =     0.07157440    0.00034584   -0.02772416
     atom   25 type  1   force =     0.00015652   -0.00023608    0.09589721
     atom   26 type  1   force =     0.00009952   -0.00040399   -0.17543561
     atom   27 type  2   force =     0.00017700   -0.00021609   -0.02292667
     atom   28 type  2   force =     0.00006549   -0.00101499    0.05218202
     atom   29 type  2   force =    -0.01086693    0.00048302    0.00242937
     atom   30 type  2   force =     0.01256281    0.00064512    0.00277573
     atom   31 type  1   force =     0.00087056    0.00348181   -0.01292354
     atom   32 type  1   force =     0.00002959   -0.00925806    0.02305868
     atom   33 type  2   force =    -0.00048470    0.00013546    0.00022417
     atom   34 type  2   force =    -0.00302728    0.00022804   -0.01289634
     atom   35 type  2   force =     0.00009233    0.00008648   -0.00008767
     atom   36 type  2   force =     0.00010246    0.00033078   -0.00040330
     atom   37 type  1   force =     0.00033185    0.00036787    0.00006635
     atom   38 type  1   force =     0.00002341   -0.00043642    0.00014562
     atom   39 type  2   force =     0.00015231    0.00044651    0.00053438
     atom   40 type  2   force =     0.00035607    0.00013088   -0.00038417
     atom   41 type  2   force =     0.00041295    0.00003614    0.00028759
     atom   42 type  2   force =     0.00093742    0.00002992    0.00050498
     atom   43 type  1   force =    -0.00157068   -0.00037103   -0.00030738
     atom   44 type  1   force =     0.00069995   -0.00029481   -0.00075219
     atom   45 type  2   force =     0.00006069   -0.00003890    0.10308942
     atom   46 type  2   force =    -0.07165869   -0.00007155   -0.02767931
     atom   47 type  2   force =     0.07160118    0.00032500   -0.02774369
     atom   48 type  3   force =    -0.00075152   -0.00053608   -0.00068527
     atom   49 type  4   force =    -0.00397287    0.01228334   -0.00033855
     atom   50 type  5   force =    -0.00110093    0.00097419    0.00053213
     atom   51 type  5   force =     0.00385798   -0.01354748    0.00049577
     atom   52 type  3   force =    -0.00027112    0.00056010   -0.00138766
     atom   53 type  5   force =    -0.00011837    0.00000037    0.00077317

     Total force =     0.366264     Total SCF correction =     0.000423
  @ DRIVER MODE: Message from server: STATUS
  @ DRIVER MODE: Message from server: GETFORCE
  @ DRIVER MODE: Returning v,forces,stress,ensemble

     Writing output data file ./calc.save/
  @ DRIVER MODE: Message from server: EXIT
  @ DRIVE MODE: Exiting

     General routines

     Parallel routines

   This run was terminated on:   0:41:16  24Aug2021

   JOB DONE.