     Program PWSCF v.6.7GPU starts on 23Aug2021 at 16:44:57

     R & G space division:  proc/nbgrp/npool/nimage =       6
     Reading input from /storage/home/hcoda1/3/ntian30/research/carbon/CH2_vib/ads_slab/CH2NHN_a/out_0007/pw.inp
Warning: card &CELL ignored
Warning: card   CELL_DYNAMICS='IPI', ignored
Warning: card / ignored

     Current dimensions of program PWSCF are:
     Max number of different atomic species (ntypx) = 10
     Max number of k-points (npk) =  40000
     Max angular momentum in pseudopotentials (lmaxx) =  3
     Presently no symmetry can be used with electric field

     Message from routine cell_base_init:
     DEPRECATED: use true lattice parameter, not A to a.u. conversion factor

     IMPORTANT: XC functional enforced from input :
     Exchange-correlation= BEEF-VDW
                           (   1   4  43  14   2   0   0)
     Any further DFT definition will be discarded
     Please, verify this is what you really want

  @ DRIVER MODE: Connecting to
 qe_1139763_2632804.sched-torque.pace.gatech.edurjc9wfkj_scratch
  using UNIX socket
  @ DRIVER MODE: Message from server: STATUS
  @ DRIVER MODE: Message from server: INIT
  @ DRIVER MODE: Receiving replica           0          -1
  @ DRIVER MODE: Receiving encoded integer          25
  @ DRIVER MODE:  SCF:  T  FORCE:  T  STRESS:  F  VC:  F  ENSEMBLE:  F
  @ DRIVER MODE:  SCF:  T  FORCE:  T  STRESS:  F  VC:  F  ENSEMBLE:  F

     Using Slab Decomposition

     bravais-lattice index     =            0
     lattice parameter (alat)  =       1.8897  a.u.
     unit-cell volume          =    6658.9804 (a.u.)^3
     number of atoms/cell      =           53
     number of atomic types    =            5
     number of electrons       =       395.00
     number of Kohn-Sham states=          207
     kinetic-energy cutoff     =      29.3995  Ry
     charge density cutoff     =     293.9946  Ry
     scf convergence threshold =      7.3E-08
     mixing beta               =       0.0500
     number of iterations used =            8  plain     mixing
     Exchange-correlation= BEEF-VDW
                           (   1   4  43  14   2   0   0)

     celldm(1)=   1.889726  celldm(2)=   0.000000  celldm(3)=   0.000000
     celldm(4)=   0.000000  celldm(5)=   0.000000  celldm(6)=   0.000000

     crystal axes: (cart. coord. in units of alat)
               a(1) = (   6.579727   0.000000   0.000000 )
               a(2) = (  -0.000775   5.961596   0.000000 )
               a(3) = (   0.000000   0.000000  25.155947 )

     reciprocal axes: (cart. coord. in units 2 pi/alat)
               b(1) = (  0.151982  0.000020  0.000000 )
               b(2) = (  0.000000  0.167740  0.000000 )
               b(3) = (  0.000000  0.000000  0.039752 )

     PseudoPot. # 1 for Ti read from file:
     /storage/coda1/p-amedford6/0/shared/rich_project_chbe-medford/medford-share/data/pseudos_module/espresso/nninc/pbe/van/Ti.UPF
     MD5 check sum: 8e4df49b7f0d34bbd5052bf3f5ea0213
     Pseudo is Ultrasoft, Zval = 12.0
     Generated by new atomic code, or converted to UPF format
     Using radial grid of  851 points,  6 beta functions with:
                l(1) =   0
                l(2) =   0
                l(3) =   1
                l(4) =   1
                l(5) =   2
                l(6) =   2
     Q(r) pseudized with  8 coefficients,  rinner =    1.000   1.000   1.000
                                                       1.000   1.000

     PseudoPot. # 2 for O  read from file:
     /storage/coda1/p-amedford6/0/shared/rich_project_chbe-medford/medford-share/data/pseudos_module/espresso/nninc/pbe/van/O.UPF
     MD5 check sum: 78c19812648e8988a0fe644b0f25305e
     Pseudo is Ultrasoft, Zval =  6.0
     Generated by new atomic code, or converted to UPF format
     Using radial grid of  737 points,  4 beta functions with:
                l(1) =   0
                l(2) =   0
                l(3) =   1
                l(4) =   1
     Q(r) pseudized with  8 coefficients,  rinner =    0.800   0.800   0.800

     PseudoPot. # 3 for H  read from file:
     /storage/coda1/p-amedford6/0/shared/rich_project_chbe-medford/medford-share/data/pseudos_module/espresso/nninc/pbe/van/H.UPF
     MD5 check sum: b5ee9d7bfd3a09ee7748110bda690ff7
     Pseudo is Ultrasoft, Zval =  1.0
     Generated by new atomic code, or converted to UPF format
     Using radial grid of  615 points,  1 beta functions with:
                l(1) =   0
     Q(r) pseudized with  8 coefficients,  rinner =    0.800

     PseudoPot. # 4 for N  read from file:
     /storage/coda1/p-amedford6/0/shared/rich_project_chbe-medford/medford-share/data/pseudos_module/espresso/nninc/pbe/van/N.UPF
     MD5 check sum: 90d10febe142ad51ac9d5be1deb811c4
     Pseudo is Ultrasoft, Zval =  5.0
     Generated by new atomic code, or converted to UPF format
     Using radial grid of  729 points,  4 beta functions with:
                l(1) =   0
                l(2) =   0
                l(3) =   1
                l(4) =   1
     Q(r) pseudized with  8 coefficients,  rinner =    0.800   0.800   0.800

     PseudoPot. # 5 for C  read from file:
     /storage/coda1/p-amedford6/0/shared/rich_project_chbe-medford/medford-share/data/pseudos_module/espresso/nninc/pbe/van/C.UPF
     MD5 check sum: 1a69bf6b8db32088f5b2163dbdb77a27
     Pseudo is Ultrasoft, Zval =  4.0
     Generated by new atomic code, or converted to UPF format
     Using radial grid of  721 points,  4 beta functions with:
                l(1) =   0
                l(2) =   0
                l(3) =   1
                l(4) =   1
     Q(r) pseudized with  8 coefficients,  rinner =    0.800   0.800   0.800

     atomic species   valence    mass     pseudopotential
        Ti1           12.00    47.86700     Ti( 1.00)
        O1             6.00    15.99900     O ( 1.00)
        H1             1.00     1.00800     H ( 1.00)
        N1             5.00    14.00700     N ( 1.00)
        C1             4.00    12.01100     C ( 1.00)

     No symmetry found

   Cartesian axes

     site n.     atom                  positions (alat units)
         1           Ti1 tau(   1) = (   0.0004258   2.9801865   6.0000000  )
         2           Ti1 tau(   2) = (   3.2906075   1.4906267   6.0002472  )
         3           O1  tau(   3) = (   0.0006271   0.0005054   7.9858123  )
         4           O1  tau(   4) = (   3.2906025   0.0005020   7.3038282  )
         5           O1  tau(   5) = (   4.5942328   1.4918067   9.2879030  )
         6           O1  tau(   6) = (   1.9868534   1.4903216   9.2879459  )
         7           Ti1 tau(   7) = (   3.2907910   2.8959150   9.1758416  )
         8           Ti1 tau(   8) = (   0.0015273   1.4827037   9.2680791  )
         9           O1  tau(   9) = (   3.2899722   5.9582610  11.3470199  )
        10           O1  tau(  10) = (   0.0116148   5.9584955  10.6183126  )
        11           O1  tau(  11) = (   1.3017974   1.5038179  12.6264390  )
        12           O1  tau(  12) = (   5.3008627   1.4977989  12.6274213  )
        13           Ti1 tau(  13) = (   6.5569486   2.9952213  12.5532680  )
        14           Ti1 tau(  14) = (   3.2411515   1.4937708  12.4940153  )
        15           O1  tau(  15) = (   0.0420230   0.0496738  14.6358928  )
        16           O1  tau(  16) = (   3.2967895   0.0255587  13.9395418  )
        17           O1  tau(  17) = (   4.5559197   1.4885259  16.1071037  )
        18           O1  tau(  18) = (   2.0591626   1.5161495  16.1621771  )
        19           Ti1 tau(  19) = (   3.3530411   3.0041182  15.7164831  )
        20           Ti1 tau(  20) = (   0.0838170   1.4186333  16.1871295  )
        21           O1  tau(  21) = (   3.2904802   0.0005063   4.7018136  )
        22           O1  tau(  22) = (   0.0186128   5.8515937  17.1570623  )
        23           O1  tau(  23) = (   1.3043587   1.4918075   6.0039043  )
        24           O1  tau(  24) = (   5.2767064   1.4903225   6.0039473  )
        25           Ti1 tau(  25) = (   0.0000382   5.9609847   6.0000000  )
        26           Ti1 tau(  26) = (   3.2902200   4.4714249   6.0002472  )
        27           O1  tau(  27) = (   0.0002396   2.9813036   7.9858123  )
        28           O1  tau(  28) = (   3.2902150   2.9813002   7.3038282  )
        29           O1  tau(  29) = (   4.5938453   4.4726049   9.2879030  )
        30           O1  tau(  30) = (   1.9864658   4.4711199   9.2879459  )
        31           Ti1 tau(  31) = (   3.2891106   5.8743827   9.1763621  )
        32           Ti1 tau(  32) = (   0.0006254   4.4649316   9.2693709  )
        33           O1  tau(  33) = (   3.2942209   2.9913469  11.3437431  )
        34           O1  tau(  34) = (   0.0092240   2.9805883  10.6323155  )
        35           O1  tau(  35) = (   1.3035300   4.4624727  12.6575770  )
        36           O1  tau(  36) = (   5.3036227   4.4740614  12.6577195  )
        37           Ti1 tau(  37) = (   6.5462442   0.0298550  12.5256591  )
        38           Ti1 tau(  38) = (   3.2421849   4.4737490  12.5077532  )
        39           O1  tau(  39) = (   0.0112388   2.9415499  14.8853239  )
        40           O1  tau(  40) = (   3.3099764   2.9718378  13.9238501  )
        41           O1  tau(  41) = (   4.5641009   4.4837371  16.0358624  )
        42           O1  tau(  42) = (   2.0725645   4.4682733  16.0457710  )
        43           Ti1 tau(  43) = (   3.3278145   0.0095312  15.7444629  )
        44           Ti1 tau(  44) = (   0.0453891   4.6133464  15.7643304  )
        45           O1  tau(  45) = (   3.2900926   2.9813045   4.7018136  )
        46           O1  tau(  46) = (   1.3039711   4.4726057   6.0039043  )
        47           O1  tau(  47) = (   5.2763189   4.4711207   6.0039473  )
        48           H1  tau(  48) = (   4.6525291   2.0178258  18.2241430  )
        49           N1  tau(  49) = (   6.4331608   2.5827981  18.1004554  )
        50           C1  tau(  50) = (   0.9260493   3.0590344  18.7174074  )
        51           H1  tau(  51) = (   0.8415052   3.4111086  19.7359056  )
        52           H1  tau(  52) = (   1.8727361   3.0611994  18.2151121  )
        53           N1  tau(  53) = (   5.2929592   2.6053404  18.7594781  )

     number of k points=    10  Fermi-Dirac smearing, width (Ry)=  0.0073
                       cart. coord. in units 2pi/alat
        k(    1) = (   0.0000000   0.0000000   0.0000000), wk =   0.1250000
        k(    2) = (   0.0000000   0.0419351   0.0000000), wk =   0.2500000
        k(    3) = (   0.0000000  -0.0838702   0.0000000), wk =   0.1250000
        k(    4) = (   0.0379955   0.0000049   0.0000000), wk =   0.2500000
        k(    5) = (   0.0379955   0.0419400   0.0000000), wk =   0.2500000
        k(    6) = (   0.0379955  -0.0838652   0.0000000), wk =   0.2500000
        k(    7) = (   0.0379955  -0.0419301   0.0000000), wk =   0.2500000
        k(    8) = (  -0.0759910  -0.0000099   0.0000000), wk =   0.1250000
        k(    9) = (  -0.0759910   0.0419252   0.0000000), wk =   0.2500000
        k(   10) = (  -0.0759910  -0.0838800   0.0000000), wk =   0.1250000

     Initial potential from superposition of free atoms

     starting charge  378.99916, renormalised to  395.00000

     negative rho (up, down):  1.717E-02 0.000E+00

     %%%%%%%%%%%%%%%%%%%%%%%%%%%%%%%%%%%%%%%%%%%%%%%%%%%%%%%%%%%%%%%%%%%%%%%%
     %                                                                      %
     % You are using vdW-DF, which was implemented by the Thonhauser group. %
     % Please cite the following two papers that made this development      %
     % possible and the two reviews that describe the various versions:     %
     %                                                                      %
     %   T. Thonhauser et al., PRL 115, 136402 (2015).                      %
     %   T. Thonhauser et al., PRB 76, 125112 (2007).                       %
     %   K. Berland et al., Rep. Prog. Phys. 78, 066501 (2015).             %
     %   D.C. Langreth et al., J. Phys.: Condens. Matter 21, 084203 (2009). %
     %                                                                      %
     %                                                                      %
     % If you are calculating the stress with vdW-DF, please also cite:     %
     %                                                                      %
     %   R. Sabatini et al., J. Phys.: Condens. Matter 24, 424209 (2012).   %
     %                                                                      %
     %%%%%%%%%%%%%%%%%%%%%%%%%%%%%%%%%%%%%%%%%%%%%%%%%%%%%%%%%%%%%%%%%%%%%%%%

     Adding external electric field

     Computed dipole along edir(3) :
        Dipole               -8.7889 Ry au,        -22.3391 Debye
        Dipole field         -0.0166 Ry au,

        Potential amp.        1.5375 Ry
        Total length         46.3494 bohr

     Starting wfcs are  299 atomic wfcs
  @ DRIVER MODE: Message from server: STATUS
  @ DRIVER MODE: Message from server: POSDATA
  @ DRIVER MODE: Reading and sharing cell
  @ DRIVER MODE: Reading and sharing positions
  @ DRIVER MODE: Received positions

     Self-consistent Calculation

     iteration #  1     ecut=    29.40 Ry     beta= 0.05
     Davidson diagonalization with overlap
     c_bands:  1 eigenvalues not converged
     c_bands:  1 eigenvalues not converged
     c_bands:  1 eigenvalues not converged
     c_bands:  2 eigenvalues not converged
     c_bands:  2 eigenvalues not converged
     c_bands:  1 eigenvalues not converged
     c_bands:  2 eigenvalues not converged
     ethr =  1.00E-05,  avg # of iterations = 18.8

[...]

     total energy              =   -2593.22699840 Ry
     estimated scf accuracy    <    3846.30629901 Ry

     iteration #  2     ecut=    29.40 Ry     beta= 0.05
     Davidson diagonalization with overlap
     ethr =  1.00E-02,  avg # of iterations = 22.3

[...]

     iteration # 50     ecut=    29.40 Ry     beta= 0.05
     Davidson diagonalization with overlap
     c_bands:  1 eigenvalues not converged
     ethr =  5.11E-09,  avg # of iterations = 12.3

[...]

     total energy              =   -2939.05427402 Ry
     estimated scf accuracy    <       0.00000010 Ry

     iteration # 64     ecut=    29.40 Ry     beta= 0.05
     Davidson diagonalization with overlap
     ethr =  2.59E-11,  avg # of iterations =  2.0

     negative rho (up, down):  1.684E-02 0.000E+00

     Adding external electric field

     Computed dipole along edir(3) :
        Dipole                0.0815 Ry au,          0.2073 Debye
        Dipole field          0.0002 Ry au,

        Potential amp.       -0.0143 Ry
        Total length         46.3494 bohr

     End of self-consistent calculation

          k = 0.0000 0.0000 0.0000 ( 18029 PWs)   bands (ev):

   -56.2636 -56.2400 -56.2266 -56.2059 -56.1467 -56.1443 -56.1097 -56.1076
   -56.0708 -56.0611 -56.0356 -56.0284 -55.8963 -55.6965 -55.2440 -55.2099
   -32.8241 -32.7283 -32.6396 -32.6061 -32.5716 -32.5700 -32.5531 -32.5308
   -32.4856 -32.4836 -32.4787 -32.4672 -32.4368 -32.4101 -32.4053 -32.3924
   -32.3853 -32.3796 -32.3720 -32.3679 -32.3499 -32.3321 -32.3168 -32.2968
   -32.2922 -32.2862 -32.2854 -32.2713 -32.2644 -32.2638 -32.2515 -32.2298
   -32.2151 -32.2148 -32.1981 -32.1856 -32.1710 -32.1467 -32.1158 -32.0442
   -31.9223 -31.8553 -31.6521 -31.5612 -31.5389 -31.4689 -31.3822 -31.2711
   -17.6807 -17.0443 -16.7704 -16.5574 -16.4573 -16.4375 -16.2933 -16.1521
   -16.0567 -15.9725 -15.9385 -15.8720 -15.8608 -15.8047 -15.7957 -15.7848
   -15.7611 -15.7434 -15.7297 -15.6840 -15.6729 -15.6418 -15.6315 -15.6095
   -15.5644 -15.4793 -15.4359 -15.4025 -15.3479 -14.7926 -13.7462 -13.6293
   -11.9593  -7.0359  -5.2838  -4.4106  -4.2572  -4.1657  -4.1590  -4.1318
    -3.9586  -3.8362  -3.6500  -3.5876  -3.4877  -3.4427  -3.4407  -3.4128
    -3.3236  -3.2003  -3.1728  -3.1048  -3.0736  -3.0610  -3.0567  -3.0363
    -2.9957  -2.9530  -2.9426  -2.8770  -2.8454  -2.7785  -2.6994  -2.6741
    -2.5990  -2.5786  -2.5503  -2.5362  -2.5339  -2.5253  -2.5009  -2.4740
    -2.4079  -2.3086  -2.2275  -2.1320  -2.0621  -2.0052  -1.9386  -1.8867
    -1.8265  -1.7863  -1.7474  -1.7214  -1.6527  -1.5841  -1.5040  -1.4639
    -1.4003  -1.3641  -1.3143  -1.2459  -1.1868  -1.1312  -1.0551  -1.0451
    -1.0418  -1.0232  -0.9909  -0.8147  -0.7665  -0.7552  -0.7403  -0.6944
    -0.6379  -0.6043  -0.4990  -0.4833  -0.4424  -0.4243  -0.3502  -0.3300
    -0.2955  -0.2866  -0.2617  -0.1988  -0.1087  -0.0913  -0.0674  -0.0183
     0.0301   0.1805   0.3682   0.4282   0.4768   0.6965   0.7767   0.7788
     0.9667   1.3519   1.3987   1.5587   2.7376   2.8516   2.9421   2.9657
     2.9897   3.0846   3.1142   3.3192   3.3247   3.3657   3.3765

[...]

          k = 0.0380-0.0419 0.0000 ( 17876 PWs)   bands (ev):

[...]

          k =-0.0760-0.0000 0.0000 ( 17886 PWs)   bands (ev):

[...]

          k =-0.0760-0.0839 0.0000 ( 17948 PWs)   bands (ev):

   -56.2494 -56.2406 -56.2229 -56.2228 -56.1364 -56.1289 -56.1249 -56.1179
   -56.0537 -56.0512 -56.0459 -56.0448 -55.8950 -55.6977 -55.2269 -55.2269
   -32.6297 -32.6247 -32.5435 -32.5434 -32.5322 -32.5172 -32.5163 -32.5162
   -32.4840 -32.4683 -32.4639 -32.4482 -32.4176 -32.4025 -32.3969 -32.3934
   -32.3840 -32.3833 -32.3808 -32.3783 -32.3433 -32.3421 -32.3421 -32.3394
   -32.3362 -32.3361 -32.3230 -32.3209 -32.2840 -32.2778 -32.2762 -32.2673
   -32.2662 -32.2613 -32.2598 -32.2333 -32.2302 -32.1500 -32.1242 -32.0512
   -31.9247 -31.9228 -31.5516 -31.5516 -31.4648 -31.4647 -31.4256 -31.4255
   -17.6743 -16.4705 -16.4369 -16.2924 -16.2252 -16.2008 -16.1848 -16.1611
   -16.0252 -15.9784 -15.9684 -15.9427 -15.9129 -15.9071 -15.8484 -15.8338
   -15.8225 -15.8143 -15.8040 -15.7518 -15.7475 -15.7378 -15.7171 -15.7122
   -15.6885 -15.6565 -15.6005 -15.5987 -15.2266 -15.1847 -13.7310 -13.7309
   -11.9744  -6.9577  -5.2421  -3.8065  -3.7422  -3.7105  -3.5648  -3.4394
    -3.4230  -3.4201  -3.2760  -3.2310  -3.2121  -3.1895  -3.1318  -3.1155
    -3.1056  -3.0838  -3.0688  -3.0558  -3.0304  -3.0001  -2.9867  -2.9666
    -2.9568  -2.9394  -2.9206  -2.8961  -2.8920  -2.8772  -2.8348  -2.8265
    -2.8003  -2.7815  -2.6097  -2.5555  -2.5376  -2.4399  -2.4378  -2.4127
    -2.3771  -2.3300  -2.3102  -2.2605  -2.2266  -2.1869  -2.0571  -1.9957
    -1.9823  -1.9333  -1.9141  -1.8495  -1.7621  -1.7286  -1.6889  -1.6540
    -1.5633  -1.5186  -1.5093  -1.4678  -1.4208  -1.4094  -1.3357  -1.2859
    -1.2218  -1.2203  -1.2132  -1.1699  -1.0550  -1.0386  -1.0243  -1.0220
    -0.9747  -0.9640  -0.9114  -0.8239  -0.7034  -0.6485  -0.6186  -0.4490
    -0.3676  -0.2976  -0.1932  -0.1522  -0.1063  -0.0838  -0.0285   0.0370
     0.0437   0.1056   0.1314   0.2171   0.2282   0.2353   0.3079   1.1392
     1.1398   1.2187   1.2190   1.5561   2.6965   3.1168   3.1497   3.1761
     3.1856   3.3463   3.3707   3.4100   3.4120   3.4849   3.5092

     the Fermi energy is     2.8813 ev

!    total energy              =   -2939.05430290 Ry
     estimated scf accuracy    <       0.00000005 Ry
     smearing contrib. (-TS)   =      -0.03331549 Ry
     internal energy E=F+TS    =   -2939.02098741 Ry

     The total energy is F=E-TS. E is the sum of the following terms:
     one-electron contribution =  -24157.67240776 Ry
     hartree contribution      =   12162.09145445 Ry
     xc contribution           =    -485.17452859 Ry
     ewald contribution        =    9541.73448194 Ry
     electric field correction =       0.00001255 Ry

     convergence has been achieved in  64 iterations

     Forces acting on atoms (cartesian axes, Ry/au):

     atom    1 type  1   force =     0.00009863   -0.00025268    0.09468478
     atom    2 type  1   force =     0.00010146   -0.00053118   -0.17677389
     atom    3 type  2   force =     0.00011678   -0.00001131   -0.02174007
     atom    4 type  2   force =     0.00001435   -0.00163307    0.05554006
     atom    5 type  2   force =    -0.01059416   -0.00065483    0.00570423
     atom    6 type  2   force =     0.01213217    0.00003109    0.00514958
     atom    7 type  1   force =     0.00035107    0.00219810   -0.01237545
     atom    8 type  1   force =     0.00038926    0.00262269    0.00926032
     atom    9 type  2   force =     0.00020929   -0.00033704   -0.00021295
     atom   10 type  2   force =    -0.00209774    0.00002554   -0.00887661
     atom   11 type  2   force =     0.00086817   -0.00014439    0.00003098
     atom   12 type  2   force =    -0.00027006   -0.00008877    0.00042368
     atom   13 type  1   force =    -0.00037350   -0.00039653    0.00086436
     atom   14 type  1   force =     0.00055070   -0.00042417    0.00065989
     atom   15 type  2   force =    -0.00035801   -0.00023422    0.00014034
     atom   16 type  2   force =    -0.00002924   -0.00041301    0.00076676
     atom   17 type  2   force =     0.00058087   -0.00025639   -0.00002037
     atom   18 type  2   force =     0.00018946   -0.00035930   -0.00051028
     atom   19 type  1   force =    -0.00075500   -0.00052581   -0.00020194
     atom   20 type  1   force =     0.00077903    0.00031523   -0.00059823
     atom   21 type  2   force =     0.00009461   -0.00011520    0.10357326
     atom   22 type  2   force =    -0.00029666    0.00004030    0.00103314
     atom   23 type  2   force =    -0.07099448   -0.00024282   -0.02725826
     atom   24 type  2   force =     0.07097558    0.00023473   -0.02731223
     atom   25 type  1   force =     0.00027881   -0.00026640    0.09410724
     atom   26 type  1   force =     0.00011318   -0.00041515   -0.17693038
     atom   27 type  2   force =     0.00010784   -0.00041415   -0.02062908
     atom   28 type  2   force =     0.00010001   -0.00136945    0.05522107
     atom   29 type  2   force =    -0.01066138   -0.00021481    0.00494420
     atom   30 type  2   force =     0.01207470   -0.00000441    0.00431050
     atom   31 type  1   force =     0.00037331    0.00375120   -0.01356662
     atom   32 type  1   force =     0.00032657   -0.00312935    0.00923489
     atom   33 type  2   force =     0.00004732   -0.00000187    0.00009655
     atom   34 type  2   force =    -0.00265990    0.00248868   -0.00572063
     atom   35 type  2   force =     0.00103409    0.00033714    0.00008724
     atom   36 type  2   force =    -0.00075945    0.00004262    0.00079236
     atom   37 type  1   force =    -0.00057956    0.00022412    0.00004943
     atom   38 type  1   force =     0.00059066    0.00015627   -0.00026152
     atom   39 type  2   force =     0.00040086    0.00002295   -0.00029521
     atom   40 type  2   force =     0.00009837   -0.00009924   -0.00041421
     atom   41 type  2   force =     0.00058200   -0.00009732   -0.00025084
     atom   42 type  2   force =     0.00051011    0.00007443   -0.00026328
     atom   43 type  1   force =    -0.00118429   -0.00030749   -0.00105250
     atom   44 type  1   force =     0.00041139   -0.00108029   -0.00017780
     atom   45 type  2   force =     0.00008397   -0.00014275    0.10357152
     atom   46 type  2   force =    -0.07101194   -0.00015773   -0.02725780
     atom   47 type  2   force =     0.07099818    0.00022653   -0.02728068
     atom   48 type  3   force =    -0.00256373    0.00021115    0.00134149
     atom   49 type  4   force =     0.01964894    0.00404794   -0.00049915
     atom   50 type  5   force =    -0.00987459   -0.00204941   -0.00374994
     atom   51 type  3   force =    -0.00108048    0.00043211    0.00119025
     atom   52 type  3   force =    -0.00033874   -0.00000836   -0.00059826
     atom   53 type  4   force =    -0.00874882   -0.00110392    0.00205005

     Total force =     0.365962     Total SCF correction =     0.000463
  @ DRIVER MODE: Message from server: STATUS
  @ DRIVER MODE: Message from server: GETFORCE
  @ DRIVER MODE: Returning v,forces,stress,ensemble

     Writing output data file ./calc.save/
  @ DRIVER MODE: Message from server: EXIT
  @ DRIVE MODE: Exiting

     General routines

     Parallel routines

   This run was terminated on:  17:13:32  23Aug2021

   JOB DONE.