     Program PWSCF v.6.7GPU starts on 18Aug2021 at 17:17:54

     R & G space division:  proc/nbgrp/npool/nimage =       8
     Reading input from /storage/home/hcoda1/3/ntian30/research/carbon/CH_calc/ads_slab/CHN_a/CH_calc.log/pw.inp
Warning: card &CELL ignored
Warning: card   CELL_DYNAMICS='IPI', ignored
Warning: card / ignored

     Current dimensions of program PWSCF are:
     Max number of different atomic species (ntypx) = 10
     Max number of k-points (npk) =  40000
     Max angular momentum in pseudopotentials (lmaxx) =  3
     Presently no symmetry can be used with electric field

     Message from routine cell_base_init:
     DEPRECATED: use true lattice parameter, not A to a.u. conversion factor

     IMPORTANT: XC functional enforced from input :
     Exchange-correlation= BEEF-VDW
                           (   1   4  43  14   2   0   0)
     Any further DFT definition will be discarded
     Please, verify this is what you really want

  @ DRIVER MODE: Connecting to
 qe_1139763_2595599.sched-torque.pace.gatech.eduayvifzu9_scratch
  using UNIX socket
  @ DRIVER MODE: Message from server: STATUS
  @ DRIVER MODE: Message from server: INIT
  @ DRIVER MODE: Receiving replica           0          -1
  @ DRIVER MODE: Receiving encoded integer          25
  @ DRIVER MODE:  SCF:  T  FORCE:  T  STRESS:  F  VC:  F  ENSEMBLE:  F
  @ DRIVER MODE:  SCF:  T  FORCE:  T  STRESS:  F  VC:  F  ENSEMBLE:  F

     Using Slab Decomposition

     bravais-lattice index     =            0
     lattice parameter (alat)  =       1.8897  a.u.
     unit-cell volume          =    6658.9804 (a.u.)^3
     number of atoms/cell      =           50
     number of atomic types    =            5
     number of electrons       =       388.00
     number of Kohn-Sham states=          204
     kinetic-energy cutoff     =      29.3995  Ry
     charge density cutoff     =     293.9946  Ry
     scf convergence threshold =      7.3E-08
     mixing beta               =       0.0500
     number of iterations used =            8  plain     mixing
     Exchange-correlation= BEEF-VDW
                           (   1   4  43  14   2   0   0)

     celldm(1)=   1.889726  celldm(2)=   0.000000  celldm(3)=   0.000000
     celldm(4)=   0.000000  celldm(5)=   0.000000  celldm(6)=   0.000000

     crystal axes: (cart. coord. in units of alat)
               a(1) = (   6.579727   0.000000   0.000000 )
               a(2) = (  -0.000775   5.961596   0.000000 )
               a(3) = (   0.000000   0.000000  25.155947 )

     reciprocal axes: (cart. coord. in units 2 pi/alat)
               b(1) = (  0.151982  0.000020  0.000000 )
               b(2) = (  0.000000  0.167740  0.000000 )
               b(3) = (  0.000000  0.000000  0.039752 )

     PseudoPot. # 1 for Ti read from file:
     /storage/coda1/p-amedford6/0/shared/rich_project_chbe-medford/medford-share/data/pseudos_module/espresso/nninc/pbe/van/Ti.UPF
     MD5 check sum: 8e4df49b7f0d34bbd5052bf3f5ea0213
     Pseudo is Ultrasoft, Zval = 12.0
     Generated by new atomic code, or converted to UPF format
     Using radial grid of  851 points,  6 beta functions with:
                l(1) =   0
                l(2) =   0
                l(3) =   1
                l(4) =   1
                l(5) =   2
                l(6) =   2
     Q(r) pseudized with  8 coefficients,  rinner =    1.000   1.000   1.000
                                                       1.000   1.000

     PseudoPot. # 2 for O  read from file:
     /storage/coda1/p-amedford6/0/shared/rich_project_chbe-medford/medford-share/data/pseudos_module/espresso/nninc/pbe/van/O.UPF
     MD5 check sum: 78c19812648e8988a0fe644b0f25305e
     Pseudo is Ultrasoft, Zval =  6.0
     Generated by new atomic code, or converted to UPF format
     Using radial grid of  737 points,  4 beta functions with:
                l(1) =   0
                l(2) =   0
                l(3) =   1
                l(4) =   1
     Q(r) pseudized with  8 coefficients,  rinner =    0.800   0.800   0.800

     PseudoPot. # 3 for N  read from file:
     /storage/coda1/p-amedford6/0/shared/rich_project_chbe-medford/medford-share/data/pseudos_module/espresso/nninc/pbe/van/N.UPF
     MD5 check sum: 90d10febe142ad51ac9d5be1deb811c4
     Pseudo is Ultrasoft, Zval =  5.0
     Generated by new atomic code, or converted to UPF format
     Using radial grid of  729 points,  4 beta functions with:
                l(1) =   0
                l(2) =   0
                l(3) =   1
                l(4) =   1
     Q(r) pseudized with  8 coefficients,  rinner =    0.800   0.800   0.800

     PseudoPot. # 4 for C  read from file:
     /storage/coda1/p-amedford6/0/shared/rich_project_chbe-medford/medford-share/data/pseudos_module/espresso/nninc/pbe/van/C.UPF
     MD5 check sum: 1a69bf6b8db32088f5b2163dbdb77a27
     Pseudo is Ultrasoft, Zval =  4.0
     Generated by new atomic code, or converted to UPF format
     Using radial grid of  721 points,  4 beta functions with:
                l(1) =   0
                l(2) =   0
                l(3) =   1
                l(4) =   1
     Q(r) pseudized with  8 coefficients,  rinner =    0.800   0.800   0.800

     PseudoPot. # 5 for H  read from file:
     /storage/coda1/p-amedford6/0/shared/rich_project_chbe-medford/medford-share/data/pseudos_module/espresso/nninc/pbe/van/H.UPF
     MD5 check sum: b5ee9d7bfd3a09ee7748110bda690ff7
     Pseudo is Ultrasoft, Zval =  1.0
     Generated by new atomic code, or converted to UPF format
     Using radial grid of  615 points,  1 beta functions with:
                l(1) =   0
     Q(r) pseudized with  8 coefficients,  rinner =    0.800

     atomic species   valence    mass     pseudopotential
        Ti1           12.00    47.86700     Ti( 1.00)
        O1             6.00    15.99900     O ( 1.00)
        N1             5.00    14.00700     N ( 1.00)
        C1             4.00    12.01100     C ( 1.00)
        H1             1.00     1.00800     H ( 1.00)

     No symmetry found

   Cartesian axes

     site n.     atom                  positions (alat units)
         1           Ti1 tau(   1) = (   0.0004258   2.9801865   6.0000000  )
         2           Ti1 tau(   2) = (   3.2906075   1.4906267   6.0002472  )
         3           O1  tau(   3) = (   0.0006271   0.0005054   7.9858123  )
         4           O1  tau(   4) = (   3.2906025   0.0005020   7.3038282  )
         5           O1  tau(   5) = (   4.5942328   1.4918067   9.2879030  )
         6           O1  tau(   6) = (   1.9868534   1.4903216   9.2879459  )
         7           Ti1 tau(   7) = (   3.2907910   2.8959150   9.1758416  )
         8           Ti1 tau(   8) = (   0.0015273   1.4827037   9.2680791  )
         9           O1  tau(   9) = (   3.2797308   5.9473376  11.3602069  )
        10           O1  tau(  10) = (   0.0116148   5.9584955  10.6183126  )
        11           O1  tau(  11) = (   1.2902197   1.4970218  12.6485984  )
        12           O1  tau(  12) = (   5.2825647   1.4998509  12.6204812  )
        13           Ti1 tau(  13) = (   6.5707130   2.9731531  12.5352273  )
        14           Ti1 tau(  14) = (   3.2824754   1.4851695  12.4964603  )
        15           O1  tau(  15) = (   6.5335774   0.0914421  14.6722524  )
        16           O1  tau(  16) = (   3.3157438   0.0180770  13.9903400  )
        17           O1  tau(  17) = (   4.5084513   1.5196572  16.2619966  )
        18           O1  tau(  18) = (   2.0062152   1.4815140  16.1839734  )
        19           Ti1 tau(  19) = (   3.2259906   2.9465836  15.7211513  )
        20           Ti1 tau(  20) = (   6.5090593   1.4075841  16.1508600  )
        21           O1  tau(  21) = (   3.2904802   0.0005063   4.7018136  )
        22           O1  tau(  22) = (   6.5630310   5.8123487  17.2302531  )
        23           O1  tau(  23) = (   1.3043587   1.4918075   6.0039043  )
        24           O1  tau(  24) = (   5.2767064   1.4903225   6.0039473  )
        25           Ti1 tau(  25) = (   0.0000382   5.9609847   6.0000000  )
        26           Ti1 tau(  26) = (   3.2902200   4.4714249   6.0002472  )
        27           O1  tau(  27) = (   0.0002396   2.9813036   7.9858123  )
        28           O1  tau(  28) = (   3.2902150   2.9813002   7.3038282  )
        29           O1  tau(  29) = (   4.5938453   4.4726049   9.2879030  )
        30           O1  tau(  30) = (   1.9864658   4.4711199   9.2879459  )
        31           Ti1 tau(  31) = (   3.2891106   5.8743827   9.1763621  )
        32           Ti1 tau(  32) = (   0.0006254   4.4649316   9.2693709  )
        33           O1  tau(  33) = (   3.2783824   2.9878764  11.3535400  )
        34           O1  tau(  34) = (   0.0092240   2.9805883  10.6323155  )
        35           O1  tau(  35) = (   1.2857266   4.4729298  12.7006550  )
        36           O1  tau(  36) = (   5.2845514   4.4687958  12.6640455  )
        37           Ti1 tau(  37) = (   6.5734551   0.0101047  12.5124135  )
        38           Ti1 tau(  38) = (   3.2852174   4.4611384  12.5175569  )
        39           O1  tau(  39) = (   6.5279837   2.9480221  14.9030702  )
        40           O1  tau(  40) = (   3.2956390   2.9588503  13.9390168  )
        41           O1  tau(  41) = (   4.4992944   4.4159585  16.2207858  )
        42           O1  tau(  42) = (   2.0104883   4.4624356  16.0673450  )
        43           Ti1 tau(  43) = (   3.2790961   0.0058003  15.7788240  )
        44           Ti1 tau(  44) = (   0.0606790   4.6093333  15.7554573  )
        45           O1  tau(  45) = (   3.2900926   2.9813045   4.7018136  )
        46           O1  tau(  46) = (   1.3039711   4.4726057   6.0039043  )
        47           O1  tau(  47) = (   5.2763189   4.4711207   6.0039473  )
        48           N1  tau(  48) = (   0.0403274   2.7191540  18.0026804  )
        49           C1  tau(  49) = (   0.9398849   2.4944932  18.9664025  )
        50           H1  tau(  50) = (   1.7098349   1.7704235  18.7615287  )

     number of k points=    10  Fermi-Dirac smearing, width (Ry)=  0.0073
                       cart. coord. in units 2pi/alat
        k(    1) = (   0.0000000   0.0000000   0.0000000), wk =   0.1250000
        k(    2) = (   0.0000000   0.0419351   0.0000000), wk =   0.2500000
        k(    3) = (   0.0000000  -0.0838702   0.0000000), wk =   0.1250000
        k(    4) = (   0.0379955   0.0000049   0.0000000), wk =   0.2500000
        k(    5) = (   0.0379955   0.0419400   0.0000000), wk =   0.2500000
        k(    6) = (   0.0379955  -0.0838652   0.0000000), wk =   0.2500000
        k(    7) = (   0.0379955  -0.0419301   0.0000000), wk =   0.2500000
        k(    8) = (  -0.0759910  -0.0000099   0.0000000), wk =   0.1250000
        k(    9) = (  -0.0759910   0.0419252   0.0000000), wk =   0.2500000
        k(   10) = (  -0.0759910  -0.0838800   0.0000000), wk =   0.1250000

     Initial potential from superposition of free atoms

     starting charge  371.99919, renormalised to  388.00000

     negative rho (up, down):  1.843E-02 0.000E+00

     %%%%%%%%%%%%%%%%%%%%%%%%%%%%%%%%%%%%%%%%%%%%%%%%%%%%%%%%%%%%%%%%%%%%%%%%
     %                                                                      %
[...]
        32           Ti1 tau(  32) = (   0.0006254   4.4649316   9.2693709  )
        33           O1  tau(  33) = (   3.3221704   2.9902434  11.3660199  )
        34           O1  tau(  34) = (   0.0092240   2.9805883  10.6323155  )
        35           O1  tau(  35) = (   1.3226508   4.4786392  12.6522088  )
        36           O1  tau(  36) = (   5.3255642   4.4766008  12.6631023  )
        37           Ti1 tau(  37) = (   0.0440184   0.0083722  12.5056656  )
        38           Ti1 tau(  38) = (   3.3368343   4.4900373  12.5210565  )
        39           O1  tau(  39) = (   0.0438414   3.0288039  14.9540275  )
        40           O1  tau(  40) = (   3.3256006   3.0046350  13.9585897  )
        41           O1  tau(  41) = (   4.5882990   4.4840768  16.1940227  )
        42           O1  tau(  42) = (   2.0817950   4.4867492  16.1961161  )
        43           Ti1 tau(  43) = (   3.3305547   0.0286077  15.7891430  )
        44           Ti1 tau(  44) = (   0.0356795   4.5990475  16.0793728  )
        45           O1  tau(  45) = (   3.2900926   2.9813045   4.7018136  )
        46           O1  tau(  46) = (   1.3039711   4.4726057   6.0039043  )
        47           O1  tau(  47) = (   5.2763189   4.4711207   6.0039473  )
        48           N1  tau(  48) = (   0.0659781   3.2472861  17.9633560  )
        49           C1  tau(  49) = (   0.1521035   2.4880255  18.8268491  )
        50           H1  tau(  50) = (   0.2272466   1.7467412  19.5873899  )

     number of k points=    10  Fermi-Dirac smearing, width (Ry)=  0.0073
                       cart. coord. in units 2pi/alat
        k(    1) = (   0.0000000   0.0000000   0.0000000), wk =   0.1250000
        k(    2) = (   0.0000000   0.0419351   0.0000000), wk =   0.2500000
        k(    3) = (   0.0000000  -0.0838702   0.0000000), wk =   0.1250000
        k(    4) = (   0.0379955   0.0000049   0.0000000), wk =   0.2500000
        k(    5) = (   0.0379955   0.0419400   0.0000000), wk =   0.2500000
        k(    6) = (   0.0379955  -0.0838652   0.0000000), wk =   0.2500000
        k(    7) = (   0.0379955  -0.0419301   0.0000000), wk =   0.2500000
        k(    8) = (  -0.0759910  -0.0000099   0.0000000), wk =   0.1250000
        k(    9) = (  -0.0759910   0.0419252   0.0000000), wk =   0.2500000
        k(   10) = (  -0.0759910  -0.0838800   0.0000000), wk =   0.1250000

     Initial potential from superposition of free atoms

     starting charge  371.99919, renormalised to  388.00000

[...]

     %%%%%%%%%%%%%%%%%%%%%%%%%%%%%%%%%%%%%%%%%%%%%%%%%%%%%%%%%%%%%%%%%%%%%%%%
     %                                                                      %
     % You are using vdW-DF, which was implemented by the Thonhauser group. %
     % Please cite the following two papers that made this development      %
     % possible and the two reviews that describe the various versions:     %
     %                                                                      %
     %   T. Thonhauser et al., PRL 115, 136402 (2015).                      %
     %   T. Thonhauser et al., PRB 76, 125112 (2007).                       %
     %   K. Berland et al., Rep. Prog. Phys. 78, 066501 (2015).             %
     %   D.C. Langreth et al., J. Phys.: Condens. Matter 21, 084203 (2009). %
     %                                                                      %
     %                                                                      %
     % If you are calculating the stress with vdW-DF, please also cite:     %
     %                                                                      %
     %   R. Sabatini et al., J. Phys.: Condens. Matter 24, 424209 (2012).   %
     %                                                                      %
     %%%%%%%%%%%%%%%%%%%%%%%%%%%%%%%%%%%%%%%%%%%%%%%%%%%%%%%%%%%%%%%%%%%%%%%%

[...]

     Starting wfcs are  293 atomic wfcs
  @ DRIVER MODE: Message from server: STATUS
  @ DRIVER MODE: Message from server: POSDATA
  @ DRIVER MODE: Reading and sharing cell
  @ DRIVER MODE: Reading and sharing positions
  @ DRIVER MODE: Received positions

[...]

     Self-consistent Calculation

[...]

     iteration # 16     ecut=    29.40 Ry     beta= 0.05
     Davidson diagonalization with overlap
     c_bands:  2 eigenvalues not converged
     c_bands:  1 eigenvalues not converged
     ethr =  5.68E-11,  avg # of iterations = 16.0

[...]

     total energy              =   -2916.61482502 Ry
     estimated scf accuracy    <       0.00000007 Ry

     iteration # 17     ecut=    29.40 Ry     beta= 0.05
     Davidson diagonalization with overlap
     ethr =  1.90E-11,  avg # of iterations = 13.4

[...]

     End of self-consistent calculation

[...]

          k = 0.0380-0.0419 0.0000 ( 17876 PWs)   bands (ev):

[...]

          k =-0.0760-0.0839 0.0000 ( 17948 PWs)   bands (ev):

   -55.4278 -55.4245 -55.3838 -55.3835 -55.3193 -55.3067 -55.2960 -55.2510
   -55.2468 -55.2447 -55.2442 -55.2137 -55.2134 -55.1392 -54.4099 -54.4096
   -31.8158 -31.8131 -31.7695 -31.7194 -31.7080 -31.7077 -31.6957 -31.6754
   -31.6753 -31.6522 -31.6428 -31.6398 -31.6302 -31.5878 -31.5800 -31.5765
   -31.5745 -31.5705 -31.5692 -31.5629 -31.5321 -31.5293 -31.5212 -31.5201
   -31.5115 -31.5034 -31.5032 -31.5022 -31.4889 -31.4797 -31.4782 -31.4771
   -31.4603 -31.4574 -31.4438 -31.4426 -31.4415 -31.4335 -31.3941 -31.3938
   -31.3482 -31.3469 -30.7330 -30.7327 -30.6487 -30.6485 -30.6092 -30.6091
   -17.4075 -15.7757 -15.6653 -15.6327 -15.4511 -15.4406 -15.4043 -15.3925
   -15.2492 -15.2054 -15.1993 -15.1883 -15.1414 -15.1374 -15.1368 -15.1114
   -15.0406 -15.0345 -15.0297 -15.0135 -14.9572 -14.9459 -14.9428 -14.9259
   -14.8946 -14.8906 -14.7965 -14.7933 -14.6854 -14.5853 -12.9136 -12.9135
    -9.0524  -4.6704  -3.4129  -3.2611  -2.9353  -2.9001  -2.8946  -2.6615
    -2.6341  -2.6022  -2.5580  -2.4865  -2.4386  -2.4153  -2.4140  -2.3455
    -2.2973  -2.2901  -2.2815  -2.2641  -2.2570  -2.2361  -2.2021  -2.1690
    -2.1592  -2.1309  -2.1153  -2.0960  -2.0773  -2.0419  -2.0284  -2.0036
    -2.0001  -1.8974  -1.8721  -1.7899  -1.7496  -1.7176  -1.6465  -1.6408
    -1.5383  -1.5345  -1.4816  -1.4700  -1.4295  -1.3240  -1.2387  -1.1880
    -1.1830  -1.1737  -1.0699  -1.0052  -0.9773  -0.9425  -0.9175  -0.8358
    -0.7790  -0.7586  -0.7170  -0.6337  -0.6288  -0.5655  -0.4634  -0.4216
    -0.4055  -0.4000  -0.3789  -0.3266  -0.3152  -0.2534  -0.2100  -0.1750
    -0.1641  -0.1190   0.0919   0.0944   0.1420   0.2541   0.2951   0.4430
     0.5204   0.5386   0.6142   0.6498   0.6740   0.7409   0.8489   0.8667
     0.8800   0.9509   0.9902   1.0143   1.0238   1.9529   1.9534   2.0397
     2.0398   3.7754   3.8892   3.9221   3.9710   4.0152   4.0696   4.1738
     4.1947   4.2370   4.2385   4.3081

     the Fermi energy is     3.7134 ev

!    total energy              =   -2916.61483220 Ry
     estimated scf accuracy    <       0.00000004 Ry
     smearing contrib. (-TS)   =      -0.03748480 Ry
     internal energy E=F+TS    =   -2916.57734741 Ry

     The total energy is F=E-TS. E is the sum of the following terms:
     one-electron contribution =  -24444.68653345 Ry
     hartree contribution      =   12309.81087282 Ry
     xc contribution           =    -478.37196124 Ry
     ewald contribution        =    9696.66594832 Ry
     electric field correction =       0.00432615 Ry

     convergence has been achieved in  17 iterations

     Forces acting on atoms (cartesian axes, Ry/au):

     atom    1 type  1   force =    -0.00001203   -0.00031166    0.09339532
     atom    2 type  1   force =    -0.00021299   -0.00047907   -0.17792411
     atom    3 type  2   force =    -0.00000314   -0.00035323   -0.02064493
     atom    4 type  2   force =    -0.00006151   -0.00188231    0.05839505
     atom    5 type  2   force =    -0.01037487   -0.00074912    0.00709623
     atom    6 type  2   force =     0.01198607   -0.00015103    0.00686253
     atom    7 type  1   force =    -0.00012899    0.00190575   -0.01366568
     atom    8 type  1   force =    -0.00011465    0.00176343   -0.00206588
     atom    9 type  2   force =    -0.00002564   -0.00043262   -0.00035982
     atom   10 type  2   force =    -0.00123595    0.00257390   -0.00299948
     atom   11 type  2   force =    -0.00064818   -0.00010978    0.00012266
     atom   12 type  2   force =     0.00054310   -0.00009778   -0.00007707
     atom   13 type  1   force =    -0.00003811    0.00002903    0.00009557
     atom   14 type  1   force =    -0.00000770   -0.00002303    0.00028311
     atom   15 type  2   force =    -0.00008755    0.00015274   -0.00000328
     atom   16 type  2   force =    -0.00001636   -0.00007938   -0.00019334
     atom   17 type  2   force =     0.00065868    0.00005735   -0.00011141
     atom   18 type  2   force =    -0.00017069    0.00001956    0.00027054
     atom   19 type  1   force =    -0.00019094    0.00037391    0.00027592
     atom   20 type  1   force =    -0.00011603    0.00033485    0.00039139
     atom   21 type  2   force =    -0.00004531   -0.00013449    0.10392467
     atom   22 type  2   force =    -0.00006748    0.00026887    0.00032291
     atom   23 type  2   force =    -0.07055608   -0.00022702   -0.02694731
     atom   24 type  2   force =     0.07028875    0.00021180   -0.02699606
     atom   25 type  1   force =    -0.00001433   -0.00034820    0.09297631
     atom   26 type  1   force =    -0.00023040   -0.00053973   -0.17814815
     atom   27 type  2   force =     0.00003445   -0.00024896   -0.01964446
     atom   28 type  2   force =    -0.00001405   -0.00165340    0.05786544
     atom   29 type  2   force =    -0.01088128   -0.00058594    0.00759183
     atom   30 type  2   force =     0.01235376   -0.00024090    0.00733022
     atom   31 type  1   force =    -0.00005793    0.00590551   -0.01474764
     atom   32 type  1   force =    -0.00014071   -0.00214693   -0.00201043
     atom   33 type  2   force =     0.00004832   -0.00004644   -0.00032291
     atom   34 type  2   force =    -0.00067433   -0.00101198   -0.00063513
     atom   35 type  2   force =    -0.00007056   -0.00007324    0.00010181
     atom   36 type  2   force =    -0.00005288    0.00001609    0.00017265
     atom   37 type  1   force =     0.00019765   -0.00075198    0.00010837
     atom   38 type  1   force =    -0.00006988   -0.00006841    0.00021777
     atom   39 type  2   force =     0.00016114   -0.00046024    0.00007411
     atom   40 type  2   force =    -0.00012290   -0.00006597   -0.00043397
     atom   41 type  2   force =     0.00037010   -0.00012221   -0.00046827
     atom   42 type  2   force =     0.00010915    0.00012987   -0.00002297
     atom   43 type  1   force =    -0.00014723   -0.00007052    0.00019336
     atom   44 type  1   force =     0.00015474    0.00011272    0.00033354
     atom   45 type  2   force =    -0.00005143   -0.00016130    0.10388171
     atom   46 type  2   force =    -0.07053998   -0.00018729   -0.02693419
     atom   47 type  2   force =     0.07028311    0.00024325   -0.02698940
     atom   48 type  3   force =     0.00029477    0.00050780    0.00022354
     atom   49 type  4   force =    -0.00034298    0.00025591   -0.00005157
     atom   50 type  5   force =     0.00004129   -0.00104819   -0.00010905

     Total force =     0.365910     Total SCF correction =     0.000834
  @ DRIVER MODE: Message from server: STATUS
  @ DRIVER MODE: Message from server: GETFORCE
  @ DRIVER MODE: Returning v,forces,stress,ensemble

     Writing output data file ./calc.save/
  @ DRIVER MODE: Message from server: STATUS
  @ DRIVER MODE: Message from server: INIT
  @ DRIVER MODE: Receiving replica           0           0
  @ DRIVER MODE: Receiving encoded integer           2
  @ DRIVER MODE:  SCF:  T  FORCE:  T  STRESS:  F  VC:  F  ENSEMBLE:  F
  @ DRIVER MODE:  SCF:  F  FORCE:  F  STRESS:  F  VC:  F  ENSEMBLE:  T
  @ DRIVER MODE: Message from server: STATUS
  @ DRIVER MODE: Message from server: POSDATA
  @ DRIVER MODE: Reading and sharing positions
  @ DRIVER MODE: Received positions
     NEW-OLD atomic charge density approx. for the potential

[...]

     Adding external electric field

     Computed dipole along edir(3) :
        Dipole                1.5141 Ry au,          3.8484 Debye
        Dipole field          0.0029 Ry au,

        Potential amp.       -0.2649 Ry
        Total length         46.3494 bohr

  @ DRIVER MODE: BEEF-vdw

[...]

     negative rho (up, down):  1.831E-02 0.000E+00

     negative rho (up, down):  1.831E-02 0.000E+00
 BEEFens 2000 ensemble energies
             -0.343360765873650E+02
             -0.201072965987646E+01
             -0.707361204348545E+01
              0.238356345713038E+02
             -0.118033248496933E+02
             -0.912443120382898E+01
             -0.238042647098788E+02
             -0.498030287544047E+02
             -0.212665015317404E+02
             -0.223986697865923E+02
             -0.208166182193060E+02
              0.422418691725735E+01
              0.197801232916333E+01
             -0.105064205036531E+01
              0.170434751104020E+01
              0.262613731903303E+02
             -0.100978865741313E+02
             -0.713891377901545E+01
              0.116381982606234E+02
             -0.613284038110517E+02
              0.307546455684979E+02
             -0.132176929338448E+02
             -0.237349707987993E+01
             -0.554537589163108E+01
             -0.976924220404271E+00
             -0.209765150697841E+01
              0.475474581797034E+02
             -0.149222592257579E+02
             -0.395909609143308E+01
             -0.300859720381358E+02
              0.388765931390931E+02
             -0.430063260282834E+01
             -0.211486544141426E+02
              0.111178007038707E+02
             -0.203874024966606E+01
              0.128964346130418E+02
             -0.544464073561386E+00
              0.270843159100313E+01
              0.187612179608498E+02
             -0.541057682693929E+02
              0.301523708113808E+02
              0.806009379117496E+01
             -0.620731311868090E+01
             -0.173080412627516E+02
              0.683750599859891E+01
             -0.108551535881284E+02
              0.246477716804671E+02
              0.197043330853850E+02
             -0.127080403646728E+02
             -0.162201669173997E+02
             -0.171540870960114E+02
             -0.205989066557236E+02
              0.104552914475340E+02
             -0.268050878701133E+02
              0.821054615486247E+01
              0.342826510584303E+02
              0.395205468386688E+02
              0.184100461608275E+02
              0.820060744137203E+01
              0.171751967858516E+02
[...]
             -0.404118898931059E+02
              0.275990474164860E+01
             -0.146217429459937E+01
             -0.562750960367111E+01
              0.451101295013530E-01
             -0.359824196542539E+02
             -0.695053295467930E+01
              0.485752540783022E+01
              0.734965798732189E+01
              0.269608904404642E+02
             -0.235769753778151E+02
              0.307427936484972E+02
             -0.220198838920311E+02
              0.141519225447443E+02
              0.222774415749802E+02

 BEEF-vdW xc energy contributions
           1 :   -405.410864395687
           2 :    353.294791800427
           3 :   -269.119555645457
           4 :    181.181052571658
           5 :   -112.100566466049
           6 :    70.8751159069869
           7 :   -53.7642463960544
           8 :    50.7583006776173
           9 :   -52.4780638977628
          10 :    53.7348421190986
          11 :   -53.3167810274796
          12 :    51.7756577652566
          13 :   -49.5320013152933
          14 :    46.3508688567825
          15 :   -41.8995684063401
          16 :    36.4041882277463
          17 :   -30.7835372374181
          18 :    26.2084654967904
          19 :   -23.5039005167386
          20 :    22.7949201293658
          21 :   -23.5831389602696
          22 :    25.0964941558851
          23 :   -26.6334000290590
          24 :    27.7002032483940
          25 :   -27.9789053167423
          26 :    27.2721314187070
          27 :   -25.5372753967736
          28 :    22.9768508435742
          29 :   -20.0696379862314
          30 :    17.4504712724558
          31 :   -47.5619885152265
          32 :   -32.2965350652094
  @ DRIVER MODE: Message from server: STATUS
  @ DRIVER MODE: Message from server: GETFORCE
  @ DRIVER MODE: Returning v,forces,stress,ensemble
  @ DRIVE MODE: Returning Ensemble Energies

     Writing output data file ./calc.save/
  @ DRIVER MODE: Message from server: EXIT
  @ DRIVE MODE: Exiting

     General routines

     Parallel routines

   This run was terminated on:  17: 8:22  19Aug2021

   JOB DONE.