     Program PWSCF v.6.7GPU starts on 16Jul2021 at 14:44:21

     R & G space division:  proc/nbgrp/npool/nimage =      16
     Reading input from /storage/home/hcoda1/3/ntian30/research/carbon/15Jul_vib/ads_slab/CH3NNHHH_a/out_0027/pw.inp
Warning: card &CELL ignored
Warning: card   CELL_DYNAMICS='IPI', ignored
Warning: card / ignored

     Current dimensions of program PWSCF are:
     Max number of different atomic species (ntypx) = 10
     Max number of k-points (npk) =  40000
     Max angular momentum in pseudopotentials (lmaxx) =  3
     Presently no symmetry can be used with electric field

     Message from routine cell_base_init:
     DEPRECATED: use true lattice parameter, not A to a.u. conversion factor

     IMPORTANT: XC functional enforced from input :
     Exchange-correlation= BEEF-VDW
                           (   1   4  43  14   2   0   0)
     Any further DFT definition will be discarded
     Please, verify this is what you really want

  @ DRIVER MODE: Connecting to
 qe_1139763_2351652.sched-torque.pace.gatech.edu8m76xw9a_scratch
  using UNIX socket
  @ DRIVER MODE: Message from server: STATUS
  @ DRIVER MODE: Message from server: INIT
  @ DRIVER MODE: Receiving replica           0          -1
  @ DRIVER MODE: Receiving encoded integer          25
  @ DRIVER MODE:  SCF:  T  FORCE:  T  STRESS:  F  VC:  F  ENSEMBLE:  F
  @ DRIVER MODE:  SCF:  T  FORCE:  T  STRESS:  F  VC:  F  ENSEMBLE:  F

     Using Slab Decomposition

     bravais-lattice index     =            0
     lattice parameter (alat)  =       1.8897  a.u.
     unit-cell volume          =    6658.9804 (a.u.)^3
     number of atoms/cell      =           56
     number of atomic types    =            5
     number of electrons       =       398.00
     number of Kohn-Sham states=          209
     kinetic-energy cutoff     =      29.3995  Ry
     charge density cutoff     =     293.9946  Ry
     scf convergence threshold =      7.3E-08
     mixing beta               =       0.0500
     number of iterations used =            8  plain     mixing
     Exchange-correlation= BEEF-VDW
                           (   1   4  43  14   2   0   0)

     celldm(1)=   1.889726  celldm(2)=   0.000000  celldm(3)=   0.000000
     celldm(4)=   0.000000  celldm(5)=   0.000000  celldm(6)=   0.000000

     crystal axes: (cart. coord. in units of alat)
               a(1) = (   6.579727   0.000000   0.000000 )
               a(2) = (  -0.000775   5.961596   0.000000 )
               a(3) = (   0.000000   0.000000  25.155947 )

     reciprocal axes: (cart. coord. in units 2 pi/alat)
               b(1) = (  0.151982  0.000020  0.000000 )
               b(2) = (  0.000000  0.167740  0.000000 )
               b(3) = (  0.000000  0.000000  0.039752 )

     PseudoPot. # 1 for Ti read from file:
     /storage/coda1/p-amedford6/0/shared/rich_project_chbe-medford/medford-share/data/pseudos_module/espresso/nninc/pbe/van/Ti.UPF
     MD5 check sum: 8e4df49b7f0d34bbd5052bf3f5ea0213
     Pseudo is Ultrasoft, Zval = 12.0
     Generated by new atomic code, or converted to UPF format
     Using radial grid of  851 points,  6 beta functions with:
                l(1) =   0
                l(2) =   0
                l(3) =   1
                l(4) =   1
                l(5) =   2
                l(6) =   2
     Q(r) pseudized with  8 coefficients,  rinner =    1.000   1.000   1.000
                                                       1.000   1.000

     PseudoPot. # 2 for O  read from file:
     /storage/coda1/p-amedford6/0/shared/rich_project_chbe-medford/medford-share/data/pseudos_module/espresso/nninc/pbe/van/O.UPF
     MD5 check sum: 78c19812648e8988a0fe644b0f25305e
     Pseudo is Ultrasoft, Zval =  6.0
     Generated by new atomic code, or converted to UPF format
     Using radial grid of  737 points,  4 beta functions with:
                l(1) =   0
                l(2) =   0
                l(3) =   1
                l(4) =   1
     Q(r) pseudized with  8 coefficients,  rinner =    0.800   0.800   0.800

     PseudoPot. # 3 for N  read from file:
     /storage/coda1/p-amedford6/0/shared/rich_project_chbe-medford/medford-share/data/pseudos_module/espresso/nninc/pbe/van/N.UPF
     MD5 check sum: 90d10febe142ad51ac9d5be1deb811c4
     Pseudo is Ultrasoft, Zval =  5.0
     Generated by new atomic code, or converted to UPF format
     Using radial grid of  729 points,  4 beta functions with:
                l(1) =   0
                l(2) =   0
                l(3) =   1
                l(4) =   1
     Q(r) pseudized with  8 coefficients,  rinner =    0.800   0.800   0.800

     PseudoPot. # 4 for C  read from file:
     /storage/coda1/p-amedford6/0/shared/rich_project_chbe-medford/medford-share/data/pseudos_module/espresso/nninc/pbe/van/C.UPF
     MD5 check sum: 1a69bf6b8db32088f5b2163dbdb77a27
     Pseudo is Ultrasoft, Zval =  4.0
     Generated by new atomic code, or converted to UPF format
     Using radial grid of  721 points,  4 beta functions with:
                l(1) =   0
                l(2) =   0
                l(3) =   1
                l(4) =   1
     Q(r) pseudized with  8 coefficients,  rinner =    0.800   0.800   0.800

     PseudoPot. # 5 for H  read from file:
     /storage/coda1/p-amedford6/0/shared/rich_project_chbe-medford/medford-share/data/pseudos_module/espresso/nninc/pbe/van/H.UPF
     MD5 check sum: b5ee9d7bfd3a09ee7748110bda690ff7
     Pseudo is Ultrasoft, Zval =  1.0
     Generated by new atomic code, or converted to UPF format
     Using radial grid of  615 points,  1 beta functions with:
                l(1) =   0
     Q(r) pseudized with  8 coefficients,  rinner =    0.800

     atomic species   valence    mass     pseudopotential
        Ti1           12.00    47.86700     Ti( 1.00)
        O1             6.00    15.99900     O ( 1.00)
        N1             5.00    14.00700     N ( 1.00)
        C1             4.00    12.01100     C ( 1.00)
        H1             1.00     1.00800     H ( 1.00)

     Starting magnetic structure
     atomic species   magnetization
        Ti1          0.000
        O1           0.000
        N1           0.000
        C1           0.025
        H1           0.000

     No symmetry found

   Cartesian axes

     site n.     atom                  positions (alat units)
         1           Ti1 tau(   1) = (   0.0004258   2.9801865   6.0000000  )
         2           Ti1 tau(   2) = (   3.2906075   1.4906267   6.0002472  )
         3           O1  tau(   3) = (   0.0006271   0.0005054   7.9858123  )
         4           O1  tau(   4) = (   3.2906025   0.0005020   7.3038282  )
         5           O1  tau(   5) = (   4.5942328   1.4918067   9.2879030  )
         6           O1  tau(   6) = (   1.9868534   1.4903216   9.2879459  )
         7           Ti1 tau(   7) = (   3.2907910   2.8959150   9.1758416  )
         8           Ti1 tau(   8) = (   0.0015273   1.4827037   9.2680791  )
         9           O1  tau(   9) = (   3.2969863   5.9453513  11.3493076  )
        10           O1  tau(  10) = (   0.0116148   5.9584955  10.6183126  )
        11           O1  tau(  11) = (   1.3059050   1.4736943  12.6642453  )
        12           O1  tau(  12) = (   5.3003793   1.4775083  12.6459419  )
        13           Ti1 tau(  13) = (   0.0167275   2.9625105  12.5508078  )
        14           Ti1 tau(  14) = (   3.3131340   1.4712512  12.4909780  )
        15           O1  tau(  15) = (   6.5517612   5.9325698  14.7566896  )
        16           O1  tau(  16) = (   3.3302114   5.9429442  13.9823395  )
        17           O1  tau(  17) = (   4.5243935   1.5056208  16.2316672  )
        18           O1  tau(  18) = (   2.0170937   1.4633510  16.1378485  )
        19           Ti1 tau(  19) = (   3.2500237   2.9242626  15.6920970  )
        20           Ti1 tau(  20) = (   6.5441017   1.2779805  16.1516014  )
        21           O1  tau(  21) = (   3.2904802   0.0005063   4.7018136  )
        22           O1  tau(  22) = (   6.5540411   5.9581837  17.3465722  )
        23           O1  tau(  23) = (   1.3043587   1.4918075   6.0039043  )
        24           O1  tau(  24) = (   5.2767064   1.4903225   6.0039473  )
        25           Ti1 tau(  25) = (   0.0000382   5.9609847   6.0000000  )
        26           Ti1 tau(  26) = (   3.2902200   4.4714249   6.0002472  )
        27           O1  tau(  27) = (   0.0002396   2.9813036   7.9858123  )
        28           O1  tau(  28) = (   3.2902150   2.9813002   7.3038282  )
        29           O1  tau(  29) = (   4.5938453   4.4726049   9.2879030  )
        30           O1  tau(  30) = (   1.9864658   4.4711199   9.2879459  )
        31           Ti1 tau(  31) = (   3.2891106   5.8743827   9.1763621  )
        32           Ti1 tau(  32) = (   0.0006254   4.4649316   9.2693709  )
        33           O1  tau(  33) = (   3.2962403   2.9651072  11.3429128  )
        34           O1  tau(  34) = (   0.0092240   2.9805883  10.6323155  )
        35           O1  tau(  35) = (   1.3076126   4.4641214  12.6643835  )
        36           O1  tau(  36) = (   5.2981430   4.4591552  12.6429889  )
        37           Ti1 tau(  37) = (   0.0194730   5.9489450  12.5196332  )
        38           Ti1 tau(  38) = (   3.3150505   4.4522436  12.4946186  )
        39           O1  tau(  39) = (   6.5702761   2.9869041  14.8038460  )
        40           O1  tau(  40) = (   3.3119818   2.9576719  13.9204832  )
        41           O1  tau(  41) = (   4.5223198   4.3950437  16.2490866  )
        42           O1  tau(  42) = (   2.0356696   4.4339808  16.1311045  )
        43           Ti1 tau(  43) = (   3.3057863   5.9493229  15.7677403  )
        44           Ti1 tau(  44) = (   0.0958844   4.4293496  15.8701971  )
        45           O1  tau(  45) = (   3.2900926   2.9813045   4.7018136  )
        46           O1  tau(  46) = (   1.3039711   4.4726057   6.0039043  )
        47           O1  tau(  47) = (   5.2763189   4.4711207   6.0039473  )
        48           N1  tau(  48) = (   0.0620580   3.0375546  17.6897758  )
        49           C1  tau(  49) = (   1.1116374   2.9693208  18.6984743  )
        50           H1  tau(  50) = (   1.2951007   3.9532040  19.1583453  )
        51           H1  tau(  51) = (   0.8627774   2.2426413  19.4871689  )
        52           H1  tau(  52) = (   2.0263963   2.6128967  18.2308865  )
        53           N1  tau(  53) = (   5.4279256   3.3744730  18.4033390  )
        54           H1  tau(  54) = (   5.6103604   4.1199394  19.0852601  )
        55           H1  tau(  55) = (   4.7934260   3.8076565  17.6395878  )
        56           H1  tau(  56) = (   5.0090149   2.5598412  18.8678436  )

     number of k points=    10  Fermi-Dirac smearing, width (Ry)=  0.0073
                       cart. coord. in units 2pi/alat
        k(    1) = (   0.0000000   0.0000000   0.0000000), wk =   0.0625000
        k(    2) = (   0.0000000   0.0419351   0.0000000), wk =   0.1250000
        k(    3) = (   0.0000000  -0.0838702   0.0000000), wk =   0.0625000
        k(    4) = (   0.0379955   0.0000049   0.0000000), wk =   0.1250000
        k(    5) = (   0.0379955   0.0419400   0.0000000), wk =   0.1250000
[...]
     % Please cite the following two papers that made this development      %
     % possible and the two reviews that describe the various versions:     %
     %                                                                      %
     %   T. Thonhauser et al., PRL 115, 136402 (2015).                      %
     %   T. Thonhauser et al., PRB 76, 125112 (2007).                       %
     %   K. Berland et al., Rep. Prog. Phys. 78, 066501 (2015).             %
     %   D.C. Langreth et al., J. Phys.: Condens. Matter 21, 084203 (2009). %
     %                                                                      %
     %                                                                      %
     % If you are calculating the stress with vdW-DF, please also cite:     %
     %                                                                      %
     %   R. Sabatini et al., J. Phys.: Condens. Matter 24, 424209 (2012).   %
     %                                                                      %
     %%%%%%%%%%%%%%%%%%%%%%%%%%%%%%%%%%%%%%%%%%%%%%%%%%%%%%%%%%%%%%%%%%%%%%%%

     Adding external electric field

     Computed dipole along edir(3) :
        Dipole              -10.5729 Ry au,        -26.8736 Debye
        Dipole field         -0.0200 Ry au,

        Potential amp.        1.8496 Ry
        Total length         46.3494 bohr

[...]

     Starting wfcs are  302 atomic wfcs
  @ DRIVER MODE: Message from server: STATUS
  @ DRIVER MODE: Message from server: POSDATA
  @ DRIVER MODE: Reading and sharing cell
  @ DRIVER MODE: Reading and sharing positions
  @ DRIVER MODE: Received positions

     Self-consistent Calculation

     iteration #  1     ecut=    29.40 Ry     beta= 0.05
     Davidson diagonalization with overlap
     c_bands:  4 eigenvalues not converged
     c_bands:  3 eigenvalues not converged
     c_bands:  1 eigenvalues not converged
     c_bands:  4 eigenvalues not converged
     c_bands:  5 eigenvalues not converged
     c_bands:  5 eigenvalues not converged
     c_bands:  1 eigenvalues not converged
     c_bands:  5 eigenvalues not converged
     c_bands:  3 eigenvalues not converged
     c_bands:  3 eigenvalues not converged
     c_bands:  2 eigenvalues not converged
     c_bands:  1 eigenvalues not converged
     c_bands:  4 eigenvalues not converged
     c_bands:  5 eigenvalues not converged
     c_bands:  5 eigenvalues not converged
     c_bands:  5 eigenvalues not converged
     c_bands:  3 eigenvalues not converged
     ethr =  1.00E-05,  avg # of iterations = 20.0

[...]

     total energy              =   -2443.28694195 Ry
     estimated scf accuracy    <    5586.04519362 Ry

     total magnetization       =     0.00 Bohr mag/cell
     absolute magnetization    =     0.01 Bohr mag/cell

     iteration #  2     ecut=    29.40 Ry     beta= 0.05
     Davidson diagonalization with overlap
     ethr =  1.00E-02,  avg # of iterations = 25.2

[...]

     iteration #115     ecut=    29.40 Ry     beta= 0.05
     Davidson diagonalization with overlap
     ethr =  9.85E-11,  avg # of iterations = 12.7

[...]

     total energy              =   -2942.82553046 Ry
     estimated scf accuracy    <       0.00000008 Ry

[...]

     iteration #117     ecut=    29.40 Ry     beta= 0.05
     Davidson diagonalization with overlap
     c_bands:  1 eigenvalues not converged
     ethr =  1.92E-11,  avg # of iterations =  4.2

     negative rho (up, down):  7.277E-03 7.269E-03

[...]

     Adding external electric field

     Computed dipole along edir(3) :
        Dipole                1.6187 Ry au,          4.1143 Debye
        Dipole field          0.0031 Ry au,

        Potential amp.       -0.2832 Ry
        Total length         46.3494 bohr

     Magnetic moment per site  (integrated on atomic sphere of radius R)
     atom   1 (R=0.723)  charge=  7.9140  magn= -0.0053
     atom   2 (R=0.723)  charge=  7.8963  magn= -0.0002
     atom   3 (R=0.633)  charge=  4.2081  magn=  0.0006
     atom   4 (R=0.633)  charge=  4.2373  magn=  0.0001
     atom   5 (R=0.633)  charge=  4.2137  magn=  0.0001
     atom   6 (R=0.633)  charge=  4.2139  magn=  0.0001
     atom   7 (R=0.723)  charge=  7.8964  magn= -0.0003
     atom   8 (R=0.723)  charge=  7.8945  magn= -0.0040
     atom   9 (R=0.633)  charge=  4.2238  magn= -0.0000
     atom  10 (R=0.633)  charge=  4.2125  magn=  0.0003
     atom  11 (R=0.633)  charge=  4.2093  magn=  0.0000
     atom  12 (R=0.633)  charge=  4.2111  magn=  0.0000
     atom  13 (R=0.723)  charge=  7.8926  magn= -0.0008
     atom  14 (R=0.723)  charge=  7.9040  magn=  0.0001
     atom  15 (R=0.633)  charge=  4.2098  magn=  0.0000
     atom  16 (R=0.633)  charge=  4.2161  magn= -0.0001
     atom  17 (R=0.633)  charge=  4.2035  magn= -0.0001
     atom  18 (R=0.633)  charge=  4.2035  magn= -0.0001
     atom  19 (R=0.723)  charge=  7.9504  magn=  0.0008
     atom  20 (R=0.723)  charge=  7.9298  magn=  0.0000
     atom  21 (R=0.633)  charge=  4.1284  magn=  0.0001
     atom  22 (R=0.633)  charge=  4.1764  magn= -0.0000
     atom  23 (R=0.633)  charge=  4.2074  magn=  0.0005
     atom  24 (R=0.633)  charge=  4.2074  magn=  0.0005
     atom  25 (R=0.723)  charge=  7.9141  magn= -0.0053
     atom  26 (R=0.723)  charge=  7.8964  magn= -0.0002
     atom  27 (R=0.633)  charge=  4.2077  magn=  0.0006
     atom  28 (R=0.633)  charge=  4.2375  magn=  0.0001
     atom  29 (R=0.633)  charge=  4.2143  magn=  0.0001
     atom  30 (R=0.633)  charge=  4.2144  magn=  0.0001
     atom  31 (R=0.723)  charge=  7.8969  magn= -0.0003
     atom  32 (R=0.723)  charge=  7.8947  magn= -0.0040
     atom  33 (R=0.633)  charge=  4.2222  magn= -0.0000
     atom  34 (R=0.633)  charge=  4.2053  magn=  0.0003
     atom  35 (R=0.633)  charge=  4.2090  magn=  0.0000
     atom  36 (R=0.633)  charge=  4.2115  magn=  0.0000
     atom  37 (R=0.723)  charge=  7.8964  magn= -0.0008
     atom  38 (R=0.723)  charge=  7.9034  magn=  0.0001
     atom  39 (R=0.633)  charge=  4.1926  magn=  0.0000
     atom  40 (R=0.633)  charge=  4.2343  magn= -0.0001
     atom  41 (R=0.633)  charge=  4.2025  magn= -0.0001
     atom  42 (R=0.633)  charge=  4.2135  magn= -0.0001
     atom  43 (R=0.723)  charge=  7.9399  magn=  0.0010
     atom  44 (R=0.723)  charge=  7.9262  magn=  0.0000
     atom  45 (R=0.633)  charge=  4.1284  magn=  0.0001
     atom  46 (R=0.633)  charge=  4.2074  magn=  0.0005
     atom  47 (R=0.633)  charge=  4.2074  magn=  0.0005
     atom  48 (R=0.423)  charge=  1.3356  magn= -0.0000
     atom  49 (R=0.449)  charge=  0.8449  magn=  0.0000
     atom  50 (R=0.423)  charge=  0.4485  magn= -0.0000
     atom  51 (R=0.423)  charge=  0.4500  magn=  0.0000
     atom  52 (R=0.423)  charge=  0.4533  magn= -0.0000
     atom  53 (R=0.423)  charge=  1.3749  magn=  0.0000
     atom  54 (R=0.423)  charge=  0.4520  magn= -0.0000
     atom  55 (R=0.423)  charge=  0.3988  magn=  0.0000
     atom  56 (R=0.423)  charge=  0.4521  magn= -0.0000

     End of self-consistent calculation

 ------ SPIN UP ------------

          k = 0.0000 0.0000 0.0000 ( 18029 PWs)   bands (ev):

   -55.1350 -55.0984 -55.0915 -55.0574 -55.0165 -55.0025 -54.9784 -54.9357
   -54.9202 -54.9157 -54.9008 -54.8871 -54.8568 -54.7861 -54.1081 -54.0740
   -31.7148 -31.5838 -31.5031 -31.4720 -31.4262 -31.4241 -31.4226 -31.3946
   -31.3909 -31.3805 -31.3596 -31.3443 -31.3356 -31.3125 -31.2948 -31.2695
   -31.2516 -31.2436 -31.2372 -31.2341 -31.2053 -31.2004 -31.1938 -31.1673
   -31.1474 -31.1456 -31.1389 -31.1321 -31.1296 -31.1201 -31.1163 -31.1126
   -31.0937 -31.0858 -31.0813 -31.0516 -31.0489 -31.0397 -31.0289 -31.0285
   -31.0174 -30.9755 -30.5166 -30.4243 -30.4022 -30.3330 -30.2462 -30.1354
   -18.9375 -15.9990 -15.7447 -15.6091 -15.3743 -15.3223 -15.2657 -15.0604
   -15.0569 -14.9856 -14.9707 -14.9218 -14.9022 -14.8347 -14.7502 -14.7310
   -14.6617 -14.6599 -14.6302 -14.6201 -14.6180 -14.5554 -14.5459 -14.5161
   -14.5032 -14.4781 -14.3596 -14.2753 -14.2169 -13.9677 -13.5954 -12.6109
   -12.4938  -9.7437  -7.7218  -7.2118  -5.4590  -3.8218  -3.3362  -3.2680
    -3.1619  -3.1323  -3.0552  -3.0258  -2.8408  -2.8201  -2.4786  -2.4431
    -2.3925  -2.3746  -2.3534  -2.3357  -2.1685  -2.1423  -2.0693  -2.0362
    -2.0179  -1.9768  -1.9604  -1.9499  -1.9164  -1.9113  -1.9018  -1.6946
    -1.6380  -1.5429  -1.5206  -1.4994  -1.4615  -1.4261  -1.4166  -1.4137
    -1.4079  -1.3944  -1.3823  -1.3015  -1.2440  -1.1625  -1.1535  -1.1180
    -1.0139  -0.9687  -0.7666  -0.7524  -0.7064  -0.6643  -0.6014  -0.5809
    -0.5135  -0.4829  -0.4641  -0.3424  -0.3137  -0.2742  -0.2460  -0.1782
    -0.1485  -0.1025  -0.0194   0.0525   0.0883   0.1065   0.1656   0.2955
     0.3071   0.3363   0.3975   0.4612   0.5016   0.5216   0.5402   0.5768
     0.6272   0.7527   0.7974   0.8173   0.8215   0.8553   0.8781   0.9292
     0.9539   1.0143   1.0198   1.1376   1.2068   1.4342   1.4685   1.4943
     1.8267   1.8499   1.9143   2.1003   2.4882   2.5357   3.9734   4.0320
     4.0867   4.1094   4.1254   4.2137   4.2461   4.4326   4.4599   4.4657
     4.4683

[...]

          k =-0.0760-0.0000 0.0000 ( 17886 PWs)   bands (ev):

[...]

 ------ SPIN DOWN ----------

[...]

          k = 0.0380-0.0419 0.0000 ( 17876 PWs)   bands (ev):

[...]

          k =-0.0760-0.0839 0.0000 ( 17948 PWs)   bands (ev):

   -55.1192 -55.1134 -55.0839 -55.0839 -55.0073 -54.9975 -54.9905 -54.9205
   -54.9179 -54.9165 -54.9122 -54.9107 -54.8529 -54.7900 -54.0914 -54.0912
   -31.5181 -31.5152 -31.4380 -31.4162 -31.4029 -31.4029 -31.3770 -31.3769
   -31.3459 -31.3398 -31.3369 -31.3367 -31.3036 -31.2667 -31.2613 -31.2569
   -31.2558 -31.2518 -31.2516 -31.2454 -31.2113 -31.2107 -31.2082 -31.2039
   -31.2039 -31.2038 -31.1837 -31.1832 -31.1551 -31.1504 -31.1350 -31.1310
   -31.1302 -31.1296 -31.1273 -31.1179 -31.0949 -31.0934 -31.0898 -31.0655
   -31.0404 -31.0229 -30.4153 -30.4152 -30.3293 -30.3291 -30.2900 -30.2899
   -18.9327 -15.5062 -15.3964 -15.2888 -15.2229 -15.1806 -15.1289 -15.1113
   -15.1004 -15.0559 -15.0265 -14.9574 -14.8923 -14.8392 -14.8382 -14.8038
   -14.7253 -14.7115 -14.7042 -14.6938 -14.6370 -14.6303 -14.5987 -14.5777
   -14.5746 -14.5450 -14.4713 -14.4689 -14.3830 -14.1768 -13.6314 -12.5952
   -12.5951  -9.7131  -7.7184  -7.1582  -5.4620  -3.8438  -3.4211  -2.7546
    -2.6436  -2.4335  -2.4072  -2.3471  -2.3276  -2.2439  -2.1817  -2.1598
    -2.1363  -2.1022  -2.0993  -2.0757  -2.0534  -2.0003  -1.9712  -1.9594
    -1.9536  -1.9388  -1.9260  -1.9063  -1.8497  -1.8395  -1.8321  -1.7895
    -1.7785  -1.7467  -1.7406  -1.7016  -1.6849  -1.6102  -1.5162  -1.4919
    -1.4332  -1.3320  -1.3173  -1.3117  -1.2193  -1.2103  -1.1807  -1.1497
    -1.0953  -0.9961  -0.9414  -0.8646  -0.8613  -0.8322  -0.7445  -0.6807
    -0.6474  -0.6375  -0.5985  -0.5410  -0.5189  -0.4843  -0.4016  -0.3601
    -0.3331  -0.2993  -0.2040  -0.1429  -0.1194  -0.0876  -0.0841   0.0047
     0.0379   0.0747   0.0954   0.1337   0.1605   0.2246   0.2470   0.3575
     0.4253   0.4573   0.5764   0.6006   0.6640   0.7967   0.8681   0.9087
     0.9609   1.0193   1.0469   1.1778   1.1850   1.2041   1.3035   1.3437
     1.3506   1.3637   2.2731   2.2742   2.3557   2.3558   4.1019   4.1887
     4.2315   4.2689   4.3758   4.4838   4.5023   4.5457   4.5463   4.6216
     4.6264

     the Fermi energy is     4.0221 ev

!    total energy              =   -2942.82553159 Ry
     estimated scf accuracy    <       0.00000005 Ry
     smearing contrib. (-TS)   =      -0.03684342 Ry
     internal energy E=F+TS    =   -2942.78868818 Ry

     The total energy is F=E-TS. E is the sum of the following terms:
     one-electron contribution =  -23972.23729941 Ry
     hartree contribution      =   12081.69663423 Ry
     xc contribution           =    -487.77077877 Ry
     ewald contribution        =    9435.51781127 Ry
     electric field correction =       0.00494449 Ry

     total magnetization       =    -0.03 Bohr mag/cell
     absolute magnetization    =     0.05 Bohr mag/cell

     convergence has been achieved in 117 iterations

     Forces acting on atoms (cartesian axes, Ry/au):

     atom    1 type  1   force =     0.00015091   -0.00022325    0.09430746
     atom    2 type  1   force =    -0.00009502   -0.00032997   -0.17740454
     atom    3 type  2   force =     0.00005587   -0.00016465   -0.02137294
     atom    4 type  2   force =    -0.00001550   -0.00172503    0.05657736
     atom    5 type  2   force =    -0.01054998   -0.00127566    0.00624077
     atom    6 type  2   force =     0.01221764   -0.00074170    0.00571290
     atom    7 type  1   force =    -0.00032809    0.00172443   -0.01617482
     atom    8 type  1   force =    -0.00011139    0.00438604    0.00561180
     atom    9 type  2   force =     0.00000954   -0.00004581   -0.00004352
     atom   10 type  2   force =    -0.00074281   -0.00022245   -0.00043815
     atom   11 type  2   force =     0.00034180    0.00012831   -0.00018799
     atom   12 type  2   force =    -0.00051427    0.00000501   -0.00012575
     atom   13 type  1   force =     0.00004292   -0.00034904    0.00013193
     atom   14 type  1   force =     0.00055854    0.00011786   -0.00031924
     atom   15 type  2   force =    -0.00039971    0.00025711   -0.00016757
     atom   16 type  2   force =    -0.00033107    0.00019848   -0.00003956
     atom   17 type  2   force =    -0.00018768    0.00009247    0.00045643
     atom   18 type  2   force =     0.00009823    0.00030008   -0.00007092
     atom   19 type  1   force =     0.00015091    0.00013854    0.00008126
     atom   20 type  1   force =     0.00005356    0.00053417   -0.00052230
     atom   21 type  2   force =     0.00003666    0.00004187    0.10362329
     atom   22 type  2   force =    -0.00002651   -0.00079737   -0.00027238
     atom   23 type  2   force =    -0.07081074   -0.00009984   -0.02719700
     atom   24 type  2   force =     0.07067282    0.00034131   -0.02722473
     atom   25 type  1   force =    -0.00009592   -0.00019533    0.09372770
     atom   26 type  1   force =    -0.00015179   -0.00032378   -0.17733047
     atom   27 type  2   force =     0.00008699   -0.00035160   -0.02047202
     atom   28 type  2   force =     0.00003085   -0.00144040    0.05588605
     atom   29 type  2   force =    -0.01091485   -0.00073754    0.00609142
     atom   30 type  2   force =     0.01246508   -0.00029289    0.00556980
     atom   31 type  1   force =    -0.00017380    0.00462467   -0.01720337
     atom   32 type  1   force =    -0.00003808   -0.00480376    0.00559073
     atom   33 type  2   force =     0.00005680    0.00012472    0.00027502
     atom   34 type  2   force =     0.00005721   -0.00085289   -0.00296554
     atom   35 type  2   force =     0.00023104    0.00002749    0.00008090
     atom   36 type  2   force =    -0.00042505    0.00015284   -0.00006401
     atom   37 type  1   force =    -0.00012848   -0.00011289   -0.00018393
     atom   38 type  1   force =     0.00043212   -0.00028680    0.00038052
     atom   39 type  2   force =    -0.00045291    0.00008345    0.00074088
     atom   40 type  2   force =    -0.00011753    0.00018383   -0.00019985
     atom   41 type  2   force =     0.00009091    0.00029870    0.00022500
     atom   42 type  2   force =    -0.00006978    0.00023447   -0.00006086
     atom   43 type  1   force =    -0.00041524    0.00050693   -0.00008783
     atom   44 type  1   force =    -0.00015869    0.00030732   -0.00020906
     atom   45 type  2   force =     0.00002560    0.00001080    0.10362591
     atom   46 type  2   force =    -0.07081050   -0.00003686   -0.02719695
     atom   47 type  2   force =     0.07067850    0.00037919   -0.02720528
     atom   48 type  3   force =     0.00034727   -0.00085344    0.00026737
     atom   49 type  4   force =     0.00242408   -0.00253173   -0.00199346
     atom   50 type  5   force =     0.00091021   -0.00028431   -0.00042167
     atom   51 type  5   force =    -0.00095383   -0.00006157    0.00039139
     atom   52 type  5   force =    -0.00327928    0.00272362    0.00163693
     atom   53 type  3   force =     0.00034374    0.00083982    0.00118233
     atom   54 type  5   force =     0.00011859    0.00006921   -0.00023084
     atom   55 type  5   force =    -0.00010414    0.00015902   -0.00081941
     atom   56 type  5   force =    -0.00028572    0.00014878   -0.00020915

     Total force =     0.365626     Total SCF correction =     0.000579
  @ DRIVER MODE: Message from server: STATUS
  @ DRIVER MODE: Message from server: GETFORCE
  @ DRIVER MODE: Returning v,forces,stress,ensemble

     Writing output data file ./calc.save/
  @ DRIVER MODE: Message from server: EXIT
  @ DRIVE MODE: Exiting

     General routines

     Parallel routines

   This run was terminated on:  15:32:29  16Jul2021

   JOB DONE.