     Program PWSCF v.6.7GPU starts on  9Sep2021 at 14:16:16

     R & G space division:  proc/nbgrp/npool/nimage =      10
     Reading input from /storage/home/hcoda1/3/ntian30/research/carbon/CxH_vib/CH3_calc/ads_slab/CH3NNHHH_a/out_0049/pw.inp
Warning: card &CELL ignored
Warning: card   CELL_DYNAMICS='IPI', ignored
Warning: card / ignored

     Current dimensions of program PWSCF are:
     Max number of different atomic species (ntypx) = 10
     Max number of k-points (npk) =  40000
     Max angular momentum in pseudopotentials (lmaxx) =  3
     Presently no symmetry can be used with electric field

     Message from routine cell_base_init:
     DEPRECATED: use true lattice parameter, not A to a.u. conversion factor

     IMPORTANT: XC functional enforced from input :
     Exchange-correlation= BEEF-VDW
                           (   1   4  43  14   2   0   0)
     Any further DFT definition will be discarded
     Please, verify this is what you really want

  @ DRIVER MODE: Connecting to
 qe_1139763_2767399.sched-torque.pace.gatech.edu2gd73ma8_scratch
  using UNIX socket
  @ DRIVER MODE: Message from server: STATUS
  @ DRIVER MODE: Message from server: INIT
  @ DRIVER MODE: Receiving replica           0          -1
  @ DRIVER MODE: Receiving encoded integer          25
  @ DRIVER MODE:  SCF:  T  FORCE:  T  STRESS:  F  VC:  F  ENSEMBLE:  F
  @ DRIVER MODE:  SCF:  T  FORCE:  T  STRESS:  F  VC:  F  ENSEMBLE:  F

     Using Slab Decomposition

     bravais-lattice index     =            0
     lattice parameter (alat)  =       1.8897  a.u.
     unit-cell volume          =    6658.9804 (a.u.)^3
     number of atoms/cell      =           56
     number of atomic types    =            5
     number of electrons       =       398.00
     number of Kohn-Sham states=          209
     kinetic-energy cutoff     =      29.3995  Ry
     charge density cutoff     =     293.9946  Ry
     scf convergence threshold =      7.3E-08
     mixing beta               =       0.0500
     number of iterations used =            8  plain     mixing
     Exchange-correlation= BEEF-VDW
                           (   1   4  43  14   2   0   0)

     celldm(1)=   1.889726  celldm(2)=   0.000000  celldm(3)=   0.000000
     celldm(4)=   0.000000  celldm(5)=   0.000000  celldm(6)=   0.000000

     crystal axes: (cart. coord. in units of alat)
               a(1) = (   6.579727   0.000000   0.000000 )
               a(2) = (  -0.000775   5.961596   0.000000 )
               a(3) = (   0.000000   0.000000  25.155947 )

     reciprocal axes: (cart. coord. in units 2 pi/alat)
               b(1) = (  0.151982  0.000020  0.000000 )
               b(2) = (  0.000000  0.167740  0.000000 )
               b(3) = (  0.000000  0.000000  0.039752 )

     PseudoPot. # 1 for Ti read from file:
     /storage/coda1/p-amedford6/0/shared/rich_project_chbe-medford/medford-share/data/pseudos_module/espresso/nninc/pbe/van/Ti.UPF
     MD5 check sum: 8e4df49b7f0d34bbd5052bf3f5ea0213
     Pseudo is Ultrasoft, Zval = 12.0
     Generated by new atomic code, or converted to UPF format
     Using radial grid of  851 points,  6 beta functions with:
                l(1) =   0
                l(2) =   0
                l(3) =   1
                l(4) =   1
                l(5) =   2
                l(6) =   2
     Q(r) pseudized with  8 coefficients,  rinner =    1.000   1.000   1.000
                                                       1.000   1.000

     PseudoPot. # 2 for O  read from file:
     /storage/coda1/p-amedford6/0/shared/rich_project_chbe-medford/medford-share/data/pseudos_module/espresso/nninc/pbe/van/O.UPF
     MD5 check sum: 78c19812648e8988a0fe644b0f25305e
     Pseudo is Ultrasoft, Zval =  6.0
     Generated by new atomic code, or converted to UPF format
     Using radial grid of  737 points,  4 beta functions with:
                l(1) =   0
                l(2) =   0
                l(3) =   1
                l(4) =   1
     Q(r) pseudized with  8 coefficients,  rinner =    0.800   0.800   0.800

     PseudoPot. # 3 for N  read from file:
     /storage/coda1/p-amedford6/0/shared/rich_project_chbe-medford/medford-share/data/pseudos_module/espresso/nninc/pbe/van/N.UPF
     MD5 check sum: 90d10febe142ad51ac9d5be1deb811c4
     Pseudo is Ultrasoft, Zval =  5.0
     Generated by new atomic code, or converted to UPF format
     Using radial grid of  729 points,  4 beta functions with:
                l(1) =   0
                l(2) =   0
                l(3) =   1
                l(4) =   1
     Q(r) pseudized with  8 coefficients,  rinner =    0.800   0.800   0.800

     PseudoPot. # 4 for C  read from file:
     /storage/coda1/p-amedford6/0/shared/rich_project_chbe-medford/medford-share/data/pseudos_module/espresso/nninc/pbe/van/C.UPF
     MD5 check sum: 1a69bf6b8db32088f5b2163dbdb77a27
     Pseudo is Ultrasoft, Zval =  4.0
     Generated by new atomic code, or converted to UPF format
     Using radial grid of  721 points,  4 beta functions with:
                l(1) =   0
                l(2) =   0
                l(3) =   1
                l(4) =   1
     Q(r) pseudized with  8 coefficients,  rinner =    0.800   0.800   0.800

     PseudoPot. # 5 for H  read from file:
     /storage/coda1/p-amedford6/0/shared/rich_project_chbe-medford/medford-share/data/pseudos_module/espresso/nninc/pbe/van/H.UPF
     MD5 check sum: b5ee9d7bfd3a09ee7748110bda690ff7
     Pseudo is Ultrasoft, Zval =  1.0
     Generated by new atomic code, or converted to UPF format
     Using radial grid of  615 points,  1 beta functions with:
                l(1) =   0
     Q(r) pseudized with  8 coefficients,  rinner =    0.800

     atomic species   valence    mass     pseudopotential
        Ti1           12.00    47.86700     Ti( 1.00)
        O1             6.00    15.99900     O ( 1.00)
        N1             5.00    14.00700     N ( 1.00)
        C1             4.00    12.01100     C ( 1.00)
        H1             1.00     1.00800     H ( 1.00)

     No symmetry found

   Cartesian axes

     site n.     atom                  positions (alat units)
         1           Ti1 tau(   1) = (   0.0004258   2.9801865   6.0000000  )
         2           Ti1 tau(   2) = (   3.2906075   1.4906267   6.0002472  )
         3           O1  tau(   3) = (   0.0006271   0.0005054   7.9858123  )
         4           O1  tau(   4) = (   3.2906025   0.0005020   7.3038282  )
         5           O1  tau(   5) = (   4.5942328   1.4918067   9.2879030  )
         6           O1  tau(   6) = (   1.9868534   1.4903216   9.2879459  )
         7           Ti1 tau(   7) = (   3.2907910   2.8959150   9.1758416  )
         8           Ti1 tau(   8) = (   0.0015273   1.4827037   9.2680791  )
         9           O1  tau(   9) = (   3.3120675   0.0079458  11.3762204  )
        10           O1  tau(  10) = (   0.0116148   5.9584955  10.6183126  )
        11           O1  tau(  11) = (   1.3148726   1.5133626  12.6447579  )
        12           O1  tau(  12) = (   5.3140862   1.5122126  12.6508301  )
        13           Ti1 tau(  13) = (   0.0289753   2.9995974  12.5105963  )
        14           Ti1 tau(  14) = (   3.3300932   1.5144954  12.5190352  )
        15           O1  tau(  15) = (   0.0303621   0.0967028  14.6836000  )
        16           O1  tau(  16) = (   3.3188409   0.0235386  14.0025835  )
        17           O1  tau(  17) = (   4.5661268   1.5053193  16.2317874  )
        18           O1  tau(  18) = (   2.0488868   1.5039614  16.2002260  )
        19           Ti1 tau(  19) = (   3.3211226   2.9745325  15.7560014  )
        20           Ti1 tau(  20) = (   0.0641794   1.4487855  16.0607878  )
        21           O1  tau(  21) = (   3.2904802   0.0005063   4.7018136  )
        22           O1  tau(  22) = (   0.0207051   5.8381987  17.2232637  )
        23           O1  tau(  23) = (   1.3043587   1.4918075   6.0039043  )
        24           O1  tau(  24) = (   5.2767064   1.4903225   6.0039473  )
        25           Ti1 tau(  25) = (   0.0000382   5.9609847   6.0000000  )
        26           Ti1 tau(  26) = (   3.2902200   4.4714249   6.0002472  )
        27           O1  tau(  27) = (   0.0002396   2.9813036   7.9858123  )
        28           O1  tau(  28) = (   3.2902150   2.9813002   7.3038282  )
        29           O1  tau(  29) = (   4.5938453   4.4726049   9.2879030  )
        30           O1  tau(  30) = (   1.9864658   4.4711199   9.2879459  )
        31           Ti1 tau(  31) = (   3.2891106   5.8743827   9.1763621  )
        32           Ti1 tau(  32) = (   0.0006254   4.4649316   9.2693709  )
        33           O1  tau(  33) = (   3.3137607   3.0039157  11.3695003  )
        34           O1  tau(  34) = (   0.0092240   2.9805883  10.6323155  )
        35           O1  tau(  35) = (   1.3103219   4.4840529  12.6837359  )
        36           O1  tau(  36) = (   5.3166572   4.4842854  12.6901167  )
        37           Ti1 tau(  37) = (   0.0376818   0.0300362  12.4998423  )
        38           Ti1 tau(  38) = (   3.3279277   4.4933691  12.5326681  )
        39           O1  tau(  39) = (   0.0236785   2.9473731  14.9547601  )
        40           O1  tau(  40) = (   3.3158584   2.9778716  13.9675922  )
        41           O1  tau(  41) = (   4.5769684   4.4551829  16.1482216  )
        42           O1  tau(  42) = (   2.0574928   4.4544973  16.1629196  )
        43           Ti1 tau(  43) = (   3.3270828   0.0048838  15.7999907  )
        44           Ti1 tau(  44) = (   0.0216784   4.6657176  15.8371636  )
        45           O1  tau(  45) = (   3.2900926   2.9813045   4.7018136  )
        46           O1  tau(  46) = (   1.3039711   4.4726057   6.0039043  )
        47           O1  tau(  47) = (   5.2763189   4.4711207   6.0039473  )
        48           N1  tau(  48) = (   1.0300599   3.1028741  18.8625222  )
        49           N1  tau(  49) = (   6.4529598   2.6395754  18.1308714  )
        50           C1  tau(  50) = (   0.6566364   3.8075245  20.0867497  )
        51           H1  tau(  51) = (   6.5334193   4.6337433  19.9095685  )
        52           H1  tau(  52) = (   0.2127083   3.1054723  20.7945791  )
        53           H1  tau(  53) = (   1.5644534   4.2160081  20.5287796  )
        54           H1  tau(  54) = (   5.6912064   3.3271340  18.1715891  )
        55           H1  tau(  55) = (   6.1153184   1.7991689  18.5966666  )
        56           H1  tau(  56) = (   1.4889484   3.7555826  18.2384742  )

     number of k points=    10  Fermi-Dirac smearing, width (Ry)=  0.0073
                       cart. coord. in units 2pi/alat
        k(    1) = (   0.0000000   0.0000000   0.0000000), wk =   0.1250000
        k(    2) = (   0.0000000   0.0419351   0.0000000), wk =   0.2500000
        k(    3) = (   0.0000000  -0.0838702   0.0000000), wk =   0.1250000
        k(    4) = (   0.0379955   0.0000049   0.0000000), wk =   0.2500000
        k(    5) = (   0.0379955   0.0419400   0.0000000), wk =   0.2500000
        k(    6) = (   0.0379955  -0.0838652   0.0000000), wk =   0.2500000
        k(    7) = (   0.0379955  -0.0419301   0.0000000), wk =   0.2500000
        k(    8) = (  -0.0759910  -0.0000099   0.0000000), wk =   0.1250000
        k(    9) = (  -0.0759910   0.0419252   0.0000000), wk =   0.2500000
        k(   10) = (  -0.0759910  -0.0838800   0.0000000), wk =   0.1250000

     Initial potential from superposition of free atoms

     starting charge  381.99914, renormalised to  398.00000

     negative rho (up, down):  1.340E-02 0.000E+00

     %%%%%%%%%%%%%%%%%%%%%%%%%%%%%%%%%%%%%%%%%%%%%%%%%%%%%%%%%%%%%%%%%%%%%%%%
     %                                                                      %
     % You are using vdW-DF, which was implemented by the Thonhauser group. %
     % Please cite the following two papers that made this development      %
     % possible and the two reviews that describe the various versions:     %
     %                                                                      %
     %   T. Thonhauser et al., PRL 115, 136402 (2015).                      %
     %   T. Thonhauser et al., PRB 76, 125112 (2007).                       %
     %   K. Berland et al., Rep. Prog. Phys. 78, 066501 (2015).             %
     %   D.C. Langreth et al., J. Phys.: Condens. Matter 21, 084203 (2009). %
     %                                                                      %
     %                                                                      %
     % If you are calculating the stress with vdW-DF, please also cite:     %
     %                                                                      %
     %   R. Sabatini et al., J. Phys.: Condens. Matter 24, 424209 (2012).   %
     %                                                                      %
     %%%%%%%%%%%%%%%%%%%%%%%%%%%%%%%%%%%%%%%%%%%%%%%%%%%%%%%%%%%%%%%%%%%%%%%%

     Adding external electric field

     Computed dipole along edir(3) :
        Dipole              -11.7464 Ry au,        -29.8564 Debye
        Dipole field         -0.0222 Ry au,

        Potential amp.        2.0549 Ry
        Total length         46.3494 bohr

     Starting wfcs are  302 atomic wfcs
  @ DRIVER MODE: Message from server: STATUS
  @ DRIVER MODE: Message from server: POSDATA
  @ DRIVER MODE: Reading and sharing cell
  @ DRIVER MODE: Reading and sharing positions
  @ DRIVER MODE: Received positions

     Self-consistent Calculation

     iteration #  1     ecut=    29.40 Ry     beta= 0.05
     Davidson diagonalization with overlap
     c_bands:  1 eigenvalues not converged
     c_bands:  1 eigenvalues not converged
     c_bands:  1 eigenvalues not converged
     c_bands:  3 eigenvalues not converged
     c_bands:  3 eigenvalues not converged
     c_bands:  3 eigenvalues not converged
     c_bands:  4 eigenvalues not converged
     c_bands:  2 eigenvalues not converged
     ethr =  1.00E-05,  avg # of iterations = 21.6

[...]

     total energy              =   -2428.08049684 Ry
     estimated scf accuracy    <    5789.72474630 Ry

     iteration #  2     ecut=    29.40 Ry     beta= 0.05
     Davidson diagonalization with overlap
     ethr =  1.00E-02,  avg # of iterations = 22.2

[...]

     iteration # 66     ecut=    29.40 Ry     beta= 0.05
     Davidson diagonalization with overlap
     ethr =  5.88E-11,  avg # of iterations = 13.1

[...]

     total energy              =   -2942.85970352 Ry
     estimated scf accuracy    <       0.00000009 Ry

     iteration # 67     ecut=    29.40 Ry     beta= 0.05
     Davidson diagonalization with overlap
     c_bands:  1 eigenvalues not converged
     c_bands:  1 eigenvalues not converged
     ethr =  2.28E-11,  avg # of iterations = 14.0

     negative rho (up, down):  1.465E-02 0.000E+00

     Adding external electric field

     Computed dipole along edir(3) :
        Dipole                1.2229 Ry au,          3.1084 Debye
        Dipole field          0.0023 Ry au,

        Potential amp.       -0.2139 Ry
        Total length         46.3494 bohr

     End of self-consistent calculation

          k = 0.0000 0.0000 0.0000 ( 18029 PWs)   bands (ev):

   -55.3481 -55.3111 -55.3003 -55.2690 -55.2662 -55.2317 -55.2247 -55.1894
   -55.1683 -55.1443 -55.1338 -55.1319 -55.0982 -55.0259 -54.3296 -54.2956
   -31.9165 -31.8007 -31.7929 -31.7132 -31.6635 -31.6577 -31.6508 -31.6375
   -31.5894 -31.5887 -31.5575 -31.5520 -31.5452 -31.5291 -31.5179 -31.5102
   -31.5033 -31.4879 -31.4854 -31.4655 -31.4528 -31.4447 -31.4178 -31.4142
   -31.4028 -31.4004 -31.3991 -31.3709 -31.3575 -31.3552 -31.3503 -31.3307
   -31.3276 -31.3192 -31.3182 -31.3162 -31.2820 -31.2678 -31.2602 -31.2432
   -31.2321 -31.2078 -30.7389 -30.6448 -30.6228 -30.5554 -30.4686 -30.3576
   -17.8118 -16.1841 -15.9165 -15.7765 -15.6667 -15.5478 -15.4292 -15.4096
   -15.2776 -15.1949 -15.0748 -15.0519 -15.0250 -15.0062 -14.9938 -14.9789
   -14.8933 -14.8875 -14.8700 -14.8428 -14.8363 -14.7937 -14.7863 -14.7464
   -14.7247 -14.7238 -14.5952 -14.5076 -14.4359 -14.2003 -13.1862 -12.8323
   -12.7149  -9.7453  -6.3796  -5.3876  -4.8938  -3.5386  -3.4978  -3.3680
    -3.2783  -3.2629  -3.2411  -3.1048  -2.9512  -2.7815  -2.7694  -2.7561
    -2.6380  -2.5602  -2.5540  -2.5291  -2.3778  -2.3563  -2.3052  -2.2396
    -2.2120  -2.1643  -2.1533  -2.1317  -2.1126  -2.0926  -2.0844  -1.9710
    -1.9196  -1.8268  -1.7711  -1.7436  -1.7080  -1.6802  -1.6651  -1.6378
    -1.6298  -1.5872  -1.5598  -1.5383  -1.4873  -1.3752  -1.2661  -1.2361
    -1.1384  -0.9863  -0.9551  -0.9406  -0.9291  -0.8524  -0.8353  -0.7868
    -0.7351  -0.7266  -0.6955  -0.5848  -0.5264  -0.4611  -0.3947  -0.3834
    -0.3362  -0.2744  -0.1622  -0.1378  -0.1153  -0.0905   0.0038   0.0430
     0.0881   0.1629   0.1820   0.1956   0.3025   0.3098   0.3903   0.4025
     0.4478   0.5345   0.5687   0.5910   0.5949   0.6084   0.6383   0.7053
     0.7297   0.7560   0.8312   0.9550   1.0109   1.1866   1.2497   1.2638
     1.5934   1.5979   1.6930   1.8768   2.2691   2.3173   3.7494   3.8189
     3.8937   3.9004   3.9125   3.9861   4.2233   4.2395   4.2519   4.2581
     4.2929

[...]

          k = 0.0380-0.0419 0.0000 ( 17876 PWs)   bands (ev):

[...]

          k =-0.0760-0.0000 0.0000 ( 17886 PWs)   bands (ev):

[...]

          k =-0.0760-0.0839 0.0000 ( 17948 PWs)   bands (ev):

   -55.3339 -55.3251 -55.2832 -55.2831 -55.2675 -55.2283 -55.2111 -55.2029
   -55.1527 -55.1489 -55.1477 -55.1153 -55.1150 -55.0271 -54.3126 -54.3125
   -31.7237 -31.7207 -31.7172 -31.6333 -31.6080 -31.6079 -31.6049 -31.5746
   -31.5746 -31.5563 -31.5490 -31.5465 -31.5405 -31.5105 -31.5036 -31.4856
   -31.4853 -31.4814 -31.4780 -31.4728 -31.4696 -31.4689 -31.4318 -31.4265
   -31.4246 -31.4198 -31.4156 -31.4044 -31.4030 -31.4028 -31.3957 -31.3862
   -31.3820 -31.3658 -31.3624 -31.3464 -31.3457 -31.3361 -31.2962 -31.2960
   -31.2856 -31.2369 -30.6355 -30.6354 -30.5515 -30.5514 -30.5121 -30.5120
   -17.8072 -15.7077 -15.5954 -15.5493 -15.3763 -15.3540 -15.3313 -15.3165
   -15.1886 -15.1699 -15.1420 -15.1158 -15.0905 -15.0632 -15.0520 -15.0470
   -14.9646 -14.9527 -14.9452 -14.9291 -14.8613 -14.8583 -14.8540 -14.8482
   -14.7975 -14.7949 -14.7142 -14.7009 -14.6995 -14.5029 -13.1872 -12.8163
   -12.8163  -9.7417  -6.3674  -5.3874  -4.8995  -3.4735  -2.8640  -2.8289
    -2.8051  -2.7866  -2.5918  -2.5536  -2.5167  -2.5044  -2.4052  -2.3630
    -2.3452  -2.3381  -2.2676  -2.2641  -2.2335  -2.2033  -2.1823  -2.1653
    -2.1514  -2.1295  -2.1047  -2.0754  -2.0694  -2.0541  -2.0002  -1.9977
    -1.9823  -1.9598  -1.9423  -1.9215  -1.9048  -1.8483  -1.7259  -1.7156
    -1.6613  -1.5551  -1.5505  -1.4704  -1.4653  -1.4214  -1.3931  -1.3813
    -1.3542  -1.1739  -1.1202  -1.0940  -1.0865  -1.0749  -0.9664  -0.9321
    -0.8742  -0.8582  -0.8322  -0.7340  -0.6839  -0.6793  -0.5985  -0.5663
    -0.5276  -0.4857  -0.3842  -0.3548  -0.3352  -0.3060  -0.3026  -0.2490
    -0.2436  -0.1668  -0.1191  -0.0831  -0.0686  -0.0375   0.1617   0.1716
     0.1898   0.3368   0.3588   0.4997   0.5437   0.5856   0.6466   0.6980
     0.7641   0.8048   0.9306   0.9594   0.9597   1.0293   1.0430   1.0518
     1.1086   1.1105   2.0495   2.0502   2.1372   2.1375   3.8924   3.9969
     4.0117   4.0571   4.1671   4.2404   4.2640   4.2909   4.3336   4.3364
     4.4014

     the Fermi energy is     3.8121 ev

!    total energy              =   -2942.85973878 Ry
     estimated scf accuracy    <       0.00000007 Ry
     smearing contrib. (-TS)   =      -0.03701535 Ry
     internal energy E=F+TS    =   -2942.82272343 Ry

     The total energy is F=E-TS. E is the sum of the following terms:
     one-electron contribution =  -23389.54807865 Ry
     hartree contribution      =   11787.31491525 Ry
     xc contribution           =    -487.76027118 Ry
     ewald contribution        =    9147.16788881 Ry
     electric field correction =       0.00282235 Ry

     convergence has been achieved in  67 iterations

     Forces acting on atoms (cartesian axes, Ry/au):

     atom    1 type  1   force =    -0.00000116   -0.00026405    0.09309785
     atom    2 type  1   force =    -0.00014355   -0.00042785   -0.17829316
     atom    3 type  2   force =     0.00007355   -0.00009521   -0.02024965
     atom    4 type  2   force =     0.00001679   -0.00186902    0.05882433
     atom    5 type  2   force =    -0.01020980   -0.00054171    0.00774050
     atom    6 type  2   force =     0.01226116    0.00007755    0.00820149
     atom    7 type  1   force =     0.00038983    0.00327958   -0.01427494
     atom    8 type  1   force =    -0.00045520    0.00046024   -0.00456387
     atom    9 type  2   force =    -0.00002701   -0.00061607   -0.00036083
     atom   10 type  2   force =    -0.00059871    0.00090569   -0.00141051
     atom   11 type  2   force =    -0.00037485   -0.00011999    0.00024038
     atom   12 type  2   force =     0.00006675   -0.00006527    0.00004929
     atom   13 type  1   force =     0.00005026   -0.00031840    0.00017552
     atom   14 type  1   force =    -0.00035940    0.00013309    0.00042655
     atom   15 type  2   force =    -0.00016495    0.00080206    0.00025822
     atom   16 type  2   force =    -0.00008429   -0.00018641    0.00031963
     atom   17 type  2   force =    -0.00044049    0.00005077    0.00039832
     atom   18 type  2   force =     0.00014194   -0.00022372   -0.00012632
     atom   19 type  1   force =     0.00027906    0.00032813    0.00101881
     atom   20 type  1   force =    -0.00062533   -0.00066427    0.00026379
     atom   21 type  2   force =     0.00000333   -0.00010457    0.10395441
     atom   22 type  2   force =    -0.00016962   -0.00003115   -0.00052379
     atom   23 type  2   force =    -0.07035351   -0.00022706   -0.02687465
     atom   24 type  2   force =     0.07025231    0.00020097   -0.02695567
     atom   25 type  1   force =     0.00001727   -0.00026958    0.09276139
     atom   26 type  1   force =    -0.00011265   -0.00045435   -0.17831982
     atom   27 type  2   force =     0.00013844   -0.00032581   -0.01927632
     atom   28 type  2   force =     0.00008196   -0.00155054    0.05821827
     atom   29 type  2   force =    -0.01021185   -0.00033120    0.00696025
     atom   30 type  2   force =     0.01216308   -0.00008824    0.00749615
     atom   31 type  1   force =     0.00040122    0.00496225   -0.01540145
     atom   32 type  1   force =    -0.00037811   -0.00033539   -0.00466927
     atom   33 type  2   force =    -0.00021902   -0.00047874    0.00016837
     atom   34 type  2   force =    -0.00014211    0.00364422   -0.00059467
     atom   35 type  2   force =     0.00003197   -0.00056591    0.00032958
     atom   36 type  2   force =    -0.00019007   -0.00053430   -0.00002080
     atom   37 type  1   force =    -0.00025894   -0.00049934    0.00049476
     atom   38 type  1   force =    -0.00019058   -0.00089946    0.00045315
     atom   39 type  2   force =    -0.00048402   -0.00051304    0.00056022
     atom   40 type  2   force =     0.00001876   -0.00048634   -0.00041534
     atom   41 type  2   force =    -0.00077371   -0.00011812   -0.00014825
     atom   42 type  2   force =     0.00024541   -0.00023772   -0.00038216
     atom   43 type  1   force =     0.00001096   -0.00036557   -0.00002461
     atom   44 type  1   force =    -0.00007846   -0.00065443    0.00050609
     atom   45 type  2   force =     0.00001091   -0.00014109    0.10393454
     atom   46 type  2   force =    -0.07040762   -0.00018143   -0.02689245
     atom   47 type  2   force =     0.07027225    0.00025920   -0.02696195
     atom   48 type  3   force =    -0.00286498   -0.00190997    0.00255808
     atom   49 type  3   force =    -0.00080329   -0.00005452    0.00017536
     atom   50 type  4   force =    -0.00205031   -0.00006219    0.00044155
     atom   51 type  5   force =    -0.00053866    0.00001105    0.00007652
     atom   52 type  5   force =     0.00033592   -0.00009048    0.00032189
     atom   53 type  5   force =     0.00104485    0.00023083    0.00090865
     atom   54 type  5   force =    -0.00002791   -0.00057807   -0.00035520
     atom   55 type  5   force =     0.00036702   -0.00176077   -0.00042255
     atom   56 type  5   force =     0.00506515    0.00389575   -0.00381570

     Total force =     0.366274     Total SCF correction =     0.000793
  @ DRIVER MODE: Message from server: STATUS
  @ DRIVER MODE: Message from server: GETFORCE
  @ DRIVER MODE: Returning v,forces,stress,ensemble

     Writing output data file ./calc.save/
  @ DRIVER MODE: Message from server: EXIT
  @ DRIVE MODE: Exiting

     General routines

     Parallel routines

   This run was terminated on:  14:35:13   9Sep2021

   JOB DONE.