     Program PWSCF v.6.7GPU starts on  2Aug2021 at 15:44:22

     R & G space division:  proc/nbgrp/npool/nimage =      16
     Reading input from /storage/home/hcoda1/3/ntian30/research/carbon/02Aug_vib_paired/ads_slab/CH3N_a/out_0018/pw.inp
Warning: card &CELL ignored
Warning: card   CELL_DYNAMICS='IPI', ignored
Warning: card / ignored

     Current dimensions of program PWSCF are:
     Max number of different atomic species (ntypx) = 10
     Max number of k-points (npk) =  40000
     Max angular momentum in pseudopotentials (lmaxx) =  3
     Presently no symmetry can be used with electric field

     Message from routine cell_base_init:
     DEPRECATED: use true lattice parameter, not A to a.u. conversion factor

     IMPORTANT: XC functional enforced from input :
     Exchange-correlation= BEEF-VDW
                           (   1   4  43  14   2   0   0)
     Any further DFT definition will be discarded
     Please, verify this is what you really want

  @ DRIVER MODE: Connecting to
 qe_1139763_2482542.sched-torque.pace.gatech.edu6pawml4t_scratch
  using UNIX socket
  @ DRIVER MODE: Message from server: STATUS
  @ DRIVER MODE: Message from server: INIT
  @ DRIVER MODE: Receiving replica           0          -1
  @ DRIVER MODE: Receiving encoded integer          25
  @ DRIVER MODE:  SCF:  T  FORCE:  T  STRESS:  F  VC:  F  ENSEMBLE:  F
  @ DRIVER MODE:  SCF:  T  FORCE:  T  STRESS:  F  VC:  F  ENSEMBLE:  F

     Using Slab Decomposition

     bravais-lattice index     =            0
     lattice parameter (alat)  =       1.8897  a.u.
     unit-cell volume          =    6658.9804 (a.u.)^3
     number of atoms/cell      =           52
     number of atomic types    =            5
     number of electrons       =       390.00
     number of Kohn-Sham states=          205
     kinetic-energy cutoff     =      29.3995  Ry
     charge density cutoff     =     293.9946  Ry
     scf convergence threshold =      7.3E-08
     mixing beta               =       0.0500
     number of iterations used =            8  plain     mixing
     Exchange-correlation= BEEF-VDW
                           (   1   4  43  14   2   0   0)

     celldm(1)=   1.889726  celldm(2)=   0.000000  celldm(3)=   0.000000
     celldm(4)=   0.000000  celldm(5)=   0.000000  celldm(6)=   0.000000

     crystal axes: (cart. coord. in units of alat)
               a(1) = (   6.579727   0.000000   0.000000 )
               a(2) = (  -0.000775   5.961596   0.000000 )
               a(3) = (   0.000000   0.000000  25.155947 )

     reciprocal axes: (cart. coord. in units 2 pi/alat)
               b(1) = (  0.151982  0.000020  0.000000 )
               b(2) = (  0.000000  0.167740  0.000000 )
               b(3) = (  0.000000  0.000000  0.039752 )

     PseudoPot. # 1 for Ti read from file:
     /storage/coda1/p-amedford6/0/shared/rich_project_chbe-medford/medford-share/data/pseudos_module/espresso/nninc/pbe/van/Ti.UPF
     MD5 check sum: 8e4df49b7f0d34bbd5052bf3f5ea0213
     Pseudo is Ultrasoft, Zval = 12.0
     Generated by new atomic code, or converted to UPF format
     Using radial grid of  851 points,  6 beta functions with:
                l(1) =   0
                l(2) =   0
                l(3) =   1
                l(4) =   1
                l(5) =   2
                l(6) =   2
     Q(r) pseudized with  8 coefficients,  rinner =    1.000   1.000   1.000
                                                       1.000   1.000

     PseudoPot. # 2 for O  read from file:
     /storage/coda1/p-amedford6/0/shared/rich_project_chbe-medford/medford-share/data/pseudos_module/espresso/nninc/pbe/van/O.UPF
     MD5 check sum: 78c19812648e8988a0fe644b0f25305e
     Pseudo is Ultrasoft, Zval =  6.0
     Generated by new atomic code, or converted to UPF format
     Using radial grid of  737 points,  4 beta functions with:
                l(1) =   0
                l(2) =   0
                l(3) =   1
                l(4) =   1
     Q(r) pseudized with  8 coefficients,  rinner =    0.800   0.800   0.800

     PseudoPot. # 3 for N  read from file:
     /storage/coda1/p-amedford6/0/shared/rich_project_chbe-medford/medford-share/data/pseudos_module/espresso/nninc/pbe/van/N.UPF
     MD5 check sum: 90d10febe142ad51ac9d5be1deb811c4
     Pseudo is Ultrasoft, Zval =  5.0
     Generated by new atomic code, or converted to UPF format
     Using radial grid of  729 points,  4 beta functions with:
                l(1) =   0
                l(2) =   0
                l(3) =   1
                l(4) =   1
     Q(r) pseudized with  8 coefficients,  rinner =    0.800   0.800   0.800

     PseudoPot. # 4 for C  read from file:
     /storage/coda1/p-amedford6/0/shared/rich_project_chbe-medford/medford-share/data/pseudos_module/espresso/nninc/pbe/van/C.UPF
     MD5 check sum: 1a69bf6b8db32088f5b2163dbdb77a27
     Pseudo is Ultrasoft, Zval =  4.0
     Generated by new atomic code, or converted to UPF format
     Using radial grid of  721 points,  4 beta functions with:
                l(1) =   0
                l(2) =   0
                l(3) =   1
                l(4) =   1
     Q(r) pseudized with  8 coefficients,  rinner =    0.800   0.800   0.800

     PseudoPot. # 5 for H  read from file:
     /storage/coda1/p-amedford6/0/shared/rich_project_chbe-medford/medford-share/data/pseudos_module/espresso/nninc/pbe/van/H.UPF
     MD5 check sum: b5ee9d7bfd3a09ee7748110bda690ff7
     Pseudo is Ultrasoft, Zval =  1.0
     Generated by new atomic code, or converted to UPF format
     Using radial grid of  615 points,  1 beta functions with:
                l(1) =   0
     Q(r) pseudized with  8 coefficients,  rinner =    0.800

     atomic species   valence    mass     pseudopotential
        Ti1           12.00    47.86700     Ti( 1.00)
        O1             6.00    15.99900     O ( 1.00)
        N1             5.00    14.00700     N ( 1.00)
        C1             4.00    12.01100     C ( 1.00)
        H1             1.00     1.00800     H ( 1.00)

     No symmetry found

   Cartesian axes

     site n.     atom                  positions (alat units)
         1           Ti1 tau(   1) = (   0.0004258   2.9801865   6.0000000  )
         2           Ti1 tau(   2) = (   3.2906075   1.4906267   6.0002472  )
         3           O1  tau(   3) = (   0.0006271   0.0005054   7.9858123  )
         4           O1  tau(   4) = (   3.2906025   0.0005020   7.3038282  )
         5           O1  tau(   5) = (   4.5942328   1.4918067   9.2879030  )
         6           O1  tau(   6) = (   1.9868534   1.4903216   9.2879459  )
         7           Ti1 tau(   7) = (   3.2907910   2.8959150   9.1758416  )
         8           Ti1 tau(   8) = (   0.0015273   1.4827037   9.2680791  )
         9           O1  tau(   9) = (   3.2848820   0.0184509  11.2968037  )
        10           O1  tau(  10) = (   0.0116148   5.9584955  10.6183126  )
        11           O1  tau(  11) = (   1.3164307   1.5202202  12.6152053  )
        12           O1  tau(  12) = (   5.2938533   1.5248534  12.6363518  )
        13           Ti1 tau(  13) = (   6.4693392   3.0155455  12.7604093  )
        14           Ti1 tau(  14) = (   3.1621140   1.5165027  12.4659144  )
        15           O1  tau(  15) = (   0.0250032   0.0426882  14.5925537  )
        16           O1  tau(  16) = (   3.2896737   0.0171256  13.8799622  )
        17           O1  tau(  17) = (   4.5365032   1.4993634  16.0438468  )
        18           O1  tau(  18) = (   2.0814567   1.5015292  16.0591106  )
        19           Ti1 tau(  19) = (   3.3082904   2.9956922  15.6854367  )
        20           Ti1 tau(  20) = (   0.0032501   1.4479889  16.1249605  )
        21           O1  tau(  21) = (   3.2904802   0.0005063   4.7018136  )
        22           O1  tau(  22) = (   0.0161699   0.0004382  17.1970091  )
        23           O1  tau(  23) = (   1.3043587   1.4918075   6.0039043  )
        24           O1  tau(  24) = (   5.2767064   1.4903225   6.0039473  )
        25           Ti1 tau(  25) = (   0.0000382   5.9609847   6.0000000  )
        26           Ti1 tau(  26) = (   3.2902200   4.4714249   6.0002472  )
        27           O1  tau(  27) = (   0.0002396   2.9813036   7.9858123  )
        28           O1  tau(  28) = (   3.2902150   2.9813002   7.3038282  )
        29           O1  tau(  29) = (   4.5938453   4.4726049   9.2879030  )
        30           O1  tau(  30) = (   1.9864658   4.4711199   9.2879459  )
        31           Ti1 tau(  31) = (   3.2891106   5.8743827   9.1763621  )
        32           Ti1 tau(  32) = (   0.0006254   4.4649316   9.2693709  )
        33           O1  tau(  33) = (   3.2855107   2.9994495  11.2959752  )
        34           O1  tau(  34) = (   0.0092240   2.9805883  10.6323155  )
        35           O1  tau(  35) = (   1.3179678   4.4860142  12.6155112  )
        36           O1  tau(  36) = (   5.2920789   4.4901865  12.6316709  )
        37           Ti1 tau(  37) = (   6.5050993   0.0355131  12.7707974  )
        38           Ti1 tau(  38) = (   3.1594757   4.4963870  12.4672366  )
        39           O1  tau(  39) = (   6.5726527   3.0227966  14.6583025  )
        40           O1  tau(  40) = (   3.2932321   2.9979836  13.8792693  )
        41           O1  tau(  41) = (   4.5322310   4.4839795  16.0418810  )
        42           O1  tau(  42) = (   2.0800586   4.4799519  16.0553745  )
        43           Ti1 tau(  43) = (   3.2910362   0.0127607  15.6894215  )
        44           Ti1 tau(  44) = (   0.0049462   4.4269923  16.0943486  )
        45           O1  tau(  45) = (   3.2900926   2.9813045   4.7018136  )
        46           O1  tau(  46) = (   1.3039711   4.4726057   6.0039043  )
        47           O1  tau(  47) = (   5.2763189   4.4711207   6.0039473  )
        48           N1  tau(  48) = (   0.0596666   2.9942962  17.3216073  )
        49           C1  tau(  49) = (   0.3918855   2.9774893  18.7266025  )
        50           H1  tau(  50) = (   0.0017595   3.8652167  19.2443835  )
        51           H1  tau(  51) = (   0.0043965   2.0815098  19.2200810  )
        52           H1  tau(  52) = (   1.4843755   2.9788857  18.8581259  )

     number of k points=    10  Fermi-Dirac smearing, width (Ry)=  0.0073
                       cart. coord. in units 2pi/alat
        k(    1) = (   0.0000000   0.0000000   0.0000000), wk =   0.1250000
        k(    2) = (   0.0000000   0.0419351   0.0000000), wk =   0.2500000
        k(    3) = (   0.0000000  -0.0838702   0.0000000), wk =   0.1250000
        k(    4) = (   0.0379955   0.0000049   0.0000000), wk =   0.2500000
        k(    5) = (   0.0379955   0.0419400   0.0000000), wk =   0.2500000
        k(    6) = (   0.0379955  -0.0838652   0.0000000), wk =   0.2500000
        k(    7) = (   0.0379955  -0.0419301   0.0000000), wk =   0.2500000
        k(    8) = (  -0.0759910  -0.0000099   0.0000000), wk =   0.1250000
        k(    9) = (  -0.0759910   0.0419252   0.0000000), wk =   0.2500000
        k(   10) = (  -0.0759910  -0.0838800   0.0000000), wk =   0.1250000

     Initial potential from superposition of free atoms

     starting charge  373.99917, renormalised to  390.00000

     negative rho (up, down):  1.729E-02 0.000E+00

     %%%%%%%%%%%%%%%%%%%%%%%%%%%%%%%%%%%%%%%%%%%%%%%%%%%%%%%%%%%%%%%%%%%%%%%%
     %                                                                      %
     % You are using vdW-DF, which was implemented by the Thonhauser group. %
     % Please cite the following two papers that made this development      %
     % possible and the two reviews that describe the various versions:     %
     %                                                                      %
     %   T. Thonhauser et al., PRL 115, 136402 (2015).                      %
     %   T. Thonhauser et al., PRB 76, 125112 (2007).                       %
     %   K. Berland et al., Rep. Prog. Phys. 78, 066501 (2015).             %
     %   D.C. Langreth et al., J. Phys.: Condens. Matter 21, 084203 (2009). %
     %                                                                      %
     %                                                                      %
     % If you are calculating the stress with vdW-DF, please also cite:     %
     %                                                                      %
     %   R. Sabatini et al., J. Phys.: Condens. Matter 24, 424209 (2012).   %
     %                                                                      %
     %%%%%%%%%%%%%%%%%%%%%%%%%%%%%%%%%%%%%%%%%%%%%%%%%%%%%%%%%%%%%%%%%%%%%%%%

     Adding external electric field

     Computed dipole along edir(3) :
        Dipole               -4.6271 Ry au,        -11.7609 Debye
        Dipole field         -0.0087 Ry au,

        Potential amp.        0.8094 Ry
        Total length         46.3494 bohr

     Starting wfcs are  295 atomic wfcs
  @ DRIVER MODE: Message from server: STATUS
  @ DRIVER MODE: Message from server: POSDATA
  @ DRIVER MODE: Reading and sharing cell
  @ DRIVER MODE: Reading and sharing positions
  @ DRIVER MODE: Received positions

     Self-consistent Calculation

     iteration #  1     ecut=    29.40 Ry     beta= 0.05
     Davidson diagonalization with overlap
     c_bands:  4 eigenvalues not converged
     c_bands:  3 eigenvalues not converged
     c_bands:  2 eigenvalues not converged
     c_bands:  4 eigenvalues not converged
     c_bands:  4 eigenvalues not converged
     c_bands:  2 eigenvalues not converged
     c_bands:  3 eigenvalues not converged
     c_bands:  2 eigenvalues not converged
     ethr =  1.00E-05,  avg # of iterations = 19.7

[...]

     total energy              =   -2876.90810330 Ry
     estimated scf accuracy    <     486.53655365 Ry

     iteration #  2     ecut=    29.40 Ry     beta= 0.05
     Davidson diagonalization with overlap
     ethr =  1.00E-02,  avg # of iterations = 13.7

[...]

     iteration # 22     ecut=    29.40 Ry     beta= 0.05
     Davidson diagonalization with overlap
     c_bands:  1 eigenvalues not converged
     c_bands:  2 eigenvalues not converged
     ethr =  5.20E-06,  avg # of iterations = 12.1

[...]

     total energy              =   -2919.13270506 Ry
     estimated scf accuracy    <       0.00000013 Ry

     iteration # 48     ecut=    29.40 Ry     beta= 0.05
     Davidson diagonalization with overlap
     ethr =  3.42E-11,  avg # of iterations =  5.0

     negative rho (up, down):  1.772E-02 0.000E+00

     Adding external electric field

     Computed dipole along edir(3) :
        Dipole                0.2500 Ry au,          0.6355 Debye
        Dipole field          0.0005 Ry au,

        Potential amp.       -0.0437 Ry
        Total length         46.3494 bohr

     End of self-consistent calculation

          k = 0.0000 0.0000 0.0000 ( 18029 PWs)   bands (ev):

   -56.8994 -56.8658 -56.0124 -56.0031 -55.9774 -55.9706 -55.8624 -55.8266
   -55.6446 -55.6094 -55.5615 -55.5392 -55.5276 -55.4415 -54.9965 -54.9435
   -33.3270 -33.1737 -33.1456 -33.0759 -32.9849 -32.9531 -32.4859 -32.4766
   -32.4053 -32.2983 -32.2528 -32.2260 -32.2109 -32.1869 -32.1540 -32.1509
   -32.1432 -32.1413 -32.1172 -32.1088 -32.1028 -32.0707 -32.0447 -32.0296
   -32.0159 -31.9987 -31.9898 -31.9662 -31.9536 -31.9002 -31.8762 -31.8760
   -31.7836 -31.7828 -31.7724 -31.7147 -31.7109 -31.6889 -31.6693 -31.6477
   -31.6234 -31.5780 -31.5188 -31.2396 -31.2210 -31.1931 -31.1648 -31.0467
   -17.0615 -16.6217 -16.3907 -16.2607 -16.1891 -16.1388 -16.0911 -15.9635
   -15.8929 -15.8897 -15.8526 -15.8130 -15.7449 -15.6057 -15.5083 -15.4485
   -15.4052 -15.2857 -15.2287 -15.1916 -15.1837 -15.1531 -15.1327 -14.9354
   -14.9131 -14.8174 -14.7996 -14.6765 -14.4486 -14.0600 -13.9500 -13.0838
    -7.8021  -4.6278  -4.1179  -3.8750  -3.7927  -3.6821  -3.6749  -3.5925
    -3.4788  -3.4278  -3.3823  -3.2667  -3.2622  -3.1169  -3.0847  -3.0741
    -3.0675  -3.0242  -2.9952  -2.9517  -2.8994  -2.8915  -2.8890  -2.7376
    -2.6383  -2.5675  -2.5458  -2.5285  -2.5008  -2.4074  -2.4034  -2.3889
    -2.3854  -2.2896  -2.1406  -2.1302  -2.0962  -2.0602  -2.0562  -2.0123
    -2.0021  -1.8465  -1.8020  -1.6860  -1.6737  -1.6391  -1.5730  -1.5694
    -1.4534  -1.3977  -1.3521  -1.3068  -1.1999  -1.1550  -1.1258  -1.0366
    -0.9763  -0.9395  -0.9202  -0.9013  -0.7938  -0.7868  -0.7705  -0.6792
    -0.6735  -0.6232  -0.5336  -0.5110  -0.5090  -0.4183  -0.4101  -0.3109
    -0.2774  -0.2247  -0.1945  -0.1142  -0.0840   0.0203   0.0587   0.0746
     0.2041   0.2197   0.2777   0.3445   0.4009   0.4445   0.4602   0.4950
     0.5039   0.5973   0.7048   0.7070   0.8190   0.8561   1.0130   1.0519
     1.3500   1.3604   2.0227   2.3756   2.5364   2.8346   3.0292   3.1419
     3.3522   3.3661   3.3720   3.5527   3.6003

[...]

          k = 0.0380-0.0419 0.0000 ( 17876 PWs)   bands (ev):

[...]

          k =-0.0760-0.0000 0.0000 ( 17886 PWs)   bands (ev):

[...]

          k =-0.0760-0.0839 0.0000 ( 17948 PWs)   bands (ev):

   -56.8827 -56.8824 -55.9963 -55.9919 -55.9877 -55.9873 -55.8474 -55.8415
   -55.6296 -55.6242 -55.5445 -55.5444 -55.5360 -55.4446 -54.9897 -54.9501
   -33.1596 -33.1593 -33.1440 -33.1438 -33.0290 -33.0287 -32.3156 -32.3131
   -32.3006 -32.2953 -32.2426 -32.2412 -32.1986 -32.1978 -32.1976 -32.1937
   -32.1861 -32.1836 -32.1825 -32.1806 -32.0993 -32.0942 -32.0480 -32.0442
   -31.9814 -31.9735 -31.9120 -31.9061 -31.8891 -31.8890 -31.8670 -31.8284
   -31.8270 -31.7935 -31.7700 -31.7699 -31.7607 -31.7309 -31.7308 -31.7095
   -31.6864 -31.6498 -31.3842 -31.3035 -31.2178 -31.1865 -31.1713 -31.1307
   -16.4095 -16.4075 -16.3758 -16.3755 -16.1045 -16.1009 -16.0515 -16.0493
   -15.8774 -15.8696 -15.6654 -15.6561 -15.6497 -15.6461 -15.5183 -15.5113
   -15.4475 -15.4346 -15.3457 -15.3390 -15.2783 -15.2720 -15.2352 -15.2138
   -14.8971 -14.8912 -14.7688 -14.7557 -14.6039 -14.0535 -14.0534 -13.1004
    -7.7928  -3.5084  -3.5076  -3.4414  -3.4404  -3.3153  -3.3085  -3.2400
    -3.2394  -3.1329  -3.1291  -3.0507  -3.0019  -2.9916  -2.9882  -2.9770
    -2.9640  -2.8366  -2.8335  -2.8208  -2.8057  -2.7544  -2.7520  -2.7372
    -2.6573  -2.6412  -2.6099  -2.5658  -2.4653  -2.4490  -2.4324  -2.4056
    -2.3490  -2.3366  -2.3226  -2.2772  -2.2565  -2.1550  -2.1079  -2.0635
    -1.9440  -1.9415  -1.9317  -1.9144  -1.7669  -1.7299  -1.6987  -1.6922
    -1.6831  -1.6335  -1.5422  -1.5339  -1.3993  -1.3946  -1.3225  -1.2395
    -1.2208  -1.1921  -1.0599  -1.0124  -0.9801  -0.9737  -0.9538  -0.9244
    -0.8964  -0.8689  -0.7243  -0.7052  -0.6810  -0.6434  -0.6308  -0.5769
    -0.5281  -0.4480  -0.3686  -0.3676  -0.2860  -0.2420  -0.1787  -0.0958
    -0.0844  -0.0779   0.2020   0.2796   0.3723   0.4569   0.5200   0.5831
     0.6069   0.6723   0.7044   0.8413   0.8445   0.8608   0.8610   0.9285
     0.9332   1.3319   1.9166   2.9495   2.9498   3.0172   3.0176   3.3412
     3.3467   3.4561   3.4655   3.5821   3.5839

     the Fermi energy is     2.2102 ev

!    total energy              =   -2919.13283088 Ry
     estimated scf accuracy    <       0.00000004 Ry
     smearing contrib. (-TS)   =      -0.00464795 Ry
     internal energy E=F+TS    =   -2919.12818293 Ry

     The total energy is F=E-TS. E is the sum of the following terms:
     one-electron contribution =  -24578.60498782 Ry
     hartree contribution      =   12373.47888533 Ry
     xc contribution           =    -479.89626277 Ry
     ewald contribution        =    9765.89406437 Ry
     electric field correction =       0.00011796 Ry

     convergence has been achieved in  48 iterations

     Forces acting on atoms (cartesian axes, Ry/au):

     atom    1 type  1   force =    -0.00001541   -0.00046133    0.12463671
     atom    2 type  1   force =    -0.00012060   -0.00050554   -0.16050736
     atom    3 type  2   force =     0.00015684   -0.00014147   -0.06867624
     atom    4 type  2   force =    -0.00004384   -0.00017482    0.02743716
     atom    5 type  2   force =    -0.01664768    0.00229778   -0.00877383
     atom    6 type  2   force =     0.01810440    0.00296071   -0.00972802
     atom    7 type  1   force =     0.00057902   -0.00360031    0.02219481
     atom    8 type  1   force =    -0.00014693   -0.00291912    0.11212833
     atom    9 type  2   force =     0.00047802   -0.00002735   -0.00027143
     atom   10 type  2   force =    -0.00266161    0.00369268   -0.07363649
     atom   11 type  2   force =     0.00130037   -0.00058887   -0.00043215
     atom   12 type  2   force =    -0.00056833   -0.00106198   -0.00078629
     atom   13 type  1   force =     0.00032089   -0.00068053    0.00068855
     atom   14 type  1   force =    -0.00082302   -0.00057022    0.00005362
     atom   15 type  2   force =    -0.00030175   -0.00010838    0.00002948
     atom   16 type  2   force =     0.00028346    0.00011604   -0.00056670
     atom   17 type  2   force =     0.00022276   -0.00020051   -0.00016679
     atom   18 type  2   force =    -0.00042126   -0.00036415   -0.00049776
     atom   19 type  1   force =     0.00061878   -0.00039084   -0.00010283
     atom   20 type  1   force =    -0.00010110   -0.00033263   -0.00012329
     atom   21 type  2   force =     0.00006075   -0.00006647    0.09970119
     atom   22 type  2   force =     0.00006073   -0.00027972    0.00042555
     atom   23 type  2   force =    -0.07928347   -0.00009409   -0.03248704
     atom   24 type  2   force =     0.07915426    0.00035529   -0.03250574
     atom   25 type  1   force =     0.00002330   -0.00047416    0.12412336
     atom   26 type  1   force =    -0.00015110   -0.00044470   -0.16058582
     atom   27 type  2   force =     0.00029187   -0.00031745   -0.06769104
     atom   28 type  2   force =    -0.00002407   -0.00001377    0.02720071
     atom   29 type  2   force =    -0.01711001    0.00187844   -0.00888027
     atom   30 type  2   force =     0.01844445    0.00226116   -0.00977995
     atom   31 type  1   force =     0.00059294   -0.00090595    0.02174645
     atom   32 type  1   force =    -0.00010618    0.00052360    0.11256625
     atom   33 type  2   force =     0.00026441   -0.00064005   -0.00046125
     atom   34 type  2   force =    -0.00273077    0.00315992   -0.07280293
     atom   35 type  2   force =    -0.00110514    0.00023177    0.00016550
     atom   36 type  2   force =     0.00084079    0.00008476    0.00027959
     atom   37 type  1   force =    -0.00009024   -0.00003930   -0.00016644
     atom   38 type  1   force =     0.00088345   -0.00028320   -0.00013758
     atom   39 type  2   force =    -0.00008218   -0.00051116    0.00010119
     atom   40 type  2   force =     0.00007243   -0.00012610   -0.00014542
     atom   41 type  2   force =     0.00019477   -0.00045229   -0.00010821
     atom   42 type  2   force =    -0.00000712   -0.00013078   -0.00060093
     atom   43 type  1   force =     0.00015887    0.00066560    0.00068492
     atom   44 type  1   force =    -0.00059822   -0.00032607   -0.00020986
     atom   45 type  2   force =     0.00004707   -0.00007123    0.09971937
     atom   46 type  2   force =    -0.07928994   -0.00004497   -0.03247881
     atom   47 type  2   force =     0.07916016    0.00039563   -0.03249603
     atom   48 type  3   force =     0.00047071    0.00022804    0.00212860
     atom   49 type  4   force =    -0.00163359    0.00331166    0.00354270
     atom   50 type  5   force =     0.00176713   -0.00365459   -0.00411247
     atom   51 type  5   force =     0.00029080   -0.00080854    0.00012219
     atom   52 type  5   force =    -0.00077985   -0.00035043    0.00024273

     Total force =     0.425649     Total SCF correction =     0.000380
  @ DRIVER MODE: Message from server: STATUS
  @ DRIVER MODE: Message from server: GETFORCE
  @ DRIVER MODE: Returning v,forces,stress,ensemble

     Writing output data file ./calc.save/
  @ DRIVER MODE: Message from server: EXIT
  @ DRIVE MODE: Exiting

     General routines

     Parallel routines

   This run was terminated on:  15:54:25   2Aug2021

   JOB DONE.