     Program PWSCF v.6.7GPU starts on 26Sep2021 at  4:56:25

     R & G space division:  proc/nbgrp/npool/nimage =       8
     Reading input from /storage/home/hcoda1/3/ntian30/research/carbon/CxH_vib/H2O_calc/ads_slab/CH3N2OHHO_l/out_0029/pw.inp
Warning: card &CELL ignored
Warning: card   CELL_DYNAMICS='IPI', ignored
Warning: card / ignored

     Current dimensions of program PWSCF are:
     Max number of different atomic species (ntypx) = 10
     Max number of k-points (npk) =  40000
     Max angular momentum in pseudopotentials (lmaxx) =  3
     Presently no symmetry can be used with electric field

     Message from routine cell_base_init:
     DEPRECATED: use true lattice parameter, not A to a.u. conversion factor

     IMPORTANT: XC functional enforced from input :
     Exchange-correlation= BEEF-VDW
                           (   1   4  43  14   2   0   0)
     Any further DFT definition will be discarded
     Please, verify this is what you really want

  @ DRIVER MODE: Connecting to
 qe_1139763_2971669.sched-torque.pace.gatech.edubri58rjf_scratch
  using UNIX socket
  @ DRIVER MODE: Message from server: STATUS
  @ DRIVER MODE: Message from server: INIT
  @ DRIVER MODE: Receiving replica           0          -1
  @ DRIVER MODE: Receiving encoded integer          25
  @ DRIVER MODE:  SCF:  T  FORCE:  T  STRESS:  F  VC:  F  ENSEMBLE:  F
  @ DRIVER MODE:  SCF:  T  FORCE:  T  STRESS:  F  VC:  F  ENSEMBLE:  F

     Using Slab Decomposition

     bravais-lattice index     =            0
     lattice parameter (alat)  =       1.8897  a.u.
     unit-cell volume          =    6658.9804 (a.u.)^3
     number of atoms/cell      =           57
     number of atomic types    =            5
     number of electrons       =       409.00
     number of Kohn-Sham states=          214
     kinetic-energy cutoff     =      29.3995  Ry
     charge density cutoff     =     293.9946  Ry
     scf convergence threshold =      7.3E-08
     mixing beta               =       0.0500
     number of iterations used =            8  plain     mixing
     Exchange-correlation= BEEF-VDW
                           (   1   4  43  14   2   0   0)

     celldm(1)=   1.889726  celldm(2)=   0.000000  celldm(3)=   0.000000
     celldm(4)=   0.000000  celldm(5)=   0.000000  celldm(6)=   0.000000

     crystal axes: (cart. coord. in units of alat)
               a(1) = (   6.579727   0.000000   0.000000 )
               a(2) = (  -0.000775   5.961596   0.000000 )
               a(3) = (   0.000000   0.000000  25.155947 )

     reciprocal axes: (cart. coord. in units 2 pi/alat)
               b(1) = (  0.151982  0.000020  0.000000 )
               b(2) = (  0.000000  0.167740  0.000000 )
               b(3) = (  0.000000  0.000000  0.039752 )

     PseudoPot. # 1 for Ti read from file:
     /storage/coda1/p-amedford6/0/shared/rich_project_chbe-medford/medford-share/data/pseudos_module/espresso/nninc/pbe/van/Ti.UPF
     MD5 check sum: 8e4df49b7f0d34bbd5052bf3f5ea0213
     Pseudo is Ultrasoft, Zval = 12.0
     Generated by new atomic code, or converted to UPF format
     Using radial grid of  851 points,  6 beta functions with:
                l(1) =   0
                l(2) =   0
                l(3) =   1
                l(4) =   1
                l(5) =   2
                l(6) =   2
     Q(r) pseudized with  8 coefficients,  rinner =    1.000   1.000   1.000
                                                       1.000   1.000

     PseudoPot. # 2 for O  read from file:
     /storage/coda1/p-amedford6/0/shared/rich_project_chbe-medford/medford-share/data/pseudos_module/espresso/nninc/pbe/van/O.UPF
     MD5 check sum: 78c19812648e8988a0fe644b0f25305e
     Pseudo is Ultrasoft, Zval =  6.0
     Generated by new atomic code, or converted to UPF format
     Using radial grid of  737 points,  4 beta functions with:
                l(1) =   0
                l(2) =   0
                l(3) =   1
                l(4) =   1
     Q(r) pseudized with  8 coefficients,  rinner =    0.800   0.800   0.800

     PseudoPot. # 3 for N  read from file:
     /storage/coda1/p-amedford6/0/shared/rich_project_chbe-medford/medford-share/data/pseudos_module/espresso/nninc/pbe/van/N.UPF
     MD5 check sum: 90d10febe142ad51ac9d5be1deb811c4
     Pseudo is Ultrasoft, Zval =  5.0
     Generated by new atomic code, or converted to UPF format
     Using radial grid of  729 points,  4 beta functions with:
                l(1) =   0
                l(2) =   0
                l(3) =   1
                l(4) =   1
     Q(r) pseudized with  8 coefficients,  rinner =    0.800   0.800   0.800

     PseudoPot. # 4 for C  read from file:
     /storage/coda1/p-amedford6/0/shared/rich_project_chbe-medford/medford-share/data/pseudos_module/espresso/nninc/pbe/van/C.UPF
     MD5 check sum: 1a69bf6b8db32088f5b2163dbdb77a27
     Pseudo is Ultrasoft, Zval =  4.0
     Generated by new atomic code, or converted to UPF format
     Using radial grid of  721 points,  4 beta functions with:
                l(1) =   0
                l(2) =   0
                l(3) =   1
                l(4) =   1
     Q(r) pseudized with  8 coefficients,  rinner =    0.800   0.800   0.800

     PseudoPot. # 5 for H  read from file:
     /storage/coda1/p-amedford6/0/shared/rich_project_chbe-medford/medford-share/data/pseudos_module/espresso/nninc/pbe/van/H.UPF
     MD5 check sum: b5ee9d7bfd3a09ee7748110bda690ff7
     Pseudo is Ultrasoft, Zval =  1.0
     Generated by new atomic code, or converted to UPF format
     Using radial grid of  615 points,  1 beta functions with:
                l(1) =   0
     Q(r) pseudized with  8 coefficients,  rinner =    0.800

     atomic species   valence    mass     pseudopotential
        Ti1           12.00    47.86700     Ti( 1.00)
        O1             6.00    15.99900     O ( 1.00)
        N1             5.00    14.00700     N ( 1.00)
        C1             4.00    12.01100     C ( 1.00)
        H1             1.00     1.00800     H ( 1.00)

     No symmetry found

   Cartesian axes

     site n.     atom                  positions (alat units)
         1           Ti1 tau(   1) = (   0.0004258   2.9801865   6.0000000  )
         2           Ti1 tau(   2) = (   3.2906075   1.4906267   6.0002472  )
         3           O1  tau(   3) = (   0.0006271   0.0005054   7.9858123  )
         4           O1  tau(   4) = (   3.2906025   0.0005020   7.3038282  )
         5           O1  tau(   5) = (   4.5942328   1.4918067   9.2879030  )
         6           O1  tau(   6) = (   1.9868534   1.4903216   9.2879459  )
         7           Ti1 tau(   7) = (   3.2907910   2.8959150   9.1758416  )
         8           Ti1 tau(   8) = (   0.0015273   1.4827037   9.2680791  )
         9           O1  tau(   9) = (   3.2779673   5.9607700  11.3423085  )
        10           O1  tau(  10) = (   0.0116148   5.9584955  10.6183126  )
        11           O1  tau(  11) = (   1.2787083   1.4818767  12.6451794  )
        12           O1  tau(  12) = (   5.2707140   1.4872516  12.6060838  )
        13           Ti1 tau(  13) = (   0.0520196   2.9452147  12.6012095  )
        14           Ti1 tau(  14) = (   3.3669591   1.4706787  12.5087448  )
        15           O1  tau(  15) = (   6.5166736   5.9505275  14.6414754  )
        16           O1  tau(  16) = (   3.3002175   0.0041348  13.9548274  )
        17           O1  tau(  17) = (   4.5235890   1.5203341  16.0633414  )
        18           O1  tau(  18) = (   1.9992342   1.5602939  15.9747780  )
        19           Ti1 tau(  19) = (   3.2541499   3.0080313  15.6961896  )
        20           Ti1 tau(  20) = (   6.5591015   1.5323982  15.7823192  )
        21           O1  tau(  21) = (   3.2904802   0.0005063   4.7018136  )
        22           O1  tau(  22) = (   0.0960927   0.0099221  17.2178370  )
        23           O1  tau(  23) = (   1.3043587   1.4918075   6.0039043  )
        24           O1  tau(  24) = (   5.2767064   1.4903225   6.0039473  )
        25           Ti1 tau(  25) = (   0.0000382   5.9609847   6.0000000  )
        26           Ti1 tau(  26) = (   3.2902200   4.4714249   6.0002472  )
        27           O1  tau(  27) = (   0.0002396   2.9813036   7.9858123  )
        28           O1  tau(  28) = (   3.2902150   2.9813002   7.3038282  )
        29           O1  tau(  29) = (   4.5938453   4.4726049   9.2879030  )
        30           O1  tau(  30) = (   1.9864658   4.4711199   9.2879459  )
        31           Ti1 tau(  31) = (   3.2891106   5.8743827   9.1763621  )
        32           Ti1 tau(  32) = (   0.0006254   4.4649316   9.2693709  )
        33           O1  tau(  33) = (   3.2807211   2.9768430  11.3440791  )
        34           O1  tau(  34) = (   0.0092240   2.9805883  10.6323155  )
        35           O1  tau(  35) = (   1.2789702   4.4681595  12.6395138  )
        36           O1  tau(  36) = (   5.2737968   4.4775610  12.6008310  )
        37           Ti1 tau(  37) = (   0.0460201   5.9176504  12.5434570  )
        38           Ti1 tau(  38) = (   3.3658678   4.4646095  12.4976877  )
        39           O1  tau(  39) = (   6.5297297   2.9761478  14.6509524  )
        40           O1  tau(  40) = (   3.3085871   2.9961499  13.9017917  )
        41           O1  tau(  41) = (   4.5138497   4.4896837  16.1272785  )
        42           O1  tau(  42) = (   1.9961282   4.4344792  16.0060688  )
        43           Ti1 tau(  43) = (   3.3116018   0.0224549  15.7990204  )
        44           Ti1 tau(  44) = (   6.5775847   4.6577750  16.0638065  )
        45           O1  tau(  45) = (   3.2900926   2.9813045   4.7018136  )
        46           O1  tau(  46) = (   1.3039711   4.4726057   6.0039043  )
        47           O1  tau(  47) = (   5.2763189   4.4711207   6.0039473  )
        48           N1  tau(  48) = (   6.5065777   2.6139801  18.6303060  )
        49           N1  tau(  49) = (   6.5364102   2.8728423  17.4370429  )
        50           C1  tau(  50) = (   6.4341180   3.7235584  19.6105657  )
        51           H1  tau(  51) = (   6.3066687   4.7022679  19.1488110  )
        52           H1  tau(  52) = (   5.6164842   3.4805663  20.2813871  )
        53           H1  tau(  53) = (   0.7823074   3.6964598  20.1845303  )
        54           O1  tau(  54) = (   3.0314481   5.0835218  18.9911038  )
        55           H1  tau(  55) = (   1.7414717   0.2044793  18.0242669  )
        56           O1  tau(  56) = (   2.7372941   0.2572207  18.0778760  )
        57           H1  tau(  57) = (   3.9343361   5.3466317  19.2487757  )

     number of k points=    10  Fermi-Dirac smearing, width (Ry)=  0.0073
                       cart. coord. in units 2pi/alat
        k(    1) = (   0.0000000   0.0000000   0.0000000), wk =   0.1250000
        k(    2) = (   0.0000000   0.0419351   0.0000000), wk =   0.2500000
        k(    3) = (   0.0000000  -0.0838702   0.0000000), wk =   0.1250000
        k(    4) = (   0.0379955   0.0000049   0.0000000), wk =   0.2500000
        k(    5) = (   0.0379955   0.0419400   0.0000000), wk =   0.2500000
        k(    6) = (   0.0379955  -0.0838652   0.0000000), wk =   0.2500000
        k(    7) = (   0.0379955  -0.0419301   0.0000000), wk =   0.2500000
        k(    8) = (  -0.0759910  -0.0000099   0.0000000), wk =   0.1250000
        k(    9) = (  -0.0759910   0.0419252   0.0000000), wk =   0.2500000
        k(   10) = (  -0.0759910  -0.0838800   0.0000000), wk =   0.1250000

     Initial potential from superposition of free atoms

     starting charge  392.99914, renormalised to  409.00000

     negative rho (up, down):  1.423E-02 0.000E+00

     %%%%%%%%%%%%%%%%%%%%%%%%%%%%%%%%%%%%%%%%%%%%%%%%%%%%%%%%%%%%%%%%%%%%%%%%
     %                                                                      %
     % You are using vdW-DF, which was implemented by the Thonhauser group. %
     % Please cite the following two papers that made this development      %
     % possible and the two reviews that describe the various versions:     %
     %                                                                      %
     %   T. Thonhauser et al., PRL 115, 136402 (2015).                      %
     %   T. Thonhauser et al., PRB 76, 125112 (2007).                       %
     %   K. Berland et al., Rep. Prog. Phys. 78, 066501 (2015).             %
     %   D.C. Langreth et al., J. Phys.: Condens. Matter 21, 084203 (2009). %
     %                                                                      %
     %                                                                      %
     % If you are calculating the stress with vdW-DF, please also cite:     %
     %                                                                      %
     %   R. Sabatini et al., J. Phys.: Condens. Matter 24, 424209 (2012).   %
     %                                                                      %
     %%%%%%%%%%%%%%%%%%%%%%%%%%%%%%%%%%%%%%%%%%%%%%%%%%%%%%%%%%%%%%%%%%%%%%%%

     Adding external electric field

     Computed dipole along edir(3) :
        Dipole              -16.7497 Ry au,        -42.5735 Debye
        Dipole field         -0.0316 Ry au,

        Potential amp.        2.9301 Ry
        Total length         46.3494 bohr

     Starting wfcs are  309 atomic wfcs
  @ DRIVER MODE: Message from server: STATUS
  @ DRIVER MODE: Message from server: POSDATA
  @ DRIVER MODE: Reading and sharing cell
  @ DRIVER MODE: Reading and sharing positions
  @ DRIVER MODE: Received positions

     Self-consistent Calculation

     iteration #  1     ecut=    29.40 Ry     beta= 0.05
     Davidson diagonalization with overlap
     c_bands:  5 eigenvalues not converged
     c_bands:  5 eigenvalues not converged
     c_bands:  3 eigenvalues not converged
     c_bands:  1 eigenvalues not converged
     c_bands:  4 eigenvalues not converged
     c_bands:  2 eigenvalues not converged
     c_bands:  5 eigenvalues not converged
     ethr =  1.00E-05,  avg # of iterations = 26.6

[...]

     total energy              =   -2110.41609187 Ry
     estimated scf accuracy    <   10326.90375773 Ry

     iteration #  2     ecut=    29.40 Ry     beta= 0.05
     Davidson diagonalization with overlap
     ethr =  1.00E-02,  avg # of iterations = 32.3

[...]

     iteration # 63     ecut=    29.40 Ry     beta= 0.05
     Davidson diagonalization with overlap
     ethr =  2.12E-11,  avg # of iterations = 13.5

[...]

     total energy              =   -3006.13719281 Ry
     estimated scf accuracy    <       0.00000018 Ry

     iteration # 64     ecut=    29.40 Ry     beta= 0.05
     Davidson diagonalization with overlap
     c_bands:  1 eigenvalues not converged
     ethr =  2.12E-11,  avg # of iterations = 14.5

     negative rho (up, down):  1.471E-02 0.000E+00

     Adding external electric field

     Computed dipole along edir(3) :
        Dipole                0.8072 Ry au,          2.0518 Debye
        Dipole field          0.0015 Ry au,

        Potential amp.       -0.1412 Ry
        Total length         46.3494 bohr

     End of self-consistent calculation

          k = 0.0000 0.0000 0.0000 ( 18029 PWs)   bands (ev):

   -55.6056 -55.5715 -55.5634 -55.5350 -55.5272 -55.4415 -55.4201 -55.4045
   -55.3862 -55.3841 -55.3669 -55.3504 -54.9887 -54.9186 -54.5862 -54.5522
   -32.1042 -32.0888 -31.9497 -31.9413 -31.9185 -31.8982 -31.8740 -31.8608
   -31.8495 -31.7950 -31.7803 -31.7648 -31.7579 -31.7412 -31.7299 -31.7195
   -31.7107 -31.7021 -31.6903 -31.6634 -31.6628 -31.6427 -31.6110 -31.6097
   -31.6003 -31.5957 -31.5933 -31.5827 -31.5648 -31.5604 -31.5546 -31.5497
   -31.5391 -31.5374 -31.5279 -31.5158 -31.4962 -31.2667 -31.2101 -31.1790
   -31.1254 -31.1029 -30.9934 -30.9048 -30.8824 -30.8101 -30.7236 -30.6126
   -20.7394 -18.2978 -16.3060 -16.0798 -15.8963 -15.7663 -15.7114 -15.5557
   -15.4966 -15.4106 -15.3400 -15.2034 -15.1510 -15.1422 -15.1364 -15.1174
   -15.1119 -15.0513 -15.0405 -15.0389 -15.0278 -15.0001 -14.9610 -14.9477
   -14.9428 -14.8600 -14.7669 -14.7439 -14.7236 -14.7204 -14.6625 -14.2768
   -13.0883 -12.9718 -11.2909  -6.8154  -5.7544  -5.3657  -4.1821  -3.8164
    -3.7754  -3.6733  -3.5507  -3.5118  -3.4326  -3.3858  -3.2314  -3.0804
    -3.0279  -2.8524  -2.7837  -2.7563  -2.7128  -2.6293  -2.5219  -2.4685
    -2.4134  -2.4094  -2.3954  -2.3801  -2.3622  -2.3454  -2.2385  -2.2196
    -2.1669  -2.1470  -2.1216  -1.9854  -1.9577  -1.9302  -1.9191  -1.8920
    -1.8790  -1.8654  -1.8382  -1.8195  -1.7817  -1.7558  -1.6240  -1.5818
    -1.5408  -1.4512  -1.3901  -1.3318  -1.2339  -1.2016  -1.1323  -1.0629
    -1.0573  -1.0371  -1.0039  -0.9957  -0.8693  -0.7649  -0.7547  -0.6814
    -0.6200  -0.5699  -0.5288  -0.4636  -0.3799  -0.3625  -0.3547  -0.3344
    -0.2826  -0.2584  -0.0987  -0.0600  -0.0117   0.0135   0.0705   0.1038
     0.1467   0.1869   0.2269   0.2767   0.3109   0.3440   0.3624   0.3766
     0.3921   0.4233   0.4440   0.6098   0.6453   0.6685   0.7295   0.7588
     0.8445   0.9021   0.9654   1.0498   1.1578   1.3634   1.4363   1.5273
     1.6282   2.0075   2.0533   2.8295   3.5236   3.6155   3.6565   3.6870
     3.7683   3.7801   3.9815   4.0034   4.0330   4.1082

[...]

          k = 0.0380-0.0419 0.0000 ( 17876 PWs)   bands (ev):

[...]

          k =-0.0760-0.0000 0.0000 ( 17886 PWs)   bands (ev):

[...]

          k =-0.0760-0.0839 0.0000 ( 17948 PWs)   bands (ev):

   -55.5890 -55.5881 -55.5483 -55.5422 -55.5332 -55.4297 -55.4164 -55.4034
   -55.4024 -55.3687 -55.3686 -55.3660 -54.9848 -54.9224 -54.5692 -54.5690
   -31.9184 -31.9044 -31.9037 -31.9011 -31.8840 -31.8831 -31.8272 -31.8185
   -31.8060 -31.7862 -31.7777 -31.7542 -31.7495 -31.7233 -31.7176 -31.7170
   -31.7086 -31.7080 -31.7078 -31.7063 -31.7040 -31.7018 -31.6754 -31.6468
   -31.6330 -31.6292 -31.6204 -31.6042 -31.6032 -31.5982 -31.5929 -31.5840
   -31.5809 -31.5734 -31.5727 -31.5708 -31.4177 -31.2684 -31.2488 -31.1871
   -31.1644 -31.1267 -30.8952 -30.8950 -30.8063 -30.8060 -30.7669 -30.7668
   -20.7387 -18.2938 -15.7436 -15.6976 -15.6320 -15.5647 -15.5296 -15.4595
   -15.4161 -15.3742 -15.3222 -15.2840 -15.2751 -15.2157 -15.1953 -15.1626
   -15.1532 -15.1237 -15.1141 -15.1121 -15.0582 -15.0524 -15.0463 -15.0393
   -15.0331 -14.9743 -14.9344 -14.9263 -14.9213 -14.8231 -14.7008 -14.4454
   -13.0737 -13.0735 -11.2892  -6.8382  -5.7517  -5.3421  -4.1105  -3.8260
    -3.7528  -3.1156  -3.0220  -2.8283  -2.7982  -2.7151  -2.7111  -2.6683
    -2.5460  -2.5131  -2.4670  -2.4490  -2.4280  -2.4193  -2.4136  -2.3948
    -2.3880  -2.3689  -2.3402  -2.3195  -2.2870  -2.2743  -2.2614  -2.2534
    -2.2391  -2.2162  -2.2138  -2.1655  -2.1452  -2.1266  -2.0636  -2.0311
    -1.8438  -1.7947  -1.7497  -1.7428  -1.7222  -1.6914  -1.6754  -1.6586
    -1.6119  -1.5924  -1.5133  -1.4671  -1.3327  -1.3102  -1.2943  -1.2740
    -1.2072  -1.1493  -1.0993  -1.0135  -1.0081  -0.9592  -0.8661  -0.8072
    -0.7990  -0.7680  -0.7122  -0.7027  -0.6621  -0.5687  -0.5630  -0.5448
    -0.5392  -0.4634  -0.4193  -0.3568  -0.3487  -0.3288  -0.2980  -0.2699
    -0.2366  -0.1983  -0.1018  -0.0685   0.0250   0.1306   0.2075   0.3428
     0.4616   0.4741   0.5588   0.5833   0.6842   0.6961   0.7083   0.7494
     0.7852   0.8095   0.9296   0.9435   0.9661   0.9933   1.0810   1.7997
     1.8006   1.8730   1.8733   2.8191   3.7651   3.8792   3.9110   3.9216
     4.0066   4.0435   4.0623   4.0642   4.1292   4.2017

     the Fermi energy is     3.5264 ev

!    total energy              =   -3006.13722454 Ry
     estimated scf accuracy    <       0.00000007 Ry
     smearing contrib. (-TS)   =      -0.02166860 Ry
     internal energy E=F+TS    =   -3006.11555594 Ry

     The total energy is F=E-TS. E is the sum of the following terms:
     one-electron contribution =  -23514.36049787 Ry
     hartree contribution      =   11855.15460150 Ry
     xc contribution           =    -501.17289167 Ry
     ewald contribution        =    9154.26200243 Ry
     electric field correction =       0.00122967 Ry

     convergence has been achieved in  64 iterations

     Forces acting on atoms (cartesian axes, Ry/au):

     atom    1 type  1   force =     0.00020759   -0.00031768    0.09618023
     atom    2 type  1   force =    -0.00012512   -0.00050521   -0.17558565
     atom    3 type  2   force =    -0.00003028   -0.00015816   -0.02419814
     atom    4 type  2   force =     0.00000623   -0.00155859    0.05345380
     atom    5 type  2   force =    -0.01166144   -0.00075817    0.00384980
     atom    6 type  2   force =     0.01284936   -0.00002400    0.00196218
     atom    7 type  1   force =    -0.00132000    0.00026434   -0.00662317
     atom    8 type  1   force =     0.00074544    0.00793547    0.02423789
     atom    9 type  2   force =     0.00000827    0.00003087    0.00002625
     atom   10 type  2   force =    -0.00082715    0.00166631   -0.01688886
     atom   11 type  2   force =    -0.00001997    0.00003400   -0.00000532
     atom   12 type  2   force =    -0.00000849    0.00001632   -0.00000736
     atom   13 type  1   force =     0.00001216   -0.00000905    0.00001594
     atom   14 type  1   force =     0.00001055    0.00003856   -0.00000133
     atom   15 type  2   force =    -0.00001071   -0.00000010    0.00000104
     atom   16 type  2   force =    -0.00001110   -0.00003285   -0.00003587
     atom   17 type  2   force =    -0.00001739   -0.00000077    0.00002746
     atom   18 type  2   force =    -0.00003528   -0.00000312   -0.00001408
     atom   19 type  1   force =     0.00004380   -0.00007256   -0.00000685
     atom   20 type  1   force =     0.00002976    0.00000901   -0.00005515
     atom   21 type  2   force =     0.00005901   -0.00004644    0.10322534
     atom   22 type  2   force =    -0.00000959   -0.00001322   -0.00007240
     atom   23 type  2   force =    -0.07147882   -0.00011875   -0.02770796
     atom   24 type  2   force =     0.07138136    0.00028975   -0.02771830
     atom   25 type  1   force =    -0.00002910   -0.00029045    0.09580436
     atom   26 type  1   force =    -0.00023045   -0.00035166   -0.17584234
     atom   27 type  2   force =     0.00004876   -0.00017551   -0.02324751
     atom   28 type  2   force =     0.00007080   -0.00125587    0.05305426
     atom   29 type  2   force =    -0.01200961    0.00042268    0.00402492
     atom   30 type  2   force =     0.01309523    0.00076754    0.00211272
     atom   31 type  1   force =    -0.00118211    0.00400611   -0.00991542
     atom   32 type  1   force =     0.00067558   -0.01004510    0.02471524
     atom   33 type  2   force =     0.00001501   -0.00001100    0.00000835
     atom   34 type  2   force =    -0.00025104    0.00012541   -0.02259229
     atom   35 type  2   force =    -0.00000603   -0.00000496   -0.00002128
     atom   36 type  2   force =    -0.00001527    0.00001488   -0.00002894
     atom   37 type  1   force =    -0.00000840   -0.00004291    0.00001901
     atom   38 type  1   force =     0.00003058    0.00007095    0.00003672
     atom   39 type  2   force =    -0.00005964   -0.00000940   -0.00002839
     atom   40 type  2   force =    -0.00000831   -0.00004063   -0.00000708
     atom   41 type  2   force =     0.00001315   -0.00001495   -0.00001324
     atom   42 type  2   force =    -0.00000785   -0.00001133   -0.00001063
     atom   43 type  1   force =     0.00005306   -0.00001925   -0.00007592
     atom   44 type  1   force =     0.00003904   -0.00001211    0.00000050
     atom   45 type  2   force =     0.00004769   -0.00008839    0.10323679
     atom   46 type  2   force =    -0.07149180   -0.00008203   -0.02772829
     atom   47 type  2   force =     0.07140321    0.00035598   -0.02772001
     atom   48 type  3   force =     0.00063134    0.00001712   -0.00070200
     atom   49 type  3   force =     0.00001851   -0.00015527   -0.00017583
     atom   50 type  4   force =     0.00463631    0.00164975   -0.00514445
     atom   51 type  5   force =     0.00034061   -0.00000283   -0.00019304
     atom   52 type  5   force =    -0.00505221   -0.00141743    0.00585880
     atom   53 type  5   force =    -0.00057433   -0.00009544    0.00040862
     atom   54 type  2   force =     0.00097999   -0.00005881   -0.00126954
     atom   55 type  5   force =    -0.00013282   -0.00000864   -0.00003818
     atom   56 type  2   force =    -0.00110512   -0.00000730    0.00135960
     atom   57 type  5   force =     0.00026700    0.00010489    0.00005503

     Total force =     0.367267     Total SCF correction =     0.000555
  @ DRIVER MODE: Message from server: STATUS
  @ DRIVER MODE: Message from server: GETFORCE
  @ DRIVER MODE: Returning v,forces,stress,ensemble

     Writing output data file ./calc.save/
  @ DRIVER MODE: Message from server: EXIT
  @ DRIVE MODE: Exiting

     General routines

     Parallel routines

   This run was terminated on:   5:24:45  26Sep2021

   JOB DONE.