     Program PWSCF v.6.7GPU starts on 16Sep2021 at  1:43:56

     R & G space division:  proc/nbgrp/npool/nimage =      10
     Reading input from /storage/home/hcoda1/3/ntian30/research/carbon/CxH_vib/H2O_calc/ads_slab/CH3N2H2O_c/out_0032/pw.inp
Warning: card &CELL ignored
Warning: card   CELL_DYNAMICS='IPI', ignored
Warning: card / ignored

     Current dimensions of program PWSCF are:
     Max number of different atomic species (ntypx) = 10
     Max number of k-points (npk) =  40000
     Max angular momentum in pseudopotentials (lmaxx) =  3
     Presently no symmetry can be used with electric field

     Message from routine cell_base_init:
     DEPRECATED: use true lattice parameter, not A to a.u. conversion factor

     IMPORTANT: XC functional enforced from input :
     Exchange-correlation= BEEF-VDW
                           (   1   4  43  14   2   0   0)
     Any further DFT definition will be discarded
     Please, verify this is what you really want

  @ DRIVER MODE: Connecting to
 qe_1139763_2852616.sched-torque.pace.gatech.edugrh0l3ku_scratch
  using UNIX socket
  @ DRIVER MODE: Message from server: STATUS
  @ DRIVER MODE: Message from server: INIT
  @ DRIVER MODE: Receiving replica           0          -1
  @ DRIVER MODE: Receiving encoded integer          25
  @ DRIVER MODE:  SCF:  T  FORCE:  T  STRESS:  F  VC:  F  ENSEMBLE:  F
  @ DRIVER MODE:  SCF:  T  FORCE:  T  STRESS:  F  VC:  F  ENSEMBLE:  F

     Using Slab Decomposition

     bravais-lattice index     =            0
     lattice parameter (alat)  =       1.8897  a.u.
     unit-cell volume          =    6658.9804 (a.u.)^3
     number of atoms/cell      =           56
     number of atomic types    =            5
     number of electrons       =       403.00
     number of Kohn-Sham states=          211
     kinetic-energy cutoff     =      29.3995  Ry
     charge density cutoff     =     293.9946  Ry
     scf convergence threshold =      7.3E-08
     mixing beta               =       0.0500
     number of iterations used =            8  plain     mixing
     Exchange-correlation= BEEF-VDW
                           (   1   4  43  14   2   0   0)

     celldm(1)=   1.889726  celldm(2)=   0.000000  celldm(3)=   0.000000
     celldm(4)=   0.000000  celldm(5)=   0.000000  celldm(6)=   0.000000

     crystal axes: (cart. coord. in units of alat)
               a(1) = (   6.579727   0.000000   0.000000 )
               a(2) = (  -0.000775   5.961596   0.000000 )
               a(3) = (   0.000000   0.000000  25.155947 )

     reciprocal axes: (cart. coord. in units 2 pi/alat)
               b(1) = (  0.151982  0.000020  0.000000 )
               b(2) = (  0.000000  0.167740  0.000000 )
               b(3) = (  0.000000  0.000000  0.039752 )

     PseudoPot. # 1 for Ti read from file:
     /storage/coda1/p-amedford6/0/shared/rich_project_chbe-medford/medford-share/data/pseudos_module/espresso/nninc/pbe/van/Ti.UPF
     MD5 check sum: 8e4df49b7f0d34bbd5052bf3f5ea0213
     Pseudo is Ultrasoft, Zval = 12.0
     Generated by new atomic code, or converted to UPF format
     Using radial grid of  851 points,  6 beta functions with:
                l(1) =   0
                l(2) =   0
                l(3) =   1
                l(4) =   1
                l(5) =   2
                l(6) =   2
     Q(r) pseudized with  8 coefficients,  rinner =    1.000   1.000   1.000
                                                       1.000   1.000

     PseudoPot. # 2 for O  read from file:
     /storage/coda1/p-amedford6/0/shared/rich_project_chbe-medford/medford-share/data/pseudos_module/espresso/nninc/pbe/van/O.UPF
     MD5 check sum: 78c19812648e8988a0fe644b0f25305e
     Pseudo is Ultrasoft, Zval =  6.0
     Generated by new atomic code, or converted to UPF format
     Using radial grid of  737 points,  4 beta functions with:
                l(1) =   0
                l(2) =   0
                l(3) =   1
                l(4) =   1
     Q(r) pseudized with  8 coefficients,  rinner =    0.800   0.800   0.800

     PseudoPot. # 3 for N  read from file:
     /storage/coda1/p-amedford6/0/shared/rich_project_chbe-medford/medford-share/data/pseudos_module/espresso/nninc/pbe/van/N.UPF
     MD5 check sum: 90d10febe142ad51ac9d5be1deb811c4
     Pseudo is Ultrasoft, Zval =  5.0
     Generated by new atomic code, or converted to UPF format
     Using radial grid of  729 points,  4 beta functions with:
                l(1) =   0
                l(2) =   0
                l(3) =   1
                l(4) =   1
     Q(r) pseudized with  8 coefficients,  rinner =    0.800   0.800   0.800

     PseudoPot. # 4 for C  read from file:
     /storage/coda1/p-amedford6/0/shared/rich_project_chbe-medford/medford-share/data/pseudos_module/espresso/nninc/pbe/van/C.UPF
     MD5 check sum: 1a69bf6b8db32088f5b2163dbdb77a27
     Pseudo is Ultrasoft, Zval =  4.0
     Generated by new atomic code, or converted to UPF format
     Using radial grid of  721 points,  4 beta functions with:
                l(1) =   0
                l(2) =   0
                l(3) =   1
                l(4) =   1
     Q(r) pseudized with  8 coefficients,  rinner =    0.800   0.800   0.800

     PseudoPot. # 5 for H  read from file:
     /storage/coda1/p-amedford6/0/shared/rich_project_chbe-medford/medford-share/data/pseudos_module/espresso/nninc/pbe/van/H.UPF
     MD5 check sum: b5ee9d7bfd3a09ee7748110bda690ff7
     Pseudo is Ultrasoft, Zval =  1.0
     Generated by new atomic code, or converted to UPF format
     Using radial grid of  615 points,  1 beta functions with:
                l(1) =   0
     Q(r) pseudized with  8 coefficients,  rinner =    0.800

     atomic species   valence    mass     pseudopotential
        Ti1           12.00    47.86700     Ti( 1.00)
        O1             6.00    15.99900     O ( 1.00)
        N1             5.00    14.00700     N ( 1.00)
        C1             4.00    12.01100     C ( 1.00)
        H1             1.00     1.00800     H ( 1.00)

     No symmetry found

   Cartesian axes

     site n.     atom                  positions (alat units)
         1           Ti1 tau(   1) = (   0.0004258   2.9801865   6.0000000  )
         2           Ti1 tau(   2) = (   3.2906075   1.4906267   6.0002472  )
         3           O1  tau(   3) = (   0.0006271   0.0005054   7.9858123  )
         4           O1  tau(   4) = (   3.2906025   0.0005020   7.3038282  )
         5           O1  tau(   5) = (   4.5942328   1.4918067   9.2879030  )
         6           O1  tau(   6) = (   1.9868534   1.4903216   9.2879459  )
         7           Ti1 tau(   7) = (   3.2907910   2.8959150   9.1758416  )
         8           Ti1 tau(   8) = (   0.0015273   1.4827037   9.2680791  )
         9           O1  tau(   9) = (   3.2828550   5.9398922  11.3444325  )
        10           O1  tau(  10) = (   0.0116148   5.9584955  10.6183126  )
        11           O1  tau(  11) = (   1.2785533   1.4626539  12.6279770  )
        12           O1  tau(  12) = (   5.2704455   1.4657548  12.6160130  )
        13           Ti1 tau(  13) = (   0.0600808   2.9393476  12.6134163  )
        14           Ti1 tau(  14) = (   3.3737088   1.4602624  12.5010433  )
        15           O1  tau(  15) = (   6.5684750   5.9323085  14.6353932  )
        16           O1  tau(  16) = (   3.2849856   5.9366180  13.9618146  )
        17           O1  tau(  17) = (   4.5362432   1.5114280  16.0576559  )
        18           O1  tau(  18) = (   2.0240554   1.5008084  16.0383298  )
        19           Ti1 tau(  19) = (   3.2703657   2.9522362  15.6888820  )
        20           Ti1 tau(  20) = (   6.5391562   1.4934284  15.8005638  )
        21           O1  tau(  21) = (   3.2904802   0.0005063   4.7018136  )
        22           O1  tau(  22) = (   6.5583345   5.9570231  17.1947061  )
        23           O1  tau(  23) = (   1.3043587   1.4918075   6.0039043  )
        24           O1  tau(  24) = (   5.2767064   1.4903225   6.0039473  )
        25           Ti1 tau(  25) = (   0.0000382   5.9609847   6.0000000  )
        26           Ti1 tau(  26) = (   3.2902200   4.4714249   6.0002472  )
        27           O1  tau(  27) = (   0.0002396   2.9813036   7.9858123  )
        28           O1  tau(  28) = (   3.2902150   2.9813002   7.3038282  )
        29           O1  tau(  29) = (   4.5938453   4.4726049   9.2879030  )
        30           O1  tau(  30) = (   1.9864658   4.4711199   9.2879459  )
        31           Ti1 tau(  31) = (   3.2891106   5.8743827   9.1763621  )
        32           Ti1 tau(  32) = (   0.0006254   4.4649316   9.2693709  )
        33           O1  tau(  33) = (   3.2888364   2.9620848  11.3424199  )
        34           O1  tau(  34) = (   0.0092240   2.9805883  10.6323155  )
        35           O1  tau(  35) = (   1.2785924   4.4508711  12.6313046  )
        36           O1  tau(  36) = (   5.2742027   4.4576360  12.6186982  )
        37           Ti1 tau(  37) = (   0.0560446   5.9134488  12.5469576  )
        38           Ti1 tau(  38) = (   3.3742563   4.4530221  12.5021653  )
        39           O1  tau(  39) = (   6.5655761   2.9369947  14.6516633  )
        40           O1  tau(  40) = (   3.2805149   2.9594171  13.8967751  )
        41           O1  tau(  41) = (   4.5308665   4.4203993  16.0704334  )
        42           O1  tau(  42) = (   2.0169005   4.4237906  16.0574931  )
        43           Ti1 tau(  43) = (   3.2493829   5.9208236  15.8028744  )
        44           Ti1 tau(  44) = (   6.5423592   4.6318136  16.0678394  )
        45           O1  tau(  45) = (   3.2900926   2.9813045   4.7018136  )
        46           O1  tau(  46) = (   1.3039711   4.4726057   6.0039043  )
        47           O1  tau(  47) = (   5.2763189   4.4711207   6.0039473  )
        48           N1  tau(  48) = (   0.1516996   2.6368831  18.6397825  )
        49           N1  tau(  49) = (   0.0343947   2.8734663  17.4441277  )
        50           C1  tau(  50) = (   0.1908864   3.7705318  19.5986308  )
        51           H1  tau(  51) = (   6.5333492   4.7333814  19.1494580  )
        52           H1  tau(  52) = (   6.0816938   3.5230213  20.4074400  )
        53           H1  tau(  53) = (   1.2088782   3.7880179  20.0220438  )
        54           O1  tau(  54) = (   3.2442500   5.9498283  18.2024067  )
        55           H1  tau(  55) = (   4.0366425   0.4867780  18.4672138  )
        56           H1  tau(  56) = (   2.4709518   0.5160301  18.4623371  )

     number of k points=    10  Fermi-Dirac smearing, width (Ry)=  0.0073
                       cart. coord. in units 2pi/alat
        k(    1) = (   0.0000000   0.0000000   0.0000000), wk =   0.1250000
        k(    2) = (   0.0000000   0.0419351   0.0000000), wk =   0.2500000
        k(    3) = (   0.0000000  -0.0838702   0.0000000), wk =   0.1250000
        k(    4) = (   0.0379955   0.0000049   0.0000000), wk =   0.2500000
        k(    5) = (   0.0379955   0.0419400   0.0000000), wk =   0.2500000
        k(    6) = (   0.0379955  -0.0838652   0.0000000), wk =   0.2500000
        k(    7) = (   0.0379955  -0.0419301   0.0000000), wk =   0.2500000
        k(    8) = (  -0.0759910  -0.0000099   0.0000000), wk =   0.1250000
        k(    9) = (  -0.0759910   0.0419252   0.0000000), wk =   0.2500000
        k(   10) = (  -0.0759910  -0.0838800   0.0000000), wk =   0.1250000

     Initial potential from superposition of free atoms

     starting charge  386.99914, renormalised to  403.00000

     negative rho (up, down):  1.444E-02 0.000E+00

     %%%%%%%%%%%%%%%%%%%%%%%%%%%%%%%%%%%%%%%%%%%%%%%%%%%%%%%%%%%%%%%%%%%%%%%%
     %                                                                      %
     % You are using vdW-DF, which was implemented by the Thonhauser group. %
     % Please cite the following two papers that made this development      %
     % possible and the two reviews that describe the various versions:     %
     %                                                                      %
     %   T. Thonhauser et al., PRL 115, 136402 (2015).                      %
     %   T. Thonhauser et al., PRB 76, 125112 (2007).                       %
     %   K. Berland et al., Rep. Prog. Phys. 78, 066501 (2015).             %
     %   D.C. Langreth et al., J. Phys.: Condens. Matter 21, 084203 (2009). %
     %                                                                      %
     %                                                                      %
     % If you are calculating the stress with vdW-DF, please also cite:     %
     %                                                                      %
     %   R. Sabatini et al., J. Phys.: Condens. Matter 24, 424209 (2012).   %
     %                                                                      %
     %%%%%%%%%%%%%%%%%%%%%%%%%%%%%%%%%%%%%%%%%%%%%%%%%%%%%%%%%%%%%%%%%%%%%%%%

     Adding external electric field

     Computed dipole along edir(3) :
        Dipole              -13.2286 Ry au,        -33.6236 Debye
        Dipole field         -0.0250 Ry au,

        Potential amp.        2.3141 Ry
        Total length         46.3494 bohr

     Starting wfcs are  305 atomic wfcs
  @ DRIVER MODE: Message from server: STATUS
  @ DRIVER MODE: Message from server: POSDATA
  @ DRIVER MODE: Reading and sharing cell
  @ DRIVER MODE: Reading and sharing positions
  @ DRIVER MODE: Received positions

     Self-consistent Calculation

     iteration #  1     ecut=    29.40 Ry     beta= 0.05
     Davidson diagonalization with overlap
     c_bands:  4 eigenvalues not converged
     c_bands:  2 eigenvalues not converged
     c_bands:  4 eigenvalues not converged
     c_bands:  1 eigenvalues not converged
     c_bands:  1 eigenvalues not converged
     c_bands:  1 eigenvalues not converged
     c_bands:  4 eigenvalues not converged
     c_bands:  1 eigenvalues not converged
     c_bands:  1 eigenvalues not converged
     ethr =  1.00E-05,  avg # of iterations = 29.9

[...]

     total energy              =   -2367.56167175 Ry
     estimated scf accuracy    <    6916.35286157 Ry

     iteration #  2     ecut=    29.40 Ry     beta= 0.05
     Davidson diagonalization with overlap
     ethr =  1.00E-02,  avg # of iterations = 23.4

[...]

     iteration # 60     ecut=    29.40 Ry     beta= 0.05
     Davidson diagonalization with overlap
     c_bands:  3 eigenvalues not converged
     ethr =  5.35E-10,  avg # of iterations = 13.9

[...]

     total energy              =   -2974.00300675 Ry
     estimated scf accuracy    <       0.00000010 Ry

     iteration # 66     ecut=    29.40 Ry     beta= 0.05
     Davidson diagonalization with overlap
     ethr =  2.39E-11,  avg # of iterations =  4.1

     negative rho (up, down):  1.456E-02 0.000E+00

     Adding external electric field

     Computed dipole along edir(3) :
        Dipole                0.9234 Ry au,          2.3471 Debye
        Dipole field          0.0017 Ry au,

        Potential amp.       -0.1615 Ry
        Total length         46.3494 bohr

     End of self-consistent calculation

          k = 0.0000 0.0000 0.0000 ( 18029 PWs)   bands (ev):

   -55.6025 -55.5684 -55.5616 -55.5542 -55.5255 -55.4357 -55.4126 -55.3955
   -55.3786 -55.3777 -55.3497 -55.3439 -55.0017 -54.8731 -54.5812 -54.5472
   -32.1037 -32.0850 -31.9533 -31.9358 -31.9114 -31.8953 -31.8674 -31.8648
   -31.8454 -31.7981 -31.7910 -31.7767 -31.7547 -31.7402 -31.7243 -31.7184
   -31.7069 -31.6942 -31.6887 -31.6596 -31.6528 -31.6401 -31.6052 -31.6011
   -31.5904 -31.5881 -31.5846 -31.5767 -31.5527 -31.5492 -31.5474 -31.5425
   -31.5305 -31.5291 -31.5194 -31.5111 -31.4895 -31.2712 -31.2007 -31.1305
   -31.1098 -31.0796 -30.9883 -30.8999 -30.8774 -30.8050 -30.7185 -30.6075
   -18.9008 -18.3028 -16.3016 -16.0686 -15.8431 -15.7515 -15.7103 -15.5039
   -15.4033 -15.3275 -15.2096 -15.1456 -15.1373 -15.1183 -15.1069 -15.1023
   -15.0432 -15.0394 -15.0375 -15.0236 -14.9982 -14.9506 -14.9358 -14.9317
   -14.8367 -14.7641 -14.7398 -14.7227 -14.6801 -14.6550 -14.2032 -13.0833
   -12.9669 -11.3041  -6.8550  -6.6915  -4.2045  -3.8483  -3.8183  -3.6760
    -3.5470  -3.5069  -3.4360  -3.3640  -3.2328  -3.2084  -3.0356  -2.8362
    -2.7761  -2.7474  -2.7015  -2.6303  -2.5154  -2.4595  -2.4087  -2.4061
    -2.3856  -2.3807  -2.3564  -2.3380  -2.2403  -2.2205  -2.1493  -2.1351
    -2.0857  -1.9858  -1.9560  -1.9147  -1.9055  -1.8777  -1.8638  -1.8504
    -1.8276  -1.8033  -1.7627  -1.6934  -1.6172  -1.5813  -1.5014  -1.4478
    -1.4079  -1.3483  -1.2126  -1.1375  -1.0893  -1.0569  -1.0473  -1.0290
    -0.9949  -0.9778  -0.8667  -0.7545  -0.7387  -0.6736  -0.6112  -0.5281
    -0.4949  -0.4337  -0.3695  -0.3517  -0.3466  -0.3103  -0.2682  -0.2220
    -0.0845  -0.0294   0.0043   0.0122   0.0737   0.1150   0.1464   0.2290
     0.2437   0.2834   0.3266   0.3579   0.3690   0.3789   0.3999   0.4306
     0.4354   0.6251   0.6681   0.7127   0.7473   0.7854   0.9315   0.9504
     1.0571   1.1626   1.3679   1.4412   1.5404   1.6332   2.0125   2.0583
     2.7596   3.5317   3.6193   3.6641   3.7018   3.7777   3.7887   3.9868
     4.0021   4.0413   4.1174

[...]

          k = 0.0380-0.0419 0.0000 ( 17876 PWs)   bands (ev):

[...]

          k =-0.0760-0.0000 0.0000 ( 17886 PWs)   bands (ev):

[...]

          k =-0.0760-0.0839 0.0000 ( 17948 PWs)   bands (ev):

   -55.5859 -55.5848 -55.5531 -55.5446 -55.5418 -55.4259 -55.4054 -55.3961
   -55.3945 -55.3628 -55.3591 -55.3511 -54.9996 -54.8751 -54.5642 -54.5640
   -31.9175 -31.9010 -31.9007 -31.8998 -31.8812 -31.8801 -31.8403 -31.8316
   -31.8047 -31.7837 -31.7720 -31.7637 -31.7589 -31.7152 -31.7116 -31.7090
   -31.7067 -31.7054 -31.7043 -31.7000 -31.6976 -31.6968 -31.6567 -31.6445
   -31.6238 -31.6176 -31.6105 -31.5959 -31.5953 -31.5926 -31.5864 -31.5776
   -31.5737 -31.5642 -31.5638 -31.5546 -31.4218 -31.2731 -31.2193 -31.1636
   -31.1323 -31.1066 -30.8902 -30.8900 -30.8012 -30.8010 -30.7619 -30.7618
   -18.8998 -18.2991 -15.7557 -15.6514 -15.5547 -15.5191 -15.4627 -15.4032
   -15.3883 -15.3070 -15.2833 -15.2797 -15.2188 -15.1969 -15.1620 -15.1494
   -15.1281 -15.1147 -15.1112 -15.0550 -15.0487 -15.0393 -15.0326 -15.0292
   -14.9625 -14.9199 -14.9163 -14.9118 -14.7873 -14.6618 -14.3827 -13.0688
   -13.0686 -11.3015  -6.8819  -6.6714  -4.1305  -3.8715  -3.7890  -3.2603
    -3.0385  -2.8362  -2.8078  -2.7132  -2.6982  -2.6681  -2.5357  -2.4959
    -2.4561  -2.4418  -2.4185  -2.4177  -2.4047  -2.3981  -2.3801  -2.3561
    -2.3292  -2.3039  -2.2740  -2.2660  -2.2539  -2.2354  -2.2222  -2.2051
    -2.2022  -2.1581  -2.1368  -2.1274  -2.0447  -1.9901  -1.8275  -1.7852
    -1.7408  -1.7311  -1.7062  -1.7007  -1.6685  -1.6545  -1.6013  -1.5903
    -1.4752  -1.3607  -1.3224  -1.2980  -1.2892  -1.2708  -1.1996  -1.0985
    -1.0740  -0.9993  -0.9950  -0.8914  -0.8774  -0.7969  -0.7867  -0.7616
    -0.7064  -0.6702  -0.6504  -0.5668  -0.5612  -0.5387  -0.4963  -0.4663
    -0.4087  -0.3528  -0.3234  -0.3141  -0.2766  -0.2520  -0.2113  -0.1601
    -0.0982  -0.0601   0.0351   0.1380   0.2217   0.3581   0.4682   0.4958
     0.5706   0.6072   0.6814   0.7111   0.7180   0.7792   0.7923   0.8816
     0.9386   0.9514   0.9874   1.1061   1.8045   1.8059   1.8778   1.8782
     2.7846   3.7567   3.8663   3.9092   3.9300   4.0051   4.0462   4.0661
     4.0685   4.1047   4.2078

     the Fermi energy is     3.5311 ev

!    total energy              =   -2974.00303847 Ry
     estimated scf accuracy    <       0.00000006 Ry
     smearing contrib. (-TS)   =      -0.02181025 Ry
     internal energy E=F+TS    =   -2973.98122822 Ry

     The total energy is F=E-TS. E is the sum of the following terms:
     one-electron contribution =  -23851.64604574 Ry
     hartree contribution      =   12020.41037019 Ry
     xc contribution           =    -494.03172452 Ry
     ewald contribution        =    9351.28456270 Ry
     electric field correction =       0.00160916 Ry

     convergence has been achieved in  66 iterations

     Forces acting on atoms (cartesian axes, Ry/au):

     atom    1 type  1   force =     0.00016812   -0.00021061    0.09637113
     atom    2 type  1   force =    -0.00018496   -0.00044519   -0.17540744
     atom    3 type  2   force =     0.00001830   -0.00014864   -0.02470604
     atom    4 type  2   force =     0.00005496   -0.00161965    0.05342405
     atom    5 type  2   force =    -0.01199227   -0.00147907    0.00368741
     atom    6 type  2   force =     0.01344504   -0.00063972    0.00222387
     atom    7 type  1   force =    -0.00108569    0.00055514   -0.00698677
     atom    8 type  1   force =     0.00064648    0.00917838    0.02676048
     atom    9 type  2   force =     0.00017765    0.00020034   -0.00046390
     atom   10 type  2   force =    -0.00157642   -0.00030750   -0.01790213
     atom   11 type  2   force =     0.00090596    0.00089698    0.00000352
     atom   12 type  2   force =    -0.00061010    0.00059952   -0.00002872
     atom   13 type  1   force =    -0.00027413    0.00024072   -0.00035148
     atom   14 type  1   force =     0.00027065    0.00026408    0.00005577
     atom   15 type  2   force =     0.00008389    0.00021213   -0.00027676
     atom   16 type  2   force =     0.00001123    0.00020856    0.00081690
     atom   17 type  2   force =     0.00101896    0.00003642    0.00013135
     atom   18 type  2   force =    -0.00135845   -0.00004497   -0.00003895
     atom   19 type  1   force =    -0.00006277    0.00130581   -0.00007038
     atom   20 type  1   force =    -0.00027281   -0.00011657   -0.00014114
     atom   21 type  2   force =     0.00009816    0.00001484    0.10321990
     atom   22 type  2   force =    -0.00012805    0.00029075    0.00050542
     atom   23 type  2   force =    -0.07145467   -0.00008563   -0.02778544
     atom   24 type  2   force =     0.07144235    0.00036083   -0.02778128
     atom   25 type  1   force =     0.00001675   -0.00032319    0.09610337
     atom   26 type  1   force =    -0.00030716   -0.00044991   -0.17577123
     atom   27 type  2   force =     0.00008789   -0.00025110   -0.02370327
     atom   28 type  2   force =     0.00012013   -0.00130083    0.05282587
     atom   29 type  2   force =    -0.01226148    0.00021473    0.00356559
     atom   30 type  2   force =     0.01359887    0.00042851    0.00206429
     atom   31 type  1   force =    -0.00117936    0.00349950   -0.01017397
     atom   32 type  1   force =     0.00083088   -0.01099631    0.02705440
     atom   33 type  2   force =     0.00010261    0.00000086    0.00058408
     atom   34 type  2   force =    -0.00116238   -0.00122862   -0.02346597
     atom   35 type  2   force =     0.00082733   -0.00052005   -0.00010861
     atom   36 type  2   force =    -0.00059189   -0.00018314   -0.00013666
     atom   37 type  1   force =    -0.00056609    0.00019894   -0.00042888
     atom   38 type  1   force =     0.00028684   -0.00025254    0.00010588
     atom   39 type  2   force =     0.00011570    0.00044622    0.00010576
     atom   40 type  2   force =     0.00019805    0.00015016   -0.00054070
     atom   41 type  2   force =     0.00080028    0.00069622    0.00035630
     atom   42 type  2   force =    -0.00086723    0.00068338    0.00020892
     atom   43 type  1   force =    -0.00000365   -0.00093375   -0.00081694
     atom   44 type  1   force =    -0.00025299    0.00108899    0.00035892
     atom   45 type  2   force =     0.00008505   -0.00002670    0.10322313
     atom   46 type  2   force =    -0.07146206   -0.00002394   -0.02779443
     atom   47 type  2   force =     0.07144598    0.00038934   -0.02779036
     atom   48 type  3   force =     0.00008759   -0.00150084   -0.00039310
     atom   49 type  3   force =     0.00009178   -0.00017064    0.00019360
     atom   50 type  4   force =     0.00974675    0.00119387    0.00395677
     atom   51 type  5   force =     0.00027076   -0.00058438   -0.00095983
     atom   52 type  5   force =     0.00093557   -0.00006558   -0.00000776
     atom   53 type  5   force =    -0.01027624   -0.00027251   -0.00405440
     atom   54 type  2   force =     0.00163539    0.00014196   -0.00022136
     atom   55 type  5   force =    -0.00061585   -0.00007112   -0.00012799
     atom   56 type  5   force =    -0.00107924    0.00075550    0.00052920

     Total force =     0.368084     Total SCF correction =     0.000737
  @ DRIVER MODE: Message from server: STATUS
  @ DRIVER MODE: Message from server: GETFORCE
  @ DRIVER MODE: Returning v,forces,stress,ensemble

     Writing output data file ./calc.save/
  @ DRIVER MODE: Message from server: EXIT
  @ DRIVE MODE: Exiting

     General routines

     Parallel routines

   This run was terminated on:   2: 3: 6  16Sep2021

   JOB DONE.