     Program PWSCF v.6.7GPU starts on 25Sep2021 at 18:16:45

     R & G space division:  proc/nbgrp/npool/nimage =       8
     Reading input from /storage/home/hcoda1/3/ntian30/research/carbon/CxH_vib/H2O_calc/ads_slab/CH3ON2H2O_a/out_0008/pw.inp
Warning: card &CELL ignored
Warning: card   CELL_DYNAMICS='IPI', ignored
Warning: card / ignored

     Current dimensions of program PWSCF are:
     Max number of different atomic species (ntypx) = 10
     Max number of k-points (npk) =  40000
     Max angular momentum in pseudopotentials (lmaxx) =  3
     Presently no symmetry can be used with electric field

     Message from routine cell_base_init:
     DEPRECATED: use true lattice parameter, not A to a.u. conversion factor

     IMPORTANT: XC functional enforced from input :
     Exchange-correlation= BEEF-VDW
                           (   1   4  43  14   2   0   0)
     Any further DFT definition will be discarded
     Please, verify this is what you really want

  @ DRIVER MODE: Connecting to
 qe_1139763_2971672.sched-torque.pace.gatech.eduvckf7s3o_scratch
  using UNIX socket
  @ DRIVER MODE: Message from server: STATUS
  @ DRIVER MODE: Message from server: INIT
  @ DRIVER MODE: Receiving replica           0          -1
  @ DRIVER MODE: Receiving encoded integer          25
  @ DRIVER MODE:  SCF:  T  FORCE:  T  STRESS:  F  VC:  F  ENSEMBLE:  F
  @ DRIVER MODE:  SCF:  T  FORCE:  T  STRESS:  F  VC:  F  ENSEMBLE:  F

     Using Slab Decomposition

     bravais-lattice index     =            0
     lattice parameter (alat)  =       1.8897  a.u.
     unit-cell volume          =    6658.9804 (a.u.)^3
     number of atoms/cell      =           57
     number of atomic types    =            5
     number of electrons       =       409.00
     number of Kohn-Sham states=          214
     kinetic-energy cutoff     =      29.3995  Ry
     charge density cutoff     =     293.9946  Ry
     scf convergence threshold =      7.3E-08
     mixing beta               =       0.0500
     number of iterations used =            8  plain     mixing
     Exchange-correlation= BEEF-VDW
                           (   1   4  43  14   2   0   0)

     celldm(1)=   1.889726  celldm(2)=   0.000000  celldm(3)=   0.000000
     celldm(4)=   0.000000  celldm(5)=   0.000000  celldm(6)=   0.000000

     crystal axes: (cart. coord. in units of alat)
               a(1) = (   6.579727   0.000000   0.000000 )
               a(2) = (  -0.000775   5.961596   0.000000 )
               a(3) = (   0.000000   0.000000  25.155947 )

     reciprocal axes: (cart. coord. in units 2 pi/alat)
               b(1) = (  0.151982  0.000020  0.000000 )
               b(2) = (  0.000000  0.167740  0.000000 )
               b(3) = (  0.000000  0.000000  0.039752 )

     PseudoPot. # 1 for Ti read from file:
     /storage/coda1/p-amedford6/0/shared/rich_project_chbe-medford/medford-share/data/pseudos_module/espresso/nninc/pbe/van/Ti.UPF
     MD5 check sum: 8e4df49b7f0d34bbd5052bf3f5ea0213
     Pseudo is Ultrasoft, Zval = 12.0
     Generated by new atomic code, or converted to UPF format
     Using radial grid of  851 points,  6 beta functions with:
                l(1) =   0
                l(2) =   0
                l(3) =   1
                l(4) =   1
                l(5) =   2
                l(6) =   2
     Q(r) pseudized with  8 coefficients,  rinner =    1.000   1.000   1.000
                                                       1.000   1.000

     PseudoPot. # 2 for O  read from file:
     /storage/coda1/p-amedford6/0/shared/rich_project_chbe-medford/medford-share/data/pseudos_module/espresso/nninc/pbe/van/O.UPF
     MD5 check sum: 78c19812648e8988a0fe644b0f25305e
     Pseudo is Ultrasoft, Zval =  6.0
     Generated by new atomic code, or converted to UPF format
     Using radial grid of  737 points,  4 beta functions with:
                l(1) =   0
                l(2) =   0
                l(3) =   1
                l(4) =   1
     Q(r) pseudized with  8 coefficients,  rinner =    0.800   0.800   0.800

     PseudoPot. # 3 for C  read from file:
     /storage/coda1/p-amedford6/0/shared/rich_project_chbe-medford/medford-share/data/pseudos_module/espresso/nninc/pbe/van/C.UPF
     MD5 check sum: 1a69bf6b8db32088f5b2163dbdb77a27
     Pseudo is Ultrasoft, Zval =  4.0
     Generated by new atomic code, or converted to UPF format
     Using radial grid of  721 points,  4 beta functions with:
                l(1) =   0
                l(2) =   0
                l(3) =   1
                l(4) =   1
     Q(r) pseudized with  8 coefficients,  rinner =    0.800   0.800   0.800

     PseudoPot. # 4 for H  read from file:
     /storage/coda1/p-amedford6/0/shared/rich_project_chbe-medford/medford-share/data/pseudos_module/espresso/nninc/pbe/van/H.UPF
     MD5 check sum: b5ee9d7bfd3a09ee7748110bda690ff7
     Pseudo is Ultrasoft, Zval =  1.0
     Generated by new atomic code, or converted to UPF format
     Using radial grid of  615 points,  1 beta functions with:
                l(1) =   0
     Q(r) pseudized with  8 coefficients,  rinner =    0.800

     PseudoPot. # 5 for N  read from file:
     /storage/coda1/p-amedford6/0/shared/rich_project_chbe-medford/medford-share/data/pseudos_module/espresso/nninc/pbe/van/N.UPF
     MD5 check sum: 90d10febe142ad51ac9d5be1deb811c4
     Pseudo is Ultrasoft, Zval =  5.0
     Generated by new atomic code, or converted to UPF format
     Using radial grid of  729 points,  4 beta functions with:
                l(1) =   0
                l(2) =   0
                l(3) =   1
                l(4) =   1
     Q(r) pseudized with  8 coefficients,  rinner =    0.800   0.800   0.800

     atomic species   valence    mass     pseudopotential
        Ti1           12.00    47.86700     Ti( 1.00)
        O1             6.00    15.99900     O ( 1.00)
        C1             4.00    12.01100     C ( 1.00)
        H1             1.00     1.00800     H ( 1.00)
        N1             5.00    14.00700     N ( 1.00)

     No symmetry found

   Cartesian axes

     site n.     atom                  positions (alat units)
         1           Ti1 tau(   1) = (   0.0004258   2.9801865   6.0000000  )
         2           Ti1 tau(   2) = (   3.2906075   1.4906267   6.0002472  )
         3           O1  tau(   3) = (   0.0006271   0.0005054   7.9858123  )
         4           O1  tau(   4) = (   3.2906025   0.0005020   7.3038282  )
         5           O1  tau(   5) = (   4.5942328   1.4918067   9.2879030  )
         6           O1  tau(   6) = (   1.9868534   1.4903216   9.2879459  )
         7           Ti1 tau(   7) = (   3.3113259   3.0354369   9.1618307  )
         8           Ti1 tau(   8) = (   0.0141821   1.6139659   9.3625064  )
         9           O1  tau(   9) = (   3.2964399   0.0287090  11.3517035  )
        10           O1  tau(  10) = (   0.0046459   0.0167322  10.6079620  )
        11           O1  tau(  11) = (   1.2916403   1.5142126  12.6509924  )
        12           O1  tau(  12) = (   5.2954765   1.5212855  12.6445515  )
        13           Ti1 tau(  13) = (   0.0303381   3.0181167  12.7741416  )
        14           Ti1 tau(  14) = (   3.3376880   1.5190318  12.5019279  )
        15           O1  tau(  15) = (   6.5702980   0.0162101  14.7136675  )
        16           O1  tau(  16) = (   3.3118210   0.0215951  13.9605728  )
        17           O1  tau(  17) = (   4.5586303   1.5408398  16.0643691  )
        18           O1  tau(  18) = (   2.0376984   1.5397913  16.0346728  )
        19           Ti1 tau(  19) = (   3.2806018   3.0126274  15.6982083  )
        20           Ti1 tau(  20) = (   0.0204579   1.3876160  16.0921805  )
        21           O1  tau(  21) = (   3.2904802   0.0005063   4.7018136  )
        22           O1  tau(  22) = (   0.0362274   0.0182013  17.2505027  )
        23           O1  tau(  23) = (   1.3043587   1.4918075   6.0039043  )
        24           O1  tau(  24) = (   5.2767064   1.4903225   6.0039473  )
        25           Ti1 tau(  25) = (   0.0000382   5.9609847   6.0000000  )
        26           Ti1 tau(  26) = (   3.2902200   4.4714249   6.0002472  )
        27           O1  tau(  27) = (   0.0002396   2.9813036   7.9858123  )
        28           O1  tau(  28) = (   3.2902150   2.9813002   7.3038282  )
        29           O1  tau(  29) = (   4.5938453   4.4726049   9.2879030  )
        30           O1  tau(  30) = (   1.9864658   4.4711199   9.2879459  )
        31           Ti1 tau(  31) = (   3.2918133   0.0584897   9.1554610  )
        32           Ti1 tau(  32) = (   0.0176696   4.5429683   9.2683582  )
        33           O1  tau(  33) = (   3.2944385   3.0046939  11.3531965  )
        34           O1  tau(  34) = (   0.0071923   2.9964285  10.5824339  )
        35           O1  tau(  35) = (   1.2923070   4.5060354  12.6395470  )
        36           O1  tau(  36) = (   5.2930342   4.4972821  12.6335129  )
        37           Ti1 tau(  37) = (   0.0360028   0.0369787  12.5252624  )
        38           Ti1 tau(  38) = (   3.3378333   4.5109478  12.5016189  )
        39           O1  tau(  39) = (   0.0182598   3.0415135  14.6926035  )
        40           O1  tau(  40) = (   3.2973286   3.0139918  13.9115332  )
        41           O1  tau(  41) = (   4.5518717   4.4752506  16.0920674  )
        42           O1  tau(  42) = (   2.0385343   4.4722040  16.0556704  )
        43           Ti1 tau(  43) = (   3.3273276   0.0437280  15.7880462  )
        44           Ti1 tau(  44) = (   0.0148993   4.5306414  15.9319406  )
        45           O1  tau(  45) = (   3.2900926   2.9813045   4.7018136  )
        46           O1  tau(  46) = (   1.3039711   4.4726057   6.0039043  )
        47           O1  tau(  47) = (   5.2763189   4.4711207   6.0039473  )
        48           C1  tau(  48) = (   6.0619278   3.0088867  18.6555636  )
        49           O1  tau(  49) = (   0.0091652   2.9994598  17.3400993  )
        50           H1  tau(  50) = (   4.9713474   2.8828304  18.6515055  )
        51           H1  tau(  51) = (   6.4909130   2.1836263  19.2313859  )
        52           H1  tau(  52) = (   6.3070107   3.9563896  19.1453893  )
        53           N1  tau(  53) = (   5.9950546   3.0301018  22.7159517  )
        54           N1  tau(  54) = (   5.2276613   3.1827328  21.9368001  )
        55           O1  tau(  55) = (   3.1818816   0.0591848  18.2205797  )
        56           H1  tau(  56) = (   3.8437189   5.3938241  18.5518935  )
        57           H1  tau(  57) = (   2.3086839   5.6188137  18.3735615  )

     number of k points=    10  Fermi-Dirac smearing, width (Ry)=  0.0073
                       cart. coord. in units 2pi/alat
        k(    1) = (   0.0000000   0.0000000   0.0000000), wk =   0.1250000
        k(    2) = (   0.0000000   0.0419351   0.0000000), wk =   0.2500000
        k(    3) = (   0.0000000  -0.0838702   0.0000000), wk =   0.1250000
        k(    4) = (   0.0379955   0.0000049   0.0000000), wk =   0.2500000
        k(    5) = (   0.0379955   0.0419400   0.0000000), wk =   0.2500000
        k(    6) = (   0.0379955  -0.0838652   0.0000000), wk =   0.2500000
        k(    7) = (   0.0379955  -0.0419301   0.0000000), wk =   0.2500000
        k(    8) = (  -0.0759910  -0.0000099   0.0000000), wk =   0.1250000
        k(    9) = (  -0.0759910   0.0419252   0.0000000), wk =   0.2500000
        k(   10) = (  -0.0759910  -0.0838800   0.0000000), wk =   0.1250000

     Initial potential from superposition of free atoms

     starting charge  392.99914, renormalised to  409.00000

     negative rho (up, down):  9.745E-03 0.000E+00

     %%%%%%%%%%%%%%%%%%%%%%%%%%%%%%%%%%%%%%%%%%%%%%%%%%%%%%%%%%%%%%%%%%%%%%%%
     %                                                                      %
     % You are using vdW-DF, which was implemented by the Thonhauser group. %
     % Please cite the following two papers that made this development      %
     % possible and the two reviews that describe the various versions:     %
     %                                                                      %
     %   T. Thonhauser et al., PRL 115, 136402 (2015).                      %
     %   T. Thonhauser et al., PRB 76, 125112 (2007).                       %
     %   K. Berland et al., Rep. Prog. Phys. 78, 066501 (2015).             %
     %   D.C. Langreth et al., J. Phys.: Condens. Matter 21, 084203 (2009). %
     %                                                                      %
     %                                                                      %
     % If you are calculating the stress with vdW-DF, please also cite:     %
     %                                                                      %
     %   R. Sabatini et al., J. Phys.: Condens. Matter 24, 424209 (2012).   %
     %                                                                      %
     %%%%%%%%%%%%%%%%%%%%%%%%%%%%%%%%%%%%%%%%%%%%%%%%%%%%%%%%%%%%%%%%%%%%%%%%

     Adding external electric field

     Computed dipole along edir(3) :
        Dipole              -18.5715 Ry au,        -47.2041 Debye
        Dipole field         -0.0350 Ry au,

        Potential amp.        3.2488 Ry
        Total length         46.3494 bohr

     Starting wfcs are  309 atomic wfcs
  @ DRIVER MODE: Message from server: STATUS
  @ DRIVER MODE: Message from server: POSDATA
  @ DRIVER MODE: Reading and sharing cell
  @ DRIVER MODE: Reading and sharing positions
  @ DRIVER MODE: Received positions

     Self-consistent Calculation

     iteration #  1     ecut=    29.40 Ry     beta= 0.05
     Davidson diagonalization with overlap
     c_bands:  3 eigenvalues not converged
     c_bands:  2 eigenvalues not converged
     c_bands:  2 eigenvalues not converged
     c_bands:  5 eigenvalues not converged
     c_bands:  5 eigenvalues not converged
     c_bands:  5 eigenvalues not converged
     c_bands:  1 eigenvalues not converged
     c_bands:  3 eigenvalues not converged
     ethr =  1.00E-05,  avg # of iterations = 28.7

[...]

     total energy              =   -2113.12546504 Ry
     estimated scf accuracy    <   10297.56056323 Ry

     iteration #  2     ecut=    29.40 Ry     beta= 0.05
     Davidson diagonalization with overlap
     ethr =  1.00E-02,  avg # of iterations = 31.8

[...]

     iteration # 71     ecut=    29.40 Ry     beta= 0.05
     Davidson diagonalization with overlap
     c_bands:  1 eigenvalues not converged
     c_bands:  1 eigenvalues not converged
     ethr =  1.07E-07,  avg # of iterations = 16.7

[...]

     total energy              =   -3006.52130832 Ry
     estimated scf accuracy    <       0.00000009 Ry

     iteration # 93     ecut=    29.40 Ry     beta= 0.05
     Davidson diagonalization with overlap
     ethr =  1.94E-11,  avg # of iterations =  9.3

     negative rho (up, down):  1.093E-02 0.000E+00

     Adding external electric field

     Computed dipole along edir(3) :
        Dipole                0.9984 Ry au,          2.5376 Debye
        Dipole field          0.0019 Ry au,

        Potential amp.       -0.1746 Ry
        Total length         46.3494 bohr

     End of self-consistent calculation

          k = 0.0000 0.0000 0.0000 ( 18029 PWs)   bands (ev):

   -55.2842 -55.2503 -55.2483 -55.2139 -55.1907 -55.1744 -55.1673 -55.1316
   -55.0810 -55.0628 -55.0466 -55.0397 -55.0059 -54.9518 -54.2912 -54.2571
   -31.8074 -31.7534 -31.6754 -31.6443 -31.6231 -31.5760 -31.5587 -31.5554
   -31.5191 -31.5138 -31.4775 -31.4637 -31.4570 -31.4480 -31.4438 -31.4315
   -31.4242 -31.3894 -31.3841 -31.3757 -31.3712 -31.3525 -31.3487 -31.3400
   -31.3316 -31.3259 -31.3100 -31.2887 -31.2782 -31.2725 -31.2692 -31.2613
   -31.2592 -31.2430 -31.2304 -31.2200 -31.2189 -31.1843 -31.1692 -31.1488
   -31.1365 -31.1352 -30.7004 -30.6047 -30.5823 -30.5171 -30.4310 -30.3199
   -21.4274 -18.7344 -17.1680 -15.9988 -15.7283 -15.5678 -15.4371 -15.4019
   -15.2150 -15.0932 -14.9598 -14.9363 -14.8826 -14.8551 -14.8208 -14.8100
   -14.8053 -14.7930 -14.7853 -14.7382 -14.7037 -14.6864 -14.6859 -14.6625
   -14.6137 -14.5603 -14.4953 -14.4302 -14.4016 -14.3595 -14.2903 -14.2827
   -12.7918 -12.6739  -9.1314  -6.6045  -6.5277  -4.5653  -4.5547  -3.9077
    -3.7568  -3.4578  -3.3625  -3.2866  -3.2108  -3.1883  -3.1668  -3.0916
    -2.9814  -2.8442  -2.7492  -2.5096  -2.4544  -2.4117  -2.3801  -2.3509
    -2.1943  -2.1692  -2.1007  -2.0895  -2.0809  -2.0702  -2.0442  -2.0133
    -1.9880  -1.9569  -1.9001  -1.8686  -1.8029  -1.6719  -1.6635  -1.6310
    -1.5850  -1.5686  -1.5672  -1.5405  -1.4963  -1.4775  -1.4529  -1.4475
    -1.3504  -1.2587  -1.2157  -1.1219  -1.0420  -0.9687  -0.8463  -0.8076
    -0.7339  -0.7010  -0.6848  -0.6312  -0.5822  -0.5712  -0.5126  -0.4660
    -0.3585  -0.3173  -0.2740  -0.2372  -0.1858  -0.1423  -0.0707  -0.0374
    -0.0049  -0.0005   0.0206   0.2190   0.2303   0.2816   0.2942   0.3915
     0.4440   0.4779   0.4915   0.5013   0.5390   0.6148   0.6700   0.6785
     0.7104   0.7462   0.7655   0.8101   0.8524   0.9052   0.9347   0.9688
     1.0359   1.0754   1.2301   1.3204   1.3688   1.4842   1.6417   1.7330
     1.8069   1.9071   2.3198   2.3771   3.8975   3.9315   3.9582   3.9766
     4.0445   4.1439   4.2602   4.3511   4.3906   4.4610

[...]

          k = 0.0380-0.0419 0.0000 ( 17876 PWs)   bands (ev):

[...]

          k =-0.0760-0.0000 0.0000 ( 17886 PWs)   bands (ev):

[...]

          k =-0.0760-0.0839 0.0000 ( 17948 PWs)   bands (ev):

   -55.2720 -55.2603 -55.2343 -55.2297 -55.1876 -55.1722 -55.1567 -55.1423
   -55.0837 -55.0598 -55.0488 -55.0251 -55.0207 -54.9544 -54.2747 -54.2735
   -31.6193 -31.6027 -31.5763 -31.5733 -31.5642 -31.5628 -31.5454 -31.5126
   -31.5057 -31.4886 -31.4855 -31.4748 -31.4400 -31.4295 -31.4084 -31.4045
   -31.3994 -31.3976 -31.3963 -31.3901 -31.3877 -31.3841 -31.3719 -31.3633
   -31.3576 -31.3488 -31.3483 -31.3463 -31.3413 -31.3149 -31.2896 -31.2767
   -31.2743 -31.2722 -31.2702 -31.2613 -31.2522 -31.2403 -31.2307 -31.2214
   -31.1797 -31.1460 -30.5956 -30.5943 -30.5138 -30.5129 -30.4745 -30.4736
   -21.4273 -18.7335 -17.1367 -15.4671 -15.3581 -15.2286 -15.1644 -15.1414
   -15.1149 -15.0617 -15.0452 -14.9902 -14.9860 -14.9353 -14.9291 -14.8860
   -14.8793 -14.8252 -14.7970 -14.7880 -14.7590 -14.7264 -14.7104 -14.7090
   -14.6693 -14.6473 -14.6392 -14.6089 -14.6016 -14.5395 -14.5015 -14.4690
   -12.7761 -12.7743  -9.1333  -6.6052  -6.5211  -4.5657  -4.5620  -3.8177
    -3.7155  -3.4828  -3.2734  -3.0021  -2.7526  -2.5700  -2.4782  -2.4097
    -2.3566  -2.3383  -2.2289  -2.2042  -2.1745  -2.1396  -2.1173  -2.1066
    -2.0891  -2.0799  -2.0729  -2.0544  -2.0213  -2.0021  -1.9761  -1.9508
    -1.9354  -1.9126  -1.8948  -1.8873  -1.8627  -1.8349  -1.8280  -1.8253
    -1.7629  -1.7231  -1.5644  -1.5194  -1.4981  -1.4081  -1.3887  -1.3720
    -1.3467  -1.3325  -1.3159  -1.1969  -1.1459  -1.1183  -1.0096  -0.9917
    -0.9657  -0.8275  -0.8029  -0.7711  -0.7447  -0.7003  -0.6314  -0.6093
    -0.5502  -0.5391  -0.4389  -0.4013  -0.3759  -0.3630  -0.2679  -0.2445
    -0.2389  -0.2129  -0.1503  -0.1194  -0.0725  -0.0432  -0.0123   0.0121
     0.0581   0.0780   0.1719   0.1923   0.2285   0.2716   0.3652   0.5324
     0.6250   0.7351   0.7609   0.8079   0.8683   0.9106   0.9570   1.0143
     1.0598   1.0692   1.1297   1.1682   1.2534   1.2672   1.2705   1.3389
     2.0943   2.0946   2.1825   2.1915   4.1388   4.1469   4.2043   4.2236
     4.3630   4.3691   4.3827   4.3902   4.4855   4.5534

     the Fermi energy is     3.8674 ev

!    total energy              =   -3006.52131109 Ry
     estimated scf accuracy    <       0.00000003 Ry
     smearing contrib. (-TS)   =      -0.02293431 Ry
     internal energy E=F+TS    =   -3006.49837678 Ry

     The total energy is F=E-TS. E is the sum of the following terms:
     one-electron contribution =  -22563.03428357 Ry
     hartree contribution      =   11380.87165877 Ry
     xc contribution           =    -501.14247797 Ry
     ewald contribution        =    8676.80484506 Ry
     electric field correction =       0.00188092 Ry

     convergence has been achieved in  93 iterations

     Forces acting on atoms (cartesian axes, Ry/au):

     atom    1 type  1   force =    -0.00014957   -0.00167247    0.10542002
     atom    2 type  1   force =    -0.00022567    0.00113198   -0.17917016
     atom    3 type  2   force =     0.00020616   -0.00553350   -0.03234060
     atom    4 type  2   force =     0.00010328    0.00072127    0.04630369
     atom    5 type  2   force =    -0.01804641    0.00052533    0.00423926
     atom    6 type  2   force =     0.01844420   -0.00044739    0.00410901
     atom    7 type  1   force =     0.00007385    0.00020033    0.00004321
     atom    8 type  1   force =     0.00007142    0.00031160   -0.00012013
     atom    9 type  2   force =     0.00017829    0.00035044   -0.00008177
     atom   10 type  2   force =     0.00017125   -0.00000634    0.00002313
     atom   11 type  2   force =     0.00006774   -0.00034735   -0.00038627
     atom   12 type  2   force =    -0.00008925   -0.00052310   -0.00052355
     atom   13 type  1   force =     0.00048677    0.00024058    0.00012040
     atom   14 type  1   force =    -0.00026434   -0.00047963   -0.00040376
     atom   15 type  2   force =     0.00013776   -0.00052197    0.00017236
     atom   16 type  2   force =    -0.00006104    0.00030577   -0.00023063
     atom   17 type  2   force =     0.00000615   -0.00035135    0.00032751
     atom   18 type  2   force =     0.00038992   -0.00069587   -0.00006649
     atom   19 type  1   force =     0.00008525   -0.00028311   -0.00012663
     atom   20 type  1   force =     0.00015204   -0.00082334   -0.00086987
     atom   21 type  2   force =    -0.00003547    0.00010176    0.10394488
     atom   22 type  2   force =    -0.00012020   -0.00055023    0.00052036
     atom   23 type  2   force =    -0.06943452    0.00051855   -0.02946698
     atom   24 type  2   force =     0.06919083    0.00097540   -0.02952289
     atom   25 type  1   force =    -0.00003017    0.00156411    0.11481991
     atom   26 type  1   force =    -0.00021300   -0.00047846   -0.17918162
     atom   27 type  2   force =     0.00021331    0.00414531   -0.02604740
     atom   28 type  2   force =     0.00042795    0.00092984    0.04808857
     atom   29 type  2   force =    -0.01631733    0.00162637    0.00385305
     atom   30 type  2   force =     0.01737288    0.00217613    0.00362272
     atom   31 type  1   force =    -0.00014676    0.00010835   -0.00024580
     atom   32 type  1   force =     0.00010617   -0.00009130    0.00026200
     atom   33 type  2   force =     0.00028511   -0.00050966    0.00019514
     atom   34 type  2   force =    -0.00004208   -0.00030917   -0.00026796
     atom   35 type  2   force =    -0.00044131   -0.00013456    0.00000830
     atom   36 type  2   force =     0.00051116    0.00002510   -0.00000053
     atom   37 type  1   force =     0.00048773   -0.00072787   -0.00000049
     atom   38 type  1   force =    -0.00037386   -0.00002928   -0.00035120
     atom   39 type  2   force =    -0.00049046   -0.00050517   -0.00066607
     atom   40 type  2   force =     0.00036080   -0.00041034   -0.00027407
     atom   41 type  2   force =     0.00024717   -0.00029693    0.00031170
     atom   42 type  2   force =     0.00001766   -0.00001466   -0.00021182
     atom   43 type  1   force =    -0.00001960    0.00010839    0.00134930
     atom   44 type  1   force =     0.00027756   -0.00026807   -0.00082208
     atom   45 type  2   force =    -0.00003770    0.00007751    0.10398816
     atom   46 type  2   force =    -0.06904281   -0.00107088   -0.02952185
     atom   47 type  2   force =     0.06885582   -0.00062872   -0.02960180
     atom   48 type  3   force =     0.00253756   -0.00002672   -0.00152986
     atom   49 type  2   force =    -0.00417210    0.00031244    0.00268053
     atom   50 type  4   force =    -0.00002752   -0.00008644   -0.00138179
     atom   51 type  4   force =     0.00004508   -0.00012690    0.00026041
     atom   52 type  4   force =    -0.00017931    0.00022688   -0.00048392
     atom   53 type  5   force =    -0.00107726   -0.00017826   -0.00111303
     atom   54 type  5   force =     0.00051624    0.00037189    0.00080917
     atom   55 type  2   force =     0.00074000   -0.00002947    0.00044635
     atom   56 type  4   force =    -0.00158174    0.00014544   -0.00067175
     atom   57 type  4   force =    -0.00014765    0.00095775   -0.00023635

     Total force =     0.374604     Total SCF correction =     0.000380
  @ DRIVER MODE: Message from server: STATUS
  @ DRIVER MODE: Message from server: GETFORCE
  @ DRIVER MODE: Returning v,forces,stress,ensemble

     Writing output data file ./calc.save/
  @ DRIVER MODE: Message from server: EXIT
  @ DRIVE MODE: Exiting

     General routines

     Parallel routines

   This run was terminated on:  18:51:39  25Sep2021

   JOB DONE.