     Program PWSCF v.6.7GPU starts on 15Jul2021 at 16:26: 6

     R & G space division:  proc/nbgrp/npool/nimage =      16
     Reading input from /storage/home/hcoda1/3/ntian30/research/carbon/7Jul_spin_polarized/ads_slab/CH3NHH_a/15Jul_spin_pol.log/pw.inp
Warning: card &CELL ignored
Warning: card   CELL_DYNAMICS='IPI', ignored
Warning: card / ignored

     Current dimensions of program PWSCF are:
     Max number of different atomic species (ntypx) = 10
     Max number of k-points (npk) =  40000
     Max angular momentum in pseudopotentials (lmaxx) =  3
     Presently no symmetry can be used with electric field

     Message from routine cell_base_init:
     DEPRECATED: use true lattice parameter, not A to a.u. conversion factor

     IMPORTANT: XC functional enforced from input :
     Exchange-correlation= BEEF-VDW
                           (   1   4  43  14   2   0   0)
     Any further DFT definition will be discarded
     Please, verify this is what you really want

  @ DRIVER MODE: Connecting to
 qe_1139763_2351634.sched-torque.pace.gatech.edu50e6uael_scratch
  using UNIX socket
  @ DRIVER MODE: Message from server: STATUS
  @ DRIVER MODE: Message from server: INIT
  @ DRIVER MODE: Receiving replica           0          -1
  @ DRIVER MODE: Receiving encoded integer          25
  @ DRIVER MODE:  SCF:  T  FORCE:  T  STRESS:  F  VC:  F  ENSEMBLE:  F
  @ DRIVER MODE:  SCF:  T  FORCE:  T  STRESS:  F  VC:  F  ENSEMBLE:  F

     Using Slab Decomposition

     bravais-lattice index     =            0
     lattice parameter (alat)  =       1.8897  a.u.
     unit-cell volume          =    6658.9804 (a.u.)^3
     number of atoms/cell      =           54
     number of atomic types    =            5
     number of electrons       =       392.00
     number of Kohn-Sham states=          206
     kinetic-energy cutoff     =      29.3995  Ry
     charge density cutoff     =     293.9946  Ry
     scf convergence threshold =      7.3E-08
     mixing beta               =       0.0500
     number of iterations used =            8  plain     mixing
     Exchange-correlation= BEEF-VDW
                           (   1   4  43  14   2   0   0)

     celldm(1)=   1.889726  celldm(2)=   0.000000  celldm(3)=   0.000000
     celldm(4)=   0.000000  celldm(5)=   0.000000  celldm(6)=   0.000000

     crystal axes: (cart. coord. in units of alat)
               a(1) = (   6.579727   0.000000   0.000000 )
               a(2) = (  -0.000775   5.961596   0.000000 )
               a(3) = (   0.000000   0.000000  25.155947 )

     reciprocal axes: (cart. coord. in units 2 pi/alat)
               b(1) = (  0.151982  0.000020  0.000000 )
               b(2) = (  0.000000  0.167740  0.000000 )
               b(3) = (  0.000000  0.000000  0.039752 )

     PseudoPot. # 1 for Ti read from file:
     /storage/coda1/p-amedford6/0/shared/rich_project_chbe-medford/medford-share/data/pseudos_module/espresso/nninc/pbe/van/Ti.UPF
     MD5 check sum: 8e4df49b7f0d34bbd5052bf3f5ea0213
     Pseudo is Ultrasoft, Zval = 12.0
     Generated by new atomic code, or converted to UPF format
     Using radial grid of  851 points,  6 beta functions with:
                l(1) =   0
                l(2) =   0
                l(3) =   1
                l(4) =   1
                l(5) =   2
                l(6) =   2
     Q(r) pseudized with  8 coefficients,  rinner =    1.000   1.000   1.000
                                                       1.000   1.000

     PseudoPot. # 2 for O  read from file:
     /storage/coda1/p-amedford6/0/shared/rich_project_chbe-medford/medford-share/data/pseudos_module/espresso/nninc/pbe/van/O.UPF
     MD5 check sum: 78c19812648e8988a0fe644b0f25305e
     Pseudo is Ultrasoft, Zval =  6.0
     Generated by new atomic code, or converted to UPF format
     Using radial grid of  737 points,  4 beta functions with:
                l(1) =   0
                l(2) =   0
                l(3) =   1
                l(4) =   1
     Q(r) pseudized with  8 coefficients,  rinner =    0.800   0.800   0.800

     PseudoPot. # 3 for N  read from file:
     /storage/coda1/p-amedford6/0/shared/rich_project_chbe-medford/medford-share/data/pseudos_module/espresso/nninc/pbe/van/N.UPF
     MD5 check sum: 90d10febe142ad51ac9d5be1deb811c4
     Pseudo is Ultrasoft, Zval =  5.0
     Generated by new atomic code, or converted to UPF format
     Using radial grid of  729 points,  4 beta functions with:
                l(1) =   0
                l(2) =   0
                l(3) =   1
                l(4) =   1
     Q(r) pseudized with  8 coefficients,  rinner =    0.800   0.800   0.800

     PseudoPot. # 4 for C  read from file:
     /storage/coda1/p-amedford6/0/shared/rich_project_chbe-medford/medford-share/data/pseudos_module/espresso/nninc/pbe/van/C.UPF
     MD5 check sum: 1a69bf6b8db32088f5b2163dbdb77a27
     Pseudo is Ultrasoft, Zval =  4.0
     Generated by new atomic code, or converted to UPF format
     Using radial grid of  721 points,  4 beta functions with:
                l(1) =   0
                l(2) =   0
                l(3) =   1
                l(4) =   1
     Q(r) pseudized with  8 coefficients,  rinner =    0.800   0.800   0.800

     PseudoPot. # 5 for H  read from file:
     /storage/coda1/p-amedford6/0/shared/rich_project_chbe-medford/medford-share/data/pseudos_module/espresso/nninc/pbe/van/H.UPF
     MD5 check sum: b5ee9d7bfd3a09ee7748110bda690ff7
     Pseudo is Ultrasoft, Zval =  1.0
     Generated by new atomic code, or converted to UPF format
     Using radial grid of  615 points,  1 beta functions with:
                l(1) =   0
     Q(r) pseudized with  8 coefficients,  rinner =    0.800

     atomic species   valence    mass     pseudopotential
        Ti1           12.00    47.86700     Ti( 1.00)
        O1             6.00    15.99900     O ( 1.00)
        N1             5.00    14.00700     N ( 1.00)
        C1             4.00    12.01100     C ( 1.00)
        H1             1.00     1.00800     H ( 1.00)

     Starting magnetic structure
     atomic species   magnetization
        Ti1          0.000
        O1           0.000
        N1           0.000
        C1           0.025
        H1           0.000

     No symmetry found

   Cartesian axes

     site n.     atom                  positions (alat units)
         1           Ti1 tau(   1) = (   0.0004258   2.9801865   6.0000000  )
         2           Ti1 tau(   2) = (   3.2906075   1.4906267   6.0002472  )
         3           O1  tau(   3) = (   0.0006271   0.0005054   7.9858123  )
         4           O1  tau(   4) = (   3.2906025   0.0005020   7.3038282  )
         5           O1  tau(   5) = (   4.5942328   1.4918067   9.2879030  )
         6           O1  tau(   6) = (   1.9868534   1.4903216   9.2879459  )
         7           Ti1 tau(   7) = (   3.2907910   2.8959150   9.1758416  )
         8           Ti1 tau(   8) = (   0.0015273   1.4827037   9.2680791  )
         9           O1  tau(   9) = (   3.2893523   5.9576907  11.3759447  )
        10           O1  tau(  10) = (   0.0116148   5.9584955  10.6183126  )
        11           O1  tau(  11) = (   1.2892553   1.4862333  12.6941169  )
        12           O1  tau(  12) = (   5.2958346   1.4833122  12.6807028  )
        13           Ti1 tau(  13) = (   0.0095698   2.9692159  12.5083673  )
        14           Ti1 tau(  14) = (   3.3108451   1.4743585  12.5306019  )
        15           O1  tau(  15) = (   6.5736105   5.8801748  14.6991865  )
        16           O1  tau(  16) = (   3.2979610   5.9450902  14.0010558  )
        17           O1  tau(  17) = (   4.5273680   1.5185660  16.1654609  )
        18           O1  tau(  18) = (   2.0122787   1.5163527  16.1384539  )
        19           Ti1 tau(  19) = (   3.2802752   2.9921964  15.7561315  )
        20           Ti1 tau(  20) = (   0.0093588   1.3049760  15.8672178  )
        21           O1  tau(  21) = (   3.2904802   0.0005063   4.7018136  )
        22           O1  tau(  22) = (   6.5538635   0.1342075  17.2452287  )
        23           O1  tau(  23) = (   1.3043587   1.4918075   6.0039043  )
        24           O1  tau(  24) = (   5.2767064   1.4903225   6.0039473  )
        25           Ti1 tau(  25) = (   0.0000382   5.9609847   6.0000000  )
        26           Ti1 tau(  26) = (   3.2902200   4.4714249   6.0002472  )
        27           O1  tau(  27) = (   0.0002396   2.9813036   7.9858123  )
        28           O1  tau(  28) = (   3.2902150   2.9813002   7.3038282  )
        29           O1  tau(  29) = (   4.5938453   4.4726049   9.2879030  )
        30           O1  tau(  30) = (   1.9864658   4.4711199   9.2879459  )
        31           Ti1 tau(  31) = (   3.2891106   5.8743827   9.1763621  )
        32           Ti1 tau(  32) = (   0.0006254   4.4649316   9.2693709  )
        33           O1  tau(  33) = (   3.2933707   2.9638296  11.3700534  )
        34           O1  tau(  34) = (   0.0092240   2.9805883  10.6323155  )
        35           O1  tau(  35) = (   1.2923283   4.4540072  12.6594629  )
        36           O1  tau(  36) = (   5.2938616   4.4568750  12.6477176  )
        37           Ti1 tau(  37) = (   0.0202681   5.9396231  12.5027719  )
        38           Ti1 tau(  38) = (   3.3116628   4.4527548  12.5215617  )
        39           O1  tau(  39) = (   6.5466975   3.0260875  14.9671898  )
        40           O1  tau(  40) = (   3.2966604   2.9917109  13.9679302  )
        41           O1  tau(  41) = (   4.5116687   4.4737236  16.2360857  )
        42           O1  tau(  42) = (   2.0028912   4.4646324  16.2202640  )
        43           Ti1 tau(  43) = (   3.2937213   0.0113368  15.7972781  )
        44           Ti1 tau(  44) = (   0.0208052   4.5175143  16.0574476  )
        45           O1  tau(  45) = (   3.2900926   2.9813045   4.7018136  )
        46           O1  tau(  46) = (   1.3039711   4.4726057   6.0039043  )
        47           O1  tau(  47) = (   5.2763189   4.4711207   6.0039473  )
        48           N1  tau(  48) = (   6.3337458   3.3624127  18.1270434  )
        49           C1  tau(  49) = (   0.8795605   3.2639204  19.0799812  )
        50           H1  tau(  50) = (   1.4196110   4.2071110  19.0760701  )
        51           H1  tau(  51) = (   0.5395241   3.0459488  20.0957609  )
        52           H1  tau(  52) = (   1.5475163   2.4696122  18.7548312  )
        53           H1  tau(  53) = (   5.6940081   4.0973896  18.4182617  )
        54           H1  tau(  54) = (   5.7906660   2.4998151  18.1411682  )

     number of k points=    10  Fermi-Dirac smearing, width (Ry)=  0.0073
                       cart. coord. in units 2pi/alat
        k(    1) = (   0.0000000   0.0000000   0.0000000), wk =   0.0625000
        k(    2) = (   0.0000000   0.0419351   0.0000000), wk =   0.1250000
        k(    3) = (   0.0000000  -0.0838702   0.0000000), wk =   0.0625000
        k(    4) = (   0.0379955   0.0000049   0.0000000), wk =   0.1250000
        k(    5) = (   0.0379955   0.0419400   0.0000000), wk =   0.1250000
        k(    6) = (   0.0379955  -0.0838652   0.0000000), wk =   0.1250000
        k(    7) = (   0.0379955  -0.0419301   0.0000000), wk =   0.1250000
[...]
     atom  19 (R=0.738)  charge=  8.0638  magn= -0.0005
     atom  20 (R=0.738)  charge=  8.0765  magn=  0.0001
     atom  21 (R=0.738)  charge=  4.8972  magn= -0.0006
     atom  22 (R=0.738)  charge=  4.9759  magn=  0.0001
     atom  23 (R=0.738)  charge=  5.0093  magn= -0.0013
     atom  24 (R=0.738)  charge=  5.0095  magn= -0.0013
     atom  25 (R=0.738)  charge=  8.0427  magn=  0.0143
     atom  26 (R=0.738)  charge=  8.0244  magn=  0.0007
     atom  27 (R=0.738)  charge=  5.0118  magn= -0.0018
     atom  28 (R=0.738)  charge=  5.0493  magn= -0.0002
     atom  29 (R=0.738)  charge=  5.0191  magn= -0.0004
     atom  30 (R=0.738)  charge=  5.0194  magn= -0.0004
     atom  31 (R=0.738)  charge=  8.0246  magn=  0.0011
     atom  32 (R=0.738)  charge=  8.0257  magn=  0.0143
     atom  33 (R=0.738)  charge=  5.0253  magn= -0.0003
     atom  34 (R=0.738)  charge=  5.0228  magn= -0.0009
     atom  35 (R=0.738)  charge=  5.0162  magn= -0.0004
     atom  36 (R=0.738)  charge=  5.0179  magn= -0.0004
     atom  37 (R=0.738)  charge=  8.0280  magn=  0.0040
     atom  38 (R=0.738)  charge=  8.0303  magn=  0.0021
     atom  39 (R=0.738)  charge=  5.0062  magn= -0.0001
     atom  40 (R=0.738)  charge=  5.0343  magn= -0.0001
     atom  41 (R=0.738)  charge=  4.9975  magn=  0.0001
     atom  42 (R=0.738)  charge=  5.0021  magn=  0.0001
     atom  43 (R=0.738)  charge=  8.0613  magn= -0.0005
     atom  44 (R=0.738)  charge=  8.0414  magn=  0.0002
     atom  45 (R=0.738)  charge=  4.8972  magn= -0.0006
     atom  46 (R=0.738)  charge=  5.0093  magn= -0.0013
     atom  47 (R=0.738)  charge=  5.0095  magn= -0.0013
     atom  48 (R=0.420)  charge=  1.3384  magn=  0.0000
     atom  49 (R=0.448)  charge=  0.8445  magn= -0.0000
     atom  50 (R=0.420)  charge=  0.4443  magn=  0.0000
     atom  51 (R=0.420)  charge=  0.4453  magn=  0.0000
     atom  52 (R=0.420)  charge=  0.4441  magn=  0.0000
     atom  53 (R=0.420)  charge=  0.4504  magn=  0.0000
     atom  54 (R=0.420)  charge=  0.4502  magn= -0.0000

     End of self-consistent calculation

 ------ SPIN UP ------------

          k = 0.0000 0.0000 0.0000 ( 18029 PWs)   bands (ev):

   -55.4355 -55.3990 -55.3957 -55.3616 -55.3571 -55.3163 -55.3154 -55.2809
   -55.2541 -55.2371 -55.2268 -55.2195 -55.1932 -55.1160 -54.4141 -54.3801
   -32.0033 -31.8887 -31.8810 -31.8027 -31.7502 -31.7434 -31.7414 -31.7332
   -31.6869 -31.6753 -31.6464 -31.6432 -31.6426 -31.6194 -31.6054 -31.5993
   -31.5901 -31.5802 -31.5736 -31.5535 -31.5490 -31.5362 -31.5066 -31.5025
   -31.4927 -31.4862 -31.4847 -31.4565 -31.4548 -31.4462 -31.4396 -31.4270
   -31.4170 -31.4117 -31.4066 -31.4024 -31.3681 -31.3580 -31.3570 -31.3384
   -31.3222 -31.2994 -30.8231 -30.7293 -30.7071 -30.6397 -30.5529 -30.4418
   -16.2936 -16.1643 -15.9766 -15.8303 -15.7497 -15.6316 -15.5170 -15.5004
   -15.3639 -15.2813 -15.1630 -15.1381 -15.1190 -15.0961 -15.0847 -15.0683
   -14.9772 -14.9714 -14.9576 -14.9259 -14.9235 -14.8784 -14.8711 -14.8298
   -14.8102 -14.8064 -14.6836 -14.5919 -14.5187 -14.2809 -12.9153 -12.7978
   -10.2319  -6.2830  -4.8364  -3.9627  -3.6085  -3.4544  -3.3648  -3.3371
    -3.3253  -3.1913  -3.0445  -2.8965  -2.8472  -2.8388  -2.7212  -2.6479
    -2.6380  -2.6182  -2.4633  -2.4320  -2.3890  -2.3417  -2.2979  -2.2434
    -2.2242  -2.2181  -2.2031  -2.1811  -2.1707  -2.0538  -2.0005  -1.9175
    -1.8600  -1.8372  -1.7869  -1.7657  -1.7432  -1.7230  -1.7143  -1.6691
    -1.6581  -1.6281  -1.5723  -1.4621  -1.3624  -1.3096  -1.1917  -1.0702
    -1.0302  -1.0176  -0.9783  -0.9354  -0.9191  -0.8544  -0.8104  -0.7798
    -0.7192  -0.6633  -0.6010  -0.5527  -0.4822  -0.4677  -0.4200  -0.3665
    -0.2532  -0.2155  -0.2003  -0.1744  -0.0815  -0.0451  -0.0005   0.0826
     0.0929   0.1083   0.2088   0.2221   0.2923   0.3382   0.3556   0.4484
     0.4865   0.4962   0.5016   0.5255   0.5526   0.6034   0.6411   0.6697
     0.7396   0.8651   1.0809   1.1553   1.1799   1.5064   1.5152   1.6098
     1.7931   2.1863   2.2340   3.6507   3.7309   3.7961   3.8104   3.8338
     3.8962   4.1376   4.1596   4.1634   4.1728   4.1961

[...]

          k =-0.0760-0.0000 0.0000 ( 17886 PWs)   bands (ev):

[...]

 ------ SPIN DOWN ----------

[...]

          k = 0.0380-0.0419 0.0000 ( 17876 PWs)   bands (ev):

[...]

          k =-0.0760-0.0839 0.0000 ( 17948 PWs)   bands (ev):

   -55.4166 -55.4101 -55.3553 -55.3546 -55.3540 -55.3137 -55.2929 -55.2894
   -55.2419 -55.2364 -55.2326 -55.1857 -55.1850 -55.1172 -54.3959 -54.3955
   -31.8077 -31.8061 -31.8029 -31.7190 -31.6935 -31.6863 -31.6859 -31.6434
   -31.6430 -31.6402 -31.6331 -31.6313 -31.6265 -31.5988 -31.5918 -31.5689
   -31.5679 -31.5648 -31.5629 -31.5603 -31.5569 -31.5527 -31.5150 -31.5140
   -31.5079 -31.4966 -31.4965 -31.4858 -31.4814 -31.4724 -31.4721 -31.4691
   -31.4656 -31.4488 -31.4450 -31.4312 -31.4243 -31.4215 -31.3788 -31.3647
   -31.3637 -31.3275 -30.7184 -30.7181 -30.6349 -30.6346 -30.5951 -30.5948
   -16.1344 -15.7791 -15.6874 -15.6400 -15.4666 -15.4375 -15.4209 -15.4057
   -15.2735 -15.2552 -15.2313 -15.2035 -15.1813 -15.1465 -15.1371 -15.1344
   -15.0550 -15.0408 -15.0338 -15.0180 -14.9519 -14.9421 -14.9398 -14.9325
   -14.8825 -14.8789 -14.8154 -14.7858 -14.7827 -14.5712 -12.9006 -12.9006
   -10.2352  -6.2538  -4.8333  -3.9251  -2.9580  -2.9333  -2.8941  -2.8890
    -2.6798  -2.6405  -2.6051  -2.5791  -2.4885  -2.4493  -2.4349  -2.4264
    -2.3550  -2.3386  -2.3203  -2.2753  -2.2692  -2.2556  -2.2335  -2.2037
    -2.1817  -2.1616  -2.1522  -2.1341  -2.0877  -2.0765  -2.0521  -2.0369
    -2.0338  -2.0160  -1.9875  -1.9413  -1.8145  -1.8063  -1.7395  -1.6396
    -1.6348  -1.5580  -1.5448  -1.5100  -1.4847  -1.4651  -1.4231  -1.2499
    -1.2063  -1.1794  -1.1699  -1.1130  -1.0481  -1.0250  -0.9549  -0.9392
    -0.9205  -0.8170  -0.7724  -0.7574  -0.6678  -0.6555  -0.5772  -0.5123
    -0.4680  -0.4414  -0.3956  -0.3894  -0.3872  -0.3392  -0.3316  -0.2506
    -0.2030  -0.1671  -0.1531  -0.1229   0.0736   0.0843   0.1108   0.2508
     0.2800   0.4031   0.4370   0.4892   0.5643   0.5968   0.6784   0.7139
     0.8436   0.8723   0.8738   0.9460   0.9574   1.0198   1.0293   1.9656
     1.9663   2.0534   2.0537   3.8205   3.8998   3.9295   3.9714   4.0818
     4.1568   4.1871   4.2069   4.2549   4.2576   4.3244

     the Fermi energy is     3.7283 ev

!    total energy              =   -2921.63329779 Ry
     estimated scf accuracy    <       0.00000007 Ry
     smearing contrib. (-TS)   =      -0.03705827 Ry
     internal energy E=F+TS    =   -2921.59623951 Ry

     The total energy is F=E-TS. E is the sum of the following terms:
     one-electron contribution =  -24028.59649028 Ry
     hartree contribution      =   12103.38167788 Ry
     xc contribution           =    -481.75002472 Ry
     ewald contribution        =    9485.36541713 Ry
     electric field correction =       0.00318048 Ry

     total magnetization       =     0.10 Bohr mag/cell
     absolute magnetization    =     0.14 Bohr mag/cell

     convergence has been achieved in 119 iterations

     Forces acting on atoms (cartesian axes, Ry/au):

     atom    1 type  1   force =     0.00003402   -0.00021706    0.09329881
     atom    2 type  1   force =    -0.00018950   -0.00036728   -0.17832098
     atom    3 type  2   force =     0.00002838   -0.00039813   -0.02022796
     atom    4 type  2   force =    -0.00002729   -0.00195046    0.05879314
     atom    5 type  2   force =    -0.01021122   -0.00112039    0.00777529
     atom    6 type  2   force =     0.01168475   -0.00040169    0.00694132
     atom    7 type  1   force =    -0.00048864    0.00210095   -0.01458357
     atom    8 type  1   force =     0.00024431   -0.00049398   -0.00481213
     atom    9 type  2   force =     0.00015101    0.00011724   -0.00005660
     atom   10 type  2   force =    -0.00113488    0.00137563    0.00056096
     atom   11 type  2   force =    -0.00010233    0.00015668    0.00006748
     atom   12 type  2   force =    -0.00003029    0.00036364    0.00024360
     atom   13 type  1   force =    -0.00004437   -0.00018746   -0.00019770
     atom   14 type  1   force =    -0.00015339    0.00011455    0.00028476
     atom   15 type  2   force =    -0.00020883   -0.00030620    0.00007515
     atom   16 type  2   force =    -0.00022185    0.00019553    0.00018390
     atom   17 type  2   force =     0.00013159   -0.00010894    0.00007835
     atom   18 type  2   force =    -0.00004104   -0.00019874    0.00017976
     atom   19 type  1   force =    -0.00030066    0.00031373    0.00040794
     atom   20 type  1   force =    -0.00003319   -0.00005257   -0.00032077
     atom   21 type  2   force =     0.00002966   -0.00006133    0.10393251
     atom   22 type  2   force =     0.00026335    0.00036774    0.00005724
     atom   23 type  2   force =    -0.07041893   -0.00015291   -0.02693221
     atom   24 type  2   force =     0.07025872    0.00028904   -0.02697897
     atom   25 type  1   force =    -0.00001175   -0.00014949    0.09281883
     atom   26 type  1   force =    -0.00020995   -0.00048604   -0.17833376
     atom   27 type  2   force =     0.00008705   -0.00026605   -0.01929734
     atom   28 type  2   force =     0.00004313   -0.00171327    0.05813368
     atom   29 type  2   force =    -0.01073353   -0.00111313    0.00833521
     atom   30 type  2   force =     0.01208072   -0.00083673    0.00745731
     atom   31 type  1   force =    -0.00039939    0.00594184   -0.01546322
     atom   32 type  1   force =     0.00022322   -0.00004075   -0.00518583
     atom   33 type  2   force =    -0.00007758    0.00001252    0.00008646
     atom   34 type  2   force =    -0.00101323   -0.00248403    0.00001639
     atom   35 type  2   force =    -0.00005773    0.00023851   -0.00005474
     atom   36 type  2   force =    -0.00012306    0.00009434    0.00000856
     atom   37 type  1   force =    -0.00002551    0.00005426   -0.00023478
     atom   38 type  1   force =    -0.00007972    0.00000210    0.00010332
     atom   39 type  2   force =     0.00021639   -0.00003413    0.00014127
     atom   40 type  2   force =    -0.00030126    0.00024346   -0.00004409
     atom   41 type  2   force =     0.00018591    0.00044615    0.00009593
     atom   42 type  2   force =    -0.00006044    0.00012843    0.00035081
     atom   43 type  1   force =    -0.00031531    0.00028977    0.00006979
     atom   44 type  1   force =    -0.00004435   -0.00024854    0.00007384
     atom   45 type  2   force =     0.00002031   -0.00007378    0.10390244
     atom   46 type  2   force =    -0.07038935   -0.00010001   -0.02687860
     atom   47 type  2   force =     0.07023748    0.00032652   -0.02692835
     atom   48 type  3   force =    -0.00006671   -0.00126551   -0.00041199
     atom   49 type  4   force =    -0.00030151   -0.00033529   -0.00014232
     atom   50 type  5   force =     0.00067503    0.00098004   -0.00008434
     atom   51 type  5   force =     0.00023174    0.00025781   -0.00053261
     atom   52 type  5   force =     0.00015820   -0.00039530    0.00003867
     atom   53 type  5   force =     0.00011610    0.00076863    0.00156778
     atom   54 type  5   force =     0.00071575    0.00038009   -0.00005764

     Total force =     0.366239     Total SCF correction =     0.000178
  @ DRIVER MODE: Message from server: STATUS
  @ DRIVER MODE: Message from server: GETFORCE
  @ DRIVER MODE: Returning v,forces,stress,ensemble

     Writing output data file ./calc.save/
  @ DRIVER MODE: Message from server: STATUS
  @ DRIVER MODE: Message from server: INIT
  @ DRIVER MODE: Receiving replica           0           0
  @ DRIVER MODE: Receiving encoded integer           2
  @ DRIVER MODE:  SCF:  T  FORCE:  T  STRESS:  F  VC:  F  ENSEMBLE:  F
  @ DRIVER MODE:  SCF:  F  FORCE:  F  STRESS:  F  VC:  F  ENSEMBLE:  T
  @ DRIVER MODE: Message from server: STATUS
  @ DRIVER MODE: Message from server: POSDATA
  @ DRIVER MODE: Reading and sharing positions
  @ DRIVER MODE: Received positions
     NEW-OLD atomic charge density approx. for the potential

[...]

     Adding external electric field

     Computed dipole along edir(3) :
        Dipole                1.2982 Ry au,          3.2997 Debye
        Dipole field          0.0024 Ry au,

        Potential amp.       -0.2271 Ry
        Total length         46.3494 bohr

     Generating pointlists ...
  @ DRIVER MODE: BEEF-vdw

[...]

     negative rho (up, down):  8.576E-03 8.576E-03

     negative rho (up, down):  8.576E-03 8.576E-03
 BEEFens 2000 ensemble energies
             -0.345840622157984E+02
             -0.201172626785196E+01
             -0.712364330663490E+01
              0.240009164346682E+02
             -0.118864496660793E+02
             -0.918673830642427E+01
             -0.239945757582482E+02
             -0.501702520930775E+02
             -0.214043712356097E+02
             -0.225315779870250E+02
             -0.209425155290372E+02
              0.425631840856326E+01
              0.198872751148522E+01
             -0.106846927559623E+01
              0.171817355437229E+01
              0.264411006827864E+02
             -0.101784729812565E+02
             -0.717353413055972E+01
              0.117117463673699E+02
             -0.617568747526479E+02
              0.309608152732501E+02
             -0.132818564504104E+02
             -0.239511600901500E+01
             -0.558184687756943E+01
             -0.960270387920161E+00
             -0.210964104189119E+01
              0.478847064934810E+02
             -0.150078135584232E+02
             -0.399369284257693E+01
             -0.302898355133420E+02
              0.391264378439951E+02
             -0.431305260102563E+01
             -0.212988511741187E+02
              0.111851749586818E+02
             -0.204684091534156E+01
              0.129953804946026E+02
             -0.539905352079757E+00
              0.271440117283309E+01
              0.189016020298424E+02
             -0.544865674864650E+02
              0.303684063649901E+02
              0.811045331226930E+01
             -0.625198010340017E+01
             -0.174226298348622E+02
              0.687875946640301E+01
             -0.109325118482587E+02
              0.248324852386638E+02
              0.198378829924260E+02
             -0.127800566981019E+02
             -0.163206702397480E+02
             -0.172589903586938E+02
             -0.207442156943362E+02
              0.105469939242577E+02
             -0.270043290336365E+02
              0.827407655539866E+01
              0.345226826090338E+02
              0.398036854203814E+02
              0.185366069225171E+02
              0.826808664080480E+01
              0.173074029007720E+02
[...]
             -0.406951988488532E+02
              0.278459917909305E+01
             -0.145522746500768E+01
             -0.566445092115134E+01
              0.492317846683363E-01
             -0.362215124667482E+02
             -0.697535140358215E+01
              0.491431673247850E+01
              0.741042982729216E+01
              0.271522232013813E+02
             -0.237351659887758E+02
              0.309476141933451E+02
             -0.221706173014378E+02
              0.142630756384374E+02
              0.224313613963853E+02

 BEEF-vdW xc energy contributions
           1 :   -408.154261477050
           2 :    355.544301198042
           3 :   -270.671217398153
           4 :    182.128641157520
           5 :   -112.663569386744
           6 :    71.2266414698760
           7 :   -54.0019080938498
           8 :    50.9296621718100
           9 :   -52.6281971588161
          10 :    53.8920931264450
          11 :   -53.4781715040648
          12 :    51.9115949273095
          13 :   -49.6371929763010
          14 :    46.4499427125369
          15 :   -42.0288482248569
          16 :    36.5805492212151
          17 :   -31.0152504384274
          18 :    26.5014109603868
          19 :   -23.8648516469526
          20 :    23.2086049917867
          21 :   -24.0124113799192
          22 :    25.4890627583815
          23 :   -26.9443230943896
          24 :    27.8982061270242
          25 :   -28.0574040494479
          26 :    27.2471756337502
          27 :   -25.4448814369910
          28 :    22.8487687190623
          29 :   -19.9203603443074
          30 :    17.2768900339853
          31 :   -47.9808750955439
          32 :   -32.5685436578362
  @ DRIVER MODE: Message from server: STATUS
  @ DRIVER MODE: Message from server: GETFORCE
  @ DRIVER MODE: Returning v,forces,stress,ensemble
  @ DRIVE MODE: Returning Ensemble Energies

     Writing output data file ./calc.save/
  @ DRIVER MODE: Message from server: EXIT
  @ DRIVE MODE: Exiting

     General routines

     Parallel routines

   This run was terminated on:  17:53:19  15Jul2021

   JOB DONE.