     Program PWSCF v.6.7GPU starts on 24Sep2021 at 13:33:35

     R & G space division:  proc/nbgrp/npool/nimage =       8
     Reading input from /storage/home/hcoda1/3/ntian30/research/carbon/CxH_vib/H2O_calc/ads_slab/CH3NNHHHHO_a/out_0064/pw.inp
Warning: card &CELL ignored
Warning: card   CELL_DYNAMICS='IPI', ignored
Warning: card / ignored

     Current dimensions of program PWSCF are:
     Max number of different atomic species (ntypx) = 10
     Max number of k-points (npk) =  40000
     Max angular momentum in pseudopotentials (lmaxx) =  3
     Presently no symmetry can be used with electric field

     Message from routine cell_base_init:
     DEPRECATED: use true lattice parameter, not A to a.u. conversion factor

     IMPORTANT: XC functional enforced from input :
     Exchange-correlation= BEEF-VDW
                           (   1   4  43  14   2   0   0)
     Any further DFT definition will be discarded
     Please, verify this is what you really want

  @ DRIVER MODE: Connecting to
 qe_1139763_2947308.sched-torque.pace.gatech.edukln8bwet_scratch
  using UNIX socket
  @ DRIVER MODE: Message from server: STATUS
  @ DRIVER MODE: Message from server: INIT
  @ DRIVER MODE: Receiving replica           0          -1
  @ DRIVER MODE: Receiving encoded integer          25
  @ DRIVER MODE:  SCF:  T  FORCE:  T  STRESS:  F  VC:  F  ENSEMBLE:  F
  @ DRIVER MODE:  SCF:  T  FORCE:  T  STRESS:  F  VC:  F  ENSEMBLE:  F

     Using Slab Decomposition

     bravais-lattice index     =            0
     lattice parameter (alat)  =       1.8897  a.u.
     unit-cell volume          =    6658.9804 (a.u.)^3
     number of atoms/cell      =           58
     number of atomic types    =            5
     number of electrons       =       405.00
     number of Kohn-Sham states=          212
     kinetic-energy cutoff     =      29.3995  Ry
     charge density cutoff     =     293.9946  Ry
     scf convergence threshold =      7.3E-08
     mixing beta               =       0.0500
     number of iterations used =            8  plain     mixing
     Exchange-correlation= BEEF-VDW
                           (   1   4  43  14   2   0   0)

     celldm(1)=   1.889726  celldm(2)=   0.000000  celldm(3)=   0.000000
     celldm(4)=   0.000000  celldm(5)=   0.000000  celldm(6)=   0.000000

     crystal axes: (cart. coord. in units of alat)
               a(1) = (   6.579727   0.000000   0.000000 )
               a(2) = (  -0.000775   5.961596   0.000000 )
               a(3) = (   0.000000   0.000000  25.155947 )

     reciprocal axes: (cart. coord. in units 2 pi/alat)
               b(1) = (  0.151982  0.000020  0.000000 )
               b(2) = (  0.000000  0.167740  0.000000 )
               b(3) = (  0.000000  0.000000  0.039752 )

     PseudoPot. # 1 for Ti read from file:
     /storage/coda1/p-amedford6/0/shared/rich_project_chbe-medford/medford-share/data/pseudos_module/espresso/nninc/pbe/van/Ti.UPF
     MD5 check sum: 8e4df49b7f0d34bbd5052bf3f5ea0213
     Pseudo is Ultrasoft, Zval = 12.0
     Generated by new atomic code, or converted to UPF format
     Using radial grid of  851 points,  6 beta functions with:
                l(1) =   0
                l(2) =   0
                l(3) =   1
                l(4) =   1
                l(5) =   2
                l(6) =   2
     Q(r) pseudized with  8 coefficients,  rinner =    1.000   1.000   1.000
                                                       1.000   1.000

     PseudoPot. # 2 for O  read from file:
     /storage/coda1/p-amedford6/0/shared/rich_project_chbe-medford/medford-share/data/pseudos_module/espresso/nninc/pbe/van/O.UPF
     MD5 check sum: 78c19812648e8988a0fe644b0f25305e
     Pseudo is Ultrasoft, Zval =  6.0
     Generated by new atomic code, or converted to UPF format
     Using radial grid of  737 points,  4 beta functions with:
                l(1) =   0
                l(2) =   0
                l(3) =   1
                l(4) =   1
     Q(r) pseudized with  8 coefficients,  rinner =    0.800   0.800   0.800

     PseudoPot. # 3 for N  read from file:
     /storage/coda1/p-amedford6/0/shared/rich_project_chbe-medford/medford-share/data/pseudos_module/espresso/nninc/pbe/van/N.UPF
     MD5 check sum: 90d10febe142ad51ac9d5be1deb811c4
     Pseudo is Ultrasoft, Zval =  5.0
     Generated by new atomic code, or converted to UPF format
     Using radial grid of  729 points,  4 beta functions with:
                l(1) =   0
                l(2) =   0
                l(3) =   1
                l(4) =   1
     Q(r) pseudized with  8 coefficients,  rinner =    0.800   0.800   0.800

     PseudoPot. # 4 for C  read from file:
     /storage/coda1/p-amedford6/0/shared/rich_project_chbe-medford/medford-share/data/pseudos_module/espresso/nninc/pbe/van/C.UPF
     MD5 check sum: 1a69bf6b8db32088f5b2163dbdb77a27
     Pseudo is Ultrasoft, Zval =  4.0
     Generated by new atomic code, or converted to UPF format
     Using radial grid of  721 points,  4 beta functions with:
                l(1) =   0
                l(2) =   0
                l(3) =   1
                l(4) =   1
     Q(r) pseudized with  8 coefficients,  rinner =    0.800   0.800   0.800

     PseudoPot. # 5 for H  read from file:
     /storage/coda1/p-amedford6/0/shared/rich_project_chbe-medford/medford-share/data/pseudos_module/espresso/nninc/pbe/van/H.UPF
     MD5 check sum: b5ee9d7bfd3a09ee7748110bda690ff7
     Pseudo is Ultrasoft, Zval =  1.0
     Generated by new atomic code, or converted to UPF format
     Using radial grid of  615 points,  1 beta functions with:
                l(1) =   0
     Q(r) pseudized with  8 coefficients,  rinner =    0.800

     atomic species   valence    mass     pseudopotential
        Ti1           12.00    47.86700     Ti( 1.00)
        O1             6.00    15.99900     O ( 1.00)
        N1             5.00    14.00700     N ( 1.00)
        C1             4.00    12.01100     C ( 1.00)
        H1             1.00     1.00800     H ( 1.00)

     No symmetry found

   Cartesian axes

     site n.     atom                  positions (alat units)
         1           Ti1 tau(   1) = (   0.0004258   2.9801865   6.0000000  )
         2           Ti1 tau(   2) = (   3.2906075   1.4906267   6.0002472  )
         3           O1  tau(   3) = (   0.0006271   0.0005054   7.9858123  )
         4           O1  tau(   4) = (   3.2906025   0.0005020   7.3038282  )
         5           O1  tau(   5) = (   4.5942328   1.4918067   9.2879030  )
         6           O1  tau(   6) = (   1.9868534   1.4903216   9.2879459  )
         7           Ti1 tau(   7) = (   3.2907910   2.8959150   9.1758416  )
         8           Ti1 tau(   8) = (   0.0015273   1.4827037   9.2680791  )
         9           O1  tau(   9) = (   3.3066316   0.0080679  11.3583267  )
        10           O1  tau(  10) = (   0.0116148   5.9584955  10.6183126  )
        11           O1  tau(  11) = (   1.3000076   1.5005770  12.6434233  )
        12           O1  tau(  12) = (   5.3281586   1.4930334  12.6431679  )
        13           Ti1 tau(  13) = (   0.0126194   3.0144704  12.5166071  )
        14           Ti1 tau(  14) = (   3.3185830   1.5708444  12.4374219  )
        15           O1  tau(  15) = (   0.0449490   0.0685618  14.6579901  )
        16           O1  tau(  16) = (   3.3164028   5.8986079  13.9921319  )
        17           O1  tau(  17) = (   4.5763498   1.4919541  16.1892649  )
        18           O1  tau(  18) = (   2.0390356   1.5007807  16.1677599  )
        19           Ti1 tau(  19) = (   3.3152479   2.9236451  15.6986563  )
        20           Ti1 tau(  20) = (   0.0808212   1.4292116  16.0039943  )
        21           O1  tau(  21) = (   3.2904802   0.0005063   4.7018136  )
        22           O1  tau(  22) = (   0.0303022   5.8046116  17.1736243  )
        23           O1  tau(  23) = (   1.3043587   1.4918075   6.0039043  )
        24           O1  tau(  24) = (   5.2767064   1.4903225   6.0039473  )
        25           Ti1 tau(  25) = (   0.0000382   5.9609847   6.0000000  )
        26           Ti1 tau(  26) = (   3.2902200   4.4714249   6.0002472  )
        27           O1  tau(  27) = (   0.0002396   2.9813036   7.9858123  )
        28           O1  tau(  28) = (   3.2902150   2.9813002   7.3038282  )
        29           O1  tau(  29) = (   4.5938453   4.4726049   9.2879030  )
        30           O1  tau(  30) = (   1.9864658   4.4711199   9.2879459  )
        31           Ti1 tau(  31) = (   3.2891106   5.8743827   9.1763621  )
        32           Ti1 tau(  32) = (   0.0006254   4.4649316   9.2693709  )
        33           O1  tau(  33) = (   3.3101163   2.9547251  11.3177968  )
        34           O1  tau(  34) = (   0.0092240   2.9805883  10.6323155  )
        35           O1  tau(  35) = (   1.2917786   4.4638488  12.6831265  )
        36           O1  tau(  36) = (   5.3332004   4.4701953  12.6833355  )
        37           Ti1 tau(  37) = (   0.0360484   0.0435164  12.5022323  )
        38           Ti1 tau(  38) = (   3.3166134   4.6596848  12.7231989  )
        39           O1  tau(  39) = (   6.5734590   2.9070644  14.8960501  )
        40           O1  tau(  40) = (   3.3256711   2.9499323  13.9293234  )
        41           O1  tau(  41) = (   4.5718193   4.3849529  16.1598725  )
        42           O1  tau(  42) = (   2.0293811   4.3548050  16.0908550  )
        43           Ti1 tau(  43) = (   3.3839698   5.9011270  16.3477160  )
        44           Ti1 tau(  44) = (   0.0762916   4.6312412  15.8077656  )
        45           O1  tau(  45) = (   3.2900926   2.9813045   4.7018136  )
        46           O1  tau(  46) = (   1.3039711   4.4726057   6.0039043  )
        47           O1  tau(  47) = (   5.2763189   4.4711207   6.0039473  )
        48           N1  tau(  48) = (   1.0338470   3.0145746  18.8549854  )
        49           N1  tau(  49) = (   6.4614719   2.5758313  18.0922931  )
        50           C1  tau(  50) = (   0.6385090   3.7489381  20.0602371  )
        51           H1  tau(  51) = (   6.5128770   4.5633600  19.8465500  )
        52           H1  tau(  52) = (   0.1876125   3.0656416  20.7809517  )
        53           H1  tau(  53) = (   1.5398112   4.1767214  20.4987412  )
        54           H1  tau(  54) = (   5.7034478   3.2665398  18.1448723  )
        55           H1  tau(  55) = (   6.1095767   1.7263867  18.5341855  )
        56           H1  tau(  56) = (   1.5400177   3.6533120  18.2466354  )
        57           O1  tau(  57) = (   3.2295176   5.8880611  18.1942677  )
        58           H1  tau(  58) = (   2.6769533   0.6339085  18.5854980  )

     number of k points=    10  Fermi-Dirac smearing, width (Ry)=  0.0073
                       cart. coord. in units 2pi/alat
        k(    1) = (   0.0000000   0.0000000   0.0000000), wk =   0.1250000
        k(    2) = (   0.0000000   0.0419351   0.0000000), wk =   0.2500000
        k(    3) = (   0.0000000  -0.0838702   0.0000000), wk =   0.1250000
        k(    4) = (   0.0379955   0.0000049   0.0000000), wk =   0.2500000
        k(    5) = (   0.0379955   0.0419400   0.0000000), wk =   0.2500000
        k(    6) = (   0.0379955  -0.0838652   0.0000000), wk =   0.2500000
        k(    7) = (   0.0379955  -0.0419301   0.0000000), wk =   0.2500000
        k(    8) = (  -0.0759910  -0.0000099   0.0000000), wk =   0.1250000
        k(    9) = (  -0.0759910   0.0419252   0.0000000), wk =   0.2500000
        k(   10) = (  -0.0759910  -0.0838800   0.0000000), wk =   0.1250000

     Initial potential from superposition of free atoms

     starting charge  388.99913, renormalised to  405.00000

     negative rho (up, down):  1.325E-02 0.000E+00

     %%%%%%%%%%%%%%%%%%%%%%%%%%%%%%%%%%%%%%%%%%%%%%%%%%%%%%%%%%%%%%%%%%%%%%%%
     %                                                                      %
     % You are using vdW-DF, which was implemented by the Thonhauser group. %
     % Please cite the following two papers that made this development      %
     % possible and the two reviews that describe the various versions:     %
     %                                                                      %
     %   T. Thonhauser et al., PRL 115, 136402 (2015).                      %
     %   T. Thonhauser et al., PRB 76, 125112 (2007).                       %
     %   K. Berland et al., Rep. Prog. Phys. 78, 066501 (2015).             %
     %   D.C. Langreth et al., J. Phys.: Condens. Matter 21, 084203 (2009). %
     %                                                                      %
     %                                                                      %
     % If you are calculating the stress with vdW-DF, please also cite:     %
     %                                                                      %
     %   R. Sabatini et al., J. Phys.: Condens. Matter 24, 424209 (2012).   %
     %                                                                      %
     %%%%%%%%%%%%%%%%%%%%%%%%%%%%%%%%%%%%%%%%%%%%%%%%%%%%%%%%%%%%%%%%%%%%%%%%

     Adding external electric field

     Computed dipole along edir(3) :
        Dipole              -14.7651 Ry au,        -37.5293 Debye
        Dipole field         -0.0279 Ry au,

        Potential amp.        2.5829 Ry
        Total length         46.3494 bohr

     Starting wfcs are  307 atomic wfcs
  @ DRIVER MODE: Message from server: STATUS
  @ DRIVER MODE: Message from server: POSDATA
  @ DRIVER MODE: Reading and sharing cell
  @ DRIVER MODE: Reading and sharing positions
  @ DRIVER MODE: Received positions

     Self-consistent Calculation

     iteration #  1     ecut=    29.40 Ry     beta= 0.05
     Davidson diagonalization with overlap
     c_bands:  3 eigenvalues not converged
     c_bands:  4 eigenvalues not converged
     c_bands:  2 eigenvalues not converged
     c_bands:  3 eigenvalues not converged
     c_bands:  2 eigenvalues not converged
     c_bands:  3 eigenvalues not converged
     ethr =  1.00E-05,  avg # of iterations = 23.0

[...]

     total energy              =   -2204.25888771 Ry
     estimated scf accuracy    <    8785.89914217 Ry

     iteration #  2     ecut=    29.40 Ry     beta= 0.05
     Davidson diagonalization with overlap
     ethr =  1.00E-02,  avg # of iterations = 28.9

[...]

     iteration # 37     ecut=    29.40 Ry     beta= 0.05
     Davidson diagonalization with overlap
     c_bands:  1 eigenvalues not converged
     ethr =  1.55E-06,  avg # of iterations =  9.2

[...]

     total energy              =   -2976.49813191 Ry
     estimated scf accuracy    <       0.00000008 Ry

     iteration # 61     ecut=    29.40 Ry     beta= 0.05
     Davidson diagonalization with overlap
     ethr =  1.98E-11,  avg # of iterations =  7.3

     negative rho (up, down):  1.443E-02 0.000E+00

     Adding external electric field

     Computed dipole along edir(3) :
        Dipole                0.9947 Ry au,          2.5282 Debye
        Dipole field          0.0019 Ry au,

        Potential amp.       -0.1740 Ry
        Total length         46.3494 bohr

     End of self-consistent calculation

          k = 0.0000 0.0000 0.0000 ( 18029 PWs)   bands (ev):

   -55.5797 -55.4979 -55.4639 -55.3627 -55.3415 -55.3258 -55.3118 -55.3051
   -55.2920 -55.2623 -55.2186 -55.0962 -55.0852 -55.0085 -54.4671 -54.4331
   -31.9825 -31.9170 -31.8764 -31.8294 -31.8276 -31.8069 -31.7966 -31.7888
   -31.7488 -31.7439 -31.7256 -31.6505 -31.6264 -31.6060 -31.6045 -31.6024
   -31.5964 -31.5844 -31.5820 -31.5555 -31.5490 -31.5238 -31.5233 -31.5116
   -31.4963 -31.4852 -31.4773 -31.4600 -31.4560 -31.4531 -31.4434 -31.4375
   -31.4335 -31.4143 -31.3724 -31.3704 -31.2997 -31.2928 -31.2785 -31.2581
   -31.2212 -31.2140 -30.8728 -30.7873 -30.7648 -30.6904 -30.6040 -30.4922
   -17.5844 -16.3591 -16.1377 -15.9750 -15.7598 -15.6747 -15.6462 -15.4538
   -15.3485 -15.2956 -15.1091 -15.0634 -15.0328 -15.0215 -15.0063 -14.9835
   -14.9636 -14.9255 -14.9171 -14.9067 -14.9011 -14.8625 -14.8402 -14.7895
   -14.7670 -14.7042 -14.6323 -14.5645 -14.5169 -14.2556 -14.2379 -12.9703
   -12.9655 -12.8492  -9.4638  -6.1551  -5.2050  -4.6390  -3.9375  -3.5033
    -3.4026  -3.3866  -3.3318  -3.2680  -3.1699  -2.9949  -2.8862  -2.8324
    -2.7316  -2.6244  -2.5692  -2.5063  -2.4807  -2.4297  -2.3964  -2.3848
    -2.3781  -2.2819  -2.2733  -2.2462  -2.2108  -2.1548  -2.1391  -2.0608
    -2.0248  -2.0163  -1.8918  -1.8791  -1.8135  -1.8094  -1.8028  -1.7693
    -1.7483  -1.7334  -1.7043  -1.6204  -1.5675  -1.4970  -1.4743  -1.4443
    -1.1848  -1.0935  -1.0556  -1.0278  -0.9302  -0.9143  -0.9008  -0.8970
    -0.8829  -0.8329  -0.7869  -0.7026  -0.5930  -0.5735  -0.5644  -0.5194
    -0.4537  -0.3721  -0.2986  -0.2693  -0.2322  -0.2188  -0.1518  -0.0750
    -0.0591  -0.0467   0.0624   0.0764   0.1585   0.2173   0.2313   0.2758
     0.3172   0.3500   0.4063   0.4427   0.4731   0.4788   0.5122   0.5568
     0.6125   0.6430   0.6710   0.7529   0.8086   0.8541   0.8819   1.0531
     1.0830   1.1366   1.1793   1.2668   1.5093   1.5595   1.5990   1.7538
     2.1258   2.1710   3.5868   3.7380   3.7530   3.8232   3.8477   3.9387
     4.0760   4.1445   4.2852   4.3453

[...]

          k = 0.0380-0.0419 0.0000 ( 17876 PWs)   bands (ev):

[...]

          k =-0.0760-0.0000 0.0000 ( 17886 PWs)   bands (ev):

[...]

          k =-0.0760-0.0839 0.0000 ( 17948 PWs)   bands (ev):

   -55.5789 -55.4810 -55.4807 -55.3614 -55.3284 -55.3181 -55.3124 -55.3089
   -55.3085 -55.2544 -55.2266 -55.0931 -55.0863 -55.0115 -54.4502 -54.4499
   -31.8641 -31.8055 -31.8017 -31.7980 -31.7977 -31.7817 -31.7745 -31.7741
   -31.7051 -31.6490 -31.6411 -31.6337 -31.6288 -31.6155 -31.6009 -31.6009
   -31.5986 -31.5979 -31.5840 -31.5734 -31.5658 -31.5572 -31.5363 -31.5180
   -31.5154 -31.5116 -31.5043 -31.5011 -31.4888 -31.4816 -31.4789 -31.4732
   -31.4681 -31.4495 -31.4437 -31.3664 -31.3543 -31.3404 -31.3016 -31.2969
   -31.2633 -31.2174 -30.7776 -30.7774 -30.6859 -30.6855 -30.6474 -30.6471
   -17.5784 -16.3424 -15.7467 -15.5688 -15.4726 -15.4661 -15.3354 -15.2695
   -15.2608 -15.2262 -15.2075 -15.1925 -15.1597 -15.1422 -15.1026 -15.0499
   -15.0166 -14.9939 -14.9823 -14.9452 -14.9327 -14.9107 -14.9034 -14.8948
   -14.8364 -14.8045 -14.7954 -14.7643 -14.5691 -14.5466 -14.3704 -12.9718
   -12.9511 -12.9510  -9.4613  -6.1403  -5.2067  -4.6490  -3.9337  -3.1713
    -2.9210  -2.7776  -2.7015  -2.5674  -2.5576  -2.4998  -2.4930  -2.4471
    -2.4386  -2.3974  -2.3435  -2.3276  -2.2844  -2.2794  -2.2486  -2.2361
    -2.2255  -2.2163  -2.1912  -2.1717  -2.1628  -2.1220  -2.1175  -2.1016
    -2.0819  -2.0656  -2.0381  -2.0270  -1.9866  -1.9471  -1.8813  -1.8077
    -1.7225  -1.6398  -1.6292  -1.6185  -1.5722  -1.5657  -1.5189  -1.5073
    -1.4601  -1.4086  -1.2942  -1.1713  -1.1314  -1.1054  -1.0731  -1.0412
    -0.9865  -0.9638  -0.9287  -0.8802  -0.8478  -0.7248  -0.7138  -0.6480
    -0.5643  -0.5306  -0.4548  -0.4417  -0.4271  -0.4107  -0.3891  -0.3725
    -0.3429  -0.3269  -0.2225  -0.1984  -0.1953  -0.1727  -0.1210  -0.0192
     0.0548   0.1380   0.2412   0.2905   0.3188   0.3522   0.4528   0.5702
     0.5953   0.6588   0.6902   0.7331   0.8002   0.8209   0.8688   0.9541
     1.0073   1.0397   1.0659   1.0709   1.1253   1.1516   1.9225   1.9310
     1.9912   1.9915   3.8001   4.0770   4.1023   4.1183   4.1556   4.1597
     4.1826   4.1967   4.2615   4.2768

     the Fermi energy is     3.6238 ev

!    total energy              =   -2976.49818387 Ry
     estimated scf accuracy    <       0.00000006 Ry
     smearing contrib. (-TS)   =      -0.01952276 Ry
     internal energy E=F+TS    =   -2976.47866111 Ry

     The total energy is F=E-TS. E is the sum of the following terms:
     one-electron contribution =  -23034.43340582 Ry
     hartree contribution      =   11613.58910446 Ry
     xc contribution           =    -495.70299353 Ry
     ewald contribution        =    8940.06676666 Ry
     electric field correction =       0.00186712 Ry

     convergence has been achieved in  61 iterations

     Forces acting on atoms (cartesian axes, Ry/au):

     atom    1 type  1   force =     0.00001119   -0.00022830    0.09406146
     atom    2 type  1   force =    -0.00015917    0.00025131   -0.17514779
     atom    3 type  2   force =     0.00007475   -0.00016315   -0.02115331
     atom    4 type  2   force =     0.00000358   -0.00104128    0.05355920
     atom    5 type  2   force =    -0.00454396   -0.00322499    0.00114938
     atom    6 type  2   force =     0.00660197   -0.00242496    0.00161471
     atom    7 type  1   force =     0.00037310    0.00457403    0.01039090
     atom    8 type  1   force =    -0.00056083    0.00199003    0.00312035
     atom    9 type  2   force =     0.00010292   -0.00050114   -0.00049114
     atom   10 type  2   force =    -0.00031017   -0.00004395   -0.01129911
     atom   11 type  2   force =    -0.00023716    0.00046407    0.00004557
     atom   12 type  2   force =    -0.00026542    0.00068017    0.00008328
     atom   13 type  1   force =     0.00061087   -0.00065647    0.00025341
     atom   14 type  1   force =    -0.00035506    0.00015598    0.00021210
     atom   15 type  2   force =    -0.00016779    0.00011234    0.00052450
     atom   16 type  2   force =     0.00004897   -0.00001876    0.00037288
     atom   17 type  2   force =    -0.00038041    0.00029146    0.00011647
     atom   18 type  2   force =     0.00001087    0.00018740    0.00022869
     atom   19 type  1   force =    -0.00010968    0.00054515   -0.00036657
     atom   20 type  1   force =     0.00000084   -0.00017163   -0.00015356
     atom   21 type  2   force =     0.00002977   -0.00001294    0.10308944
     atom   22 type  2   force =    -0.00009271   -0.00016715   -0.00039383
     atom   23 type  2   force =    -0.07214603   -0.00021211   -0.02725846
     atom   24 type  2   force =     0.07205161    0.00023124   -0.02733670
     atom   25 type  1   force =     0.00006902   -0.00034934    0.09404040
     atom   26 type  1   force =    -0.00000119   -0.00128614   -0.17518246
     atom   27 type  2   force =     0.00015446   -0.00021301   -0.01992862
     atom   28 type  2   force =     0.00008833   -0.00111061    0.04907923
     atom   29 type  2   force =    -0.00668017    0.00152538    0.00212689
     atom   30 type  2   force =     0.00854959    0.00170319    0.00249866
     atom   31 type  1   force =     0.00049864   -0.00019030    0.00054852
     atom   32 type  1   force =    -0.00020315   -0.00145414    0.00351688
     atom   33 type  2   force =    -0.00007781   -0.00000086   -0.00003092
     atom   34 type  2   force =    -0.00088808    0.00246464   -0.01150893
     atom   35 type  2   force =     0.00003195   -0.00043726    0.00048591
     atom   36 type  2   force =    -0.00052962   -0.00041291    0.00034126
     atom   37 type  1   force =     0.00036369    0.00027949    0.00003883
     atom   38 type  1   force =    -0.00037913    0.00021786    0.00031901
     atom   39 type  2   force =    -0.00051539    0.00043430    0.00047533
     atom   40 type  2   force =    -0.00001991   -0.00007176   -0.00004509
     atom   41 type  2   force =    -0.00039473   -0.00030883    0.00031205
     atom   42 type  2   force =    -0.00021340   -0.00030134   -0.00022114
     atom   43 type  1   force =    -0.00009355   -0.00036364    0.00074745
     atom   44 type  1   force =    -0.00016159    0.00021663    0.00010550
     atom   45 type  2   force =     0.00002037   -0.00001424    0.10294638
     atom   46 type  2   force =    -0.07215285   -0.00008445   -0.02725517
     atom   47 type  2   force =     0.07200831    0.00035389   -0.02729701
     atom   48 type  3   force =     0.00056538   -0.00057299   -0.00029489
     atom   49 type  3   force =    -0.00071352    0.00007760    0.00008810
     atom   50 type  4   force =     0.00034644   -0.00025653    0.00024757
     atom   51 type  5   force =    -0.00027337    0.00022341    0.00001404
     atom   52 type  5   force =    -0.00009613   -0.00079752   -0.00000667
     atom   53 type  5   force =     0.00019070   -0.00051771    0.00000181
     atom   54 type  5   force =     0.00020563    0.00022574   -0.00055667
     atom   55 type  5   force =    -0.00015696    0.00030351    0.00040598
     atom   56 type  5   force =     0.00030398    0.00025253   -0.00038739
     atom   57 type  2   force =    -0.00754114    0.01008068    0.00464017
     atom   58 type  5   force =     0.00710315   -0.01023161   -0.00548685

     Total force =     0.362208     Total SCF correction =     0.000554
  @ DRIVER MODE: Message from server: STATUS
  @ DRIVER MODE: Message from server: GETFORCE
  @ DRIVER MODE: Returning v,forces,stress,ensemble

     Writing output data file ./calc.save/
  @ DRIVER MODE: Message from server: EXIT
  @ DRIVE MODE: Exiting

     General routines

     Parallel routines

   This run was terminated on:  13:58:34  24Sep2021

   JOB DONE.