     Program PWSCF v.6.7GPU starts on 12Oct2021 at  9:36:23

     R & G space division:  proc/nbgrp/npool/nimage =       8
     Reading input from /storage/home/hcoda1/3/ntian30/research/carbon/ACS_vib/ads_slab/HNNH/out_0002/pw.inp
Warning: card &CELL ignored
Warning: card   CELL_DYNAMICS='IPI', ignored
Warning: card / ignored

     Current dimensions of program PWSCF are:
     Max number of different atomic species (ntypx) = 10
     Max number of k-points (npk) =  40000
     Max angular momentum in pseudopotentials (lmaxx) =  3
     Presently no symmetry can be used with electric field

     Message from routine cell_base_init:
     DEPRECATED: use true lattice parameter, not A to a.u. conversion factor

     IMPORTANT: XC functional enforced from input :
     Exchange-correlation= BEEF-VDW
                           (   1   4  43  14   2   0   0)
     Any further DFT definition will be discarded
     Please, verify this is what you really want

  @ DRIVER MODE: Connecting to
 qe_1139763_3181311.sched-torque.pace.gatech.edufzu29chu_scratch
  using UNIX socket
  @ DRIVER MODE: Message from server: STATUS
  @ DRIVER MODE: Message from server: INIT
  @ DRIVER MODE: Receiving replica           0          -1
  @ DRIVER MODE: Receiving encoded integer          25
  @ DRIVER MODE:  SCF:  T  FORCE:  T  STRESS:  F  VC:  F  ENSEMBLE:  F
  @ DRIVER MODE:  SCF:  T  FORCE:  T  STRESS:  F  VC:  F  ENSEMBLE:  F

     Using Slab Decomposition

     bravais-lattice index     =            0
     lattice parameter (alat)  =       1.8897  a.u.
     unit-cell volume          =    6658.9804 (a.u.)^3
     number of atoms/cell      =           51
     number of atomic types    =            4
     number of electrons       =       390.00
     number of Kohn-Sham states=          205
     kinetic-energy cutoff     =      29.3995  Ry
     charge density cutoff     =     293.9946  Ry
     scf convergence threshold =      7.3E-08
     mixing beta               =       0.0500
     number of iterations used =            8  plain     mixing
     Exchange-correlation= BEEF-VDW
                           (   1   4  43  14   2   0   0)

     celldm(1)=   1.889726  celldm(2)=   0.000000  celldm(3)=   0.000000
     celldm(4)=   0.000000  celldm(5)=   0.000000  celldm(6)=   0.000000

     crystal axes: (cart. coord. in units of alat)
               a(1) = (   6.579727   0.000000   0.000000 )
               a(2) = (  -0.000775   5.961596   0.000000 )
               a(3) = (   0.000000   0.000000  25.155947 )

     reciprocal axes: (cart. coord. in units 2 pi/alat)
               b(1) = (  0.151982  0.000020  0.000000 )
               b(2) = (  0.000000  0.167740  0.000000 )
               b(3) = (  0.000000  0.000000  0.039752 )

     PseudoPot. # 1 for Ti read from file:
     /storage/coda1/p-amedford6/0/shared/rich_project_chbe-medford/medford-share/data/pseudos_module/espresso/nninc/pbe/van/Ti.UPF
     MD5 check sum: 8e4df49b7f0d34bbd5052bf3f5ea0213
     Pseudo is Ultrasoft, Zval = 12.0
     Generated by new atomic code, or converted to UPF format
     Using radial grid of  851 points,  6 beta functions with:
                l(1) =   0
                l(2) =   0
                l(3) =   1
                l(4) =   1
                l(5) =   2
                l(6) =   2
     Q(r) pseudized with  8 coefficients,  rinner =    1.000   1.000   1.000
                                                       1.000   1.000

     PseudoPot. # 2 for O  read from file:
     /storage/coda1/p-amedford6/0/shared/rich_project_chbe-medford/medford-share/data/pseudos_module/espresso/nninc/pbe/van/O.UPF
     MD5 check sum: 78c19812648e8988a0fe644b0f25305e
     Pseudo is Ultrasoft, Zval =  6.0
     Generated by new atomic code, or converted to UPF format
     Using radial grid of  737 points,  4 beta functions with:
                l(1) =   0
                l(2) =   0
                l(3) =   1
                l(4) =   1
     Q(r) pseudized with  8 coefficients,  rinner =    0.800   0.800   0.800

     PseudoPot. # 3 for H  read from file:
     /storage/coda1/p-amedford6/0/shared/rich_project_chbe-medford/medford-share/data/pseudos_module/espresso/nninc/pbe/van/H.UPF
     MD5 check sum: b5ee9d7bfd3a09ee7748110bda690ff7
     Pseudo is Ultrasoft, Zval =  1.0
     Generated by new atomic code, or converted to UPF format
     Using radial grid of  615 points,  1 beta functions with:
                l(1) =   0
     Q(r) pseudized with  8 coefficients,  rinner =    0.800

     PseudoPot. # 4 for N  read from file:
     /storage/coda1/p-amedford6/0/shared/rich_project_chbe-medford/medford-share/data/pseudos_module/espresso/nninc/pbe/van/N.UPF
     MD5 check sum: 90d10febe142ad51ac9d5be1deb811c4
     Pseudo is Ultrasoft, Zval =  5.0
     Generated by new atomic code, or converted to UPF format
     Using radial grid of  729 points,  4 beta functions with:
                l(1) =   0
                l(2) =   0
                l(3) =   1
                l(4) =   1
     Q(r) pseudized with  8 coefficients,  rinner =    0.800   0.800   0.800

     atomic species   valence    mass     pseudopotential
        Ti1           12.00    47.86700     Ti( 1.00)
        O1             6.00    15.99900     O ( 1.00)
        H1             1.00     1.00800     H ( 1.00)
        N1             5.00    14.00700     N ( 1.00)

     No symmetry found

   Cartesian axes

     site n.     atom                  positions (alat units)
         1           Ti1 tau(   1) = (   0.0004258   2.9801865   6.0000000  )
         2           Ti1 tau(   2) = (   3.2906075   1.4906267   6.0002472  )
         3           O1  tau(   3) = (   0.0006271   0.0005054   7.9858123  )
         4           O1  tau(   4) = (   3.2906025   0.0005020   7.3038282  )
         5           O1  tau(   5) = (   4.5942328   1.4918067   9.2879030  )
         6           O1  tau(   6) = (   1.9868534   1.4903216   9.2879459  )
         7           Ti1 tau(   7) = (   3.2908881   2.9042228   9.1664735  )
         8           Ti1 tau(   8) = (   0.0028208   1.4453605   9.2576896  )
         9           O1  tau(   9) = (   3.2707936   0.0024169  11.3547307  )
        10           O1  tau(  10) = (   6.5771562   5.9613851  10.5998947  )
        11           O1  tau(  11) = (   1.2750810   1.4887983  12.6623546  )
        12           O1  tau(  12) = (   5.2735957   1.4941237  12.6366476  )
        13           Ti1 tau(  13) = (   6.5484273   3.0048924  12.8091026  )
        14           Ti1 tau(  14) = (   3.2635572   1.4892482  12.5038529  )
        15           O1  tau(  15) = (   6.5112577   5.9342846  14.6610847  )
        16           O1  tau(  16) = (   3.2966729   5.9487847  13.9562402  )
        17           O1  tau(  17) = (   4.4981853   1.5100712  16.1215815  )
        18           O1  tau(  18) = (   1.9927245   1.4809274  16.0269182  )
        19           Ti1 tau(  19) = (   3.2349744   2.9714856  15.7300180  )
        20           Ti1 tau(  20) = (   6.5689460   1.3052557  15.9023701  )
        21           O1  tau(  21) = (   3.2904802   0.0005063   4.7018136  )
        22           O1  tau(  22) = (   6.5497555   0.0700294  17.2054191  )
        23           O1  tau(  23) = (   1.3043587   1.4918075   6.0039043  )
        24           O1  tau(  24) = (   5.2767064   1.4903225   6.0039473  )
        25           Ti1 tau(  25) = (   0.0000382   5.9609847   6.0000000  )
        26           Ti1 tau(  26) = (   3.2902200   4.4714249   6.0002472  )
        27           O1  tau(  27) = (   0.0002396   2.9813036   7.9858123  )
        28           O1  tau(  28) = (   3.2902150   2.9813002   7.3038282  )
        29           O1  tau(  29) = (   4.5938453   4.4726049   9.2879030  )
        30           O1  tau(  30) = (   1.9864658   4.4711199   9.2879459  )
        31           Ti1 tau(  31) = (   3.2899333   5.8856170   9.1744801  )
        32           Ti1 tau(  32) = (   0.0020137   4.3658053   9.3606106  )
        33           O1  tau(  33) = (   3.2690173   2.9735267  11.3530824  )
        34           O1  tau(  34) = (   0.0002412   2.9750176  10.5666245  )
        35           O1  tau(  35) = (   1.2748646   4.4726994  12.6423647  )
        36           O1  tau(  36) = (   5.2720213   4.4664742  12.6163582  )
        37           Ti1 tau(  37) = (   6.5582605   0.0201509  12.4985948  )
        38           Ti1 tau(  38) = (   3.2618569   4.4653106  12.4956167  )
        39           O1  tau(  39) = (   6.5348066   3.0079926  14.7180217  )
        40           O1  tau(  40) = (   3.2797409   2.9875293  13.9337705  )
        41           O1  tau(  41) = (   4.5027845   4.4373921  16.1556124  )
        42           O1  tau(  42) = (   1.9850320   4.4617864  16.0830993  )
        43           Ti1 tau(  43) = (   3.2823567   5.9555293  15.7495178  )
        44           Ti1 tau(  44) = (   6.5552429   4.5047081  16.0597439  )
        45           O1  tau(  45) = (   3.2900926   2.9813045   4.7018136  )
        46           O1  tau(  46) = (   1.3039711   4.4726057   6.0039043  )
        47           O1  tau(  47) = (   5.2763189   4.4711207   6.0039473  )
        48           H1  tau(  48) = (   0.5759039   2.5807529  19.4396776  )
        49           N1  tau(  49) = (   0.9330341   2.9538053  18.5544450  )
        50           N1  tau(  50) = (   6.5241730   3.1816813  17.7405862  )
        51           H1  tau(  51) = (   5.5906726   3.0068531  18.1306748  )

     number of k points=    10  Fermi-Dirac smearing, width (Ry)=  0.0073
                       cart. coord. in units 2pi/alat
        k(    1) = (   0.0000000   0.0000000   0.0000000), wk =   0.1250000
        k(    2) = (   0.0000000   0.0419351   0.0000000), wk =   0.2500000
        k(    3) = (   0.0000000  -0.0838702   0.0000000), wk =   0.1250000
        k(    4) = (   0.0379955   0.0000049   0.0000000), wk =   0.2500000
        k(    5) = (   0.0379955   0.0419400   0.0000000), wk =   0.2500000
        k(    6) = (   0.0379955  -0.0838652   0.0000000), wk =   0.2500000
        k(    7) = (   0.0379955  -0.0419301   0.0000000), wk =   0.2500000
        k(    8) = (  -0.0759910  -0.0000099   0.0000000), wk =   0.1250000
        k(    9) = (  -0.0759910   0.0419252   0.0000000), wk =   0.2500000
        k(   10) = (  -0.0759910  -0.0838800   0.0000000), wk =   0.1250000

     Initial potential from superposition of free atoms

     starting charge  373.99921, renormalised to  390.00000

     negative rho (up, down):  1.941E-02 0.000E+00

     %%%%%%%%%%%%%%%%%%%%%%%%%%%%%%%%%%%%%%%%%%%%%%%%%%%%%%%%%%%%%%%%%%%%%%%%
     %                                                                      %
     % You are using vdW-DF, which was implemented by the Thonhauser group. %
     % Please cite the following two papers that made this development      %
     % possible and the two reviews that describe the various versions:     %
     %                                                                      %
     %   T. Thonhauser et al., PRL 115, 136402 (2015).                      %
     %   T. Thonhauser et al., PRB 76, 125112 (2007).                       %
     %   K. Berland et al., Rep. Prog. Phys. 78, 066501 (2015).             %
     %   D.C. Langreth et al., J. Phys.: Condens. Matter 21, 084203 (2009). %
     %                                                                      %
     %                                                                      %
     % If you are calculating the stress with vdW-DF, please also cite:     %
     %                                                                      %
     %   R. Sabatini et al., J. Phys.: Condens. Matter 24, 424209 (2012).   %
     %                                                                      %
     %%%%%%%%%%%%%%%%%%%%%%%%%%%%%%%%%%%%%%%%%%%%%%%%%%%%%%%%%%%%%%%%%%%%%%%%

     Adding external electric field

     Computed dipole along edir(3) :
        Dipole               -5.1488 Ry au,        -13.0871 Debye
        Dipole field         -0.0097 Ry au,

        Potential amp.        0.9007 Ry
        Total length         46.3494 bohr

     Starting wfcs are  294 atomic wfcs
  @ DRIVER MODE: Message from server: STATUS
  @ DRIVER MODE: Message from server: POSDATA
  @ DRIVER MODE: Reading and sharing cell
  @ DRIVER MODE: Reading and sharing positions
  @ DRIVER MODE: Received positions

     Self-consistent Calculation

     iteration #  1     ecut=    29.40 Ry     beta= 0.05
     Davidson diagonalization with overlap
     c_bands:  5 eigenvalues not converged
     c_bands:  1 eigenvalues not converged
     c_bands:  3 eigenvalues not converged
     c_bands:  3 eigenvalues not converged
     c_bands:  1 eigenvalues not converged
     c_bands:  3 eigenvalues not converged
     c_bands:  2 eigenvalues not converged
     c_bands:  3 eigenvalues not converged
     ethr =  1.00E-05,  avg # of iterations = 20.5

[...]

     total energy              =   -2838.05346246 Ry
     estimated scf accuracy    <     989.66996786 Ry

     iteration #  2     ecut=    29.40 Ry     beta= 0.05
     Davidson diagonalization with overlap
     ethr =  1.00E-02,  avg # of iterations = 16.3

[...]

     iteration # 77     ecut=    29.40 Ry     beta= 0.05
     Davidson diagonalization with overlap
     c_bands:  1 eigenvalues not converged
     ethr =  3.67E-08,  avg # of iterations =  9.2

[...]

     total energy              =   -2926.39979600 Ry
     estimated scf accuracy    <       0.00000009 Ry

     iteration # 94     ecut=    29.40 Ry     beta= 0.05
     Davidson diagonalization with overlap
     ethr =  2.25E-11,  avg # of iterations =  8.4

     negative rho (up, down):  1.911E-02 0.000E+00

     Adding external electric field

     Computed dipole along edir(3) :
        Dipole                0.7874 Ry au,          2.0015 Debye
        Dipole field          0.0015 Ry au,

        Potential amp.       -0.1378 Ry
        Total length         46.3494 bohr

     End of self-consistent calculation

          k = 0.0000 0.0000 0.0000 ( 18029 PWs)   bands (ev):

   -55.9565 -55.9434 -55.9186 -55.9068 -55.8656 -55.8249 -55.8020 -55.7896
   -55.7315 -55.7069 -55.6732 -55.6168 -55.5676 -55.4978 -54.9236 -54.8896
   -32.5108 -32.4224 -32.3061 -32.2968 -32.2735 -32.2509 -32.2264 -32.1985
   -32.1918 -32.1839 -32.1641 -32.1515 -32.1253 -32.1235 -32.1157 -32.0976
   -32.0906 -32.0744 -32.0548 -32.0447 -32.0206 -32.0077 -31.9990 -31.9986
   -31.9829 -31.9691 -31.9510 -31.9429 -31.9301 -31.9211 -31.9161 -31.8913
   -31.8831 -31.8555 -31.8383 -31.8199 -31.8174 -31.8048 -31.7983 -31.7305
   -31.6837 -31.6120 -31.3317 -31.2406 -31.2179 -31.1481 -31.0618 -30.9509
   -18.0708 -16.7128 -16.4111 -16.2764 -16.1304 -16.0845 -15.9834 -15.7993
   -15.6958 -15.6447 -15.5804 -15.5567 -15.5543 -15.5030 -15.4937 -15.4878
   -15.4637 -15.4247 -15.3894 -15.3485 -15.3451 -15.3380 -15.3048 -15.2429
   -15.2118 -15.1153 -15.0610 -14.9647 -14.9606 -14.8270 -13.4264 -13.3096
   -10.3273  -6.6414  -4.0634  -3.9454  -3.8788  -3.8337  -3.7779  -3.5742
    -3.5204  -3.3248  -3.2494  -3.1464  -3.1024  -3.0833  -3.0772  -3.0092
    -2.8697  -2.7735  -2.7647  -2.7510  -2.7285  -2.7172  -2.7079  -2.6917
    -2.6864  -2.6416  -2.5675  -2.5011  -2.4365  -2.3763  -2.3255  -2.2459
    -2.2321  -2.2170  -2.2058  -2.2002  -2.1646  -2.1571  -2.1464  -2.0182
    -1.9948  -1.9061  -1.7836  -1.7627  -1.6472  -1.5670  -1.5483  -1.4190
    -1.3829  -1.3495  -1.3163  -1.2705  -1.2369  -1.2266  -1.1518  -1.1101
    -1.0142  -0.9782  -0.8789  -0.8337  -0.8286  -0.7676  -0.6906  -0.6794
    -0.6654  -0.5262  -0.4395  -0.4301  -0.4263  -0.3427  -0.2874  -0.2348
    -0.1875  -0.1793  -0.1602  -0.1213  -0.0934   0.0049   0.0145   0.0481
     0.0619   0.1001   0.1910   0.2592   0.2721   0.3315   0.3471   0.5578
     0.5693   0.5925   0.7176   0.7649   1.0126   1.0977   1.1237   1.2852
     1.6780   1.7329   3.1501   3.2383   3.2543   3.2910   3.3553   3.4007
     3.5537   3.6058   3.6502   3.6772   3.7019

[...]

          k = 0.0380-0.0419 0.0000 ( 17876 PWs)   bands (ev):

[...]

          k =-0.0760-0.0000 0.0000 ( 17886 PWs)   bands (ev):

[...]

          k =-0.0760-0.0839 0.0000 ( 17948 PWs)   bands (ev):

   -55.9459 -55.9291 -55.9278 -55.9222 -55.8605 -55.8146 -55.8069 -55.7998
   -55.7285 -55.6904 -55.6898 -55.6194 -55.5634 -55.5019 -54.9070 -54.9060
   -32.3156 -32.3114 -32.2479 -32.2477 -32.2387 -32.2300 -32.2133 -32.2126
   -32.1558 -32.1529 -32.1474 -32.1405 -32.1237 -32.0978 -32.0790 -32.0716
   -32.0676 -32.0654 -32.0628 -32.0602 -32.0479 -32.0285 -32.0222 -32.0146
   -32.0126 -32.0095 -32.0071 -32.0035 -31.9546 -31.9316 -31.9277 -31.9274
   -31.9126 -31.8998 -31.8956 -31.8887 -31.8451 -31.8183 -31.8147 -31.7348
   -31.7202 -31.6572 -31.2313 -31.2300 -31.1450 -31.1441 -31.1055 -31.1043
   -18.0654 -16.1508 -16.1227 -15.9728 -15.8818 -15.8706 -15.8256 -15.7667
   -15.7380 -15.6817 -15.6492 -15.6307 -15.6138 -15.5969 -15.5722 -15.5240
   -15.4743 -15.4684 -15.4586 -15.4433 -15.3929 -15.3834 -15.3583 -15.3497
   -15.3272 -15.2623 -15.2406 -15.1947 -15.1151 -14.9922 -13.4131 -13.4094
   -10.3319  -6.6421  -3.4367  -3.4039  -3.3174  -3.2067  -3.0968  -3.0923
    -3.0133  -2.9502  -2.9105  -2.8621  -2.8183  -2.7942  -2.7624  -2.7584
    -2.7507  -2.7388  -2.7299  -2.6979  -2.6853  -2.6806  -2.6448  -2.6294
    -2.6086  -2.6015  -2.5607  -2.5490  -2.5343  -2.4915  -2.4884  -2.4831
    -2.4783  -2.2871  -2.2472  -2.2005  -2.1495  -2.0705  -2.0543  -2.0407
    -2.0003  -1.9854  -1.9747  -1.9067  -1.8120  -1.6937  -1.6581  -1.6352
    -1.6222  -1.5806  -1.4045  -1.3728  -1.3577  -1.3348  -1.3029  -1.2505
    -1.2187  -1.1996  -1.1043  -1.0840  -1.0407  -0.9666  -0.9111  -0.8910
    -0.8602  -0.8227  -0.7783  -0.7393  -0.6973  -0.6820  -0.6171  -0.5684
    -0.5236  -0.5041  -0.4857  -0.4013  -0.3231  -0.2983  -0.0957   0.0374
     0.0709   0.0837   0.2202   0.2364   0.2729   0.3441   0.3776   0.4201
     0.4785   0.5864   0.5874   0.6026   0.6171   0.6674   1.4590   1.4636
     1.5381   1.5501   3.2140   3.3988   3.4420   3.4817   3.5427   3.6859
     3.7100   3.7115   3.7345   3.7888   3.8555

     the Fermi energy is     3.1951 ev

!    total energy              =   -2926.39979757 Ry
     estimated scf accuracy    <       0.00000005 Ry
     smearing contrib. (-TS)   =      -0.03279920 Ry
     internal energy E=F+TS    =   -2926.36699837 Ry

     The total energy is F=E-TS. E is the sum of the following terms:
     one-electron contribution =  -24581.12641652 Ry
     hartree contribution      =   12374.71520649 Ry
     xc contribution           =    -480.79128189 Ry
     ewald contribution        =    9760.83432339 Ry
     electric field correction =       0.00117016 Ry

     convergence has been achieved in  94 iterations

     Forces acting on atoms (cartesian axes, Ry/au):

     atom    1 type  1   force =     0.00019158    0.00160790    0.10331821
     atom    2 type  1   force =     0.00006935   -0.00227475   -0.17661076
     atom    3 type  2   force =     0.00018130    0.00648411   -0.03460432
     atom    4 type  2   force =    -0.00004587   -0.00102648    0.05241936
     atom    5 type  2   force =    -0.01731967   -0.00087324    0.00517043
     atom    6 type  2   force =     0.01633478   -0.00066728    0.00403199
     atom    7 type  1   force =     0.00051730    0.00280144   -0.00771513
     atom    8 type  1   force =    -0.00011645   -0.00004241    0.00048170
     atom    9 type  2   force =     0.00013705   -0.00018771   -0.00050870
     atom   10 type  2   force =     0.00007032   -0.00015229   -0.00039533
     atom   11 type  2   force =     0.00025497    0.00017070    0.00031767
     atom   12 type  2   force =     0.00017352    0.00030659    0.00020136
     atom   13 type  1   force =    -0.00041800    0.00068744   -0.00078762
     atom   14 type  1   force =    -0.00039157   -0.00004883   -0.00101151
     atom   15 type  2   force =     0.00000659    0.00078912    0.00012280
     atom   16 type  2   force =     0.00004651   -0.00015535    0.00086251
     atom   17 type  2   force =     0.00026585    0.00037860    0.00031350
     atom   18 type  2   force =    -0.00040176    0.00027431    0.00005485
     atom   19 type  1   force =     0.00006952   -0.00049069    0.00053188
     atom   20 type  1   force =    -0.00009828   -0.00140690    0.00020964
     atom   21 type  2   force =     0.00013201   -0.00007623    0.10331738
     atom   22 type  2   force =    -0.00029995    0.00023642    0.00136343
     atom   23 type  2   force =    -0.07028206    0.00113273   -0.02965528
     atom   24 type  2   force =     0.07027393    0.00156236   -0.02966371
     atom   25 type  1   force =     0.00010301   -0.00166305    0.11618313
     atom   26 type  1   force =    -0.00002192    0.00128381   -0.17609174
     atom   27 type  2   force =     0.00011125   -0.00260223   -0.02894407
     atom   28 type  2   force =    -0.00004063   -0.00141450    0.05147280
     atom   29 type  2   force =    -0.01883840    0.00097873    0.00643489
     atom   30 type  2   force =     0.01784305    0.00162353    0.00535155
     atom   31 type  1   force =     0.00052105   -0.00134131   -0.01367584
     atom   32 type  1   force =    -0.00009920   -0.00101248    0.00066965
     atom   33 type  2   force =     0.00007331   -0.00014494   -0.00046372
     atom   34 type  2   force =     0.00008797   -0.00065110    0.00084863
     atom   35 type  2   force =     0.00038165   -0.00019468    0.00041054
     atom   36 type  2   force =     0.00007299   -0.00015034    0.00030603
     atom   37 type  1   force =    -0.00015176    0.00023267   -0.00002941
     atom   38 type  1   force =    -0.00051573   -0.00054287   -0.00079098
     atom   39 type  2   force =    -0.00033497   -0.00049774    0.00092611
     atom   40 type  2   force =     0.00011042   -0.00014690    0.00149291
     atom   41 type  2   force =     0.00038206   -0.00046852    0.00026847
     atom   42 type  2   force =    -0.00071409   -0.00017186   -0.00017440
     atom   43 type  1   force =     0.00016971    0.00021853    0.00008898
     atom   44 type  1   force =    -0.00001567    0.00141448    0.00057370
     atom   45 type  2   force =     0.00012309   -0.00004329    0.10350965
     atom   46 type  2   force =    -0.07071593   -0.00147253   -0.02962159
     atom   47 type  2   force =     0.07069562   -0.00103884   -0.02965418
     atom   48 type  3   force =    -0.00363565   -0.00230628    0.00413292
     atom   49 type  4   force =     0.00541390    0.00289837   -0.00624268
     atom   50 type  4   force =     0.00028357   -0.00053333    0.00095961
     atom   51 type  3   force =    -0.00063967   -0.00128290    0.00029470

     Total force =     0.374713     Total SCF correction =     0.000636
  @ DRIVER MODE: Message from server: STATUS
  @ DRIVER MODE: Message from server: GETFORCE
  @ DRIVER MODE: Returning v,forces,stress,ensemble

     Writing output data file ./calc.save/
  @ DRIVER MODE: Message from server: EXIT
  @ DRIVE MODE: Exiting

     General routines

     Parallel routines

   This run was terminated on:  10: 3:50  12Oct2021

   JOB DONE.