     Program PWSCF v.6.7GPU starts on 15Sep2021 at 20:34:49

     R & G space division:  proc/nbgrp/npool/nimage =      10
     Reading input from /storage/home/hcoda1/3/ntian30/research/carbon/CxH_vib/H2O_calc/ads_slab/CHN2H2O_c/out_0016/pw.inp
Warning: card &CELL ignored
Warning: card   CELL_DYNAMICS='IPI', ignored
Warning: card / ignored

     Current dimensions of program PWSCF are:
     Max number of different atomic species (ntypx) = 10
     Max number of k-points (npk) =  40000
     Max angular momentum in pseudopotentials (lmaxx) =  3
     Presently no symmetry can be used with electric field

     Message from routine cell_base_init:
     DEPRECATED: use true lattice parameter, not A to a.u. conversion factor

     IMPORTANT: XC functional enforced from input :
     Exchange-correlation= BEEF-VDW
                           (   1   4  43  14   2   0   0)
     Any further DFT definition will be discarded
     Please, verify this is what you really want

  @ DRIVER MODE: Connecting to
 qe_1139763_2852625.sched-torque.pace.gatech.edugnvt6i9__scratch
  using UNIX socket
  @ DRIVER MODE: Message from server: STATUS
  @ DRIVER MODE: Message from server: INIT
  @ DRIVER MODE: Receiving replica           0          -1
  @ DRIVER MODE: Receiving encoded integer          25
  @ DRIVER MODE:  SCF:  T  FORCE:  T  STRESS:  F  VC:  F  ENSEMBLE:  F
  @ DRIVER MODE:  SCF:  T  FORCE:  T  STRESS:  F  VC:  F  ENSEMBLE:  F

     Using Slab Decomposition

     bravais-lattice index     =            0
     lattice parameter (alat)  =       1.8897  a.u.
     unit-cell volume          =    6658.9804 (a.u.)^3
     number of atoms/cell      =           54
     number of atomic types    =            5
     number of electrons       =       401.00
     number of Kohn-Sham states=          210
     kinetic-energy cutoff     =      29.3995  Ry
     charge density cutoff     =     293.9946  Ry
     scf convergence threshold =      7.3E-08
     mixing beta               =       0.0500
     number of iterations used =            8  plain     mixing
     Exchange-correlation= BEEF-VDW
                           (   1   4  43  14   2   0   0)

     celldm(1)=   1.889726  celldm(2)=   0.000000  celldm(3)=   0.000000
     celldm(4)=   0.000000  celldm(5)=   0.000000  celldm(6)=   0.000000

     crystal axes: (cart. coord. in units of alat)
               a(1) = (   6.579727   0.000000   0.000000 )
               a(2) = (  -0.000775   5.961596   0.000000 )
               a(3) = (   0.000000   0.000000  25.155947 )

     reciprocal axes: (cart. coord. in units 2 pi/alat)
               b(1) = (  0.151982  0.000020  0.000000 )
               b(2) = (  0.000000  0.167740  0.000000 )
               b(3) = (  0.000000  0.000000  0.039752 )

     PseudoPot. # 1 for Ti read from file:
     /storage/coda1/p-amedford6/0/shared/rich_project_chbe-medford/medford-share/data/pseudos_module/espresso/nninc/pbe/van/Ti.UPF
     MD5 check sum: 8e4df49b7f0d34bbd5052bf3f5ea0213
     Pseudo is Ultrasoft, Zval = 12.0
     Generated by new atomic code, or converted to UPF format
     Using radial grid of  851 points,  6 beta functions with:
                l(1) =   0
                l(2) =   0
                l(3) =   1
                l(4) =   1
                l(5) =   2
                l(6) =   2
     Q(r) pseudized with  8 coefficients,  rinner =    1.000   1.000   1.000
                                                       1.000   1.000

     PseudoPot. # 2 for O  read from file:
     /storage/coda1/p-amedford6/0/shared/rich_project_chbe-medford/medford-share/data/pseudos_module/espresso/nninc/pbe/van/O.UPF
     MD5 check sum: 78c19812648e8988a0fe644b0f25305e
     Pseudo is Ultrasoft, Zval =  6.0
     Generated by new atomic code, or converted to UPF format
     Using radial grid of  737 points,  4 beta functions with:
                l(1) =   0
                l(2) =   0
                l(3) =   1
                l(4) =   1
     Q(r) pseudized with  8 coefficients,  rinner =    0.800   0.800   0.800

     PseudoPot. # 3 for C  read from file:
     /storage/coda1/p-amedford6/0/shared/rich_project_chbe-medford/medford-share/data/pseudos_module/espresso/nninc/pbe/van/C.UPF
     MD5 check sum: 1a69bf6b8db32088f5b2163dbdb77a27
     Pseudo is Ultrasoft, Zval =  4.0
     Generated by new atomic code, or converted to UPF format
     Using radial grid of  721 points,  4 beta functions with:
                l(1) =   0
                l(2) =   0
                l(3) =   1
                l(4) =   1
     Q(r) pseudized with  8 coefficients,  rinner =    0.800   0.800   0.800

     PseudoPot. # 4 for H  read from file:
     /storage/coda1/p-amedford6/0/shared/rich_project_chbe-medford/medford-share/data/pseudos_module/espresso/nninc/pbe/van/H.UPF
     MD5 check sum: b5ee9d7bfd3a09ee7748110bda690ff7
     Pseudo is Ultrasoft, Zval =  1.0
     Generated by new atomic code, or converted to UPF format
     Using radial grid of  615 points,  1 beta functions with:
                l(1) =   0
     Q(r) pseudized with  8 coefficients,  rinner =    0.800

     PseudoPot. # 5 for N  read from file:
     /storage/coda1/p-amedford6/0/shared/rich_project_chbe-medford/medford-share/data/pseudos_module/espresso/nninc/pbe/van/N.UPF
     MD5 check sum: 90d10febe142ad51ac9d5be1deb811c4
     Pseudo is Ultrasoft, Zval =  5.0
     Generated by new atomic code, or converted to UPF format
     Using radial grid of  729 points,  4 beta functions with:
                l(1) =   0
                l(2) =   0
                l(3) =   1
                l(4) =   1
     Q(r) pseudized with  8 coefficients,  rinner =    0.800   0.800   0.800

     atomic species   valence    mass     pseudopotential
        Ti1           12.00    47.86700     Ti( 1.00)
        O1             6.00    15.99900     O ( 1.00)
        C1             4.00    12.01100     C ( 1.00)
        H1             1.00     1.00800     H ( 1.00)
        N1             5.00    14.00700     N ( 1.00)

     No symmetry found

   Cartesian axes

     site n.     atom                  positions (alat units)
         1           Ti1 tau(   1) = (   0.0004258   2.9801865   6.0000000  )
         2           Ti1 tau(   2) = (   3.2906075   1.4906267   6.0002472  )
         3           O1  tau(   3) = (   0.0006271   0.0005054   7.9858123  )
         4           O1  tau(   4) = (   3.2906025   0.0005020   7.3038282  )
         5           O1  tau(   5) = (   4.5942328   1.4918067   9.2879030  )
         6           O1  tau(   6) = (   1.9868534   1.4903216   9.2879459  )
         7           Ti1 tau(   7) = (   3.2907910   2.8959150   9.1758416  )
         8           Ti1 tau(   8) = (   0.0015273   1.4827037   9.2680791  )
         9           O1  tau(   9) = (   3.2982821   5.9591942  11.3418950  )
        10           O1  tau(  10) = (   0.0116148   5.9584955  10.6183126  )
        11           O1  tau(  11) = (   1.2990089   1.4837789  12.6285733  )
        12           O1  tau(  12) = (   5.2904647   1.4888503  12.6163117  )
        13           Ti1 tau(  13) = (   0.0603338   2.9457994  12.6026339  )
        14           Ti1 tau(  14) = (   3.3706290   1.4705258  12.5092779  )
        15           O1  tau(  15) = (   6.5788109   0.0160518  14.6499261  )
        16           O1  tau(  16) = (   3.3158691   0.0087694  13.9605792  )
        17           O1  tau(  17) = (   4.5613999   1.5213109  16.0555727  )
        18           O1  tau(  18) = (   2.0390476   1.5587733  16.0026688  )
        19           Ti1 tau(  19) = (   3.2958454   3.0042652  15.6812246  )
        20           Ti1 tau(  20) = (   0.0477533   1.5223793  15.8108347  )
        21           O1  tau(  21) = (   3.2904802   0.0005063   4.7018136  )
        22           O1  tau(  22) = (   0.0778492   0.0082781  17.2116806  )
        23           O1  tau(  23) = (   1.3043587   1.4918075   6.0039043  )
        24           O1  tau(  24) = (   5.2767064   1.4903225   6.0039473  )
        25           Ti1 tau(  25) = (   0.0000382   5.9609847   6.0000000  )
        26           Ti1 tau(  26) = (   3.2902200   4.4714249   6.0002472  )
        27           O1  tau(  27) = (   0.0002396   2.9813036   7.9858123  )
        28           O1  tau(  28) = (   3.2902150   2.9813002   7.3038282  )
        29           O1  tau(  29) = (   4.5938453   4.4726049   9.2879030  )
        30           O1  tau(  30) = (   1.9864658   4.4711199   9.2879459  )
        31           Ti1 tau(  31) = (   3.2891106   5.8743827   9.1763621  )
        32           Ti1 tau(  32) = (   0.0006254   4.4649316   9.2693709  )
        33           O1  tau(  33) = (   3.3003553   2.9806904  11.3444413  )
        34           O1  tau(  34) = (   0.0092240   2.9805883  10.6323155  )
        35           O1  tau(  35) = (   1.2971990   4.4717445  12.6361083  )
        36           O1  tau(  36) = (   5.2938362   4.4783115  12.6231241  )
        37           Ti1 tau(  37) = (   0.0537182   5.9220384  12.5388396  )
        38           Ti1 tau(  38) = (   3.3696634   4.4695314  12.5002334  )
        39           O1  tau(  39) = (   0.0023790   2.9538485  14.6690360  )
        40           O1  tau(  40) = (   3.3142834   2.9899978  13.8932647  )
        41           O1  tau(  41) = (   4.5682027   4.4688565  16.0600133  )
        42           O1  tau(  42) = (   2.0418658   4.4415600  16.0251682  )
        43           Ti1 tau(  43) = (   3.3511655   0.0130708  15.8150828  )
        44           Ti1 tau(  44) = (   0.0311020   4.6533438  16.0685068  )
        45           O1  tau(  45) = (   3.2900926   2.9813045   4.7018136  )
        46           O1  tau(  46) = (   1.3039711   4.4726057   6.0039043  )
        47           O1  tau(  47) = (   5.2763189   4.4711207   6.0039473  )
        48           C1  tau(  48) = (   0.0453995   2.9433715  17.6444507  )
        49           H1  tau(  49) = (   0.9770157   2.9292850  18.2072415  )
        50           N1  tau(  50) = (   5.5932985   2.7972967  18.4085793  )
        51           N1  tau(  51) = (   4.6087457   2.6299947  18.9712495  )
        52           O1  tau(  52) = (   3.0556172   5.9408547  18.1262901  )
        53           H1  tau(  53) = (   3.4776725   0.7204629  18.5958315  )
        54           H1  tau(  54) = (   2.0935776   0.0631959  18.2589326  )

     number of k points=    10  Fermi-Dirac smearing, width (Ry)=  0.0073
                       cart. coord. in units 2pi/alat
        k(    1) = (   0.0000000   0.0000000   0.0000000), wk =   0.1250000
        k(    2) = (   0.0000000   0.0419351   0.0000000), wk =   0.2500000
        k(    3) = (   0.0000000  -0.0838702   0.0000000), wk =   0.1250000
        k(    4) = (   0.0379955   0.0000049   0.0000000), wk =   0.2500000
        k(    5) = (   0.0379955   0.0419400   0.0000000), wk =   0.2500000
        k(    6) = (   0.0379955  -0.0838652   0.0000000), wk =   0.2500000
        k(    7) = (   0.0379955  -0.0419301   0.0000000), wk =   0.2500000
        k(    8) = (  -0.0759910  -0.0000099   0.0000000), wk =   0.1250000
        k(    9) = (  -0.0759910   0.0419252   0.0000000), wk =   0.2500000
        k(   10) = (  -0.0759910  -0.0838800   0.0000000), wk =   0.1250000

     Initial potential from superposition of free atoms

     starting charge  384.99916, renormalised to  401.00000

     negative rho (up, down):  1.776E-02 0.000E+00

     %%%%%%%%%%%%%%%%%%%%%%%%%%%%%%%%%%%%%%%%%%%%%%%%%%%%%%%%%%%%%%%%%%%%%%%%
     %                                                                      %
     % You are using vdW-DF, which was implemented by the Thonhauser group. %
     % Please cite the following two papers that made this development      %
     % possible and the two reviews that describe the various versions:     %
     %                                                                      %
     %   T. Thonhauser et al., PRL 115, 136402 (2015).                      %
     %   T. Thonhauser et al., PRB 76, 125112 (2007).                       %
     %   K. Berland et al., Rep. Prog. Phys. 78, 066501 (2015).             %
     %   D.C. Langreth et al., J. Phys.: Condens. Matter 21, 084203 (2009). %
     %                                                                      %
     %                                                                      %
     % If you are calculating the stress with vdW-DF, please also cite:     %
     %                                                                      %
     %   R. Sabatini et al., J. Phys.: Condens. Matter 24, 424209 (2012).   %
     %                                                                      %
     %%%%%%%%%%%%%%%%%%%%%%%%%%%%%%%%%%%%%%%%%%%%%%%%%%%%%%%%%%%%%%%%%%%%%%%%

     Adding external electric field

     Computed dipole along edir(3) :
        Dipole              -11.5984 Ry au,        -29.4801 Debye
        Dipole field         -0.0219 Ry au,

        Potential amp.        2.0290 Ry
        Total length         46.3494 bohr

     Starting wfcs are  303 atomic wfcs
  @ DRIVER MODE: Message from server: STATUS
  @ DRIVER MODE: Message from server: POSDATA
  @ DRIVER MODE: Reading and sharing cell
  @ DRIVER MODE: Reading and sharing positions
  @ DRIVER MODE: Received positions

     Self-consistent Calculation

     iteration #  1     ecut=    29.40 Ry     beta= 0.05
     Davidson diagonalization with overlap
     c_bands:  3 eigenvalues not converged
     c_bands:  1 eigenvalues not converged
     c_bands:  3 eigenvalues not converged
     c_bands:  3 eigenvalues not converged
     c_bands:  5 eigenvalues not converged
     c_bands:  2 eigenvalues not converged
     c_bands:  3 eigenvalues not converged
     c_bands:  1 eigenvalues not converged
     c_bands:  5 eigenvalues not converged
     ethr =  1.00E-05,  avg # of iterations = 23.5

[...]

     total energy              =   -2415.41803687 Ry
     estimated scf accuracy    <    6267.21859980 Ry

     iteration #  2     ecut=    29.40 Ry     beta= 0.05
     Davidson diagonalization with overlap
     ethr =  1.00E-02,  avg # of iterations = 31.3

[...]

     iteration # 74     ecut=    29.40 Ry     beta= 0.05
     Davidson diagonalization with overlap
     c_bands:  1 eigenvalues not converged
     ethr =  4.92E-11,  avg # of iterations = 14.3

[...]

     total energy              =   -2971.50211979 Ry
     estimated scf accuracy    <       0.00000022 Ry

     iteration # 75     ecut=    29.40 Ry     beta= 0.05
     Davidson diagonalization with overlap
     ethr =  4.92E-11,  avg # of iterations =  9.0

     negative rho (up, down):  1.755E-02 0.000E+00

     Adding external electric field

     Computed dipole along edir(3) :
        Dipole                0.5760 Ry au,          1.4639 Debye
        Dipole field          0.0011 Ry au,

        Potential amp.       -0.1008 Ry
        Total length         46.3494 bohr

     End of self-consistent calculation

          k = 0.0000 0.0000 0.0000 ( 18029 PWs)   bands (ev):

   -55.8828 -55.8487 -55.8480 -55.8424 -55.8115 -55.7257 -55.6965 -55.6883
   -55.6627 -55.6624 -55.6529 -55.6289 -55.4153 -55.2227 -54.8645 -54.8305
   -32.3907 -32.3663 -32.2482 -32.2209 -32.1953 -32.1752 -32.1525 -32.1460
   -32.1264 -32.0738 -32.0686 -32.0663 -32.0352 -32.0283 -32.0233 -31.9974
   -31.9881 -31.9800 -31.9730 -31.9453 -31.9401 -31.9222 -31.9010 -31.8901
   -31.8872 -31.8755 -31.8750 -31.8611 -31.8546 -31.8497 -31.8384 -31.8355
   -31.8308 -31.8264 -31.8158 -31.8040 -31.7746 -31.6636 -31.6300 -31.4826
   -31.4676 -31.4358 -31.2717 -31.1831 -31.1607 -31.0884 -31.0019 -30.8909
   -20.4750 -18.7834 -16.5850 -16.3549 -16.1307 -16.0400 -15.9949 -15.7847
   -15.6756 -15.6200 -15.4963 -15.4333 -15.4244 -15.4169 -15.3959 -15.3856
   -15.3292 -15.3191 -15.3067 -15.3009 -15.2730 -15.2364 -15.2204 -15.2191
   -15.1476 -15.0441 -15.0234 -15.0003 -14.9981 -14.9401 -14.4996 -13.6158
   -13.3664 -13.2499  -6.6227  -5.8302  -4.7020  -4.4749  -3.9587  -3.8249
    -3.7897  -3.7519  -3.7173  -3.5221  -3.4836  -3.3770  -3.2286  -3.1320
    -3.0627  -3.0281  -2.9736  -2.8967  -2.8282  -2.7657  -2.7304  -2.6883
    -2.6788  -2.6430  -2.6366  -2.6187  -2.5977  -2.4985  -2.4626  -2.4149
    -2.3500  -2.2481  -2.2279  -2.1966  -2.1906  -2.1555  -2.1478  -2.1265
    -2.1093  -2.0997  -2.0242  -1.9282  -1.8788  -1.7864  -1.6741  -1.5368
    -1.5328  -1.4893  -1.3614  -1.3481  -1.3180  -1.2914  -1.2762  -1.2320
    -1.1445  -1.0881  -1.0420  -0.9787  -0.9055  -0.8163  -0.7737  -0.7226
    -0.6583  -0.6416  -0.6338  -0.6146  -0.5771  -0.4697  -0.4472  -0.3695
    -0.3672  -0.2815  -0.2504  -0.1899  -0.1594  -0.1214  -0.0826  -0.0090
     0.0112   0.0364   0.0542   0.0816   0.0899   0.1318   0.1646   0.1690
     0.3646   0.3904   0.4492   0.4591   0.5198   0.6403   0.6585   0.7727
     0.8899   1.0852   1.1582   1.2517   1.3500   1.7295   1.7754   1.7826
     3.2407   3.3385   3.3771   3.3862   3.4735   3.4853   3.7019   3.7480
     3.7557   3.8101

[...]

          k = 0.0380-0.0419 0.0000 ( 17876 PWs)   bands (ev):

[...]

          k =-0.0760-0.0000 0.0000 ( 17886 PWs)   bands (ev):

[...]

          k =-0.0760-0.0839 0.0000 ( 17948 PWs)   bands (ev):

   -55.8661 -55.8653 -55.8413 -55.8326 -55.8262 -55.7144 -55.6996 -55.6799
   -55.6785 -55.6543 -55.6476 -55.6441 -55.4139 -55.2239 -54.8475 -54.8473
   -32.2076 -32.1853 -32.1818 -32.1813 -32.1609 -32.1602 -32.1321 -32.1051
   -32.0927 -32.0653 -32.0573 -32.0524 -32.0390 -32.0087 -32.0008 -31.9941
   -31.9865 -31.9862 -31.9857 -31.9844 -31.9823 -31.9801 -31.9611 -31.9280
   -31.9158 -31.9109 -31.9031 -31.8817 -31.8811 -31.8777 -31.8705 -31.8628
   -31.8590 -31.8553 -31.8526 -31.8501 -31.7874 -31.6670 -31.6233 -31.5399
   -31.4849 -31.4588 -31.1734 -31.1733 -31.0846 -31.0844 -31.0453 -31.0452
   -20.4743 -18.7825 -16.0456 -15.9293 -15.8479 -15.8071 -15.7391 -15.7032
   -15.6560 -15.5915 -15.5616 -15.5583 -15.5036 -15.4872 -15.4469 -15.4326
   -15.4081 -15.4018 -15.3860 -15.3377 -15.3257 -15.3173 -15.3084 -15.3048
   -15.2644 -15.2298 -15.2047 -15.2003 -15.0943 -14.9637 -14.6742 -13.6245
   -13.3518 -13.3516  -6.6206  -5.8251  -4.6608  -4.4483  -3.6233  -3.3295
    -3.3193  -3.1058  -3.0483  -2.9932  -2.9852  -2.9423  -2.8197  -2.7919
    -2.7435  -2.7351  -2.6965  -2.6911  -2.6861  -2.6664  -2.6329  -2.6135
    -2.6082  -2.5573  -2.5516  -2.5446  -2.5271  -2.5165  -2.5091  -2.4845
    -2.4572  -2.4420  -2.4250  -2.3952  -2.3120  -2.2816  -2.1146  -2.0732
    -2.0255  -2.0171  -1.9861  -1.9652  -1.9537  -1.9323  -1.8886  -1.7309
    -1.6532  -1.5859  -1.5754  -1.5656  -1.4908  -1.4743  -1.3629  -1.3257
    -1.2929  -1.2584  -1.1839  -1.1061  -1.0978  -1.0761  -0.9718  -0.9644
    -0.9305  -0.8869  -0.8486  -0.8376  -0.8289  -0.7508  -0.6951  -0.6235
    -0.6173  -0.5930  -0.5801  -0.5536  -0.5286  -0.4343  -0.3676  -0.3111
    -0.2772  -0.1900  -0.1606   0.0617   0.0852   0.1938   0.2070   0.2750
     0.3162   0.4248   0.4330   0.4812   0.5040   0.5294   0.5912   0.6571
     0.6669   0.6939   0.8120   1.5214   1.5227   1.5950   1.5954   1.6969
     3.5599   3.5917   3.6244   3.6342   3.7438   3.7644   3.7844   3.7870
     3.9030   3.9241

     the Fermi energy is     3.2486 ev

!    total energy              =   -2971.50213448 Ry
     estimated scf accuracy    <       0.00000006 Ry
     smearing contrib. (-TS)   =      -0.02121185 Ry
     internal energy E=F+TS    =   -2971.48092263 Ry

     The total energy is F=E-TS. E is the sum of the following terms:
     one-electron contribution =  -24213.84991700 Ry
     hartree contribution      =   12197.58621206 Ry
     xc contribution           =    -492.39380910 Ry
     ewald contribution        =    9537.17596538 Ry
     electric field correction =       0.00062602 Ry

     convergence has been achieved in  75 iterations

     Forces acting on atoms (cartesian axes, Ry/au):

     atom    1 type  1   force =     0.00019403   -0.00030524    0.09588026
     atom    2 type  1   force =    -0.00004583   -0.00048367   -0.17569790
     atom    3 type  2   force =     0.00007356   -0.00014827   -0.02407758
     atom    4 type  2   force =     0.00005987   -0.00155754    0.05356668
     atom    5 type  2   force =    -0.01129449   -0.00084847    0.00336771
     atom    6 type  2   force =     0.01316989   -0.00018304    0.00285788
     atom    7 type  1   force =    -0.00059272    0.00052713   -0.00602713
     atom    8 type  1   force =     0.00022440    0.00883751    0.02326116
     atom    9 type  2   force =    -0.00020797    0.00013561   -0.00009234
     atom   10 type  2   force =    -0.00059677    0.00120251   -0.01587755
     atom   11 type  2   force =    -0.00018057    0.00013821   -0.00003333
     atom   12 type  2   force =    -0.00019001   -0.00008180   -0.00016203
     atom   13 type  1   force =    -0.00000144    0.00057568    0.00017992
     atom   14 type  1   force =    -0.00005713    0.00003221   -0.00002135
     atom   15 type  2   force =    -0.00024494    0.00004377   -0.00010637
     atom   16 type  2   force =    -0.00022339    0.00024561   -0.00011817
     atom   17 type  2   force =    -0.00023326    0.00000745    0.00018219
     atom   18 type  2   force =    -0.00057932    0.00024845   -0.00000314
     atom   19 type  1   force =    -0.00009521   -0.00029549   -0.00006639
     atom   20 type  1   force =    -0.00038091   -0.00057343    0.00014572
     atom   21 type  2   force =     0.00006370   -0.00004526    0.10322628
     atom   22 type  2   force =     0.00017365    0.00028829   -0.00019064
     atom   23 type  2   force =    -0.07146316   -0.00012212   -0.02769228
     atom   24 type  2   force =     0.07144869    0.00030192   -0.02772604
     atom   25 type  1   force =     0.00002232   -0.00025556    0.09565848
     atom   26 type  1   force =    -0.00015647   -0.00035851   -0.17585562
     atom   27 type  2   force =     0.00010333   -0.00020184   -0.02308392
     atom   28 type  2   force =     0.00012574   -0.00122021    0.05308281
     atom   29 type  2   force =    -0.01154403    0.00062297    0.00328179
     atom   30 type  2   force =     0.01328640    0.00093104    0.00278423
     atom   31 type  1   force =    -0.00047484    0.00378721   -0.01062682
     atom   32 type  1   force =     0.00008141   -0.01101173    0.02365930
     atom   33 type  2   force =     0.00011326   -0.00003466    0.00002636
     atom   34 type  2   force =     0.00008089    0.00062118   -0.02081254
     atom   35 type  2   force =    -0.00019520   -0.00022524    0.00001684
     atom   36 type  2   force =    -0.00038008    0.00001560   -0.00008154
     atom   37 type  1   force =     0.00032638   -0.00051883   -0.00006949
     atom   38 type  1   force =     0.00001052    0.00000460   -0.00018223
     atom   39 type  2   force =    -0.00035509    0.00001376    0.00003694
     atom   40 type  2   force =     0.00003409   -0.00016179   -0.00030358
     atom   41 type  2   force =    -0.00030015   -0.00019368   -0.00005857
     atom   42 type  2   force =     0.00012029   -0.00002802   -0.00012265
     atom   43 type  1   force =     0.00028430   -0.00046965   -0.00000691
     atom   44 type  1   force =    -0.00004115   -0.00022443    0.00017589
     atom   45 type  2   force =     0.00006439   -0.00008412    0.10321028
     atom   46 type  2   force =    -0.07147374   -0.00010721   -0.02771696
     atom   47 type  2   force =     0.07147492    0.00032934   -0.02774413
     atom   48 type  3   force =     0.00128338    0.00204346   -0.00052211
     atom   49 type  4   force =     0.00033379    0.00047801    0.00014772
     atom   50 type  5   force =    -0.00507202   -0.00501374    0.00324763
     atom   51 type  5   force =     0.00338044    0.00315226   -0.00258706
     atom   52 type  2   force =    -0.00064067    0.00001532   -0.00019867
     atom   53 type  4   force =     0.00027681    0.00006193    0.00048741
     atom   54 type  4   force =     0.00021011    0.00009253   -0.00061844

     Total force =     0.366957     Total SCF correction =     0.000618
  @ DRIVER MODE: Message from server: STATUS
  @ DRIVER MODE: Message from server: GETFORCE
  @ DRIVER MODE: Returning v,forces,stress,ensemble

     Writing output data file ./calc.save/
  @ DRIVER MODE: Message from server: EXIT
  @ DRIVE MODE: Exiting

     General routines

     Parallel routines

   This run was terminated on:  20:54:18  15Sep2021

   JOB DONE.