     Program PWSCF v.6.7GPU starts on 14Sep2021 at 17:39: 0

     R & G space division:  proc/nbgrp/npool/nimage =      10
     Reading input from /storage/home/hcoda1/3/ntian30/research/carbon/CxH_vib/CH2_calc/ads_slab/CH2ON2_b/out_0012/pw.inp
Warning: card &CELL ignored
Warning: card   CELL_DYNAMICS='IPI', ignored
Warning: card / ignored

     Current dimensions of program PWSCF are:
     Max number of different atomic species (ntypx) = 10
     Max number of k-points (npk) =  40000
     Max angular momentum in pseudopotentials (lmaxx) =  3
     Presently no symmetry can be used with electric field

     Message from routine cell_base_init:
     DEPRECATED: use true lattice parameter, not A to a.u. conversion factor

     IMPORTANT: XC functional enforced from input :
     Exchange-correlation= BEEF-VDW
                           (   1   4  43  14   2   0   0)
     Any further DFT definition will be discarded
     Please, verify this is what you really want

  @ DRIVER MODE: Connecting to
 qe_1139763_2840441.sched-torque.pace.gatech.edujd9l5s_m_scratch
  using UNIX socket
  @ DRIVER MODE: Message from server: STATUS
  @ DRIVER MODE: Message from server: INIT
  @ DRIVER MODE: Receiving replica           0          -1
  @ DRIVER MODE: Receiving encoded integer          25
  @ DRIVER MODE:  SCF:  T  FORCE:  T  STRESS:  F  VC:  F  ENSEMBLE:  F
  @ DRIVER MODE:  SCF:  T  FORCE:  T  STRESS:  F  VC:  F  ENSEMBLE:  F

     Using Slab Decomposition

     bravais-lattice index     =            0
     lattice parameter (alat)  =       1.8897  a.u.
     unit-cell volume          =    6658.9804 (a.u.)^3
     number of atoms/cell      =           53
     number of atomic types    =            5
     number of electrons       =       400.00
     number of Kohn-Sham states=          210
     kinetic-energy cutoff     =      29.3995  Ry
     charge density cutoff     =     293.9946  Ry
     scf convergence threshold =      7.3E-08
     mixing beta               =       0.0500
     number of iterations used =            8  plain     mixing
     Exchange-correlation= BEEF-VDW
                           (   1   4  43  14   2   0   0)

     celldm(1)=   1.889726  celldm(2)=   0.000000  celldm(3)=   0.000000
     celldm(4)=   0.000000  celldm(5)=   0.000000  celldm(6)=   0.000000

     crystal axes: (cart. coord. in units of alat)
               a(1) = (   6.579727   0.000000   0.000000 )
               a(2) = (  -0.000775   5.961596   0.000000 )
               a(3) = (   0.000000   0.000000  25.155947 )

     reciprocal axes: (cart. coord. in units 2 pi/alat)
               b(1) = (  0.151982  0.000020  0.000000 )
               b(2) = (  0.000000  0.167740  0.000000 )
               b(3) = (  0.000000  0.000000  0.039752 )

     PseudoPot. # 1 for C  read from file:
     /storage/coda1/p-amedford6/0/shared/rich_project_chbe-medford/medford-share/data/pseudos_module/espresso/nninc/pbe/van/C.UPF
     MD5 check sum: 1a69bf6b8db32088f5b2163dbdb77a27
     Pseudo is Ultrasoft, Zval =  4.0
     Generated by new atomic code, or converted to UPF format
     Using radial grid of  721 points,  4 beta functions with:
                l(1) =   0
                l(2) =   0
                l(3) =   1
                l(4) =   1
     Q(r) pseudized with  8 coefficients,  rinner =    0.800   0.800   0.800

     PseudoPot. # 2 for H  read from file:
     /storage/coda1/p-amedford6/0/shared/rich_project_chbe-medford/medford-share/data/pseudos_module/espresso/nninc/pbe/van/H.UPF
     MD5 check sum: b5ee9d7bfd3a09ee7748110bda690ff7
     Pseudo is Ultrasoft, Zval =  1.0
     Generated by new atomic code, or converted to UPF format
     Using radial grid of  615 points,  1 beta functions with:
                l(1) =   0
     Q(r) pseudized with  8 coefficients,  rinner =    0.800

     PseudoPot. # 3 for O  read from file:
     /storage/coda1/p-amedford6/0/shared/rich_project_chbe-medford/medford-share/data/pseudos_module/espresso/nninc/pbe/van/O.UPF
     MD5 check sum: 78c19812648e8988a0fe644b0f25305e
     Pseudo is Ultrasoft, Zval =  6.0
     Generated by new atomic code, or converted to UPF format
     Using radial grid of  737 points,  4 beta functions with:
                l(1) =   0
                l(2) =   0
                l(3) =   1
                l(4) =   1
     Q(r) pseudized with  8 coefficients,  rinner =    0.800   0.800   0.800

     PseudoPot. # 4 for Ti read from file:
     /storage/coda1/p-amedford6/0/shared/rich_project_chbe-medford/medford-share/data/pseudos_module/espresso/nninc/pbe/van/Ti.UPF
     MD5 check sum: 8e4df49b7f0d34bbd5052bf3f5ea0213
     Pseudo is Ultrasoft, Zval = 12.0
     Generated by new atomic code, or converted to UPF format
     Using radial grid of  851 points,  6 beta functions with:
                l(1) =   0
                l(2) =   0
                l(3) =   1
                l(4) =   1
                l(5) =   2
                l(6) =   2
     Q(r) pseudized with  8 coefficients,  rinner =    1.000   1.000   1.000
                                                       1.000   1.000

     PseudoPot. # 5 for N  read from file:
     /storage/coda1/p-amedford6/0/shared/rich_project_chbe-medford/medford-share/data/pseudos_module/espresso/nninc/pbe/van/N.UPF
     MD5 check sum: 90d10febe142ad51ac9d5be1deb811c4
     Pseudo is Ultrasoft, Zval =  5.0
     Generated by new atomic code, or converted to UPF format
     Using radial grid of  729 points,  4 beta functions with:
                l(1) =   0
                l(2) =   0
                l(3) =   1
                l(4) =   1
     Q(r) pseudized with  8 coefficients,  rinner =    0.800   0.800   0.800

     atomic species   valence    mass     pseudopotential
        C1             4.00    12.01100     C ( 1.00)
        H1             1.00     1.00800     H ( 1.00)
        O1             6.00    15.99900     O ( 1.00)
        Ti1           12.00    47.86700     Ti( 1.00)
        N1             5.00    14.00700     N ( 1.00)

     No symmetry found

   Cartesian axes

     site n.     atom                  positions (alat units)
         1           C1  tau(   1) = (   6.4247902   2.9910588  18.6917704  )
         2           H1  tau(   2) = (   6.3980358   3.9338040  19.2291268  )
         3           H1  tau(   3) = (   6.3671137   2.0386567  19.2103458  )
         4           O1  tau(   4) = (   3.2904802   0.0005063   4.7018136  )
         5           O1  tau(   5) = (   3.2900926   2.9813045   4.7018136  )
         6           O1  tau(   6) = (   1.3043587   1.4918075   6.0039043  )
         7           O1  tau(   7) = (   1.3039711   4.4726057   6.0039043  )
         8           O1  tau(   8) = (   5.2767064   1.4903225   6.0039473  )
         9           O1  tau(   9) = (   5.2763189   4.4711207   6.0039473  )
        10           O1  tau(  10) = (   3.2906025   0.0005020   7.3038282  )
        11           O1  tau(  11) = (   3.2902150   2.9813002   7.3038282  )
        12           O1  tau(  12) = (   0.0006271   0.0005054   7.9858123  )
        13           O1  tau(  13) = (   0.0002396   2.9813036   7.9858123  )
        14           O1  tau(  14) = (   4.5942328   1.4918067   9.2879030  )
        15           O1  tau(  15) = (   4.5938453   4.4726049   9.2879030  )
        16           O1  tau(  16) = (   1.9868534   1.4903216   9.2879459  )
        17           O1  tau(  17) = (   1.9864658   4.4711199   9.2879459  )
        18           O1  tau(  18) = (   0.0058113   2.9878523  10.5832334  )
        19           O1  tau(  19) = (   0.0062988   0.0093020  10.6005518  )
        20           O1  tau(  20) = (   3.2955317   2.9954032  11.3404818  )
        21           O1  tau(  21) = (   3.2944299   0.0136787  11.3445968  )
        22           O1  tau(  22) = (   5.2904553   1.5027675  12.6317203  )
        23           O1  tau(  23) = (   5.2914467   4.4836083  12.6349631  )
        24           O1  tau(  24) = (   1.2933861   1.5040032  12.6362007  )
        25           O1  tau(  25) = (   1.2922507   4.4849626  12.6395598  )
        26           O1  tau(  26) = (   3.2955364   2.9961609  13.9180299  )
        27           O1  tau(  27) = (   3.2969677   0.0155663  13.9438287  )
        28           O1  tau(  28) = (   0.0016464   0.0229801  14.6780835  )
        29           O1  tau(  29) = (   0.0078505   2.9966620  14.7218711  )
        30           O1  tau(  30) = (   4.5417949   4.4807699  16.1031406  )
        31           O1  tau(  31) = (   4.5422182   1.5234006  16.1020929  )
        32           O1  tau(  32) = (   2.0382733   4.4802786  16.1011463  )
        33           O1  tau(  33) = (   2.0385641   1.5240134  16.0993588  )
        34           O1  tau(  34) = (   6.5794991   0.0244991  17.1995468  )
        35           O1  tau(  35) = (   6.5588415   3.0026814  17.4289308  )
        36           Ti1 tau(  36) = (   0.0004258   2.9801865   6.0000000  )
        37           Ti1 tau(  37) = (   0.0000382   5.9609847   6.0000000  )
        38           Ti1 tau(  38) = (   3.2906075   1.4906267   6.0002472  )
        39           Ti1 tau(  39) = (   3.2902200   4.4714249   6.0002472  )
        40           Ti1 tau(  40) = (   3.2947477   0.0499856   9.1537742  )
        41           Ti1 tau(  41) = (   3.3215383   3.0289251   9.1580241  )
        42           Ti1 tau(  42) = (   0.0276872   4.5181110   9.2597866  )
        43           Ti1 tau(  43) = (   0.0223396   1.5961087   9.3523429  )
        44           Ti1 tau(  44) = (   3.3278215   4.4891914  12.4850086  )
        45           Ti1 tau(  45) = (   3.3277968   1.5111787  12.4828596  )
        46           Ti1 tau(  46) = (   0.0250534   0.0277200  12.4935153  )
        47           Ti1 tau(  47) = (   0.0290128   3.0118426  12.7617797  )
        48           Ti1 tau(  48) = (   3.2948489   3.0033751  15.7103116  )
        49           Ti1 tau(  49) = (   3.2995243   0.0226186  15.7453524  )
        50           Ti1 tau(  50) = (   0.0095488   1.4190105  15.9501391  )
        51           Ti1 tau(  51) = (   0.0117608   4.6113996  15.9785021  )
        52           N1  tau(  52) = (   3.7826193   3.0501191  20.3090129  )
        53           N1  tau(  53) = (   2.7364546   2.9530354  19.9655958  )

     number of k points=    10  Fermi-Dirac smearing, width (Ry)=  0.0073
                       cart. coord. in units 2pi/alat
        k(    1) = (   0.0000000   0.0000000   0.0000000), wk =   0.1250000
        k(    2) = (   0.0000000   0.0419351   0.0000000), wk =   0.2500000
        k(    3) = (   0.0000000  -0.0838702   0.0000000), wk =   0.1250000
        k(    4) = (   0.0379955   0.0000049   0.0000000), wk =   0.2500000
        k(    5) = (   0.0379955   0.0419400   0.0000000), wk =   0.2500000
        k(    6) = (   0.0379955  -0.0838652   0.0000000), wk =   0.2500000
        k(    7) = (   0.0379955  -0.0419301   0.0000000), wk =   0.2500000
        k(    8) = (  -0.0759910  -0.0000099   0.0000000), wk =   0.1250000
        k(    9) = (  -0.0759910   0.0419252   0.0000000), wk =   0.2500000
        k(   10) = (  -0.0759910  -0.0838800   0.0000000), wk =   0.1250000

     Initial potential from superposition of free atoms

     starting charge  383.99917, renormalised to  400.00000

     negative rho (up, down):  1.498E-02 0.000E+00

     %%%%%%%%%%%%%%%%%%%%%%%%%%%%%%%%%%%%%%%%%%%%%%%%%%%%%%%%%%%%%%%%%%%%%%%%
     %                                                                      %
     % You are using vdW-DF, which was implemented by the Thonhauser group. %
     % Please cite the following two papers that made this development      %
     % possible and the two reviews that describe the various versions:     %
     %                                                                      %
     %   T. Thonhauser et al., PRL 115, 136402 (2015).                      %
     %   T. Thonhauser et al., PRB 76, 125112 (2007).                       %
     %   K. Berland et al., Rep. Prog. Phys. 78, 066501 (2015).             %
     %   D.C. Langreth et al., J. Phys.: Condens. Matter 21, 084203 (2009). %
     %                                                                      %
     %                                                                      %
     % If you are calculating the stress with vdW-DF, please also cite:     %
     %                                                                      %
     %   R. Sabatini et al., J. Phys.: Condens. Matter 24, 424209 (2012).   %
     %                                                                      %
     %%%%%%%%%%%%%%%%%%%%%%%%%%%%%%%%%%%%%%%%%%%%%%%%%%%%%%%%%%%%%%%%%%%%%%%%

     Adding external electric field

     Computed dipole along edir(3) :
        Dipole              -12.3465 Ry au,        -31.3817 Debye
        Dipole field         -0.0233 Ry au,

        Potential amp.        2.1598 Ry
        Total length         46.3494 bohr

     Starting wfcs are  302 atomic wfcs
  @ DRIVER MODE: Message from server: STATUS
  @ DRIVER MODE: Message from server: POSDATA
  @ DRIVER MODE: Reading and sharing cell
  @ DRIVER MODE: Reading and sharing positions
  @ DRIVER MODE: Received positions

     Self-consistent Calculation

     iteration #  1     ecut=    29.40 Ry     beta= 0.05
     Davidson diagonalization with overlap
     c_bands:  2 eigenvalues not converged
     c_bands:  2 eigenvalues not converged
     c_bands:  1 eigenvalues not converged
     c_bands:  2 eigenvalues not converged
     c_bands:  4 eigenvalues not converged
     c_bands:  1 eigenvalues not converged
     c_bands:  4 eigenvalues not converged
     c_bands:  1 eigenvalues not converged
     c_bands:  3 eigenvalues not converged
     c_bands:  5 eigenvalues not converged
     ethr =  1.00E-05,  avg # of iterations = 22.0

[...]

     total energy              =   -2429.63913952 Ry
     estimated scf accuracy    <    6098.22204784 Ry

     iteration #  2     ecut=    29.40 Ry     beta= 0.05
     Davidson diagonalization with overlap
     ethr =  1.00E-02,  avg # of iterations = 22.4

[...]

     iteration # 84     ecut=    29.40 Ry     beta= 0.05
     Davidson diagonalization with overlap
     ethr =  6.16E-11,  avg # of iterations =  8.5

[...]

     total energy              =   -2970.35118005 Ry
     estimated scf accuracy    <       0.00000009 Ry

     iteration # 85     ecut=    29.40 Ry     beta= 0.05
     Davidson diagonalization with overlap
     c_bands:  1 eigenvalues not converged
     ethr =  2.19E-11,  avg # of iterations = 12.3

     negative rho (up, down):  1.508E-02 0.000E+00

     Adding external electric field

     Computed dipole along edir(3) :
        Dipole                0.9983 Ry au,          2.5375 Debye
        Dipole field          0.0019 Ry au,

        Potential amp.       -0.1746 Ry
        Total length         46.3494 bohr

     End of self-consistent calculation

          k = 0.0000 0.0000 0.0000 ( 18029 PWs)   bands (ev):

   -55.5202 -55.5096 -55.4830 -55.4733 -55.4163 -55.4076 -55.3740 -55.3118
   -55.3039 -55.2944 -55.2910 -55.2577 -55.2395 -55.2146 -54.5447 -54.5107
   -32.0797 -31.9930 -31.8939 -31.8844 -31.8324 -31.8266 -31.8183 -31.7984
   -31.7703 -31.7545 -31.7509 -31.7268 -31.7047 -31.6913 -31.6783 -31.6574
   -31.6450 -31.6439 -31.6432 -31.6148 -31.5952 -31.5908 -31.5827 -31.5769
   -31.5727 -31.5452 -31.5450 -31.5237 -31.5178 -31.5162 -31.4985 -31.4727
   -31.4676 -31.4458 -31.4407 -31.4354 -31.4280 -31.4242 -31.4015 -31.3971
   -31.3925 -31.3841 -30.9547 -30.8573 -30.8350 -30.7715 -30.6854 -30.5741
   -21.4074 -19.7392 -16.2984 -16.0036 -15.8664 -15.7282 -15.6744 -15.5493
   -15.4028 -15.3448 -15.2488 -15.1952 -15.1463 -15.1205 -15.1009 -15.0903
   -15.0849 -15.0531 -15.0492 -14.9806 -14.9705 -14.9352 -14.9216 -14.9213
   -14.8238 -14.7825 -14.7079 -14.6502 -14.5969 -14.5425 -14.5204 -13.0452
   -12.9268  -9.1217  -6.6698  -5.3875  -5.3855  -4.5616  -4.5513  -3.6469
    -3.4722  -3.4393  -3.4247  -3.3733  -3.3583  -3.2658  -3.1426  -3.0938
    -2.8212  -2.7305  -2.6916  -2.6821  -2.6713  -2.5479  -2.4863  -2.3697
    -2.3628  -2.3504  -2.3475  -2.3414  -2.2936  -2.2832  -2.2505  -2.2240
    -2.1343  -2.0702  -1.9584  -1.9476  -1.9241  -1.8654  -1.8301  -1.8066
    -1.8040  -1.7713  -1.7584  -1.7538  -1.7081  -1.6201  -1.5174  -1.4758
    -1.3746  -1.3391  -1.2345  -1.1068  -1.0249  -0.9839  -0.9325  -0.8821
    -0.8771  -0.8571  -0.8356  -0.8189  -0.8040  -0.6875  -0.5727  -0.5618
    -0.4662  -0.4026  -0.3875  -0.3782  -0.2814  -0.2620  -0.2547  -0.1795
    -0.0227  -0.0158  -0.0052   0.1164   0.1442   0.1600   0.2110   0.2345
     0.2712   0.2927   0.3497   0.4063   0.4154   0.4656   0.4780   0.4953
     0.6024   0.6590   0.6685   0.7238   0.7686   0.9498   0.9671   1.1090
     1.1680   1.3835   1.4801   1.5314   1.6492   2.0671   2.1262   3.6403
     3.6761   3.6960   3.7432   3.7769   3.8104   3.8753   4.0904   4.1016
     4.1310   4.1817

[...]

          k = 0.0380-0.0419 0.0000 ( 17876 PWs)   bands (ev):

[...]

          k =-0.0760-0.0000 0.0000 ( 17886 PWs)   bands (ev):

[...]

          k =-0.0760-0.0839 0.0000 ( 17948 PWs)   bands (ev):

   -55.5090 -55.4941 -55.4926 -55.4901 -55.4086 -55.4043 -55.3817 -55.3148
   -55.2999 -55.2883 -55.2748 -55.2743 -55.2456 -55.2179 -54.5281 -54.5272
   -31.8826 -31.8796 -31.8170 -31.8033 -31.8011 -31.7953 -31.7896 -31.7784
   -31.7659 -31.7418 -31.7253 -31.7107 -31.7038 -31.6670 -31.6489 -31.6424
   -31.6372 -31.6328 -31.6271 -31.6232 -31.6115 -31.6073 -31.6061 -31.6030
   -31.5989 -31.5934 -31.5759 -31.5695 -31.5415 -31.5315 -31.5272 -31.5148
   -31.5021 -31.4929 -31.4877 -31.4804 -31.4791 -31.4736 -31.4576 -31.4362
   -31.4264 -31.4120 -30.8483 -30.8471 -30.7681 -30.7673 -30.7289 -30.7280
   -21.4071 -19.7320 -15.7326 -15.6873 -15.6042 -15.4701 -15.4466 -15.4198
   -15.3789 -15.3215 -15.2642 -15.2613 -15.2192 -15.2015 -15.1899 -15.1570
   -15.1219 -15.0698 -15.0560 -15.0537 -15.0432 -14.9879 -14.9812 -14.9416
   -14.9267 -14.9168 -14.8720 -14.8645 -14.7902 -14.7545 -14.7273 -13.0294
   -13.0267  -9.1344  -6.6534  -5.3638  -5.3172  -4.5665  -4.5608  -3.5722
    -3.1706  -3.0222  -2.9650  -2.8281  -2.6906  -2.6770  -2.6277  -2.5346
    -2.5002  -2.4592  -2.4118  -2.3910  -2.3711  -2.3661  -2.3573  -2.3547
    -2.3443  -2.2825  -2.2745  -2.2392  -2.1902  -2.1766  -2.1635  -2.1574
    -2.1140  -2.0976  -2.0877  -2.0845  -2.0782  -2.0150  -1.9535  -1.8689
    -1.7782  -1.7465  -1.7181  -1.6811  -1.6454  -1.6101  -1.5886  -1.5711
    -1.4503  -1.4314  -1.2889  -1.2648  -1.2483  -1.2353  -1.1934  -1.1797
    -1.0606  -0.9809  -0.9716  -0.9483  -0.8983  -0.8576  -0.8150  -0.7776
    -0.7020  -0.6641  -0.6263  -0.5748  -0.4942  -0.4845  -0.4329  -0.4174
    -0.3338  -0.3213  -0.2904  -0.2869  -0.2217  -0.1762  -0.1022  -0.0956
    -0.0698   0.0361   0.0946   0.1073   0.2893   0.4647   0.4760   0.4851
     0.5981   0.6072   0.6666   0.7254   0.7400   0.8247   0.8808   0.9780
     0.9970   1.0067   1.0861   1.8392   1.8402   1.9297   1.9411   3.6332
     3.8594   3.8892   3.9080   3.9618   4.1173   4.1220   4.1354   4.1480
     4.2797   4.2974

     the Fermi energy is     3.6286 ev

!    total energy              =   -2970.35118460 Ry
     estimated scf accuracy    <       0.00000007 Ry
     smearing contrib. (-TS)   =      -0.03408946 Ry
     internal energy E=F+TS    =   -2970.31709514 Ry

     The total energy is F=E-TS. E is the sum of the following terms:
     one-electron contribution =  -23480.57790634 Ry
     hartree contribution      =   11832.94807434 Ry
     xc contribution           =    -491.50262266 Ry
     ewald contribution        =    9168.81347867 Ry
     electric field correction =       0.00188085 Ry

     convergence has been achieved in  85 iterations

     Forces acting on atoms (cartesian axes, Ry/au):

     atom    1 type  1   force =    -0.00034864    0.00008969    0.00011647
     atom    2 type  2   force =    -0.00045694    0.00078277    0.00027621
     atom    3 type  2   force =     0.00016733   -0.00057282   -0.00028603
     atom    4 type  3   force =    -0.00007445    0.00001831    0.10420649
     atom    5 type  3   force =    -0.00006204   -0.00001852    0.10426728
     atom    6 type  3   force =    -0.06901771    0.00075495   -0.02907247
     atom    7 type  3   force =    -0.06857147   -0.00136019   -0.02907236
     atom    8 type  3   force =     0.06868153    0.00128270   -0.02914223
     atom    9 type  3   force =     0.06833839   -0.00098300   -0.02915089
     atom   10 type  3   force =     0.00016684    0.00038792    0.04595825
     atom   11 type  3   force =     0.00058295    0.00071514    0.04714589
     atom   12 type  3   force =     0.00030954   -0.00528210   -0.03194519
     atom   13 type  3   force =     0.00035872    0.00311505   -0.02592644
     atom   14 type  3   force =    -0.01814459   -0.00007659    0.00384407
     atom   15 type  3   force =    -0.01655693    0.00120406    0.00338326
     atom   16 type  3   force =     0.01840206   -0.00126045    0.00381133
     atom   17 type  3   force =     0.01755386    0.00141946    0.00324698
     atom   18 type  3   force =     0.00002328    0.00030072    0.00035536
     atom   19 type  3   force =     0.00003565   -0.00012142    0.00008953
     atom   20 type  3   force =    -0.00007541    0.00028449    0.00018802
     atom   21 type  3   force =    -0.00008087   -0.00029717   -0.00061842
     atom   22 type  3   force =     0.00060649    0.00043456    0.00019487
     atom   23 type  3   force =     0.00054135   -0.00040826    0.00018454
     atom   24 type  3   force =    -0.00062188    0.00050009    0.00006832
     atom   25 type  3   force =    -0.00052448   -0.00045542    0.00005269
     atom   26 type  3   force =    -0.00018353    0.00013082    0.00074024
     atom   27 type  3   force =    -0.00011643   -0.00007688    0.00577787
     atom   28 type  3   force =     0.00008306   -0.00002911    0.00002009
     atom   29 type  3   force =     0.00001406    0.00020605   -0.00031692
     atom   30 type  3   force =    -0.00004279   -0.00056517    0.00083196
     atom   31 type  3   force =    -0.00027821    0.00064066    0.00087392
     atom   32 type  3   force =     0.00027854   -0.00068178    0.00109775
     atom   33 type  3   force =     0.00049999    0.00073078    0.00111117
     atom   34 type  3   force =    -0.00015571    0.00001720    0.00103382
     atom   35 type  3   force =    -0.00032185   -0.00057143   -0.00046752
     atom   36 type  4   force =    -0.00026200   -0.00177136    0.10170317
     atom   37 type  4   force =    -0.00008063    0.00134717    0.11446578
     atom   38 type  4   force =    -0.00032564    0.00052646   -0.18033998
     atom   39 type  4   force =    -0.00020307   -0.00039544   -0.18066031
     atom   40 type  4   force =     0.00027228    0.00082952   -0.00100974
     atom   41 type  4   force =     0.00021802   -0.00078571   -0.00084948
     atom   42 type  4   force =    -0.00021517    0.00085746   -0.00019190
     atom   43 type  4   force =    -0.00016317   -0.00018887    0.00005366
     atom   44 type  4   force =     0.00001950    0.00143343    0.00154823
     atom   45 type  4   force =     0.00007835   -0.00139944    0.00160453
     atom   46 type  4   force =    -0.00018337    0.00050261   -0.00000330
     atom   47 type  4   force =    -0.00027483   -0.00042484    0.00028555
     atom   48 type  4   force =    -0.00060637   -0.00004118   -0.00019802
     atom   49 type  4   force =    -0.00053251    0.00006750   -0.00916129
     atom   50 type  4   force =     0.00019959    0.00041072   -0.00054610
     atom   51 type  4   force =     0.00019019   -0.00064536   -0.00078798
     atom   52 type  5   force =     0.00122309    0.00044197    0.00136943
     atom   53 type  5   force =    -0.00036395   -0.00101977   -0.00016014

     Total force =     0.374318     Total SCF correction =     0.000630
  @ DRIVER MODE: Message from server: STATUS
  @ DRIVER MODE: Message from server: GETFORCE
  @ DRIVER MODE: Returning v,forces,stress,ensemble

     Writing output data file ./calc.save/
  @ DRIVER MODE: Message from server: EXIT
  @ DRIVE MODE: Exiting

     General routines

     Parallel routines

   This run was terminated on:  18: 0:12  14Sep2021

   JOB DONE.