     Program PWSCF v.6.7GPU starts on 16Sep2021 at 16:19:11

     R & G space division:  proc/nbgrp/npool/nimage =      10
     Reading input from /storage/home/hcoda1/3/ntian30/research/carbon/CxH_vib/H2O_calc/ads_slab/CH3NH2NHH2O_c/out_0069/pw.inp
Warning: card &CELL ignored
Warning: card   CELL_DYNAMICS='IPI', ignored
Warning: card / ignored

     Current dimensions of program PWSCF are:
     Max number of different atomic species (ntypx) = 10
     Max number of k-points (npk) =  40000
     Max angular momentum in pseudopotentials (lmaxx) =  3
     Presently no symmetry can be used with electric field

     Message from routine cell_base_init:
     DEPRECATED: use true lattice parameter, not A to a.u. conversion factor

     IMPORTANT: XC functional enforced from input :
     Exchange-correlation= BEEF-VDW
                           (   1   4  43  14   2   0   0)
     Any further DFT definition will be discarded
     Please, verify this is what you really want

  @ DRIVER MODE: Connecting to
 qe_1139763_2852614.sched-torque.pace.gatech.edunf0zl_mu_scratch
  using UNIX socket
  @ DRIVER MODE: Message from server: STATUS
  @ DRIVER MODE: Message from server: INIT
  @ DRIVER MODE: Receiving replica           0          -1
  @ DRIVER MODE: Receiving encoded integer          25
  @ DRIVER MODE:  SCF:  T  FORCE:  T  STRESS:  F  VC:  F  ENSEMBLE:  F
  @ DRIVER MODE:  SCF:  T  FORCE:  T  STRESS:  F  VC:  F  ENSEMBLE:  F

     Using Slab Decomposition

     bravais-lattice index     =            0
     lattice parameter (alat)  =       1.8897  a.u.
     unit-cell volume          =    6658.9804 (a.u.)^3
     number of atoms/cell      =           59
     number of atomic types    =            5
     number of electrons       =       406.00
     number of Kohn-Sham states=          213
     kinetic-energy cutoff     =      29.3995  Ry
     charge density cutoff     =     293.9946  Ry
     scf convergence threshold =      7.3E-08
     mixing beta               =       0.0500
     number of iterations used =            8  plain     mixing
     Exchange-correlation= BEEF-VDW
                           (   1   4  43  14   2   0   0)

     celldm(1)=   1.889726  celldm(2)=   0.000000  celldm(3)=   0.000000
     celldm(4)=   0.000000  celldm(5)=   0.000000  celldm(6)=   0.000000

     crystal axes: (cart. coord. in units of alat)
               a(1) = (   6.579727   0.000000   0.000000 )
               a(2) = (  -0.000775   5.961596   0.000000 )
               a(3) = (   0.000000   0.000000  25.155947 )

     reciprocal axes: (cart. coord. in units 2 pi/alat)
               b(1) = (  0.151982  0.000020  0.000000 )
               b(2) = (  0.000000  0.167740  0.000000 )
               b(3) = (  0.000000  0.000000  0.039752 )

     PseudoPot. # 1 for Ti read from file:
     /storage/coda1/p-amedford6/0/shared/rich_project_chbe-medford/medford-share/data/pseudos_module/espresso/nninc/pbe/van/Ti.UPF
     MD5 check sum: 8e4df49b7f0d34bbd5052bf3f5ea0213
     Pseudo is Ultrasoft, Zval = 12.0
     Generated by new atomic code, or converted to UPF format
     Using radial grid of  851 points,  6 beta functions with:
                l(1) =   0
                l(2) =   0
                l(3) =   1
                l(4) =   1
                l(5) =   2
                l(6) =   2
     Q(r) pseudized with  8 coefficients,  rinner =    1.000   1.000   1.000
                                                       1.000   1.000

     PseudoPot. # 2 for O  read from file:
     /storage/coda1/p-amedford6/0/shared/rich_project_chbe-medford/medford-share/data/pseudos_module/espresso/nninc/pbe/van/O.UPF
     MD5 check sum: 78c19812648e8988a0fe644b0f25305e
     Pseudo is Ultrasoft, Zval =  6.0
     Generated by new atomic code, or converted to UPF format
     Using radial grid of  737 points,  4 beta functions with:
                l(1) =   0
                l(2) =   0
                l(3) =   1
                l(4) =   1
     Q(r) pseudized with  8 coefficients,  rinner =    0.800   0.800   0.800

     PseudoPot. # 3 for N  read from file:
     /storage/coda1/p-amedford6/0/shared/rich_project_chbe-medford/medford-share/data/pseudos_module/espresso/nninc/pbe/van/N.UPF
     MD5 check sum: 90d10febe142ad51ac9d5be1deb811c4
     Pseudo is Ultrasoft, Zval =  5.0
     Generated by new atomic code, or converted to UPF format
     Using radial grid of  729 points,  4 beta functions with:
                l(1) =   0
                l(2) =   0
                l(3) =   1
                l(4) =   1
     Q(r) pseudized with  8 coefficients,  rinner =    0.800   0.800   0.800

     PseudoPot. # 4 for C  read from file:
     /storage/coda1/p-amedford6/0/shared/rich_project_chbe-medford/medford-share/data/pseudos_module/espresso/nninc/pbe/van/C.UPF
     MD5 check sum: 1a69bf6b8db32088f5b2163dbdb77a27
     Pseudo is Ultrasoft, Zval =  4.0
     Generated by new atomic code, or converted to UPF format
     Using radial grid of  721 points,  4 beta functions with:
                l(1) =   0
                l(2) =   0
                l(3) =   1
                l(4) =   1
     Q(r) pseudized with  8 coefficients,  rinner =    0.800   0.800   0.800

     PseudoPot. # 5 for H  read from file:
     /storage/coda1/p-amedford6/0/shared/rich_project_chbe-medford/medford-share/data/pseudos_module/espresso/nninc/pbe/van/H.UPF
     MD5 check sum: b5ee9d7bfd3a09ee7748110bda690ff7
     Pseudo is Ultrasoft, Zval =  1.0
     Generated by new atomic code, or converted to UPF format
     Using radial grid of  615 points,  1 beta functions with:
                l(1) =   0
     Q(r) pseudized with  8 coefficients,  rinner =    0.800

     atomic species   valence    mass     pseudopotential
        Ti1           12.00    47.86700     Ti( 1.00)
        O1             6.00    15.99900     O ( 1.00)
        N1             5.00    14.00700     N ( 1.00)
        C1             4.00    12.01100     C ( 1.00)
        H1             1.00     1.00800     H ( 1.00)

     No symmetry found

   Cartesian axes

     site n.     atom                  positions (alat units)
         1           Ti1 tau(   1) = (   0.0004258   2.9801865   6.0000000  )
         2           Ti1 tau(   2) = (   3.2906075   1.4906267   6.0002472  )
         3           O1  tau(   3) = (   0.0006271   0.0005054   7.9858123  )
         4           O1  tau(   4) = (   3.2906025   0.0005020   7.3038282  )
         5           O1  tau(   5) = (   4.5942328   1.4918067   9.2879030  )
         6           O1  tau(   6) = (   1.9868534   1.4903216   9.2879459  )
         7           Ti1 tau(   7) = (   3.2907910   2.8959150   9.1758416  )
         8           Ti1 tau(   8) = (   0.0015273   1.4827037   9.2680791  )
         9           O1  tau(   9) = (   3.2795193   0.0050042  11.3600746  )
        10           O1  tau(  10) = (   0.0116148   5.9584955  10.6183126  )
        11           O1  tau(  11) = (   1.2764768   1.4833402  12.6625751  )
        12           O1  tau(  12) = (   5.2691860   1.4824858  12.6730715  )
        13           Ti1 tau(  13) = (   6.5785005   2.9712200  12.5432933  )
        14           Ti1 tau(  14) = (   3.2815129   1.4861921  12.5133659  )
        15           O1  tau(  15) = (   0.0084525   5.9333602  14.7514412  )
        16           O1  tau(  16) = (   3.2474592   5.9449689  14.0025778  )
        17           O1  tau(  17) = (   4.5272503   1.5270814  16.0535473  )
        18           O1  tau(  18) = (   2.0088677   1.5398698  16.1918835  )
        19           Ti1 tau(  19) = (   3.2695027   3.0127370  15.7044713  )
        20           Ti1 tau(  20) = (   6.4897317   1.5391078  15.7731133  )
        21           O1  tau(  21) = (   3.2904802   0.0005063   4.7018136  )
        22           O1  tau(  22) = (   6.4943121   0.0104379  17.3746616  )
        23           O1  tau(  23) = (   1.3043587   1.4918075   6.0039043  )
        24           O1  tau(  24) = (   5.2767064   1.4903225   6.0039473  )
        25           Ti1 tau(  25) = (   0.0000382   5.9609847   6.0000000  )
        26           Ti1 tau(  26) = (   3.2902200   4.4714249   6.0002472  )
        27           O1  tau(  27) = (   0.0002396   2.9813036   7.9858123  )
        28           O1  tau(  28) = (   3.2902150   2.9813002   7.3038282  )
        29           O1  tau(  29) = (   4.5938453   4.4726049   9.2879030  )
        30           O1  tau(  30) = (   1.9864658   4.4711199   9.2879459  )
        31           Ti1 tau(  31) = (   3.2891106   5.8743827   9.1763621  )
        32           Ti1 tau(  32) = (   0.0006254   4.4649316   9.2693709  )
        33           O1  tau(  33) = (   3.2806081   2.9711243  11.3509633  )
        34           O1  tau(  34) = (   0.0092240   2.9805883  10.6323155  )
        35           O1  tau(  35) = (   1.2760424   4.4718827  12.6381679  )
        36           O1  tau(  36) = (   5.2690016   4.4731519  12.6446470  )
        37           Ti1 tau(  37) = (   6.5708669   5.9382087  12.5160675  )
        38           Ti1 tau(  38) = (   3.2845625   4.4656782  12.4980923  )
        39           O1  tau(  39) = (   6.5779858   3.0049062  14.7590937  )
        40           O1  tau(  40) = (   3.2501146   3.0001303  13.9242794  )
        41           O1  tau(  41) = (   4.5300198   4.4412671  16.1793791  )
        42           O1  tau(  42) = (   2.0030354   4.4482434  16.2507355  )
        43           Ti1 tau(  43) = (   3.2558399   0.0045369  15.7947069  )
        44           Ti1 tau(  44) = (   0.0024851   4.6597080  16.1671864  )
        45           O1  tau(  45) = (   3.2900926   2.9813045   4.7018136  )
        46           O1  tau(  46) = (   1.3039711   4.4726057   6.0039043  )
        47           O1  tau(  47) = (   5.2763189   4.4711207   6.0039473  )
        48           N1  tau(  48) = (   0.8610865   2.3037131  18.4629187  )
        49           N1  tau(  49) = (   6.4642385   2.8627238  17.5618644  )
        50           C1  tau(  50) = (   1.1134797   3.0572184  19.7121060  )
        51           H1  tau(  51) = (   0.2160447   3.0254214  20.3281890  )
        52           H1  tau(  52) = (   1.9467850   2.5864873  20.2353232  )
        53           H1  tau(  53) = (   1.3463996   4.0866186  19.4485780  )
        54           H1  tau(  54) = (   0.5832711   1.3114681  18.6183785  )
        55           H1  tau(  55) = (   5.5643591   2.7461405  18.0238738  )
        56           H1  tau(  56) = (   1.7079168   2.1891883  17.8702682  )
        57           O1  tau(  57) = (   4.0734316   0.3075885  18.7765601  )
        58           H1  tau(  58) = (   4.9241673   0.1787741  18.2816895  )
        59           H1  tau(  59) = (   3.8734322   5.3836830  19.1372508  )

     number of k points=    10  Fermi-Dirac smearing, width (Ry)=  0.0073
                       cart. coord. in units 2pi/alat
        k(    1) = (   0.0000000   0.0000000   0.0000000), wk =   0.1250000
        k(    2) = (   0.0000000   0.0419351   0.0000000), wk =   0.2500000
        k(    3) = (   0.0000000  -0.0838702   0.0000000), wk =   0.1250000
        k(    4) = (   0.0379955   0.0000049   0.0000000), wk =   0.2500000
        k(    5) = (   0.0379955   0.0419400   0.0000000), wk =   0.2500000
        k(    6) = (   0.0379955  -0.0838652   0.0000000), wk =   0.2500000
        k(    7) = (   0.0379955  -0.0419301   0.0000000), wk =   0.2500000
        k(    8) = (  -0.0759910  -0.0000099   0.0000000), wk =   0.1250000
        k(    9) = (  -0.0759910   0.0419252   0.0000000), wk =   0.2500000
        k(   10) = (  -0.0759910  -0.0838800   0.0000000), wk =   0.1250000

     Initial potential from superposition of free atoms

     starting charge  389.99912, renormalised to  406.00000

     negative rho (up, down):  1.392E-02 0.000E+00

     %%%%%%%%%%%%%%%%%%%%%%%%%%%%%%%%%%%%%%%%%%%%%%%%%%%%%%%%%%%%%%%%%%%%%%%%
     %                                                                      %
     % You are using vdW-DF, which was implemented by the Thonhauser group. %
     % Please cite the following two papers that made this development      %
     % possible and the two reviews that describe the various versions:     %
     %                                                                      %
     %   T. Thonhauser et al., PRL 115, 136402 (2015).                      %
     %   T. Thonhauser et al., PRB 76, 125112 (2007).                       %
     %   K. Berland et al., Rep. Prog. Phys. 78, 066501 (2015).             %
     %   D.C. Langreth et al., J. Phys.: Condens. Matter 21, 084203 (2009). %
     %                                                                      %
     %                                                                      %
     % If you are calculating the stress with vdW-DF, please also cite:     %
     %                                                                      %
     %   R. Sabatini et al., J. Phys.: Condens. Matter 24, 424209 (2012).   %
     %                                                                      %
     %%%%%%%%%%%%%%%%%%%%%%%%%%%%%%%%%%%%%%%%%%%%%%%%%%%%%%%%%%%%%%%%%%%%%%%%

     Adding external electric field

     Computed dipole along edir(3) :
        Dipole              -15.6809 Ry au,        -39.8568 Debye
        Dipole field         -0.0296 Ry au,

        Potential amp.        2.7431 Ry
        Total length         46.3494 bohr

     Starting wfcs are  308 atomic wfcs
  @ DRIVER MODE: Message from server: STATUS
  @ DRIVER MODE: Message from server: POSDATA
  @ DRIVER MODE: Reading and sharing cell
  @ DRIVER MODE: Reading and sharing positions
  @ DRIVER MODE: Received positions

     Self-consistent Calculation

     iteration #  1     ecut=    29.40 Ry     beta= 0.05
     Davidson diagonalization with overlap
     c_bands:  2 eigenvalues not converged
     c_bands:  5 eigenvalues not converged
     c_bands:  2 eigenvalues not converged
     c_bands:  4 eigenvalues not converged
     c_bands:  4 eigenvalues not converged
     c_bands:  5 eigenvalues not converged
     c_bands:  5 eigenvalues not converged
     c_bands:  1 eigenvalues not converged
     ethr =  1.00E-05,  avg # of iterations = 22.5

[...]

     total energy              =   -2140.16718128 Ry
     estimated scf accuracy    <    9575.46611340 Ry

     iteration #  2     ecut=    29.40 Ry     beta= 0.05
     Davidson diagonalization with overlap
     ethr =  1.00E-02,  avg # of iterations = 32.0

[...]

     iteration # 76     ecut=    29.40 Ry     beta= 0.05
     Davidson diagonalization with overlap
     c_bands:  2 eigenvalues not converged
     c_bands:  2 eigenvalues not converged
     ethr =  5.28E-11,  avg # of iterations = 12.6

[...]

     total energy              =   -2977.68479306 Ry
     estimated scf accuracy    <       0.00000018 Ry

     iteration # 77     ecut=    29.40 Ry     beta= 0.05
     Davidson diagonalization with overlap
     ethr =  4.32E-11,  avg # of iterations =  5.0

     negative rho (up, down):  1.243E-02 0.000E+00

     Adding external electric field

     Computed dipole along edir(3) :
        Dipole                1.6051 Ry au,          4.0799 Debye
        Dipole field          0.0030 Ry au,

        Potential amp.       -0.2808 Ry
        Total length         46.3494 bohr

     End of self-consistent calculation

          k = 0.0000 0.0000 0.0000 ( 18029 PWs)   bands (ev):

   -54.9556 -54.9190 -54.9163 -54.8849 -54.8454 -54.8353 -54.7952 -54.7635
   -54.7588 -54.7483 -54.7283 -54.7233 -54.7151 -54.6611 -53.9342 -53.9002
   -31.5276 -31.4091 -31.3219 -31.2833 -31.2661 -31.2529 -31.2506 -31.2454
   -31.2109 -31.2089 -31.1644 -31.1640 -31.1585 -31.1284 -31.1097 -31.0898
   -31.0792 -31.0735 -31.0720 -31.0647 -31.0306 -31.0260 -31.0196 -31.0139
   -30.9939 -30.9760 -30.9653 -30.9645 -30.9570 -30.9569 -30.9465 -30.9380
   -30.9219 -30.9215 -30.9128 -30.9112 -30.8857 -30.8790 -30.8771 -30.8764
   -30.8578 -30.8572 -30.3430 -30.2505 -30.2283 -30.1594 -30.0727 -29.9618
   -18.9620 -18.1590 -15.7906 -15.5229 -15.3976 -15.1975 -15.1443 -15.0395
   -14.8795 -14.8187 -14.7539 -14.7291 -14.7231 -14.6964 -14.6237 -14.5683
   -14.5387 -14.4869 -14.4862 -14.4502 -14.4430 -14.4381 -14.3835 -14.3796
   -14.3431 -14.3294 -14.3217 -14.1787 -14.1001 -14.0516 -14.0414 -13.1980
   -12.4367 -12.3195 -10.9834  -7.5864  -6.3968  -5.9248  -5.7578  -4.0093
    -3.8448  -3.1346  -2.9639  -2.9519  -2.8741  -2.8505  -2.6797  -2.6198
    -2.5116  -2.3949  -2.3194  -2.2219  -2.1781  -2.1600  -2.1462  -2.0326
    -1.9471  -1.9097  -1.8704  -1.8317  -1.8148  -1.7695  -1.7482  -1.7382
    -1.7055  -1.6800  -1.5270  -1.4524  -1.4159  -1.3817  -1.3418  -1.2845
    -1.2630  -1.2466  -1.2412  -1.2332  -1.2168  -1.1925  -1.1565  -1.1247
    -1.0567  -0.9714  -0.9633  -0.8519  -0.7679  -0.6329  -0.5819  -0.5242
    -0.4938  -0.4273  -0.3851  -0.3378  -0.3016  -0.2951  -0.2488  -0.1609
    -0.1451  -0.0910  -0.0725   0.0123   0.0596   0.0644   0.0749   0.2515
     0.2617   0.2796   0.3825   0.4635   0.5022   0.5189   0.5764   0.6388
     0.6414   0.6796   0.7016   0.7322   0.8150   0.9186   0.9437   0.9820
     0.9963   1.0218   1.0388   1.0663   1.1052   1.1863   1.1923   1.2697
     1.3623   1.3734   1.6361   1.6683   1.9991   2.0258   2.0885   2.2742
     2.6629   2.7103   4.1464   4.2084   4.2535   4.2793   4.2974   4.3785
     4.3978   4.6143   4.6406   4.6416   4.6509

[...]

          k = 0.0380-0.0419 0.0000 ( 17876 PWs)   bands (ev):

[...]

          k =-0.0760-0.0000 0.0000 ( 17886 PWs)   bands (ev):

[...]

          k =-0.0760-0.0839 0.0000 ( 17948 PWs)   bands (ev):

   -54.9437 -54.9280 -54.9019 -54.9018 -54.8429 -54.8257 -54.8048 -54.7563
   -54.7482 -54.7427 -54.7335 -54.7305 -54.7256 -54.6635 -53.9172 -53.9170
   -31.3363 -31.3250 -31.2590 -31.2242 -31.2242 -31.2179 -31.1943 -31.1943
   -31.1690 -31.1668 -31.1577 -31.1540 -31.1461 -31.0961 -31.0823 -31.0817
   -31.0774 -31.0762 -31.0730 -31.0702 -31.0429 -31.0330 -31.0308 -31.0242
   -31.0233 -31.0213 -31.0213 -31.0202 -30.9993 -30.9817 -30.9756 -30.9687
   -30.9624 -30.9568 -30.9554 -30.9512 -30.9508 -30.9238 -30.9169 -30.9138
   -30.9091 -30.8989 -30.2411 -30.2409 -30.1556 -30.1554 -30.1161 -30.1160
   -18.9571 -18.1595 -15.2813 -15.1545 -15.0555 -15.0000 -14.9532 -14.9376
   -14.9200 -14.8666 -14.8364 -14.7767 -14.7529 -14.7047 -14.6606 -14.6566
   -14.6289 -14.5494 -14.5341 -14.5217 -14.5142 -14.4633 -14.4493 -14.4265
   -14.4039 -14.3998 -14.3813 -14.3087 -14.2992 -14.2950 -14.2546 -13.2073
   -12.4212 -12.4210 -10.9840  -7.5974  -6.3872  -5.9254  -5.7415  -3.9874
    -3.8392  -2.5638  -2.5417  -2.4062  -2.3921  -2.2809  -2.1888  -2.1385
    -2.1328  -1.9938  -1.9610  -1.9451  -1.9299  -1.9175  -1.8688  -1.8453
    -1.8096  -1.7921  -1.7825  -1.7727  -1.7570  -1.7366  -1.6844  -1.6804
    -1.6698  -1.6554  -1.6114  -1.5957  -1.5648  -1.5539  -1.5257  -1.5031
    -1.4362  -1.3416  -1.2941  -1.2507  -1.1960  -1.1438  -1.1378  -1.0588
    -1.0413  -1.0096  -0.9787  -0.9537  -0.8569  -0.7842  -0.6901  -0.6877
    -0.6840  -0.5642  -0.5242  -0.5063  -0.4929  -0.4638  -0.3795  -0.3685
    -0.3088  -0.2339  -0.2085  -0.2039  -0.1782  -0.0566  -0.0334   0.0265
     0.0571   0.0893   0.0914   0.1708   0.1838   0.2430   0.2575   0.2708
     0.3158   0.3334   0.4318   0.5217   0.5576   0.6604   0.7534   0.7826
     0.8777   0.9356   1.0401   1.0613   1.0844   1.1810   1.1892   1.2241
     1.3529   1.3598   1.4758   1.5155   1.5255   1.5280   2.4465   2.4480
     2.5304   2.5305   4.2729   4.3958   4.4113   4.4574   4.5118   4.6531
     4.6765   4.7236   4.7254   4.7997   4.8079

     the Fermi energy is     4.1986 ev

!    total energy              =   -2977.68481000 Ry
     estimated scf accuracy    <       0.00000006 Ry
     smearing contrib. (-TS)   =      -0.03700716 Ry
     internal energy E=F+TS    =   -2977.64780284 Ry

     The total energy is F=E-TS. E is the sum of the following terms:
     one-electron contribution =  -23305.62389224 Ry
     hartree contribution      =   11753.79996173 Ry
     xc contribution           =    -496.59985599 Ry
     ewald contribution        =    9070.77112150 Ry
     electric field correction =       0.00486215 Ry

     convergence has been achieved in  77 iterations

     Forces acting on atoms (cartesian axes, Ry/au):

     atom    1 type  1   force =     0.00008686   -0.00025817    0.09409771
     atom    2 type  1   force =    -0.00008229   -0.00046022   -0.17748099
     atom    3 type  2   force =     0.00006137   -0.00032838   -0.02123516
     atom    4 type  2   force =     0.00003699   -0.00179079    0.05729511
     atom    5 type  2   force =    -0.01079214   -0.00102032    0.00668612
     atom    6 type  2   force =     0.01199107   -0.00033570    0.00503902
     atom    7 type  1   force =    -0.00060301    0.00106349   -0.01460247
     atom    8 type  1   force =     0.00086410    0.00331623    0.00461562
     atom    9 type  2   force =     0.00000730   -0.00005283    0.00013147
     atom   10 type  2   force =    -0.00368573    0.00211121   -0.00164327
     atom   11 type  2   force =    -0.00017533    0.00062023   -0.00009066
     atom   12 type  2   force =     0.00019213    0.00028642   -0.00020856
     atom   13 type  1   force =    -0.00019614   -0.00027030    0.00012082
     atom   14 type  1   force =     0.00024518   -0.00021881   -0.00036261
     atom   15 type  2   force =     0.00020731    0.00035938   -0.00013236
     atom   16 type  2   force =    -0.00011978    0.00025368   -0.00020588
     atom   17 type  2   force =    -0.00009720   -0.00027057    0.00032949
     atom   18 type  2   force =     0.00018264    0.00004906   -0.00003288
     atom   19 type  1   force =    -0.00000867    0.00021329   -0.00044054
     atom   20 type  1   force =     0.00042280   -0.00004725   -0.00002082
     atom   21 type  2   force =     0.00011795   -0.00008054    0.10378922
     atom   22 type  2   force =     0.00061017   -0.00034759   -0.00078801
     atom   23 type  2   force =    -0.07067790   -0.00015320   -0.02714219
     atom   24 type  2   force =     0.07064150    0.00032146   -0.02714580
     atom   25 type  1   force =     0.00010950   -0.00017066    0.09371820
     atom   26 type  1   force =    -0.00006363   -0.00053692   -0.17770766
     atom   27 type  2   force =     0.00006830   -0.00005286   -0.02033535
     atom   28 type  2   force =     0.00006686   -0.00145937    0.05629860
     atom   29 type  2   force =    -0.01130073   -0.00039806    0.00736794
     atom   30 type  2   force =     0.01241426   -0.00000149    0.00575794
     atom   31 type  1   force =    -0.00074306    0.00574528   -0.01563704
     atom   32 type  1   force =     0.00081928   -0.00459332    0.00435712
     atom   33 type  2   force =     0.00002253    0.00015228    0.00028172
     atom   34 type  2   force =    -0.00321211   -0.00103235   -0.00518869
     atom   35 type  2   force =    -0.00011743   -0.00039885    0.00008356
     atom   36 type  2   force =     0.00021748   -0.00006873   -0.00009180
     atom   37 type  1   force =    -0.00012555    0.00043302   -0.00010945
     atom   38 type  1   force =     0.00009091    0.00015119   -0.00012345
     atom   39 type  2   force =    -0.00045424   -0.00031617   -0.00018648
     atom   40 type  2   force =     0.00012935   -0.00008275    0.00027715
     atom   41 type  2   force =    -0.00004467    0.00020083   -0.00017297
     atom   42 type  2   force =     0.00047182    0.00007938   -0.00029784
     atom   43 type  1   force =    -0.00016393   -0.00000378   -0.00003647
     atom   44 type  1   force =     0.00035018    0.00042268    0.00034938
     atom   45 type  2   force =     0.00010604   -0.00006441    0.10377273
     atom   46 type  2   force =    -0.07067002   -0.00006983   -0.02711984
     atom   47 type  2   force =     0.07064924    0.00033343   -0.02714279
     atom   48 type  3   force =     0.00055166   -0.00073409    0.00108423
     atom   49 type  3   force =    -0.00019625   -0.00042841    0.00045795
     atom   50 type  4   force =     0.00033477    0.00039010   -0.00022987
     atom   51 type  5   force =     0.00063014    0.00079180   -0.00028607
     atom   52 type  5   force =    -0.00009087    0.00032439    0.00021604
     atom   53 type  5   force =     0.00013306   -0.00053241   -0.00049095
     atom   54 type  5   force =     0.00042115   -0.00011209    0.00020896
     atom   55 type  5   force =     0.00034993   -0.00058769   -0.00012422
     atom   56 type  5   force =     0.00018271   -0.00015883    0.00041155
     atom   57 type  2   force =    -0.00459883   -0.01471652    0.00788047
     atom   58 type  5   force =     0.00054371   -0.00067100   -0.00114170
     atom   59 type  5   force =     0.00388925    0.01520645   -0.00667326

     Total force =     0.366644     Total SCF correction =     0.000639
  @ DRIVER MODE: Message from server: STATUS
  @ DRIVER MODE: Message from server: GETFORCE
  @ DRIVER MODE: Returning v,forces,stress,ensemble

     Writing output data file ./calc.save/
  @ DRIVER MODE: Message from server: EXIT
  @ DRIVE MODE: Exiting

     General routines

     Parallel routines

   This run was terminated on:  16:41:53  16Sep2021

   JOB DONE.