     Program PWSCF v.6.7GPU starts on 24Aug2021 at 11:29:30

     R & G space division:  proc/nbgrp/npool/nimage =      72
     Reading input from /storage/home/hcoda1/3/ntian30/research/carbon/CH2_vib/ads_slab/CH2N_a/out_0006/pw.inp
Warning: card &CELL ignored
Warning: card   CELL_DYNAMICS='IPI', ignored
Warning: card / ignored

     Current dimensions of program PWSCF are:
     Max number of different atomic species (ntypx) = 10
     Max number of k-points (npk) =  40000
     Max angular momentum in pseudopotentials (lmaxx) =  3
     Presently no symmetry can be used with electric field

     Message from routine cell_base_init:
     DEPRECATED: use true lattice parameter, not A to a.u. conversion factor

     IMPORTANT: XC functional enforced from input :
     Exchange-correlation= BEEF-VDW
                           (   1   4  43  14   2   0   0)
     Any further DFT definition will be discarded
     Please, verify this is what you really want

  @ DRIVER MODE: Connecting to
 qe_1139763_2641441.sched-torque.pace.gatech.edubwdfgb2f_scratch
  using UNIX socket
  @ DRIVER MODE: Message from server: STATUS
  @ DRIVER MODE: Message from server: INIT
  @ DRIVER MODE: Receiving replica           0          -1
  @ DRIVER MODE: Receiving encoded integer          25
  @ DRIVER MODE:  SCF:  T  FORCE:  T  STRESS:  F  VC:  F  ENSEMBLE:  F
  @ DRIVER MODE:  SCF:  T  FORCE:  T  STRESS:  F  VC:  F  ENSEMBLE:  F

     Using Slab Decomposition

     bravais-lattice index     =            0
     lattice parameter (alat)  =       1.8897  a.u.
     unit-cell volume          =    6658.9804 (a.u.)^3
     number of atoms/cell      =           51
     number of atomic types    =            5
     number of electrons       =       389.00
     number of Kohn-Sham states=          204
     kinetic-energy cutoff     =      29.3995  Ry
     charge density cutoff     =     293.9946  Ry
     scf convergence threshold =      7.3E-08
     mixing beta               =       0.0500
     number of iterations used =            8  plain     mixing
     Exchange-correlation= BEEF-VDW
                           (   1   4  43  14   2   0   0)

     celldm(1)=   1.889726  celldm(2)=   0.000000  celldm(3)=   0.000000
     celldm(4)=   0.000000  celldm(5)=   0.000000  celldm(6)=   0.000000

     crystal axes: (cart. coord. in units of alat)
               a(1) = (   6.579727   0.000000   0.000000 )
               a(2) = (  -0.000775   5.961596   0.000000 )
               a(3) = (   0.000000   0.000000  25.155947 )

     reciprocal axes: (cart. coord. in units 2 pi/alat)
               b(1) = (  0.151982  0.000020  0.000000 )
               b(2) = (  0.000000  0.167740  0.000000 )
               b(3) = (  0.000000  0.000000  0.039752 )

     PseudoPot. # 1 for Ti read from file:
     /storage/coda1/p-amedford6/0/shared/rich_project_chbe-medford/medford-share/data/pseudos_module/espresso/nninc/pbe/van/Ti.UPF
     MD5 check sum: 8e4df49b7f0d34bbd5052bf3f5ea0213
     Pseudo is Ultrasoft, Zval = 12.0
     Generated by new atomic code, or converted to UPF format
     Using radial grid of  851 points,  6 beta functions with:
                l(1) =   0
                l(2) =   0
                l(3) =   1
                l(4) =   1
                l(5) =   2
                l(6) =   2
     Q(r) pseudized with  8 coefficients,  rinner =    1.000   1.000   1.000
                                                       1.000   1.000

     PseudoPot. # 2 for O  read from file:
     /storage/coda1/p-amedford6/0/shared/rich_project_chbe-medford/medford-share/data/pseudos_module/espresso/nninc/pbe/van/O.UPF
     MD5 check sum: 78c19812648e8988a0fe644b0f25305e
     Pseudo is Ultrasoft, Zval =  6.0
     Generated by new atomic code, or converted to UPF format
     Using radial grid of  737 points,  4 beta functions with:
                l(1) =   0
                l(2) =   0
                l(3) =   1
                l(4) =   1
     Q(r) pseudized with  8 coefficients,  rinner =    0.800   0.800   0.800

     PseudoPot. # 3 for N  read from file:
     /storage/coda1/p-amedford6/0/shared/rich_project_chbe-medford/medford-share/data/pseudos_module/espresso/nninc/pbe/van/N.UPF
     MD5 check sum: 90d10febe142ad51ac9d5be1deb811c4
     Pseudo is Ultrasoft, Zval =  5.0
     Generated by new atomic code, or converted to UPF format
     Using radial grid of  729 points,  4 beta functions with:
                l(1) =   0
                l(2) =   0
                l(3) =   1
                l(4) =   1
     Q(r) pseudized with  8 coefficients,  rinner =    0.800   0.800   0.800

     PseudoPot. # 4 for C  read from file:
     /storage/coda1/p-amedford6/0/shared/rich_project_chbe-medford/medford-share/data/pseudos_module/espresso/nninc/pbe/van/C.UPF
     MD5 check sum: 1a69bf6b8db32088f5b2163dbdb77a27
     Pseudo is Ultrasoft, Zval =  4.0
     Generated by new atomic code, or converted to UPF format
     Using radial grid of  721 points,  4 beta functions with:
                l(1) =   0
                l(2) =   0
                l(3) =   1
                l(4) =   1
     Q(r) pseudized with  8 coefficients,  rinner =    0.800   0.800   0.800

     PseudoPot. # 5 for H  read from file:
     /storage/coda1/p-amedford6/0/shared/rich_project_chbe-medford/medford-share/data/pseudos_module/espresso/nninc/pbe/van/H.UPF
     MD5 check sum: b5ee9d7bfd3a09ee7748110bda690ff7
     Pseudo is Ultrasoft, Zval =  1.0
     Generated by new atomic code, or converted to UPF format
     Using radial grid of  615 points,  1 beta functions with:
                l(1) =   0
     Q(r) pseudized with  8 coefficients,  rinner =    0.800

     atomic species   valence    mass     pseudopotential
        Ti1           12.00    47.86700     Ti( 1.00)
        O1             6.00    15.99900     O ( 1.00)
        N1             5.00    14.00700     N ( 1.00)
        C1             4.00    12.01100     C ( 1.00)
        H1             1.00     1.00800     H ( 1.00)

     No symmetry found

   Cartesian axes

     site n.     atom                  positions (alat units)
         1           Ti1 tau(   1) = (   0.0004258   2.9801865   6.0000000  )
         2           Ti1 tau(   2) = (   3.2906075   1.4906267   6.0002472  )
         3           O1  tau(   3) = (   0.0006271   0.0005054   7.9858123  )
         4           O1  tau(   4) = (   3.2906025   0.0005020   7.3038282  )
         5           O1  tau(   5) = (   4.5942328   1.4918067   9.2879030  )
         6           O1  tau(   6) = (   1.9868534   1.4903216   9.2879459  )
         7           Ti1 tau(   7) = (   3.2907910   2.8959150   9.1758416  )
         8           Ti1 tau(   8) = (   0.0015273   1.4827037   9.2680791  )
         9           O1  tau(   9) = (   3.3121109   0.0111249  11.3310253  )
        10           O1  tau(  10) = (   0.0116148   5.9584955  10.6183126  )
        11           O1  tau(  11) = (   1.3329579   1.5011098  12.6063046  )
        12           O1  tau(  12) = (   5.3158149   1.4916659  12.6245769  )
        13           Ti1 tau(  13) = (   6.5431557   2.9598450  12.6156978  )
        14           Ti1 tau(  14) = (   3.2273839   1.5049138  12.4779161  )
        15           O1  tau(  15) = (   0.0471551   0.0364395  14.6528705  )
        16           O1  tau(  16) = (   3.3160098   0.0207640  13.9215624  )
        17           O1  tau(  17) = (   4.5810600   1.5471256  16.0564497  )
        18           O1  tau(  18) = (   2.0947546   1.5446786  16.0656860  )
        19           Ti1 tau(  19) = (   3.3354243   3.0239694  15.7034691  )
        20           Ti1 tau(  20) = (   0.0419518   1.5622418  15.8401859  )
        21           O1  tau(  21) = (   3.2904802   0.0005063   4.7018136  )
        22           O1  tau(  22) = (   0.0415632   0.0558952  17.2248266  )
        23           O1  tau(  23) = (   1.3043587   1.4918075   6.0039043  )
        24           O1  tau(  24) = (   5.2767064   1.4903225   6.0039473  )
        25           Ti1 tau(  25) = (   0.0000382   5.9609847   6.0000000  )
        26           Ti1 tau(  26) = (   3.2902200   4.4714249   6.0002472  )
        27           O1  tau(  27) = (   0.0002396   2.9813036   7.9858123  )
        28           O1  tau(  28) = (   3.2902150   2.9813002   7.3038282  )
        29           O1  tau(  29) = (   4.5938453   4.4726049   9.2879030  )
        30           O1  tau(  30) = (   1.9864658   4.4711199   9.2879459  )
        31           Ti1 tau(  31) = (   3.2891106   5.8743827   9.1763621  )
        32           Ti1 tau(  32) = (   0.0006254   4.4649316   9.2693709  )
        33           O1  tau(  33) = (   3.3101407   2.9955762  11.3294870  )
        34           O1  tau(  34) = (   0.0092240   2.9805883  10.6323155  )
        35           O1  tau(  35) = (   1.3272401   4.4878838  12.6173354  )
        36           O1  tau(  36) = (   5.3164082   4.4812184  12.6342743  )
        37           Ti1 tau(  37) = (   6.5430856   5.9365306  12.5602028  )
        38           Ti1 tau(  38) = (   3.2246414   4.4845729  12.4831641  )
        39           O1  tau(  39) = (   0.0420920   2.9623338  14.6463429  )
        40           O1  tau(  40) = (   3.3182946   3.0055568  13.9055467  )
        41           O1  tau(  41) = (   4.5797692   4.5125808  16.0776662  )
        42           O1  tau(  42) = (   2.0972274   4.5146901  16.0918111  )
        43           Ti1 tau(  43) = (   3.3319946   0.0399457  15.7186693  )
        44           Ti1 tau(  44) = (   0.0407629   4.6953510  16.1098173  )
        45           O1  tau(  45) = (   3.2900926   2.9813045   4.7018136  )
        46           O1  tau(  46) = (   1.3039711   4.4726057   6.0039043  )
        47           O1  tau(  47) = (   5.2763189   4.4711207   6.0039473  )
        48           N1  tau(  48) = (   0.0554023   2.9932257  17.4010969  )
        49           C1  tau(  49) = (   0.1090839   2.9222626  18.6472186  )
        50           H1  tau(  50) = (   0.1225839   3.8204711  19.2773028  )
        51           H1  tau(  51) = (   0.1417253   1.9549180  19.1625725  )

     number of k points=    10  Fermi-Dirac smearing, width (Ry)=  0.0073
                       cart. coord. in units 2pi/alat
        k(    1) = (   0.0000000   0.0000000   0.0000000), wk =   0.1250000
        k(    2) = (   0.0000000   0.0419351   0.0000000), wk =   0.2500000
        k(    3) = (   0.0000000  -0.0838702   0.0000000), wk =   0.1250000
        k(    4) = (   0.0379955   0.0000049   0.0000000), wk =   0.2500000
        k(    5) = (   0.0379955   0.0419400   0.0000000), wk =   0.2500000
        k(    6) = (   0.0379955  -0.0838652   0.0000000), wk =   0.2500000
        k(    7) = (   0.0379955  -0.0419301   0.0000000), wk =   0.2500000
        k(    8) = (  -0.0759910  -0.0000099   0.0000000), wk =   0.1250000
        k(    9) = (  -0.0759910   0.0419252   0.0000000), wk =   0.2500000
        k(   10) = (  -0.0759910  -0.0838800   0.0000000), wk =   0.1250000

     Initial potential from superposition of free atoms

     starting charge  372.99918, renormalised to  389.00000

     negative rho (up, down):  1.813E-02 0.000E+00

     %%%%%%%%%%%%%%%%%%%%%%%%%%%%%%%%%%%%%%%%%%%%%%%%%%%%%%%%%%%%%%%%%%%%%%%%
     %                                                                      %
     % You are using vdW-DF, which was implemented by the Thonhauser group. %
     % Please cite the following two papers that made this development      %
     % possible and the two reviews that describe the various versions:     %
     %                                                                      %
     %   T. Thonhauser et al., PRL 115, 136402 (2015).                      %
     %   T. Thonhauser et al., PRB 76, 125112 (2007).                       %
     %   K. Berland et al., Rep. Prog. Phys. 78, 066501 (2015).             %
     %   D.C. Langreth et al., J. Phys.: Condens. Matter 21, 084203 (2009). %
     %                                                                      %
     %                                                                      %
     % If you are calculating the stress with vdW-DF, please also cite:     %
     %                                                                      %
     %   R. Sabatini et al., J. Phys.: Condens. Matter 24, 424209 (2012).   %
     %                                                                      %
     %%%%%%%%%%%%%%%%%%%%%%%%%%%%%%%%%%%%%%%%%%%%%%%%%%%%%%%%%%%%%%%%%%%%%%%%

     Adding external electric field

     Computed dipole along edir(3) :
        Dipole               -4.6897 Ry au,        -11.9200 Debye
        Dipole field         -0.0089 Ry au,

        Potential amp.        0.8204 Ry
        Total length         46.3494 bohr

     Starting wfcs are  294 atomic wfcs
  @ DRIVER MODE: Message from server: STATUS
  @ DRIVER MODE: Message from server: POSDATA
  @ DRIVER MODE: Reading and sharing cell
  @ DRIVER MODE: Reading and sharing positions
  @ DRIVER MODE: Received positions

     Self-consistent Calculation

     iteration #  1     ecut=    29.40 Ry     beta= 0.05
     Davidson diagonalization with overlap
     c_bands:  3 eigenvalues not converged
     c_bands:  1 eigenvalues not converged
     c_bands:  1 eigenvalues not converged
     c_bands:  2 eigenvalues not converged
     c_bands:  2 eigenvalues not converged
     c_bands:  2 eigenvalues not converged
     c_bands:  2 eigenvalues not converged
     ethr =  1.00E-05,  avg # of iterations = 19.8

[...]

     total energy              =   -2866.40053815 Ry
     estimated scf accuracy    <     587.93538920 Ry

     iteration #  2     ecut=    29.40 Ry     beta= 0.05
     Davidson diagonalization with overlap
     ethr =  1.00E-02,  avg # of iterations = 14.5

[...]

     iteration # 51     ecut=    29.40 Ry     beta= 0.05
     Davidson diagonalization with overlap
     c_bands:  1 eigenvalues not converged
     ethr =  8.61E-11,  avg # of iterations = 10.2

[...]

     total energy              =   -2917.92264691 Ry
     estimated scf accuracy    <       0.00000016 Ry

     iteration # 54     ecut=    29.40 Ry     beta= 0.05
     Davidson diagonalization with overlap
     ethr =  4.07E-11,  avg # of iterations = 10.0

     negative rho (up, down):  1.842E-02 0.000E+00

     Adding external electric field

     Computed dipole along edir(3) :
        Dipole                0.7583 Ry au,          1.9274 Debye
        Dipole field          0.0014 Ry au,

        Potential amp.       -0.1327 Ry
        Total length         46.3494 bohr

     End of self-consistent calculation

          k = 0.0000 0.0000 0.0000 ( 18029 PWs)   bands (ev):

   -56.0018 -55.9925 -55.9677 -55.9562 -55.8794 -55.8500 -55.8296 -55.8156
   -55.8105 -55.7766 -55.7742 -55.7405 -55.5308 -55.2580 -54.9786 -54.9446
   -32.5469 -32.4842 -32.3512 -32.3316 -32.3093 -32.3044 -32.2946 -32.2648
   -32.2443 -32.2194 -32.2125 -32.1905 -32.1727 -32.1540 -32.1457 -32.1324
   -32.1120 -32.1061 -32.0914 -32.0589 -32.0585 -32.0556 -32.0094 -32.0084
   -32.0074 -32.0048 -31.9985 -31.9910 -31.9764 -31.9649 -31.9582 -31.9498
   -31.9411 -31.9408 -31.9273 -31.9180 -31.8864 -31.7810 -31.7110 -31.5461
   -31.5126 -31.4695 -31.3857 -31.2976 -31.2752 -31.2025 -31.1160 -31.0049
   -16.7444 -16.4758 -16.2511 -16.1538 -16.1232 -16.0065 -15.8405 -15.7219
   -15.6712 -15.5733 -15.5598 -15.5376 -15.5037 -15.4764 -15.4736 -15.4451
   -15.4421 -15.4222 -15.4092 -15.3608 -15.3387 -15.3055 -15.2085 -15.1761
   -15.1358 -15.1081 -15.0676 -15.0573 -14.9978 -14.5704 -13.4811 -13.3647
    -7.5082  -4.3423  -4.1216  -4.0079  -3.9567  -3.9071  -3.8485  -3.6398
    -3.5501  -3.5236  -3.2322  -3.1858  -3.1681  -3.1559  -3.1174  -2.9017
    -2.8486  -2.8164  -2.7955  -2.7812  -2.7700  -2.7621  -2.7428  -2.7151
    -2.6024  -2.5454  -2.5425  -2.4199  -2.3925  -2.3372  -2.3137  -2.2668
    -2.2513  -2.2425  -2.2158  -2.2051  -2.1916  -2.1623  -2.0838  -1.9696
    -1.8190  -1.7996  -1.7646  -1.6473  -1.6085  -1.5475  -1.4579  -1.4422
    -1.4271  -1.3929  -1.3765  -1.3042  -1.1777  -1.1546  -1.1459  -1.0453
    -0.9980  -0.9792  -0.8827  -0.8471  -0.7763  -0.7657  -0.7540  -0.7164
    -0.5533  -0.5019  -0.4715  -0.4032  -0.3737  -0.3231  -0.3022  -0.2738
    -0.1904  -0.1402  -0.1184  -0.1099  -0.0634  -0.0267  -0.0105  -0.0012
     0.0102   0.0237   0.1969   0.2702   0.2760   0.3556   0.3656   0.5267
     0.5875   0.6557   0.7630   0.9689   1.0434   1.1321   1.2358   1.4730
     1.6145   1.6601   3.1345   3.2184   3.2664   3.2756   3.3772   3.4136
     3.5878   3.5956   3.6083   3.6825

[...]

          k = 0.0380-0.0419 0.0000 ( 17876 PWs)   bands (ev):

[...]

          k =-0.0760-0.0000 0.0000 ( 17886 PWs)   bands (ev):

[...]

          k =-0.0760-0.0839 0.0000 ( 17948 PWs)   bands (ev):

   -55.9851 -55.9842 -55.9770 -55.9715 -55.8724 -55.8365 -55.8332 -55.8324
   -55.7941 -55.7925 -55.7583 -55.7566 -55.5298 -55.2588 -54.9616 -54.9615
   -32.3527 -32.3476 -32.2998 -32.2991 -32.2804 -32.2795 -32.2624 -32.2504
   -32.2026 -32.1964 -32.1899 -32.1833 -32.1465 -32.1283 -32.1233 -32.1219
   -32.1123 -32.1063 -32.1046 -32.1037 -32.0972 -32.0947 -32.0758 -32.0521
   -32.0485 -32.0379 -32.0283 -32.0147 -31.9931 -31.9927 -31.9899 -31.9883
   -31.9729 -31.9720 -31.9684 -31.9654 -31.8928 -31.7836 -31.7072 -31.6117
   -31.5142 -31.4899 -31.2879 -31.2878 -31.1985 -31.1984 -31.1593 -31.1593
   -16.1766 -16.1573 -15.9454 -15.9180 -15.9133 -15.9019 -15.7744 -15.7137
   -15.6963 -15.6944 -15.6159 -15.5941 -15.5731 -15.5458 -15.5339 -15.5214
   -15.5153 -15.5082 -15.4632 -15.4571 -15.4376 -15.4304 -15.3284 -15.3179
   -15.3138 -15.2603 -15.1851 -15.0524 -15.0141 -14.7359 -13.4666 -13.4665
    -7.5039  -4.3241  -3.6884  -3.4670  -3.4443  -3.1759  -3.1585  -3.1496
    -3.0895  -2.9170  -2.9010  -2.8781  -2.8572  -2.8285  -2.8266  -2.8052
    -2.8041  -2.7923  -2.7476  -2.7407  -2.7154  -2.6793  -2.6684  -2.6569
    -2.6483  -2.6244  -2.6140  -2.5723  -2.5430  -2.5355  -2.5208  -2.4976
    -2.3103  -2.2291  -2.2028  -2.1390  -2.1316  -2.0971  -2.0654  -2.0535
    -2.0378  -1.9873  -1.9101  -1.7348  -1.7017  -1.6839  -1.6318  -1.5980
    -1.5571  -1.4712  -1.4029  -1.3777  -1.3718  -1.3230  -1.2146  -1.1939
    -1.1786  -1.1048  -1.0733  -1.0498  -1.0123  -0.9953  -0.9619  -0.9565
    -0.8637  -0.8147  -0.7671  -0.7648  -0.7190  -0.6538  -0.6400  -0.6120
    -0.5039  -0.4848  -0.4287  -0.3834  -0.2833  -0.2144  -0.0183   0.0448
     0.0699   0.1282   0.2082   0.2905   0.3038   0.3174   0.3183   0.3649
     0.4351   0.5309   0.5405   0.5935   0.6982   1.3660   1.4072   1.4077
     1.4799   1.4801   3.4210   3.4301   3.4693   3.4912   3.6293   3.6432
     3.6661   3.6673   3.7297   3.8235

     the Fermi energy is     3.1324 ev

!    total energy              =   -2917.92271907 Ry
     estimated scf accuracy    <       0.00000005 Ry
     smearing contrib. (-TS)   =      -0.02179791 Ry
     internal energy E=F+TS    =   -2917.90092116 Ry

     The total energy is F=E-TS. E is the sum of the following terms:
     one-electron contribution =  -24775.50053362 Ry
     hartree contribution      =   12471.32913293 Ry
     xc contribution           =    -479.19526062 Ry
     ewald contribution        =    9865.46465501 Ry
     electric field correction =       0.00108514 Ry

     convergence has been achieved in  54 iterations

     Forces acting on atoms (cartesian axes, Ry/au):

     atom    1 type  1   force =     0.00018159   -0.00023460    0.09670109
     atom    2 type  1   force =     0.00006994   -0.00055927   -0.17541066
     atom    3 type  2   force =     0.00017965    0.00000620   -0.02479175
     atom    4 type  2   force =     0.00005668   -0.00133101    0.05291209
     atom    5 type  2   force =    -0.01177762    0.00012327    0.00258484
     atom    6 type  2   force =     0.01394521    0.00051113    0.00338721
     atom    7 type  1   force =     0.00128990    0.00070902   -0.01179221
     atom    8 type  1   force =    -0.00005324    0.00765121    0.02817946
     atom    9 type  2   force =    -0.00024355   -0.00023643   -0.00010897
     atom   10 type  2   force =    -0.00221075    0.00207857   -0.01521106
     atom   11 type  2   force =    -0.00002646   -0.00009544    0.00024944
     atom   12 type  2   force =    -0.00002866    0.00014450   -0.00004507
     atom   13 type  1   force =    -0.00103283   -0.00026594   -0.00020601
     atom   14 type  1   force =    -0.00021933   -0.00026656    0.00056205
     atom   15 type  2   force =    -0.00030651    0.00025438    0.00025702
     atom   16 type  2   force =     0.00025167    0.00007700   -0.00053436
     atom   17 type  2   force =     0.00024574    0.00013721   -0.00022820
     atom   18 type  2   force =    -0.00032827    0.00039207   -0.00053399
     atom   19 type  1   force =    -0.00062610    0.00010880   -0.00019989
     atom   20 type  1   force =     0.00015323   -0.00037482    0.00175042
     atom   21 type  2   force =     0.00008966   -0.00004950    0.10324793
     atom   22 type  2   force =     0.00044037   -0.00046436   -0.00035247
     atom   23 type  2   force =    -0.07149318   -0.00015644   -0.02768801
     atom   24 type  2   force =     0.07148703    0.00033281   -0.02777246
     atom   25 type  1   force =     0.00018653   -0.00022031    0.09622184
     atom   26 type  1   force =     0.00010614   -0.00026537   -0.17554302
     atom   27 type  2   force =     0.00022452   -0.00011940   -0.02386803
     atom   28 type  2   force =     0.00008879   -0.00110088    0.05286472
     atom   29 type  2   force =    -0.01198629    0.00068358    0.00233705
     atom   30 type  2   force =     0.01401725    0.00103253    0.00318638
     atom   31 type  1   force =     0.00113259    0.00335655   -0.01210287
     atom   32 type  1   force =    -0.00023644   -0.00973468    0.02862749
     atom   33 type  2   force =    -0.00017716    0.00031399   -0.00008139
     atom   34 type  2   force =    -0.00173065    0.00175706   -0.02350178
     atom   35 type  2   force =    -0.00003141    0.00009937    0.00024937
     atom   36 type  2   force =     0.00056191    0.00012926    0.00023475
     atom   37 type  1   force =    -0.00097478   -0.00038760    0.00003657
     atom   38 type  1   force =     0.00024401   -0.00011902    0.00049205
     atom   39 type  2   force =    -0.00004678   -0.00046250   -0.00002644
     atom   40 type  2   force =    -0.00004403    0.00025394    0.00046486
     atom   41 type  2   force =    -0.00050374   -0.00052213   -0.00018592
     atom   42 type  2   force =    -0.00030205   -0.00081213   -0.00073967
     atom   43 type  1   force =    -0.00046170    0.00001132    0.00005716
     atom   44 type  1   force =     0.00013108   -0.00032578    0.00154317
     atom   45 type  2   force =     0.00006809   -0.00006861    0.10326354
     atom   46 type  2   force =    -0.07149808   -0.00008347   -0.02769922
     atom   47 type  2   force =     0.07151115    0.00033771   -0.02777981
     atom   48 type  3   force =    -0.00009886    0.00067447   -0.03009259
     atom   49 type  4   force =    -0.00054041   -0.00185382    0.02369631
     atom   50 type  5   force =     0.00041076    0.00009265    0.00158029
     atom   51 type  5   force =    -0.00009459   -0.00115854    0.00180875

     Total force =     0.369990     Total SCF correction =     0.000570
  @ DRIVER MODE: Message from server: STATUS
  @ DRIVER MODE: Message from server: GETFORCE
  @ DRIVER MODE: Returning v,forces,stress,ensemble

     Writing output data file ./calc.save/
  @ DRIVER MODE: Message from server: EXIT
  @ DRIVE MODE: Exiting

     General routines

     Parallel routines

   This run was terminated on:  11:43:48  24Aug2021

   JOB DONE.