     Program PWSCF v.6.7GPU starts on 24Aug2021 at 17:35:12

     R & G space division:  proc/nbgrp/npool/nimage =       6
     Reading input from /storage/home/hcoda1/3/ntian30/research/carbon/CH3_vib_end_on/ads_slab/CH3N2H_a/out_0002/pw.inp
Warning: card &CELL ignored
Warning: card   CELL_DYNAMICS='IPI', ignored
Warning: card / ignored

     Current dimensions of program PWSCF are:
     Max number of different atomic species (ntypx) = 10
     Max number of k-points (npk) =  40000
     Max angular momentum in pseudopotentials (lmaxx) =  3
     Presently no symmetry can be used with electric field

     Message from routine cell_base_init:
     DEPRECATED: use true lattice parameter, not A to a.u. conversion factor

     IMPORTANT: XC functional enforced from input :
     Exchange-correlation= BEEF-VDW
                           (   1   4  43  14   2   0   0)
     Any further DFT definition will be discarded
     Please, verify this is what you really want

  @ DRIVER MODE: Connecting to
 qe_1139763_2643869.sched-torque.pace.gatech.edulpyumb0__scratch
  using UNIX socket
  @ DRIVER MODE: Message from server: STATUS
  @ DRIVER MODE: Message from server: INIT
  @ DRIVER MODE: Receiving replica           0          -1
  @ DRIVER MODE: Receiving encoded integer          25
  @ DRIVER MODE:  SCF:  T  FORCE:  T  STRESS:  F  VC:  F  ENSEMBLE:  F
  @ DRIVER MODE:  SCF:  T  FORCE:  T  STRESS:  F  VC:  F  ENSEMBLE:  F

     Using Slab Decomposition

     bravais-lattice index     =            0
     lattice parameter (alat)  =       1.8897  a.u.
     unit-cell volume          =    6658.9804 (a.u.)^3
     number of atoms/cell      =           54
     number of atomic types    =            5
     number of electrons       =       396.00
     number of Kohn-Sham states=          208
     kinetic-energy cutoff     =      29.3995  Ry
     charge density cutoff     =     293.9946  Ry
     scf convergence threshold =      7.3E-08
     mixing beta               =       0.0500
     number of iterations used =            8  plain     mixing
     Exchange-correlation= BEEF-VDW
                           (   1   4  43  14   2   0   0)

     celldm(1)=   1.889726  celldm(2)=   0.000000  celldm(3)=   0.000000
     celldm(4)=   0.000000  celldm(5)=   0.000000  celldm(6)=   0.000000

     crystal axes: (cart. coord. in units of alat)
               a(1) = (   6.579727   0.000000   0.000000 )
               a(2) = (  -0.000775   5.961596   0.000000 )
               a(3) = (   0.000000   0.000000  25.155947 )

     reciprocal axes: (cart. coord. in units 2 pi/alat)
               b(1) = (  0.151982  0.000020  0.000000 )
               b(2) = (  0.000000  0.167740  0.000000 )
               b(3) = (  0.000000  0.000000  0.039752 )

     PseudoPot. # 1 for Ti read from file:
     /storage/coda1/p-amedford6/0/shared/rich_project_chbe-medford/medford-share/data/pseudos_module/espresso/nninc/pbe/van/Ti.UPF
     MD5 check sum: 8e4df49b7f0d34bbd5052bf3f5ea0213
     Pseudo is Ultrasoft, Zval = 12.0
     Generated by new atomic code, or converted to UPF format
     Using radial grid of  851 points,  6 beta functions with:
                l(1) =   0
                l(2) =   0
                l(3) =   1
                l(4) =   1
                l(5) =   2
                l(6) =   2
     Q(r) pseudized with  8 coefficients,  rinner =    1.000   1.000   1.000
                                                       1.000   1.000

     PseudoPot. # 2 for O  read from file:
     /storage/coda1/p-amedford6/0/shared/rich_project_chbe-medford/medford-share/data/pseudos_module/espresso/nninc/pbe/van/O.UPF
     MD5 check sum: 78c19812648e8988a0fe644b0f25305e
     Pseudo is Ultrasoft, Zval =  6.0
     Generated by new atomic code, or converted to UPF format
     Using radial grid of  737 points,  4 beta functions with:
                l(1) =   0
                l(2) =   0
                l(3) =   1
                l(4) =   1
     Q(r) pseudized with  8 coefficients,  rinner =    0.800   0.800   0.800

     PseudoPot. # 3 for N  read from file:
     /storage/coda1/p-amedford6/0/shared/rich_project_chbe-medford/medford-share/data/pseudos_module/espresso/nninc/pbe/van/N.UPF
     MD5 check sum: 90d10febe142ad51ac9d5be1deb811c4
     Pseudo is Ultrasoft, Zval =  5.0
     Generated by new atomic code, or converted to UPF format
     Using radial grid of  729 points,  4 beta functions with:
                l(1) =   0
                l(2) =   0
                l(3) =   1
                l(4) =   1
     Q(r) pseudized with  8 coefficients,  rinner =    0.800   0.800   0.800

     PseudoPot. # 4 for C  read from file:
     /storage/coda1/p-amedford6/0/shared/rich_project_chbe-medford/medford-share/data/pseudos_module/espresso/nninc/pbe/van/C.UPF
     MD5 check sum: 1a69bf6b8db32088f5b2163dbdb77a27
     Pseudo is Ultrasoft, Zval =  4.0
     Generated by new atomic code, or converted to UPF format
     Using radial grid of  721 points,  4 beta functions with:
                l(1) =   0
                l(2) =   0
                l(3) =   1
                l(4) =   1
     Q(r) pseudized with  8 coefficients,  rinner =    0.800   0.800   0.800

     PseudoPot. # 5 for H  read from file:
     /storage/coda1/p-amedford6/0/shared/rich_project_chbe-medford/medford-share/data/pseudos_module/espresso/nninc/pbe/van/H.UPF
     MD5 check sum: b5ee9d7bfd3a09ee7748110bda690ff7
     Pseudo is Ultrasoft, Zval =  1.0
     Generated by new atomic code, or converted to UPF format
     Using radial grid of  615 points,  1 beta functions with:
                l(1) =   0
     Q(r) pseudized with  8 coefficients,  rinner =    0.800

     atomic species   valence    mass     pseudopotential
        Ti1           12.00    47.86700     Ti( 1.00)
        O1             6.00    15.99900     O ( 1.00)
        N1             5.00    14.00700     N ( 1.00)
        C1             4.00    12.01100     C ( 1.00)
        H1             1.00     1.00800     H ( 1.00)

     No symmetry found

   Cartesian axes

     site n.     atom                  positions (alat units)
         1           Ti1 tau(   1) = (   0.0004258   2.9801865   6.0000000  )
         2           Ti1 tau(   2) = (   3.2906075   1.4906267   6.0002472  )
         3           O1  tau(   3) = (   0.0006271   0.0005054   7.9858123  )
         4           O1  tau(   4) = (   3.2906025   0.0005020   7.3038282  )
         5           O1  tau(   5) = (   4.5942328   1.4918067   9.2879030  )
         6           O1  tau(   6) = (   1.9868534   1.4903216   9.2879459  )
         7           Ti1 tau(   7) = (   3.2907910   2.8959150   9.1758416  )
         8           Ti1 tau(   8) = (   0.0015273   1.4827037   9.2680791  )
         9           O1  tau(   9) = (   3.2896288   0.0042867  11.3205077  )
        10           O1  tau(  10) = (   0.0116148   5.9584955  10.6183126  )
        11           O1  tau(  11) = (   1.2848067   1.4985890  12.6232755  )
        12           O1  tau(  12) = (   5.2688617   1.4893877  12.6055203  )
        13           Ti1 tau(  13) = (   0.0799559   3.0171279  12.6206390  )
        14           Ti1 tau(  14) = (   3.4009582   1.4891986  12.4726338  )
        15           O1  tau(  15) = (   6.5707323   0.0080309  14.6263129  )
        16           O1  tau(  16) = (   3.2902489   0.0120312  13.8979102  )
        17           O1  tau(  17) = (   4.5126121   1.5346005  16.0500440  )
        18           O1  tau(  18) = (   2.0453867   1.5362785  16.0447169  )
        19           Ti1 tau(  19) = (   3.2767562   3.0203775  15.6892921  )
        20           Ti1 tau(  20) = (   6.5596632   1.5778499  15.8310978  )
        21           O1  tau(  21) = (   3.2904802   0.0005063   4.7018136  )
        22           O1  tau(  22) = (   6.5709656   0.0671247  17.2345223  )
        23           O1  tau(  23) = (   1.3043587   1.4918075   6.0039043  )
        24           O1  tau(  24) = (   5.2767064   1.4903225   6.0039473  )
        25           Ti1 tau(  25) = (   0.0000382   5.9609847   6.0000000  )
        26           Ti1 tau(  26) = (   3.2902200   4.4714249   6.0002472  )
        27           O1  tau(  27) = (   0.0002396   2.9813036   7.9858123  )
        28           O1  tau(  28) = (   3.2902150   2.9813002   7.3038282  )
        29           O1  tau(  29) = (   4.5938453   4.4726049   9.2879030  )
        30           O1  tau(  30) = (   1.9864658   4.4711199   9.2879459  )
        31           Ti1 tau(  31) = (   3.2891106   5.8743827   9.1763621  )
        32           Ti1 tau(  32) = (   0.0006254   4.4649316   9.2693709  )
        33           O1  tau(  33) = (   3.2919429   2.9835650  11.3172650  )
        34           O1  tau(  34) = (   0.0092240   2.9805883  10.6323155  )
        35           O1  tau(  35) = (   1.2842535   4.4799506  12.6241420  )
        36           O1  tau(  36) = (   5.2755836   4.4732255  12.6042992  )
        37           Ti1 tau(  37) = (   0.0783641   0.0295629  12.6394962  )
        38           Ti1 tau(  38) = (   3.4022659   4.4693352  12.4708195  )
        39           O1  tau(  39) = (   6.5693815   2.9799975  14.6326336  )
        40           O1  tau(  40) = (   3.2899495   3.0014797  13.8849495  )
        41           O1  tau(  41) = (   4.5062741   4.5069571  16.0893315  )
        42           O1  tau(  42) = (   2.0480812   4.5060041  16.0753496  )
        43           Ti1 tau(  43) = (   3.2742444   0.0367023  15.7020416  )
        44           Ti1 tau(  44) = (   6.5658628   4.6518251  16.1481936  )
        45           O1  tau(  45) = (   3.2900926   2.9813045   4.7018136  )
        46           O1  tau(  46) = (   1.3039711   4.4726057   6.0039043  )
        47           O1  tau(  47) = (   5.2763189   4.4711207   6.0039473  )
        48           N1  tau(  48) = (   6.5301982   2.6597193  18.5868863  )
        49           N1  tau(  49) = (   6.5663212   2.9659568  17.3251533  )
        50           C1  tau(  50) = (   0.1092964   3.6297355  19.6533281  )
        51           H1  tau(  51) = (   6.1365678   4.5355971  19.4091500  )
        52           H1  tau(  52) = (   6.3142024   3.1981282  20.5813133  )
        53           H1  tau(  53) = (   1.1661384   3.8973747  19.7839464  )
        54           H1  tau(  54) = (   6.5756389   1.6632157  18.8047554  )

     number of k points=    10  Fermi-Dirac smearing, width (Ry)=  0.0073
                       cart. coord. in units 2pi/alat
        k(    1) = (   0.0000000   0.0000000   0.0000000), wk =   0.1250000
        k(    2) = (   0.0000000   0.0419351   0.0000000), wk =   0.2500000
        k(    3) = (   0.0000000  -0.0838702   0.0000000), wk =   0.1250000
        k(    4) = (   0.0379955   0.0000049   0.0000000), wk =   0.2500000
        k(    5) = (   0.0379955   0.0419400   0.0000000), wk =   0.2500000
        k(    6) = (   0.0379955  -0.0838652   0.0000000), wk =   0.2500000
        k(    7) = (   0.0379955  -0.0419301   0.0000000), wk =   0.2500000
        k(    8) = (  -0.0759910  -0.0000099   0.0000000), wk =   0.1250000
        k(    9) = (  -0.0759910   0.0419252   0.0000000), wk =   0.2500000
        k(   10) = (  -0.0759910  -0.0838800   0.0000000), wk =   0.1250000

     Initial potential from superposition of free atoms

     starting charge  379.99915, renormalised to  396.00000

     negative rho (up, down):  1.474E-02 0.000E+00

     %%%%%%%%%%%%%%%%%%%%%%%%%%%%%%%%%%%%%%%%%%%%%%%%%%%%%%%%%%%%%%%%%%%%%%%%
     %                                                                      %
     % You are using vdW-DF, which was implemented by the Thonhauser group. %
     % Please cite the following two papers that made this development      %
     % possible and the two reviews that describe the various versions:     %
     %                                                                      %
     %   T. Thonhauser et al., PRL 115, 136402 (2015).                      %
     %   T. Thonhauser et al., PRB 76, 125112 (2007).                       %
     %   K. Berland et al., Rep. Prog. Phys. 78, 066501 (2015).             %
     %   D.C. Langreth et al., J. Phys.: Condens. Matter 21, 084203 (2009). %
     %                                                                      %
     %                                                                      %
     % If you are calculating the stress with vdW-DF, please also cite:     %
     %                                                                      %
     %   R. Sabatini et al., J. Phys.: Condens. Matter 24, 424209 (2012).   %
     %                                                                      %
     %%%%%%%%%%%%%%%%%%%%%%%%%%%%%%%%%%%%%%%%%%%%%%%%%%%%%%%%%%%%%%%%%%%%%%%%

     Adding external electric field

     Computed dipole along edir(3) :
        Dipole               -9.2704 Ry au,        -23.5631 Debye
        Dipole field         -0.0175 Ry au,

        Potential amp.        1.6217 Ry
        Total length         46.3494 bohr

     Starting wfcs are  300 atomic wfcs
  @ DRIVER MODE: Message from server: STATUS
  @ DRIVER MODE: Message from server: POSDATA
  @ DRIVER MODE: Reading and sharing cell
  @ DRIVER MODE: Reading and sharing positions
  @ DRIVER MODE: Received positions

     Self-consistent Calculation

     iteration #  1     ecut=    29.40 Ry     beta= 0.05
     Davidson diagonalization with overlap
     c_bands:  1 eigenvalues not converged
     c_bands:  1 eigenvalues not converged
     c_bands:  1 eigenvalues not converged
     ethr =  1.00E-05,  avg # of iterations = 17.9

[...]

     total energy              =   -2585.43608015 Ry
     estimated scf accuracy    <    3945.52820824 Ry

     iteration #  2     ecut=    29.40 Ry     beta= 0.05
     Davidson diagonalization with overlap
     ethr =  1.00E-02,  avg # of iterations = 22.7

[...]

     iteration # 40     ecut=    29.40 Ry     beta= 0.05
     Davidson diagonalization with overlap
     c_bands:  1 eigenvalues not converged
     ethr =  1.61E-06,  avg # of iterations = 11.4

[...]

     total energy              =   -2940.39765936 Ry
     estimated scf accuracy    <       0.00000007 Ry

     iteration # 64     ecut=    29.40 Ry     beta= 0.05
     Davidson diagonalization with overlap
     ethr =  1.87E-11,  avg # of iterations =  6.9

     negative rho (up, down):  1.568E-02 0.000E+00

     Adding external electric field

     Computed dipole along edir(3) :
        Dipole                1.1346 Ry au,          2.8838 Debye
        Dipole field          0.0021 Ry au,

        Potential amp.       -0.1985 Ry
        Total length         46.3494 bohr

     End of self-consistent calculation

          k = 0.0000 0.0000 0.0000 ( 18029 PWs)   bands (ev):

   -55.6390 -55.6050 -55.5474 -55.5097 -55.4030 -55.3810 -55.3692 -55.3456
   -55.3387 -55.3330 -55.3117 -55.2632 -54.7232 -54.5810 -54.5551 -54.5470
   -32.1135 -32.0909 -31.9333 -31.9202 -31.8905 -31.8596 -31.8420 -31.8350
   -31.7922 -31.7771 -31.7752 -31.7358 -31.7273 -31.7093 -31.6977 -31.6894
   -31.6779 -31.6687 -31.6369 -31.6240 -31.6017 -31.5813 -31.5740 -31.5616
   -31.5469 -31.5408 -31.5339 -31.5321 -31.5264 -31.5092 -31.5003 -31.4986
   -31.4949 -31.4578 -31.4449 -31.3774 -31.2212 -30.9867 -30.9465 -30.9315
   -30.9020 -30.8927 -30.8793 -30.8036 -30.7632 -30.7348 -30.7173 -30.6062
   -18.0117 -16.2739 -16.0458 -15.7686 -15.6688 -15.6445 -15.5239 -15.3909
   -15.2901 -15.1958 -15.1547 -15.1007 -15.0964 -15.0670 -15.0362 -15.0003
   -14.9731 -14.9334 -14.9173 -14.8957 -14.8720 -14.8634 -14.7508 -14.7382
   -14.7133 -14.6215 -14.6112 -14.5403 -14.5129 -14.0850 -13.0831 -12.9673
   -12.0342  -8.9401  -5.7375  -4.4627  -4.1675  -3.6567  -3.5304  -3.5004
    -3.3990  -3.2268  -3.1342  -3.0748  -2.9584  -2.7604  -2.7260  -2.7159
    -2.6959  -2.6385  -2.4398  -2.4141  -2.3834  -2.3431  -2.3332  -2.3314
    -2.3168  -2.2554  -2.1901  -2.1242  -2.0272  -2.0224  -1.9652  -1.9514
    -1.9336  -1.9005  -1.8562  -1.8166  -1.7948  -1.7539  -1.7340  -1.7278
    -1.6879  -1.6047  -1.5017  -1.3449  -1.3312  -1.2976  -1.2498  -1.1931
    -1.0284  -1.0145  -0.9759  -0.9695  -0.9383  -0.8623  -0.7975  -0.7101
    -0.6760  -0.5979  -0.5814  -0.5531  -0.4789  -0.3931  -0.3705  -0.3554
    -0.3476  -0.3320  -0.2752  -0.1600  -0.0644  -0.0360   0.0863   0.0911
     0.1264   0.1712   0.1868   0.2690   0.3057   0.3185   0.3711   0.3715
     0.3830   0.4266   0.4496   0.5113   0.5669   0.6519   0.7251   0.7906
     0.8270   0.9442   1.0153   1.0808   1.1110   1.2408   1.3646   1.3791
     1.4409   1.6358   1.6388   2.0093   2.0536   3.5322   3.5537   3.6464
     3.6896   3.7871   3.8261   3.9707   4.0239   4.0628   4.1765   4.2088

[...]

          k = 0.0380-0.0419 0.0000 ( 17876 PWs)   bands (ev):

[...]

          k =-0.0760-0.0000 0.0000 ( 17886 PWs)   bands (ev):

[...]

          k =-0.0760-0.0839 0.0000 ( 17948 PWs)   bands (ev):

   -55.6221 -55.6218 -55.5343 -55.5226 -55.3861 -55.3858 -55.3720 -55.3477
   -55.3300 -55.3283 -55.3273 -55.2677 -54.7216 -54.5639 -54.5639 -54.5565
   -31.9290 -31.9289 -31.9185 -31.9185 -31.8987 -31.8894 -31.7921 -31.7823
   -31.7583 -31.7456 -31.7430 -31.7425 -31.6980 -31.6951 -31.6837 -31.6801
   -31.6707 -31.6671 -31.6666 -31.6426 -31.5971 -31.5965 -31.5819 -31.5788
   -31.5744 -31.5729 -31.5714 -31.5609 -31.5584 -31.5542 -31.5449 -31.5420
   -31.5366 -31.5249 -31.4989 -31.4655 -31.1304 -30.9671 -30.9325 -30.9199
   -30.8921 -30.8920 -30.7997 -30.7996 -30.7826 -30.7645 -30.7605 -30.7604
   -18.0060 -15.6970 -15.6857 -15.5059 -15.5007 -15.4408 -15.4347 -15.2814
   -15.2805 -15.2624 -15.2541 -15.1305 -15.1267 -15.0962 -15.0924 -15.0502
   -15.0421 -15.0225 -15.0142 -15.0124 -15.0060 -14.9807 -14.9302 -14.8944
   -14.8888 -14.7126 -14.7112 -14.5911 -14.5589 -14.2206 -13.0693 -13.0693
   -12.0351  -8.9499  -5.7292  -4.4010  -4.1709  -2.9869  -2.9765  -2.9744
    -2.7011  -2.6960  -2.6713  -2.6607  -2.4559  -2.4431  -2.4219  -2.4162
    -2.3891  -2.3831  -2.3684  -2.3612  -2.2791  -2.2681  -2.2565  -2.2330
    -2.2308  -2.2241  -2.2078  -2.2003  -2.1904  -2.1567  -2.1226  -2.0927
    -2.0582  -2.0361  -1.9169  -1.8070  -1.7277  -1.7208  -1.6901  -1.6842
    -1.6782  -1.6717  -1.6393  -1.5348  -1.4817  -1.4259  -1.2876  -1.2609
    -1.2448  -1.1984  -1.1099  -1.0296  -0.9657  -0.9499  -0.9014  -0.8582
    -0.8333  -0.7493  -0.7251  -0.7175  -0.6500  -0.6172  -0.5725  -0.5662
    -0.5535  -0.4871  -0.4394  -0.3893  -0.3652  -0.3346  -0.2895  -0.2688
    -0.2060  -0.1557  -0.1064  -0.1008  -0.0525  -0.0444   0.0189   0.1695
     0.2190   0.4732   0.4882   0.5178   0.6422   0.7146   0.7201   0.7469
     0.7789   0.8303   0.8417   0.9763   0.9877   0.9902   1.1562   1.1805
     1.2627   1.8092   1.8095   1.8727   1.8730   3.4346   3.9239   3.9413
     3.9666   3.9818   4.0535   4.0545   4.0625   4.0699   4.2483   4.2681

     the Fermi energy is     3.5094 ev

!    total energy              =   -2940.39769633 Ry
     estimated scf accuracy    <       0.00000005 Ry
     smearing contrib. (-TS)   =      -0.02304777 Ry
     internal energy E=F+TS    =   -2940.37464855 Ry

     The total energy is F=E-TS. E is the sum of the following terms:
     one-electron contribution =  -24109.42737088 Ry
     hartree contribution      =   12145.97271198 Ry
     xc contribution           =    -486.04747555 Ry
     ewald contribution        =    9509.12505675 Ry
     electric field correction =       0.00242916 Ry

     convergence has been achieved in  64 iterations

     Forces acting on atoms (cartesian axes, Ry/au):

     atom    1 type  1   force =     0.00016072   -0.00011993    0.09936180
     atom    2 type  1   force =    -0.00012714   -0.00046800   -0.17358643
     atom    3 type  2   force =    -0.00005047   -0.00000189   -0.02877835
     atom    4 type  2   force =     0.00007397   -0.00125160    0.04998356
     atom    5 type  2   force =    -0.01306412    0.00057874    0.00120943
     atom    6 type  2   force =     0.01461414    0.00138952   -0.00011411
     atom    7 type  1   force =    -0.00145090   -0.00058632   -0.00835931
     atom    8 type  1   force =     0.00087892   -0.00412830    0.04510581
     atom    9 type  2   force =    -0.00002939   -0.00065905   -0.00023917
     atom   10 type  2   force =    -0.00128781    0.00227543   -0.02839857
     atom   11 type  2   force =     0.00018251    0.00061310   -0.00003031
     atom   12 type  2   force =     0.00027823    0.00040855    0.00011377
     atom   13 type  1   force =     0.00037709    0.00021938   -0.00069173
     atom   14 type  1   force =     0.00002002    0.00047695    0.00025464
     atom   15 type  2   force =     0.00038636   -0.00007787    0.00005433
     atom   16 type  2   force =    -0.00040846   -0.00023466   -0.00010854
     atom   17 type  2   force =    -0.00101074    0.00017329   -0.00045392
     atom   18 type  2   force =     0.00083567    0.00020059    0.00029797
     atom   19 type  1   force =     0.00020934   -0.00007138   -0.00011496
     atom   20 type  1   force =    -0.00052568   -0.00094418   -0.00003897
     atom   21 type  2   force =     0.00009291   -0.00007090    0.10278837
     atom   22 type  2   force =     0.00010590    0.00009156    0.00026604
     atom   23 type  2   force =    -0.07215137   -0.00015570   -0.02833170
     atom   24 type  2   force =     0.07215121    0.00030373   -0.02833174
     atom   25 type  1   force =     0.00012905   -0.00019854    0.09865192
     atom   26 type  1   force =    -0.00011464   -0.00046083   -0.17379015
     atom   27 type  2   force =     0.00001341   -0.00002526   -0.02805993
     atom   28 type  2   force =     0.00011466   -0.00100251    0.04943758
     atom   29 type  2   force =    -0.01338384    0.00005818    0.00127062
     atom   30 type  2   force =     0.01484232    0.00042128   -0.00007231
     atom   31 type  1   force =    -0.00139802    0.00251678   -0.00865794
     atom   32 type  1   force =     0.00106464    0.00237543    0.04543671
     atom   33 type  2   force =    -0.00012720    0.00104411    0.00058227
     atom   34 type  2   force =    -0.00071615    0.00120547   -0.03113488
     atom   35 type  2   force =     0.00067502   -0.00050906   -0.00018179
     atom   36 type  2   force =    -0.00160272   -0.00011111    0.00007284
     atom   37 type  1   force =    -0.00018368   -0.00153590    0.00009308
     atom   38 type  1   force =     0.00076519   -0.00004681    0.00044985
     atom   39 type  2   force =     0.00025082    0.00015994   -0.00046111
     atom   40 type  2   force =    -0.00040324    0.00032667    0.00002702
     atom   41 type  2   force =     0.00042994   -0.00061691    0.00006484
     atom   42 type  2   force =    -0.00045629   -0.00073291    0.00062297
     atom   43 type  1   force =     0.00034440   -0.00032313   -0.00067723
     atom   44 type  1   force =    -0.00043894   -0.00059579   -0.00044034
     atom   45 type  2   force =     0.00011030   -0.00006826    0.10281252
     atom   46 type  2   force =    -0.07217634   -0.00009829   -0.02832917
     atom   47 type  2   force =     0.07216189    0.00034360   -0.02830843
     atom   48 type  3   force =    -0.00231774   -0.00074999   -0.00199467
     atom   49 type  3   force =     0.00060144   -0.00035406    0.00012064
     atom   50 type  4   force =     0.00304492    0.00070882    0.00127966
     atom   51 type  5   force =    -0.00039465   -0.00076146   -0.00035051
     atom   52 type  5   force =     0.00030186   -0.00015228   -0.00059593
     atom   53 type  5   force =    -0.00123998    0.00131477    0.00000513
     atom   54 type  5   force =    -0.00015733   -0.00009301    0.00026882

     Total force =     0.372253     Total SCF correction =     0.000939
  @ DRIVER MODE: Message from server: STATUS
  @ DRIVER MODE: Message from server: GETFORCE
  @ DRIVER MODE: Returning v,forces,stress,ensemble

     Writing output data file ./calc.save/
  @ DRIVER MODE: Message from server: EXIT
  @ DRIVE MODE: Exiting

     General routines

     Parallel routines

   This run was terminated on:  18: 3:16  24Aug2021

   JOB DONE.