     Program PWSCF v.6.7GPU starts on 10Sep2021 at 13:22:17

     R & G space division:  proc/nbgrp/npool/nimage =      10
     Reading input from /storage/home/hcoda1/3/ntian30/research/carbon/CxH_vib/CH3_calc/ads_slab/CH3N2H2O_e/out_0048/pw.inp
Warning: card &CELL ignored
Warning: card   CELL_DYNAMICS='IPI', ignored
Warning: card / ignored

     Current dimensions of program PWSCF are:
     Max number of different atomic species (ntypx) = 10
     Max number of k-points (npk) =  40000
     Max angular momentum in pseudopotentials (lmaxx) =  3
     Presently no symmetry can be used with electric field

     Message from routine cell_base_init:
     DEPRECATED: use true lattice parameter, not A to a.u. conversion factor

     IMPORTANT: XC functional enforced from input :
     Exchange-correlation= BEEF-VDW
                           (   1   4  43  14   2   0   0)
     Any further DFT definition will be discarded
     Please, verify this is what you really want

  @ DRIVER MODE: Connecting to
 qe_1139763_2779715.sched-torque.pace.gatech.educ0kyxnzq_scratch
  using UNIX socket
  @ DRIVER MODE: Message from server: STATUS
  @ DRIVER MODE: Message from server: INIT
  @ DRIVER MODE: Receiving replica           0          -1
  @ DRIVER MODE: Receiving encoded integer          25
  @ DRIVER MODE:  SCF:  T  FORCE:  T  STRESS:  F  VC:  F  ENSEMBLE:  F
  @ DRIVER MODE:  SCF:  T  FORCE:  T  STRESS:  F  VC:  F  ENSEMBLE:  F

     Using Slab Decomposition

     bravais-lattice index     =            0
     lattice parameter (alat)  =       1.8897  a.u.
     unit-cell volume          =    6658.9804 (a.u.)^3
     number of atoms/cell      =           56
     number of atomic types    =            5
     number of electrons       =       403.00
     number of Kohn-Sham states=          211
     kinetic-energy cutoff     =      29.3995  Ry
     charge density cutoff     =     293.9946  Ry
     scf convergence threshold =      7.3E-08
     mixing beta               =       0.0500
     number of iterations used =            8  plain     mixing
     Exchange-correlation= BEEF-VDW
                           (   1   4  43  14   2   0   0)

     celldm(1)=   1.889726  celldm(2)=   0.000000  celldm(3)=   0.000000
     celldm(4)=   0.000000  celldm(5)=   0.000000  celldm(6)=   0.000000

     crystal axes: (cart. coord. in units of alat)
               a(1) = (   6.579727   0.000000   0.000000 )
               a(2) = (  -0.000775   5.961596   0.000000 )
               a(3) = (   0.000000   0.000000  25.155947 )

     reciprocal axes: (cart. coord. in units 2 pi/alat)
               b(1) = (  0.151982  0.000020  0.000000 )
               b(2) = (  0.000000  0.167740  0.000000 )
               b(3) = (  0.000000  0.000000  0.039752 )

     PseudoPot. # 1 for Ti read from file:
     /storage/coda1/p-amedford6/0/shared/rich_project_chbe-medford/medford-share/data/pseudos_module/espresso/nninc/pbe/van/Ti.UPF
     MD5 check sum: 8e4df49b7f0d34bbd5052bf3f5ea0213
     Pseudo is Ultrasoft, Zval = 12.0
     Generated by new atomic code, or converted to UPF format
     Using radial grid of  851 points,  6 beta functions with:
                l(1) =   0
                l(2) =   0
                l(3) =   1
                l(4) =   1
                l(5) =   2
                l(6) =   2
     Q(r) pseudized with  8 coefficients,  rinner =    1.000   1.000   1.000
                                                       1.000   1.000

     PseudoPot. # 2 for O  read from file:
     /storage/coda1/p-amedford6/0/shared/rich_project_chbe-medford/medford-share/data/pseudos_module/espresso/nninc/pbe/van/O.UPF
     MD5 check sum: 78c19812648e8988a0fe644b0f25305e
     Pseudo is Ultrasoft, Zval =  6.0
     Generated by new atomic code, or converted to UPF format
     Using radial grid of  737 points,  4 beta functions with:
                l(1) =   0
                l(2) =   0
                l(3) =   1
                l(4) =   1
     Q(r) pseudized with  8 coefficients,  rinner =    0.800   0.800   0.800

     PseudoPot. # 3 for N  read from file:
     /storage/coda1/p-amedford6/0/shared/rich_project_chbe-medford/medford-share/data/pseudos_module/espresso/nninc/pbe/van/N.UPF
     MD5 check sum: 90d10febe142ad51ac9d5be1deb811c4
     Pseudo is Ultrasoft, Zval =  5.0
     Generated by new atomic code, or converted to UPF format
     Using radial grid of  729 points,  4 beta functions with:
                l(1) =   0
                l(2) =   0
                l(3) =   1
                l(4) =   1
     Q(r) pseudized with  8 coefficients,  rinner =    0.800   0.800   0.800

     PseudoPot. # 4 for C  read from file:
     /storage/coda1/p-amedford6/0/shared/rich_project_chbe-medford/medford-share/data/pseudos_module/espresso/nninc/pbe/van/C.UPF
     MD5 check sum: 1a69bf6b8db32088f5b2163dbdb77a27
     Pseudo is Ultrasoft, Zval =  4.0
     Generated by new atomic code, or converted to UPF format
     Using radial grid of  721 points,  4 beta functions with:
                l(1) =   0
                l(2) =   0
                l(3) =   1
                l(4) =   1
     Q(r) pseudized with  8 coefficients,  rinner =    0.800   0.800   0.800

     PseudoPot. # 5 for H  read from file:
     /storage/coda1/p-amedford6/0/shared/rich_project_chbe-medford/medford-share/data/pseudos_module/espresso/nninc/pbe/van/H.UPF
     MD5 check sum: b5ee9d7bfd3a09ee7748110bda690ff7
     Pseudo is Ultrasoft, Zval =  1.0
     Generated by new atomic code, or converted to UPF format
     Using radial grid of  615 points,  1 beta functions with:
                l(1) =   0
     Q(r) pseudized with  8 coefficients,  rinner =    0.800

     atomic species   valence    mass     pseudopotential
        Ti1           12.00    47.86700     Ti( 1.00)
        O1             6.00    15.99900     O ( 1.00)
        N1             5.00    14.00700     N ( 1.00)
        C1             4.00    12.01100     C ( 1.00)
        H1             1.00     1.00800     H ( 1.00)

     No symmetry found

   Cartesian axes

     site n.     atom                  positions (alat units)
         1           Ti1 tau(   1) = (   0.0004258   2.9801865   6.0000000  )
         2           Ti1 tau(   2) = (   3.2906075   1.4906267   6.0002472  )
         3           O1  tau(   3) = (   0.0006271   0.0005054   7.9858123  )
         4           O1  tau(   4) = (   3.2906025   0.0005020   7.3038282  )
         5           O1  tau(   5) = (   4.5942328   1.4918067   9.2879030  )
         6           O1  tau(   6) = (   1.9868534   1.4903216   9.2879459  )
         7           Ti1 tau(   7) = (   3.2907910   2.8959150   9.1758416  )
         8           Ti1 tau(   8) = (   0.0015273   1.4827037   9.2680791  )
         9           O1  tau(   9) = (   3.2823942   0.0140684  11.3428430  )
        10           O1  tau(  10) = (   0.0116148   5.9584955  10.6183126  )
        11           O1  tau(  11) = (   1.2742013   1.4978990  12.6323156  )
        12           O1  tau(  12) = (   5.2614901   1.5083079  12.6129891  )
        13           Ti1 tau(  13) = (   0.0550148   2.9595524  12.6160221  )
        14           Ti1 tau(  14) = (   3.3718896   1.5084997  12.4944496  )
        15           O1  tau(  15) = (   6.5380961   0.0278828  14.6255036  )
        16           O1  tau(  16) = (   3.2758616   0.0189586  13.9121306  )
        17           O1  tau(  17) = (   4.4976875   1.5333668  16.0433440  )
        18           O1  tau(  18) = (   1.9922867   1.5271532  16.0291573  )
        19           Ti1 tau(  19) = (   3.1858679   3.0241111  15.7732818  )
        20           Ti1 tau(  20) = (   6.4842391   1.5502874  15.8011710  )
        21           O1  tau(  21) = (   3.2904802   0.0005063   4.7018136  )
        22           O1  tau(  22) = (   6.5196731   0.0665875  17.1891134  )
        23           O1  tau(  23) = (   1.3043587   1.4918075   6.0039043  )
        24           O1  tau(  24) = (   5.2767064   1.4903225   6.0039473  )
        25           Ti1 tau(  25) = (   0.0000382   5.9609847   6.0000000  )
        26           Ti1 tau(  26) = (   3.2902200   4.4714249   6.0002472  )
        27           O1  tau(  27) = (   0.0002396   2.9813036   7.9858123  )
        28           O1  tau(  28) = (   3.2902150   2.9813002   7.3038282  )
        29           O1  tau(  29) = (   4.5938453   4.4726049   9.2879030  )
        30           O1  tau(  30) = (   1.9864658   4.4711199   9.2879459  )
        31           Ti1 tau(  31) = (   3.2891106   5.8743827   9.1763621  )
        32           Ti1 tau(  32) = (   0.0006254   4.4649316   9.2693709  )
        33           O1  tau(  33) = (   3.2807012   2.9937711  11.3380227  )
        34           O1  tau(  34) = (   0.0092240   2.9805883  10.6323155  )
        35           O1  tau(  35) = (   1.2734598   4.4826339  12.6318047  )
        36           O1  tau(  36) = (   5.2665626   4.4910389  12.6093644  )
        37           Ti1 tau(  37) = (   0.0550181   5.9329888  12.5453996  )
        38           Ti1 tau(  38) = (   3.3741151   4.4737790  12.4977360  )
        39           O1  tau(  39) = (   6.5373474   2.9946220  14.6524478  )
        40           O1  tau(  40) = (   3.2677173   3.0168568  13.9399215  )
        41           O1  tau(  41) = (   4.4884636   4.5316779  16.1079578  )
        42           O1  tau(  42) = (   1.9830865   4.5332738  16.0531499  )
        43           Ti1 tau(  43) = (   3.2469912   0.0413792  15.7000251  )
        44           Ti1 tau(  44) = (   6.5198411   4.7064707  16.0702691  )
        45           O1  tau(  45) = (   3.2900926   2.9813045   4.7018136  )
        46           O1  tau(  46) = (   1.3039711   4.4726057   6.0039043  )
        47           O1  tau(  47) = (   5.2763189   4.4711207   6.0039473  )
        48           N1  tau(  48) = (   0.0943371   2.6987919  18.6315974  )
        49           N1  tau(  49) = (   6.5718678   2.9345059  17.4339123  )
        50           C1  tau(  50) = (   0.1779456   3.8407003  19.5793842  )
        51           H1  tau(  51) = (   6.4148796   4.7858965  19.1557567  )
        52           H1  tau(  52) = (   6.1971438   3.5603257  20.4715321  )
        53           H1  tau(  53) = (   1.2306852   3.9282498  19.8556806  )
        54           O1  tau(  54) = (   3.3096034   3.0730741  18.2289406  )
        55           H1  tau(  55) = (   4.0988663   3.6297178  18.3292648  )
        56           H1  tau(  56) = (   3.5789210   2.1977314  18.5501991  )

     number of k points=    10  Fermi-Dirac smearing, width (Ry)=  0.0073
                       cart. coord. in units 2pi/alat
        k(    1) = (   0.0000000   0.0000000   0.0000000), wk =   0.1250000
        k(    2) = (   0.0000000   0.0419351   0.0000000), wk =   0.2500000
        k(    3) = (   0.0000000  -0.0838702   0.0000000), wk =   0.1250000
        k(    4) = (   0.0379955   0.0000049   0.0000000), wk =   0.2500000
        k(    5) = (   0.0379955   0.0419400   0.0000000), wk =   0.2500000
        k(    6) = (   0.0379955  -0.0838652   0.0000000), wk =   0.2500000
        k(    7) = (   0.0379955  -0.0419301   0.0000000), wk =   0.2500000
        k(    8) = (  -0.0759910  -0.0000099   0.0000000), wk =   0.1250000
        k(    9) = (  -0.0759910   0.0419252   0.0000000), wk =   0.2500000
        k(   10) = (  -0.0759910  -0.0838800   0.0000000), wk =   0.1250000

     Initial potential from superposition of free atoms

     starting charge  386.99914, renormalised to  403.00000

     negative rho (up, down):  1.478E-02 0.000E+00

     %%%%%%%%%%%%%%%%%%%%%%%%%%%%%%%%%%%%%%%%%%%%%%%%%%%%%%%%%%%%%%%%%%%%%%%%
     %                                                                      %
     % You are using vdW-DF, which was implemented by the Thonhauser group. %
     % Please cite the following two papers that made this development      %
     % possible and the two reviews that describe the various versions:     %
     %                                                                      %
     %   T. Thonhauser et al., PRL 115, 136402 (2015).                      %
     %   T. Thonhauser et al., PRB 76, 125112 (2007).                       %
     %   K. Berland et al., Rep. Prog. Phys. 78, 066501 (2015).             %
     %   D.C. Langreth et al., J. Phys.: Condens. Matter 21, 084203 (2009). %
     %                                                                      %
     %                                                                      %
     % If you are calculating the stress with vdW-DF, please also cite:     %
     %                                                                      %
     %   R. Sabatini et al., J. Phys.: Condens. Matter 24, 424209 (2012).   %
     %                                                                      %
     %%%%%%%%%%%%%%%%%%%%%%%%%%%%%%%%%%%%%%%%%%%%%%%%%%%%%%%%%%%%%%%%%%%%%%%%

     Adding external electric field

     Computed dipole along edir(3) :
        Dipole              -13.2308 Ry au,        -33.6294 Debye
        Dipole field         -0.0250 Ry au,

        Potential amp.        2.3145 Ry
        Total length         46.3494 bohr

     Starting wfcs are  305 atomic wfcs
  @ DRIVER MODE: Message from server: STATUS
  @ DRIVER MODE: Message from server: POSDATA
  @ DRIVER MODE: Reading and sharing cell
  @ DRIVER MODE: Reading and sharing positions
  @ DRIVER MODE: Received positions

     Self-consistent Calculation

     iteration #  1     ecut=    29.40 Ry     beta= 0.05
     Davidson diagonalization with overlap
     c_bands:  5 eigenvalues not converged
     c_bands:  2 eigenvalues not converged
     c_bands:  5 eigenvalues not converged
     c_bands:  5 eigenvalues not converged
     c_bands:  1 eigenvalues not converged
     c_bands:  1 eigenvalues not converged
     c_bands:  4 eigenvalues not converged
     c_bands:  2 eigenvalues not converged
     c_bands:  1 eigenvalues not converged
     ethr =  1.00E-05,  avg # of iterations = 26.9

[...]

     total energy              =   -2368.05623417 Ry
     estimated scf accuracy    <    6913.24250292 Ry

     iteration #  2     ecut=    29.40 Ry     beta= 0.05
     Davidson diagonalization with overlap
     ethr =  1.00E-02,  avg # of iterations = 23.6

[...]

     iteration # 70     ecut=    29.40 Ry     beta= 0.05
     Davidson diagonalization with overlap
     c_bands:  1 eigenvalues not converged
     ethr =  3.50E-11,  avg # of iterations = 15.2

[...]

     total energy              =   -2973.98647543 Ry
     estimated scf accuracy    <       0.00000008 Ry

     iteration # 72     ecut=    29.40 Ry     beta= 0.05
     Davidson diagonalization with overlap
     ethr =  2.10E-11,  avg # of iterations = 15.0

     negative rho (up, down):  1.504E-02 0.000E+00

     Adding external electric field

     Computed dipole along edir(3) :
        Dipole                0.9092 Ry au,          2.3109 Debye
        Dipole field          0.0017 Ry au,

        Potential amp.       -0.1590 Ry
        Total length         46.3494 bohr

     End of self-consistent calculation

          k = 0.0000 0.0000 0.0000 ( 18029 PWs)   bands (ev):

   -55.6018 -55.5677 -55.5658 -55.5299 -55.4973 -55.4468 -55.4374 -55.4132
   -55.4010 -55.3792 -55.3777 -55.3436 -55.0078 -54.8361 -54.5814 -54.5473
   -32.1107 -32.0844 -31.9574 -31.9414 -31.9118 -31.8947 -31.8797 -31.8674
   -31.8451 -31.8047 -31.7970 -31.7663 -31.7541 -31.7445 -31.7359 -31.7259
   -31.7063 -31.6968 -31.6946 -31.6590 -31.6550 -31.6446 -31.6313 -31.6061
   -31.6017 -31.5970 -31.5917 -31.5847 -31.5770 -31.5674 -31.5531 -31.5529
   -31.5441 -31.5305 -31.5199 -31.5080 -31.4894 -31.2849 -31.1985 -31.0965
   -31.0918 -31.0552 -30.9886 -30.9000 -30.8776 -30.8052 -30.7187 -30.6078
   -19.0396 -18.3020 -16.3164 -16.0754 -15.8731 -15.7583 -15.7175 -15.5249
   -15.4270 -15.3285 -15.2315 -15.1631 -15.1400 -15.1327 -15.1290 -15.1034
   -15.0777 -15.0667 -15.0454 -15.0288 -15.0141 -14.9545 -14.9409 -14.9319
   -14.8424 -14.7869 -14.7527 -14.7340 -14.6766 -14.6579 -14.1767 -13.0837
   -12.9672 -11.2910  -6.8782  -6.7149  -4.1968  -4.0634  -3.8032  -3.6868
    -3.5550  -3.5077  -3.4474  -3.4165  -3.2197  -3.1015  -3.0379  -2.8424
    -2.7853  -2.7574  -2.7278  -2.6569  -2.5202  -2.4700  -2.4186  -2.4124
    -2.4007  -2.3690  -2.3642  -2.3433  -2.2436  -2.2402  -2.1895  -2.1489
    -2.0798  -2.0000  -1.9806  -1.9337  -1.9148  -1.9023  -1.8744  -1.8515
    -1.8406  -1.8057  -1.7930  -1.7201  -1.6171  -1.5490  -1.4969  -1.4631
    -1.3961  -1.3834  -1.2165  -1.1517  -1.1070  -1.0697  -1.0513  -1.0308
    -0.9970  -0.9895  -0.8805  -0.7562  -0.7522  -0.6722  -0.6118  -0.5337
    -0.5253  -0.4469  -0.3909  -0.3724  -0.3599  -0.3490  -0.3202  -0.2474
    -0.1014  -0.0583  -0.0335   0.0017   0.0309   0.0967   0.1401   0.2096
     0.2444   0.2855   0.3206   0.3445   0.3690   0.3765   0.3917   0.4037
     0.4231   0.6055   0.6655   0.6864   0.7517   0.7810   0.9241   0.9906
     1.0546   1.1614   1.3661   1.4409   1.5317   1.6331   2.0123   2.0580
     2.7724   3.5324   3.6173   3.6641   3.7062   3.7787   3.7967   3.9687
     3.9878   4.0311   4.1203

[...]

          k = 0.0380-0.0419 0.0000 ( 17876 PWs)   bands (ev):

[...]

          k =-0.0760-0.0000 0.0000 ( 17886 PWs)   bands (ev):

[...]

          k =-0.0760-0.0839 0.0000 ( 17948 PWs)   bands (ev):

   -55.5852 -55.5842 -55.5488 -55.5466 -55.4906 -55.4534 -55.4251 -55.4133
   -55.3967 -55.3952 -55.3634 -55.3581 -55.0062 -54.8376 -54.5644 -54.5642
   -31.9248 -31.9093 -31.9000 -31.8993 -31.8805 -31.8796 -31.8493 -31.8152
   -31.7927 -31.7892 -31.7802 -31.7597 -31.7569 -31.7379 -31.7168 -31.7122
   -31.7103 -31.7055 -31.7048 -31.7037 -31.7028 -31.7009 -31.6966 -31.6567
   -31.6460 -31.6328 -31.6228 -31.6091 -31.5964 -31.5958 -31.5937 -31.5863
   -31.5775 -31.5739 -31.5670 -31.5635 -31.4255 -31.2866 -31.2039 -31.1528
   -31.0976 -31.0811 -30.8904 -30.8902 -30.8015 -30.8013 -30.7620 -30.7620
   -19.0346 -18.3037 -15.7627 -15.6809 -15.5586 -15.5200 -15.4763 -15.4325
   -15.4125 -15.3195 -15.2997 -15.2902 -15.2388 -15.2248 -15.2018 -15.1576
   -15.1359 -15.1268 -15.1224 -15.0869 -15.0587 -15.0420 -15.0385 -15.0328
   -14.9704 -14.9217 -14.9195 -14.9147 -14.7879 -14.6591 -14.3554 -13.0690
   -13.0689 -11.2887  -6.8802  -6.7271  -4.1262  -3.8679  -3.7835  -3.2955
    -3.0476  -2.8876  -2.8164  -2.7260  -2.6967  -2.6893  -2.5458  -2.5132
    -2.4835  -2.4359  -2.4312  -2.4272  -2.4199  -2.4043  -2.3974  -2.3813
    -2.3295  -2.3170  -2.2926  -2.2789  -2.2720  -2.2545  -2.2326  -2.2224
    -2.2004  -2.1663  -2.1521  -2.1165  -2.1102  -2.0200  -1.8344  -1.8233
    -1.7776  -1.7446  -1.7304  -1.7051  -1.6683  -1.6547  -1.6463  -1.5950
    -1.4734  -1.4302  -1.3425  -1.2946  -1.2774  -1.2259  -1.1609  -1.1368
    -1.0669  -1.0223  -0.9857  -0.9635  -0.9404  -0.7960  -0.7840  -0.7303
    -0.7168  -0.6800  -0.6318  -0.5741  -0.5619  -0.5514  -0.5353  -0.5016
    -0.4334  -0.3640  -0.3523  -0.3242  -0.2731  -0.2566  -0.2133  -0.1249
    -0.1053  -0.0691   0.0296   0.1313   0.2224   0.3575   0.4438   0.4667
     0.5228   0.6000   0.6980   0.7078   0.7162   0.7522   0.7765   0.8364
     0.9299   0.9498   0.9769   1.0996   1.8044   1.8051   1.8776   1.8779
     2.8136   3.7934   3.8533   3.8989   3.9180   4.0102   4.0435   4.0655
     4.0679   4.1148   4.2050

     the Fermi energy is     3.5315 ev

!    total energy              =   -2973.98649410 Ry
     estimated scf accuracy    <       0.00000006 Ry
     smearing contrib. (-TS)   =      -0.02191830 Ry
     internal energy E=F+TS    =   -2973.96457580 Ry

     The total energy is F=E-TS. E is the sum of the following terms:
     one-electron contribution =  -23874.84657731 Ry
     hartree contribution      =   12031.89553941 Ry
     xc contribution           =    -494.08164137 Ry
     ewald contribution        =    9363.06654354 Ry
     electric field correction =       0.00155993 Ry

     convergence has been achieved in  72 iterations

     Forces acting on atoms (cartesian axes, Ry/au):

     atom    1 type  1   force =     0.00006848   -0.00017566    0.09642022
     atom    2 type  1   force =    -0.00015361   -0.00063626   -0.17548445
     atom    3 type  2   force =    -0.00003646    0.00002002   -0.02462636
     atom    4 type  2   force =     0.00005885   -0.00136646    0.05311263
     atom    5 type  2   force =    -0.01208878    0.00003392    0.00388419
     atom    6 type  2   force =     0.01330743    0.00071220    0.00208854
     atom    7 type  1   force =    -0.00148446    0.00064226   -0.01047133
     atom    8 type  1   force =     0.00072500    0.00972166    0.02662998
     atom    9 type  2   force =    -0.00040494    0.00009018   -0.00029977
     atom   10 type  2   force =    -0.00181070    0.00306142   -0.01770995
     atom   11 type  2   force =    -0.00015182   -0.00023275    0.00012225
     atom   12 type  2   force =    -0.00018301   -0.00028865   -0.00029814
     atom   13 type  1   force =    -0.00022022   -0.00021105   -0.00010248
     atom   14 type  1   force =    -0.00036013   -0.00018814   -0.00034498
     atom   15 type  2   force =     0.00004559   -0.00088027    0.00023862
     atom   16 type  2   force =     0.00005442    0.00016356   -0.00005852
     atom   17 type  2   force =    -0.00005769   -0.00059199    0.00019485
     atom   18 type  2   force =     0.00023627   -0.00036707    0.00044682
     atom   19 type  1   force =     0.00067743    0.00000413    0.00004509
     atom   20 type  1   force =     0.00026784   -0.00071319    0.00010361
     atom   21 type  2   force =     0.00008379   -0.00004769    0.10320425
     atom   22 type  2   force =     0.00054226   -0.00047063   -0.00028502
     atom   23 type  2   force =    -0.07146255   -0.00008531   -0.02774359
     atom   24 type  2   force =     0.07139959    0.00030106   -0.02774394
     atom   25 type  1   force =     0.00007020   -0.00029073    0.09589960
     atom   26 type  1   force =    -0.00025103   -0.00023516   -0.17576059
     atom   27 type  2   force =     0.00006985   -0.00008823   -0.02364791
     atom   28 type  2   force =     0.00006292   -0.00118926    0.05339474
     atom   29 type  2   force =    -0.01232379    0.00061660    0.00392316
     atom   30 type  2   force =     0.01347965    0.00109933    0.00209048
     atom   31 type  1   force =    -0.00129793    0.00373102   -0.00844873
     atom   32 type  1   force =     0.00085051   -0.01166985    0.02705196
     atom   33 type  2   force =    -0.00002096    0.00013265   -0.00008103
     atom   34 type  2   force =    -0.00128378    0.00169579   -0.02362562
     atom   35 type  2   force =    -0.00023738   -0.00003560    0.00004475
     atom   36 type  2   force =     0.00003967   -0.00002731    0.00018284
     atom   37 type  1   force =    -0.00000173   -0.00018678    0.00015274
     atom   38 type  1   force =    -0.00056068   -0.00028263    0.00054678
     atom   39 type  2   force =     0.00022570   -0.00061709    0.00050227
     atom   40 type  2   force =    -0.00002652   -0.00010263    0.00017622
     atom   41 type  2   force =     0.00020047   -0.00040826   -0.00052723
     atom   42 type  2   force =     0.00013185   -0.00037903   -0.00045510
     atom   43 type  1   force =     0.00086078   -0.00053584    0.00018619
     atom   44 type  1   force =    -0.00016099   -0.00022121   -0.00086502
     atom   45 type  2   force =     0.00009053   -0.00005585    0.10319629
     atom   46 type  2   force =    -0.07145692   -0.00007785   -0.02774792
     atom   47 type  2   force =     0.07140518    0.00035668   -0.02776321
     atom   48 type  3   force =    -0.00049466   -0.00075378    0.00108997
     atom   49 type  3   force =     0.00025318    0.00068189   -0.00043906
     atom   50 type  4   force =    -0.00046844    0.00138493   -0.00041237
     atom   51 type  5   force =     0.00139166   -0.00069486    0.00024363
     atom   52 type  5   force =     0.00025201    0.00006007   -0.00035265
     atom   53 type  5   force =    -0.00004034   -0.00009783    0.00042752
     atom   54 type  2   force =     0.00147788   -0.00025561    0.00072384
     atom   55 type  5   force =    -0.00137733   -0.00034212   -0.00046808
     atom   56 type  5   force =     0.00008788    0.00029324   -0.00056096

     Total force =     0.367823     Total SCF correction =     0.000717
  @ DRIVER MODE: Message from server: STATUS
  @ DRIVER MODE: Message from server: GETFORCE
  @ DRIVER MODE: Returning v,forces,stress,ensemble

     Writing output data file ./calc.save/
  @ DRIVER MODE: Message from server: EXIT
  @ DRIVE MODE: Exiting

     General routines

     Parallel routines

   This run was terminated on:  13:42:48  10Sep2021

   JOB DONE.