     Program PWSCF v.6.7GPU starts on 20Sep2021 at 14:28:54

     R & G space division:  proc/nbgrp/npool/nimage =      10
     Reading input from /storage/home/hcoda1/3/ntian30/research/carbon/CxH_vib/CH3_calc/ads_slab/CH3O_a/out_0019/pw.inp
Warning: card &CELL ignored
Warning: card   CELL_DYNAMICS='IPI', ignored
Warning: card / ignored

     Current dimensions of program PWSCF are:
     Max number of different atomic species (ntypx) = 10
     Max number of k-points (npk) =  40000
     Max angular momentum in pseudopotentials (lmaxx) =  3
     Presently no symmetry can be used with electric field

     Message from routine cell_base_init:
     DEPRECATED: use true lattice parameter, not A to a.u. conversion factor

     IMPORTANT: XC functional enforced from input :
     Exchange-correlation= BEEF-VDW
                           (   1   4  43  14   2   0   0)
     Any further DFT definition will be discarded
     Please, verify this is what you really want

  @ DRIVER MODE: Connecting to
 qe_1139763_2907627.sched-torque.pace.gatech.eduwthj_tek_scratch
  using UNIX socket
  @ DRIVER MODE: Message from server: STATUS
  @ DRIVER MODE: Message from server: INIT
  @ DRIVER MODE: Receiving replica           0          -1
  @ DRIVER MODE: Receiving encoded integer          25
  @ DRIVER MODE:  SCF:  T  FORCE:  T  STRESS:  F  VC:  F  ENSEMBLE:  F
  @ DRIVER MODE:  SCF:  T  FORCE:  T  STRESS:  F  VC:  F  ENSEMBLE:  F

     Using Slab Decomposition

     bravais-lattice index     =            0
     lattice parameter (alat)  =       1.8897  a.u.
     unit-cell volume          =    6658.9804 (a.u.)^3
     number of atoms/cell      =           52
     number of atomic types    =            4
     number of electrons       =       391.00
     number of Kohn-Sham states=          205
     kinetic-energy cutoff     =      29.3995  Ry
     charge density cutoff     =     293.9946  Ry
     scf convergence threshold =      7.3E-08
     mixing beta               =       0.0500
     number of iterations used =            8  plain     mixing
     Exchange-correlation= BEEF-VDW
                           (   1   4  43  14   2   0   0)

     celldm(1)=   1.889726  celldm(2)=   0.000000  celldm(3)=   0.000000
     celldm(4)=   0.000000  celldm(5)=   0.000000  celldm(6)=   0.000000

     crystal axes: (cart. coord. in units of alat)
               a(1) = (   6.579727   0.000000   0.000000 )
               a(2) = (  -0.000775   5.961596   0.000000 )
               a(3) = (   0.000000   0.000000  25.155947 )

     reciprocal axes: (cart. coord. in units 2 pi/alat)
               b(1) = (  0.151982  0.000020  0.000000 )
               b(2) = (  0.000000  0.167740  0.000000 )
               b(3) = (  0.000000  0.000000  0.039752 )

     PseudoPot. # 1 for Ti read from file:
     /storage/coda1/p-amedford6/0/shared/rich_project_chbe-medford/medford-share/data/pseudos_module/espresso/nninc/pbe/van/Ti.UPF
     MD5 check sum: 8e4df49b7f0d34bbd5052bf3f5ea0213
     Pseudo is Ultrasoft, Zval = 12.0
     Generated by new atomic code, or converted to UPF format
     Using radial grid of  851 points,  6 beta functions with:
                l(1) =   0
                l(2) =   0
                l(3) =   1
                l(4) =   1
                l(5) =   2
                l(6) =   2
     Q(r) pseudized with  8 coefficients,  rinner =    1.000   1.000   1.000
                                                       1.000   1.000

     PseudoPot. # 2 for O  read from file:
     /storage/coda1/p-amedford6/0/shared/rich_project_chbe-medford/medford-share/data/pseudos_module/espresso/nninc/pbe/van/O.UPF
     MD5 check sum: 78c19812648e8988a0fe644b0f25305e
     Pseudo is Ultrasoft, Zval =  6.0
     Generated by new atomic code, or converted to UPF format
     Using radial grid of  737 points,  4 beta functions with:
                l(1) =   0
                l(2) =   0
                l(3) =   1
                l(4) =   1
     Q(r) pseudized with  8 coefficients,  rinner =    0.800   0.800   0.800

     PseudoPot. # 3 for C  read from file:
     /storage/coda1/p-amedford6/0/shared/rich_project_chbe-medford/medford-share/data/pseudos_module/espresso/nninc/pbe/van/C.UPF
     MD5 check sum: 1a69bf6b8db32088f5b2163dbdb77a27
     Pseudo is Ultrasoft, Zval =  4.0
     Generated by new atomic code, or converted to UPF format
     Using radial grid of  721 points,  4 beta functions with:
                l(1) =   0
                l(2) =   0
                l(3) =   1
                l(4) =   1
     Q(r) pseudized with  8 coefficients,  rinner =    0.800   0.800   0.800

     PseudoPot. # 4 for H  read from file:
     /storage/coda1/p-amedford6/0/shared/rich_project_chbe-medford/medford-share/data/pseudos_module/espresso/nninc/pbe/van/H.UPF
     MD5 check sum: b5ee9d7bfd3a09ee7748110bda690ff7
     Pseudo is Ultrasoft, Zval =  1.0
     Generated by new atomic code, or converted to UPF format
     Using radial grid of  615 points,  1 beta functions with:
                l(1) =   0
     Q(r) pseudized with  8 coefficients,  rinner =    0.800

     atomic species   valence    mass     pseudopotential
        Ti1           12.00    47.86700     Ti( 1.00)
        O1             6.00    15.99900     O ( 1.00)
        C1             4.00    12.01100     C ( 1.00)
        H1             1.00     1.00800     H ( 1.00)

     No symmetry found

   Cartesian axes

     site n.     atom                  positions (alat units)
         1           Ti1 tau(   1) = (   0.0004258   2.9801865   6.0000000  )
         2           Ti1 tau(   2) = (   3.2906075   1.4906267   6.0002472  )
         3           O1  tau(   3) = (   0.0006271   0.0005054   7.9858123  )
         4           O1  tau(   4) = (   3.2906025   0.0005020   7.3038282  )
         5           O1  tau(   5) = (   4.5942328   1.4918067   9.2879030  )
         6           O1  tau(   6) = (   1.9868534   1.4903216   9.2879459  )
         7           Ti1 tau(   7) = (   3.3187032   3.0312427   9.1575206  )
         8           Ti1 tau(   8) = (   0.0282419   1.6147502   9.3704053  )
         9           O1  tau(   9) = (   3.3236385   0.0141534  11.3532293  )
        10           O1  tau(  10) = (   0.0104197   0.0125229  10.6127740  )
        11           O1  tau(  11) = (   1.3245732   1.5021988  12.6430083  )
        12           O1  tau(  12) = (   5.3244981   1.5061434  12.6562219  )
        13           Ti1 tau(  13) = (   0.0403031   3.0097444  12.8244759  )
        14           Ti1 tau(  14) = (   3.3296682   1.5108177  12.4986020  )
        15           O1  tau(  15) = (   0.0398480   0.0117783  14.7343716  )
        16           O1  tau(  16) = (   3.3300567   0.0146708  13.9469669  )
        17           O1  tau(  17) = (   4.5805658   1.5026465  16.1145873  )
        18           O1  tau(  18) = (   2.0880061   1.5021997  16.1152651  )
        19           Ti1 tau(  19) = (   3.3307167   2.9906167  15.7324548  )
        20           Ti1 tau(  20) = (   0.0579274   1.3843852  16.1188819  )
        21           O1  tau(  21) = (   3.2904802   0.0005063   4.7018136  )
        22           O1  tau(  22) = (   0.0436517   5.9586681  17.2572535  )
        23           O1  tau(  23) = (   1.3043587   1.4918075   6.0039043  )
        24           O1  tau(  24) = (   5.2767064   1.4903225   6.0039473  )
        25           Ti1 tau(  25) = (   0.0000382   5.9609847   6.0000000  )
        26           Ti1 tau(  26) = (   3.2902200   4.4714249   6.0002472  )
        27           O1  tau(  27) = (   0.0002396   2.9813036   7.9858123  )
        28           O1  tau(  28) = (   3.2902150   2.9813002   7.3038282  )
        29           O1  tau(  29) = (   4.5938453   4.4726049   9.2879030  )
        30           O1  tau(  30) = (   1.9864658   4.4711199   9.2879459  )
        31           Ti1 tau(  31) = (   3.3083866   0.0539517   9.1541167  )
        32           Ti1 tau(  32) = (   0.0315341   4.5377404   9.2709708  )
        33           O1  tau(  33) = (   3.3215087   2.9954721  11.3555336  )
        34           O1  tau(  34) = (   0.0112336   2.9957203  10.5730616  )
        35           O1  tau(  35) = (   1.3257220   4.4896437  12.6447561  )
        36           O1  tau(  36) = (   5.3225596   4.4851362  12.6583724  )
        37           Ti1 tau(  37) = (   0.0354833   0.0274604  12.5282598  )
        38           Ti1 tau(  38) = (   3.3297026   4.4921445  12.4963722  )
        39           O1  tau(  39) = (   0.0599690   3.0154325  14.7102929  )
        40           O1  tau(  40) = (   3.3251099   2.9889739  13.9402376  )
        41           O1  tau(  41) = (   4.5781535   4.4756942  16.0984728  )
        42           O1  tau(  42) = (   2.0867977   4.4764083  16.0997756  )
        43           Ti1 tau(  43) = (   3.3478802   0.0108728  15.7387323  )
        44           Ti1 tau(  44) = (   0.0598937   4.5429110  15.9843511  )
        45           O1  tau(  45) = (   3.2900926   2.9813045   4.7018136  )
        46           O1  tau(  46) = (   1.3039711   4.4726057   6.0039043  )
        47           O1  tau(  47) = (   5.2763189   4.4711207   6.0039473  )
        48           C1  tau(  48) = (   6.0696523   3.0631652  18.6664891  )
        49           O1  tau(  49) = (   0.0149881   2.9985468  17.3426271  )
        50           H1  tau(  50) = (   4.9903245   2.8753800  18.6581135  )
        51           H1  tau(  51) = (   6.5402243   2.3063723  19.2898855  )
        52           H1  tau(  52) = (   6.2508803   4.0560215  19.0798806  )

     number of k points=    10  Fermi-Dirac smearing, width (Ry)=  0.0073
                       cart. coord. in units 2pi/alat
        k(    1) = (   0.0000000   0.0000000   0.0000000), wk =   0.1250000
        k(    2) = (   0.0000000   0.0419351   0.0000000), wk =   0.2500000
        k(    3) = (   0.0000000  -0.0838702   0.0000000), wk =   0.1250000
        k(    4) = (   0.0379955   0.0000049   0.0000000), wk =   0.2500000
        k(    5) = (   0.0379955   0.0419400   0.0000000), wk =   0.2500000
        k(    6) = (   0.0379955  -0.0838652   0.0000000), wk =   0.2500000
        k(    7) = (   0.0379955  -0.0419301   0.0000000), wk =   0.2500000
        k(    8) = (  -0.0759910  -0.0000099   0.0000000), wk =   0.1250000
        k(    9) = (  -0.0759910   0.0419252   0.0000000), wk =   0.2500000
        k(   10) = (  -0.0759910  -0.0838800   0.0000000), wk =   0.1250000

     Initial potential from superposition of free atoms

     starting charge  374.99918, renormalised to  391.00000

     negative rho (up, down):  1.819E-02 0.000E+00

     %%%%%%%%%%%%%%%%%%%%%%%%%%%%%%%%%%%%%%%%%%%%%%%%%%%%%%%%%%%%%%%%%%%%%%%%
     %                                                                      %
     % You are using vdW-DF, which was implemented by the Thonhauser group. %
     % Please cite the following two papers that made this development      %
     % possible and the two reviews that describe the various versions:     %
     %                                                                      %
     %   T. Thonhauser et al., PRL 115, 136402 (2015).                      %
     %   T. Thonhauser et al., PRB 76, 125112 (2007).                       %
     %   K. Berland et al., Rep. Prog. Phys. 78, 066501 (2015).             %
     %   D.C. Langreth et al., J. Phys.: Condens. Matter 21, 084203 (2009). %
     %                                                                      %
     %                                                                      %
     % If you are calculating the stress with vdW-DF, please also cite:     %
     %                                                                      %
     %   R. Sabatini et al., J. Phys.: Condens. Matter 24, 424209 (2012).   %
     %                                                                      %
     %%%%%%%%%%%%%%%%%%%%%%%%%%%%%%%%%%%%%%%%%%%%%%%%%%%%%%%%%%%%%%%%%%%%%%%%

     Adding external electric field

     Computed dipole along edir(3) :
        Dipole               -5.5401 Ry au,        -14.0815 Debye
        Dipole field         -0.0105 Ry au,

        Potential amp.        0.9692 Ry
        Total length         46.3494 bohr

     Starting wfcs are  295 atomic wfcs
  @ DRIVER MODE: Message from server: STATUS
  @ DRIVER MODE: Message from server: POSDATA
  @ DRIVER MODE: Reading and sharing cell
  @ DRIVER MODE: Reading and sharing positions
  @ DRIVER MODE: Received positions

     Self-consistent Calculation

     iteration #  1     ecut=    29.40 Ry     beta= 0.05
     Davidson diagonalization with overlap
     c_bands:  3 eigenvalues not converged
     c_bands:  2 eigenvalues not converged
     c_bands:  3 eigenvalues not converged
     c_bands:  2 eigenvalues not converged
     c_bands:  3 eigenvalues not converged
     c_bands:  2 eigenvalues not converged
     c_bands:  1 eigenvalues not converged
     c_bands:  1 eigenvalues not converged
     c_bands:  2 eigenvalues not converged
     ethr =  1.00E-05,  avg # of iterations = 19.7

[...]

     total energy              =   -2791.63765165 Ry
     estimated scf accuracy    <    1532.10157936 Ry

     iteration #  2     ecut=    29.40 Ry     beta= 0.05
     Davidson diagonalization with overlap
     ethr =  1.00E-02,  avg # of iterations = 17.8

[...]

     iteration # 66     ecut=    29.40 Ry     beta= 0.05
     Davidson diagonalization with overlap
     c_bands:  1 eigenvalues not converged
     ethr =  5.00E-10,  avg # of iterations = 13.6

[...]

     total energy              =   -2931.50281342 Ry
     estimated scf accuracy    <       0.00000012 Ry

     iteration # 70     ecut=    29.40 Ry     beta= 0.05
     Davidson diagonalization with overlap
     ethr =  3.00E-11,  avg # of iterations = 14.5

     negative rho (up, down):  1.844E-02 0.000E+00

     Adding external electric field

     Computed dipole along edir(3) :
        Dipole                0.7541 Ry au,          1.9168 Debye
        Dipole field          0.0014 Ry au,

        Potential amp.       -0.1319 Ry
        Total length         46.3494 bohr

     End of self-consistent calculation

          k = 0.0000 0.0000 0.0000 ( 18029 PWs)   bands (ev):

   -55.9536 -55.9389 -55.9170 -55.9027 -55.8382 -55.8344 -55.8124 -55.7827
   -55.7784 -55.7278 -55.7183 -55.7123 -55.6783 -55.5953 -54.9668 -54.9328
   -32.5045 -32.4210 -32.3497 -32.2966 -32.2712 -32.2517 -32.2444 -32.2219
   -32.1908 -32.1781 -32.1579 -32.1524 -32.1492 -32.1195 -32.1143 -32.0924
   -32.0869 -32.0848 -32.0691 -32.0438 -32.0428 -32.0191 -32.0129 -31.9952
   -31.9948 -31.9940 -31.9654 -31.9649 -31.9528 -31.9431 -31.9364 -31.9337
   -31.9260 -31.9141 -31.8886 -31.8859 -31.8769 -31.8558 -31.8199 -31.8144
   -31.7919 -31.7839 -31.3769 -31.2794 -31.2571 -31.1934 -31.1074 -30.9963
   -17.6717 -16.6816 -16.3958 -16.2321 -16.0997 -16.0638 -15.9603 -15.7761
   -15.6374 -15.6199 -15.5561 -15.5168 -15.5013 -15.4755 -15.4717 -15.4585
   -15.4555 -15.4065 -15.3711 -15.3699 -15.3548 -15.3325 -15.2713 -15.2302
   -15.1480 -15.0948 -15.0703 -15.0151 -14.9532 -14.9341 -13.4680 -13.3497
    -9.5117  -4.4016  -4.1550  -4.0402  -3.8713  -3.8589  -3.8376  -3.8111
    -3.7528  -3.5021  -3.4873  -3.1680  -3.1087  -3.0844  -3.0705  -3.0642
    -2.8261  -2.8068  -2.7782  -2.7679  -2.7597  -2.7305  -2.7027  -2.6932
    -2.6697  -2.6534  -2.5543  -2.4788  -2.4698  -2.3610  -2.3154  -2.3041
    -2.2538  -2.2156  -2.2079  -2.1881  -2.1634  -2.1464  -2.1184  -2.1153
    -2.0190  -1.8895  -1.7846  -1.7545  -1.7134  -1.6536  -1.4472  -1.4018
    -1.3667  -1.3535  -1.2961  -1.2636  -1.2548  -1.1807  -1.1433  -1.1267
    -1.0196  -0.9588  -0.9351  -0.9069  -0.8441  -0.8085  -0.7606  -0.6895
    -0.6707  -0.6557  -0.4431  -0.4178  -0.4119  -0.4008  -0.2888  -0.2372
    -0.1814  -0.1702  -0.1578  -0.1266  -0.0551   0.0095   0.0208   0.0427
     0.0759   0.1023   0.1794   0.2046   0.2318   0.2559   0.2897   0.3763
     0.4229   0.5643   0.6934   0.7158   0.8163   0.9592   1.0571   1.1299
     1.2274   1.6466   1.7068   3.2320   3.2513   3.2960   3.3256   3.3840
     3.5053   3.6247   3.6600   3.6949   3.7169

[...]

          k = 0.0380-0.0419 0.0000 ( 17876 PWs)   bands (ev):

[...]

          k =-0.0760-0.0000 0.0000 ( 17886 PWs)   bands (ev):

[...]

          k =-0.0760-0.0839 0.0000 ( 17948 PWs)   bands (ev):

   -55.9420 -55.9284 -55.9211 -55.9203 -55.8330 -55.8315 -55.7958 -55.7952
   -55.7879 -55.7251 -55.7209 -55.6985 -55.6923 -55.5975 -54.9503 -54.9491
   -32.3086 -32.3042 -32.2494 -32.2445 -32.2335 -32.2299 -32.2121 -32.2067
   -32.2030 -32.1603 -32.1393 -32.1324 -32.1286 -32.0914 -32.0823 -32.0768
   -32.0688 -32.0652 -32.0622 -32.0598 -32.0497 -32.0375 -32.0334 -32.0276
   -32.0196 -32.0152 -32.0118 -31.9991 -31.9943 -31.9930 -31.9679 -31.9505
   -31.9484 -31.9450 -31.9388 -31.9219 -31.9193 -31.9080 -31.9021 -31.8902
   -31.8276 -31.7919 -31.2705 -31.2690 -31.1903 -31.1893 -31.1510 -31.1499
   -17.6343 -16.1222 -16.1061 -15.8723 -15.8666 -15.8623 -15.7928 -15.7076
   -15.6879 -15.6725 -15.6668 -15.6116 -15.5973 -15.5860 -15.5248 -15.4872
   -15.4611 -15.4531 -15.4496 -15.4010 -15.3969 -15.3437 -15.3255 -15.3112
   -15.3001 -15.2844 -15.2769 -15.1806 -15.1794 -15.1093 -13.4521 -13.4498
    -9.5124  -4.2696  -4.1253  -3.8651  -3.4123  -3.3944  -3.1134  -3.0810
    -3.0775  -2.9885  -2.9027  -2.8603  -2.8242  -2.7922  -2.7878  -2.7856
    -2.7656  -2.7364  -2.7326  -2.7120  -2.6922  -2.6809  -2.6267  -2.5911
    -2.5828  -2.5805  -2.5693  -2.5395  -2.5241  -2.5025  -2.4938  -2.4841
    -2.4635  -2.3654  -2.2363  -2.2037  -2.0914  -2.0835  -2.0467  -2.0334
    -2.0058  -1.9965  -1.9775  -1.8684  -1.8039  -1.6766  -1.6728  -1.6539
    -1.5963  -1.5273  -1.4559  -1.3873  -1.3654  -1.3503  -1.2524  -1.2405
    -1.1716  -1.1518  -1.0946  -1.0639  -1.0522  -0.9524  -0.9188  -0.9043
    -0.8914  -0.8157  -0.7994  -0.7794  -0.7486  -0.6880  -0.6771  -0.6077
    -0.5728  -0.5288  -0.4652  -0.4410  -0.3925  -0.3036  -0.1280  -0.0469
     0.0558   0.0990   0.1578   0.1707   0.2626   0.3066   0.3215   0.3286
     0.4174   0.4813   0.5094   0.5727   0.5860   0.6119   0.6738   1.4167
     1.4185   1.5093   1.5195   3.4399   3.4706   3.4845   3.5329   3.6920
     3.6972   3.7171   3.7221   3.7956   3.8579

     the Fermi energy is     3.2015 ev

!    total energy              =   -2931.50282742 Ry
     estimated scf accuracy    <       0.00000005 Ry
     smearing contrib. (-TS)   =      -0.02313226 Ry
     internal energy E=F+TS    =   -2931.47969516 Ry

     The total energy is F=E-TS. E is the sum of the following terms:
     one-electron contribution =  -24510.29458454 Ry
     hartree contribution      =   12340.15509433 Ry
     xc contribution           =    -482.05555907 Ry
     ewald contribution        =    9720.71428088 Ry
     electric field correction =       0.00107324 Ry

     convergence has been achieved in  70 iterations

     Forces acting on atoms (cartesian axes, Ry/au):

     atom    1 type  1   force =    -0.00013458   -0.00172643    0.10699194
     atom    2 type  1   force =    -0.00041104    0.00039401   -0.17993970
     atom    3 type  2   force =     0.00029721   -0.00714282   -0.03305043
     atom    4 type  2   force =     0.00067529    0.00052141    0.04595526
     atom    5 type  2   force =    -0.01814578    0.00044151    0.00392328
     atom    6 type  2   force =     0.02137201   -0.00104034    0.00544386
     atom    7 type  1   force =    -0.00015612   -0.00030214   -0.00012975
     atom    8 type  1   force =    -0.00008940   -0.00029725   -0.00174702
     atom    9 type  2   force =    -0.00030372   -0.00017738    0.00030932
     atom   10 type  2   force =    -0.00014376   -0.00052152    0.00016529
     atom   11 type  2   force =    -0.00034115    0.00013596    0.00060547
     atom   12 type  2   force =    -0.00019019    0.00021227    0.00021493
     atom   13 type  1   force =    -0.00018280   -0.00038771   -0.00102484
     atom   14 type  1   force =     0.00029053    0.00022384   -0.00047967
     atom   15 type  2   force =    -0.00014987    0.00016270   -0.00119393
     atom   16 type  2   force =    -0.00039964   -0.00027327   -0.00087287
     atom   17 type  2   force =    -0.00127068    0.00043103   -0.00076115
     atom   18 type  2   force =     0.00011378    0.00022189   -0.00081206
     atom   19 type  1   force =    -0.00005912   -0.00002224    0.00016811
     atom   20 type  1   force =    -0.00081165   -0.00091005    0.00109611
     atom   21 type  2   force =    -0.00005752    0.00009483    0.10424584
     atom   22 type  2   force =     0.00010687    0.00025724   -0.00080388
     atom   23 type  2   force =    -0.06895756    0.00066584   -0.02969052
     atom   24 type  2   force =     0.06866587    0.00113883   -0.02974706
     atom   25 type  1   force =    -0.00011938    0.00159646    0.11779818
     atom   26 type  1   force =    -0.00015986    0.00002924   -0.17999083
     atom   27 type  2   force =     0.00043582    0.00401569   -0.02694083
     atom   28 type  2   force =     0.00078133    0.00082679    0.04757772
     atom   29 type  2   force =    -0.01697046    0.00166883    0.00319475
     atom   30 type  2   force =     0.01945944    0.00119109    0.00454438
     atom   31 type  1   force =    -0.00025536    0.00054017   -0.00018033
     atom   32 type  1   force =    -0.00001254    0.00018387   -0.00095141
     atom   33 type  2   force =    -0.00030437   -0.00007126   -0.00007549
     atom   34 type  2   force =    -0.00012371    0.00070429    0.00050475
     atom   35 type  2   force =    -0.00030148   -0.00001914    0.00014257
     atom   36 type  2   force =    -0.00021209   -0.00003000   -0.00020866
     atom   37 type  1   force =    -0.00012263    0.00062049    0.00081596
     atom   38 type  1   force =     0.00019905   -0.00030976   -0.00047644
     atom   39 type  2   force =    -0.00026789   -0.00022370    0.00033869
     atom   40 type  2   force =    -0.00034472    0.00023850   -0.00036469
     atom   41 type  2   force =    -0.00076088   -0.00008345   -0.00045017
     atom   42 type  2   force =     0.00029929    0.00012699   -0.00062449
     atom   43 type  1   force =    -0.00011939    0.00020467    0.00054502
     atom   44 type  1   force =    -0.00070684    0.00073911    0.00129620
     atom   45 type  2   force =    -0.00006211    0.00006182    0.10428083
     atom   46 type  2   force =    -0.06850710   -0.00129546   -0.02972032
     atom   47 type  2   force =     0.06832175   -0.00085640   -0.02979760
     atom   48 type  3   force =    -0.00387922    0.00188210   -0.00306874
     atom   49 type  2   force =    -0.00079813   -0.00011905    0.00136914
     atom   50 type  4   force =    -0.00005704    0.00065743   -0.00069490
     atom   51 type  4   force =     0.00417739   -0.00397691    0.00185683
     atom   52 type  4   force =     0.00069417   -0.00040264    0.00041337

     Total force =     0.376974     Total SCF correction =     0.000677
  @ DRIVER MODE: Message from server: STATUS
  @ DRIVER MODE: Message from server: GETFORCE
  @ DRIVER MODE: Returning v,forces,stress,ensemble

     Writing output data file ./calc.save/
  @ DRIVER MODE: Message from server: EXIT
  @ DRIVE MODE: Exiting

     General routines

     Parallel routines

   This run was terminated on:  14:47:42  20Sep2021

   JOB DONE.