     Program PWSCF v.6.7GPU starts on 24Aug2021 at 20:24:48

     R & G space division:  proc/nbgrp/npool/nimage =       6
     Reading input from /storage/home/hcoda1/3/ntian30/research/carbon/CH3_vib_end_on/ads_slab/CH3N2H2_f/out_0007/pw.inp
Warning: card &CELL ignored
Warning: card   CELL_DYNAMICS='IPI', ignored
Warning: card / ignored

     Current dimensions of program PWSCF are:
     Max number of different atomic species (ntypx) = 10
     Max number of k-points (npk) =  40000
     Max angular momentum in pseudopotentials (lmaxx) =  3
     Presently no symmetry can be used with electric field

     Message from routine cell_base_init:
     DEPRECATED: use true lattice parameter, not A to a.u. conversion factor

     IMPORTANT: XC functional enforced from input :
     Exchange-correlation= BEEF-VDW
                           (   1   4  43  14   2   0   0)
     Any further DFT definition will be discarded
     Please, verify this is what you really want

  @ DRIVER MODE: Connecting to
 qe_1139763_2643870.sched-torque.pace.gatech.edu20r2rf3e_scratch
  using UNIX socket
  @ DRIVER MODE: Message from server: STATUS
  @ DRIVER MODE: Message from server: INIT
  @ DRIVER MODE: Receiving replica           0          -1
  @ DRIVER MODE: Receiving encoded integer          25
  @ DRIVER MODE:  SCF:  T  FORCE:  T  STRESS:  F  VC:  F  ENSEMBLE:  F
  @ DRIVER MODE:  SCF:  T  FORCE:  T  STRESS:  F  VC:  F  ENSEMBLE:  F

     Using Slab Decomposition

     bravais-lattice index     =            0
     lattice parameter (alat)  =       1.8897  a.u.
     unit-cell volume          =    6658.9804 (a.u.)^3
     number of atoms/cell      =           55
     number of atomic types    =            5
     number of electrons       =       397.00
     number of Kohn-Sham states=          208
     kinetic-energy cutoff     =      29.3995  Ry
     charge density cutoff     =     293.9946  Ry
     scf convergence threshold =      7.3E-08
     mixing beta               =       0.0500
     number of iterations used =            8  plain     mixing
     Exchange-correlation= BEEF-VDW
                           (   1   4  43  14   2   0   0)

     celldm(1)=   1.889726  celldm(2)=   0.000000  celldm(3)=   0.000000
     celldm(4)=   0.000000  celldm(5)=   0.000000  celldm(6)=   0.000000

     crystal axes: (cart. coord. in units of alat)
               a(1) = (   6.579727   0.000000   0.000000 )
               a(2) = (  -0.000775   5.961596   0.000000 )
               a(3) = (   0.000000   0.000000  25.155947 )

     reciprocal axes: (cart. coord. in units 2 pi/alat)
               b(1) = (  0.151982  0.000020  0.000000 )
               b(2) = (  0.000000  0.167740  0.000000 )
               b(3) = (  0.000000  0.000000  0.039752 )

     PseudoPot. # 1 for Ti read from file:
     /storage/coda1/p-amedford6/0/shared/rich_project_chbe-medford/medford-share/data/pseudos_module/espresso/nninc/pbe/van/Ti.UPF
     MD5 check sum: 8e4df49b7f0d34bbd5052bf3f5ea0213
     Pseudo is Ultrasoft, Zval = 12.0
     Generated by new atomic code, or converted to UPF format
     Using radial grid of  851 points,  6 beta functions with:
                l(1) =   0
                l(2) =   0
                l(3) =   1
                l(4) =   1
                l(5) =   2
                l(6) =   2
     Q(r) pseudized with  8 coefficients,  rinner =    1.000   1.000   1.000
                                                       1.000   1.000

     PseudoPot. # 2 for O  read from file:
     /storage/coda1/p-amedford6/0/shared/rich_project_chbe-medford/medford-share/data/pseudos_module/espresso/nninc/pbe/van/O.UPF
     MD5 check sum: 78c19812648e8988a0fe644b0f25305e
     Pseudo is Ultrasoft, Zval =  6.0
     Generated by new atomic code, or converted to UPF format
     Using radial grid of  737 points,  4 beta functions with:
                l(1) =   0
                l(2) =   0
                l(3) =   1
                l(4) =   1
     Q(r) pseudized with  8 coefficients,  rinner =    0.800   0.800   0.800

     PseudoPot. # 3 for N  read from file:
     /storage/coda1/p-amedford6/0/shared/rich_project_chbe-medford/medford-share/data/pseudos_module/espresso/nninc/pbe/van/N.UPF
     MD5 check sum: 90d10febe142ad51ac9d5be1deb811c4
     Pseudo is Ultrasoft, Zval =  5.0
     Generated by new atomic code, or converted to UPF format
     Using radial grid of  729 points,  4 beta functions with:
                l(1) =   0
                l(2) =   0
                l(3) =   1
                l(4) =   1
     Q(r) pseudized with  8 coefficients,  rinner =    0.800   0.800   0.800

     PseudoPot. # 4 for C  read from file:
     /storage/coda1/p-amedford6/0/shared/rich_project_chbe-medford/medford-share/data/pseudos_module/espresso/nninc/pbe/van/C.UPF
     MD5 check sum: 1a69bf6b8db32088f5b2163dbdb77a27
     Pseudo is Ultrasoft, Zval =  4.0
     Generated by new atomic code, or converted to UPF format
     Using radial grid of  721 points,  4 beta functions with:
                l(1) =   0
                l(2) =   0
                l(3) =   1
                l(4) =   1
     Q(r) pseudized with  8 coefficients,  rinner =    0.800   0.800   0.800

     PseudoPot. # 5 for H  read from file:
     /storage/coda1/p-amedford6/0/shared/rich_project_chbe-medford/medford-share/data/pseudos_module/espresso/nninc/pbe/van/H.UPF
     MD5 check sum: b5ee9d7bfd3a09ee7748110bda690ff7
     Pseudo is Ultrasoft, Zval =  1.0
     Generated by new atomic code, or converted to UPF format
     Using radial grid of  615 points,  1 beta functions with:
                l(1) =   0
     Q(r) pseudized with  8 coefficients,  rinner =    0.800

     atomic species   valence    mass     pseudopotential
        Ti1           12.00    47.86700     Ti( 1.00)
        O1             6.00    15.99900     O ( 1.00)
        N1             5.00    14.00700     N ( 1.00)
        C1             4.00    12.01100     C ( 1.00)
        H1             1.00     1.00800     H ( 1.00)

     No symmetry found

   Cartesian axes

     site n.     atom                  positions (alat units)
         1           Ti1 tau(   1) = (   0.0004258   2.9801865   6.0000000  )
         2           Ti1 tau(   2) = (   3.2906075   1.4906267   6.0002472  )
         3           O1  tau(   3) = (   0.0006271   0.0005054   7.9858123  )
         4           O1  tau(   4) = (   3.2906025   0.0005020   7.3038282  )
         5           O1  tau(   5) = (   4.5942328   1.4918067   9.2879030  )
         6           O1  tau(   6) = (   1.9868534   1.4903216   9.2879459  )
         7           Ti1 tau(   7) = (   3.2907910   2.8959150   9.1758416  )
         8           Ti1 tau(   8) = (   0.0015273   1.4827037   9.2680791  )
         9           O1  tau(   9) = (   3.2830128   5.9597860  11.3344455  )
        10           O1  tau(  10) = (   0.0116148   5.9584955  10.6183126  )
        11           O1  tau(  11) = (   1.2885291   1.4855062  12.6376555  )
        12           O1  tau(  12) = (   5.2724004   1.4911608  12.5936499  )
        13           Ti1 tau(  13) = (   0.0410009   3.0319447  12.6084003  )
        14           Ti1 tau(  14) = (   3.3739341   1.4916561  12.4823474  )
        15           O1  tau(  15) = (   6.4862162   0.0153916  14.6455093  )
        16           O1  tau(  16) = (   3.3439542   5.9611638  13.9051029  )
        17           O1  tau(  17) = (   4.4933269   1.5483200  16.1231154  )
        18           O1  tau(  18) = (   1.9964937   1.4536654  15.9127221  )
        19           Ti1 tau(  19) = (   3.1412959   3.0017366  15.7441667  )
        20           Ti1 tau(  20) = (   6.4823597   1.5369342  15.8006069  )
        21           O1  tau(  21) = (   3.2904802   0.0005063   4.7018136  )
        22           O1  tau(  22) = (   6.5709111   0.0522475  17.2082838  )
        23           O1  tau(  23) = (   1.3043587   1.4918075   6.0039043  )
        24           O1  tau(  24) = (   5.2767064   1.4903225   6.0039473  )
        25           Ti1 tau(  25) = (   0.0000382   5.9609847   6.0000000  )
        26           Ti1 tau(  26) = (   3.2902200   4.4714249   6.0002472  )
        27           O1  tau(  27) = (   0.0002396   2.9813036   7.9858123  )
        28           O1  tau(  28) = (   3.2902150   2.9813002   7.3038282  )
        29           O1  tau(  29) = (   4.5938453   4.4726049   9.2879030  )
        30           O1  tau(  30) = (   1.9864658   4.4711199   9.2879459  )
        31           Ti1 tau(  31) = (   3.2891106   5.8743827   9.1763621  )
        32           Ti1 tau(  32) = (   0.0006254   4.4649316   9.2693709  )
        33           O1  tau(  33) = (   3.2833609   2.9822938  11.3349093  )
        34           O1  tau(  34) = (   0.0092240   2.9805883  10.6323155  )
        35           O1  tau(  35) = (   1.2838611   4.4860338  12.6468719  )
        36           O1  tau(  36) = (   5.2760156   4.4607002  12.6015494  )
        37           Ti1 tau(  37) = (   0.0673138   0.0440259  12.5461749  )
        38           Ti1 tau(  38) = (   3.3712377   4.4654930  12.4933830  )
        39           O1  tau(  39) = (   6.5217465   2.9589972  14.6412948  )
        40           O1  tau(  40) = (   3.2809526   2.9956502  13.9333893  )
        41           O1  tau(  41) = (   4.4911989   4.4583117  16.1637052  )
        42           O1  tau(  42) = (   1.9937212   4.5427850  15.9740970  )
        43           Ti1 tau(  43) = (   3.2955853   0.0167752  15.6963065  )
        44           Ti1 tau(  44) = (   6.5082246   4.6715011  16.1069148  )
        45           O1  tau(  45) = (   3.2900926   2.9813045   4.7018136  )
        46           O1  tau(  46) = (   1.3039711   4.4726057   6.0039043  )
        47           O1  tau(  47) = (   5.2763189   4.4711207   6.0039473  )
        48           N1  tau(  48) = (   1.3945086   2.8365607  18.1849301  )
        49           N1  tau(  49) = (   0.1677896   2.9650562  17.4211889  )
        50           C1  tau(  50) = (   1.4118813   3.7128676  19.3556819  )
        51           H1  tau(  51) = (   0.5171711   3.5996102  19.9880000  )
        52           H1  tau(  52) = (   2.2935099   3.4681107  19.9517681  )
        53           H1  tau(  53) = (   1.4703795   4.7520035  19.0319817  )
        54           H1  tau(  54) = (   1.4579882   1.8621926  18.4823179  )
        55           H1  tau(  55) = (   5.9558665   2.8747675  18.0551794  )

     number of k points=    10  Fermi-Dirac smearing, width (Ry)=  0.0073
                       cart. coord. in units 2pi/alat
        k(    1) = (   0.0000000   0.0000000   0.0000000), wk =   0.1250000
        k(    2) = (   0.0000000   0.0419351   0.0000000), wk =   0.2500000
        k(    3) = (   0.0000000  -0.0838702   0.0000000), wk =   0.1250000
        k(    4) = (   0.0379955   0.0000049   0.0000000), wk =   0.2500000
        k(    5) = (   0.0379955   0.0419400   0.0000000), wk =   0.2500000
        k(    6) = (   0.0379955  -0.0838652   0.0000000), wk =   0.2500000
        k(    7) = (   0.0379955  -0.0419301   0.0000000), wk =   0.2500000
        k(    8) = (  -0.0759910  -0.0000099   0.0000000), wk =   0.1250000
        k(    9) = (  -0.0759910   0.0419252   0.0000000), wk =   0.2500000
        k(   10) = (  -0.0759910  -0.0838800   0.0000000), wk =   0.1250000

     Initial potential from superposition of free atoms

     starting charge  380.99914, renormalised to  397.00000

     negative rho (up, down):  1.541E-02 0.000E+00

     %%%%%%%%%%%%%%%%%%%%%%%%%%%%%%%%%%%%%%%%%%%%%%%%%%%%%%%%%%%%%%%%%%%%%%%%
     %                                                                      %
     % You are using vdW-DF, which was implemented by the Thonhauser group. %
     % Please cite the following two papers that made this development      %
     % possible and the two reviews that describe the various versions:     %
     %                                                                      %
     %   T. Thonhauser et al., PRL 115, 136402 (2015).                      %
     %   T. Thonhauser et al., PRB 76, 125112 (2007).                       %
     %   K. Berland et al., Rep. Prog. Phys. 78, 066501 (2015).             %
     %   D.C. Langreth et al., J. Phys.: Condens. Matter 21, 084203 (2009). %
     %                                                                      %
     %                                                                      %
     % If you are calculating the stress with vdW-DF, please also cite:     %
     %                                                                      %
     %   R. Sabatini et al., J. Phys.: Condens. Matter 24, 424209 (2012).   %
     %                                                                      %
     %%%%%%%%%%%%%%%%%%%%%%%%%%%%%%%%%%%%%%%%%%%%%%%%%%%%%%%%%%%%%%%%%%%%%%%%

     Adding external electric field

     Computed dipole along edir(3) :
        Dipole               -9.6180 Ry au,        -24.4465 Debye
        Dipole field         -0.0182 Ry au,

        Potential amp.        1.6825 Ry
        Total length         46.3494 bohr

     Starting wfcs are  301 atomic wfcs
  @ DRIVER MODE: Message from server: STATUS
  @ DRIVER MODE: Message from server: POSDATA
  @ DRIVER MODE: Reading and sharing cell
  @ DRIVER MODE: Reading and sharing positions
  @ DRIVER MODE: Received positions

     Self-consistent Calculation

     iteration #  1     ecut=    29.40 Ry     beta= 0.05
     Davidson diagonalization with overlap
     c_bands:  1 eigenvalues not converged
     c_bands:  1 eigenvalues not converged
     c_bands:  1 eigenvalues not converged
     c_bands:  1 eigenvalues not converged
     c_bands:  1 eigenvalues not converged
     c_bands:  2 eigenvalues not converged
     ethr =  1.00E-05,  avg # of iterations = 18.8

[...]

     total energy              =   -2534.05945720 Ry
     estimated scf accuracy    <    4534.36028861 Ry

[...]

     iteration #  3     ecut=    29.40 Ry     beta= 0.05
     Davidson diagonalization with overlap
     ethr =  1.00E-02,  avg # of iterations = 14.9

[...]

     iteration # 70     ecut=    29.40 Ry     beta= 0.05
     Davidson diagonalization with overlap
     c_bands:  1 eigenvalues not converged
     ethr =  6.18E-11,  avg # of iterations = 13.7

[...]

     total energy              =   -2941.66142055 Ry
     estimated scf accuracy    <       0.00000023 Ry

     iteration # 71     ecut=    29.40 Ry     beta= 0.05
     Davidson diagonalization with overlap
     ethr =  5.89E-11,  avg # of iterations =  5.5

     negative rho (up, down):  1.606E-02 0.000E+00

     Adding external electric field

     Computed dipole along edir(3) :
        Dipole                0.9414 Ry au,          2.3928 Debye
        Dipole field          0.0018 Ry au,

        Potential amp.       -0.1647 Ry
        Total length         46.3494 bohr

     End of self-consistent calculation

          k = 0.0000 0.0000 0.0000 ( 18029 PWs)   bands (ev):

   -55.6867 -55.6695 -55.6526 -55.6329 -55.5923 -55.5378 -55.5310 -55.5010
   -55.4949 -55.4670 -55.4650 -55.4309 -55.2583 -55.0346 -54.6671 -54.6330
   -32.2205 -32.1698 -32.0425 -32.0325 -31.9994 -31.9845 -31.9794 -31.9553
   -31.9306 -31.8986 -31.8962 -31.8900 -31.8470 -31.8390 -31.8248 -31.8232
   -31.8066 -31.7917 -31.7827 -31.7474 -31.7439 -31.7367 -31.7209 -31.7174
   -31.6947 -31.6902 -31.6875 -31.6798 -31.6657 -31.6634 -31.6557 -31.6466
   -31.6411 -31.6315 -31.6180 -31.6085 -31.5771 -31.5084 -31.4649 -31.3004
   -31.2914 -31.2373 -31.0744 -30.9857 -30.9633 -30.8910 -30.8045 -30.6935
   -16.7172 -16.4161 -16.1621 -15.9311 -15.8416 -15.8114 -15.6591 -15.5276
   -15.4183 -15.3364 -15.2514 -15.2324 -15.2253 -15.2144 -15.1885 -15.1819
   -15.1355 -15.1303 -15.1112 -15.0982 -15.0485 -15.0316 -15.0283 -14.9333
   -14.8694 -14.8342 -14.8197 -14.7848 -14.7477 -14.3327 -13.1695 -13.0531
   -11.8316  -8.9893  -5.4105  -4.3515  -3.8340  -3.7882  -3.6445  -3.5942
    -3.5337  -3.4942  -3.3173  -3.2147  -2.9421  -2.8854  -2.8555  -2.8463
    -2.7905  -2.7598  -2.6012  -2.5750  -2.5042  -2.4947  -2.4800  -2.4511
    -2.4421  -2.4350  -2.3953  -2.3755  -2.3469  -2.2432  -2.1019  -2.0924
    -2.0709  -2.0380  -2.0006  -1.9519  -1.9355  -1.9149  -1.8968  -1.8838
    -1.8716  -1.7360  -1.7020  -1.5851  -1.4959  -1.4482  -1.3694  -1.2987
    -1.2652  -1.1580  -1.1182  -1.1043  -1.0907  -1.0808  -0.9812  -0.8751
    -0.8572  -0.8189  -0.7671  -0.7096  -0.6388  -0.5939  -0.5432  -0.4911
    -0.4683  -0.4513  -0.4486  -0.4133  -0.3229  -0.1803  -0.1281  -0.0941
    -0.0715   0.0049   0.0399   0.0964   0.1207   0.1437   0.1798   0.2326
     0.2765   0.2827   0.2963   0.3109   0.3155   0.4900   0.5399   0.5813
     0.6143   0.6609   0.8215   0.8439   0.9653   1.0382   1.1985   1.2805
     1.3550   1.4331   1.5468   1.6109   1.9264   1.9722   3.4441   3.5316
     3.5763   3.5902   3.6855   3.7274   3.8969   3.9275   3.9419   4.0022

[...]

          k = 0.0380-0.0419 0.0000 ( 17876 PWs)   bands (ev):

[...]

          k =-0.0760-0.0000 0.0000 ( 17886 PWs)   bands (ev):

[...]

          k =-0.0760-0.0839 0.0000 ( 17948 PWs)   bands (ev):

   -55.6699 -55.6693 -55.6548 -55.6474 -55.5863 -55.5436 -55.5184 -55.5075
   -55.4845 -55.4830 -55.4509 -55.4451 -55.2571 -55.0356 -54.6500 -54.6499
   -32.0296 -32.0199 -31.9853 -31.9849 -31.9651 -31.9644 -31.9440 -31.9378
   -31.8849 -31.8843 -31.8740 -31.8688 -31.8518 -31.8337 -31.8093 -31.8046
   -31.8002 -31.7966 -31.7900 -31.7898 -31.7889 -31.7884 -31.7845 -31.7445
   -31.7365 -31.7249 -31.7167 -31.7055 -31.6849 -31.6840 -31.6819 -31.6753
   -31.6652 -31.6612 -31.6579 -31.6555 -31.6142 -31.5110 -31.4615 -31.3626
   -31.2935 -31.2634 -30.9760 -30.9759 -30.8871 -30.8870 -30.8478 -30.8478
   -16.6879 -15.8643 -15.8033 -15.6455 -15.6103 -15.5906 -15.5556 -15.4947
   -15.4116 -15.3846 -15.3801 -15.3330 -15.3068 -15.2739 -15.2361 -15.2218
   -15.2146 -15.1956 -15.1829 -15.1498 -15.1403 -15.1287 -15.1215 -15.0456
   -15.0084 -15.0040 -14.9980 -14.8946 -14.7679 -14.5004 -13.1549 -13.1548
   -11.8382  -9.0034  -5.4245  -4.3384  -3.7573  -3.1571  -3.0702  -2.8953
    -2.8398  -2.8111  -2.7952  -2.6288  -2.6186  -2.6032  -2.5562  -2.5356
    -2.5253  -2.5171  -2.5085  -2.4874  -2.4746  -2.4390  -2.4295  -2.3946
    -2.3802  -2.3628  -2.3459  -2.3286  -2.3092  -2.2945  -2.2770  -2.2376
    -2.2170  -2.2069  -2.1869  -2.1440  -1.9323  -1.8820  -1.8357  -1.8316
    -1.8219  -1.8019  -1.7475  -1.7425  -1.7078  -1.6568  -1.5784  -1.4336
    -1.3886  -1.3721  -1.2787  -1.2572  -1.2041  -1.1325  -1.0865  -1.0695
    -1.0340  -0.9699  -0.9343  -0.8969  -0.8301  -0.8061  -0.8000  -0.7062
    -0.6856  -0.6497  -0.6430  -0.5638  -0.5111  -0.4509  -0.4354  -0.4191
    -0.3888  -0.3539  -0.3364  -0.2717  -0.1759  -0.1749  -0.1539  -0.0425
     0.0487   0.2764   0.3390   0.3760   0.4210   0.5148   0.5825   0.6075
     0.6235   0.6448   0.6648   0.7132   0.8397   0.8496   0.8842   0.9970
     1.0969   1.6262   1.7185   1.7193   1.7920   1.7921   3.7459   3.7642
     3.7847   3.8311   3.9501   3.9572   3.9792   3.9816   4.1041   4.1169

     the Fermi energy is     3.4458 ev

!    total energy              =   -2941.66144331 Ry
     estimated scf accuracy    <       0.00000005 Ry
     smearing contrib. (-TS)   =      -0.02151556 Ry
     internal energy E=F+TS    =   -2941.63992775 Ry

     The total energy is F=E-TS. E is the sum of the following terms:
     one-electron contribution =  -24275.90150492 Ry
     hartree contribution      =   12228.41225401 Ry
     xc contribution           =    -486.87258178 Ry
     ewald contribution        =    9592.72023245 Ry
     electric field correction =       0.00167249 Ry

     convergence has been achieved in  71 iterations

     Forces acting on atoms (cartesian axes, Ry/au):

     atom    1 type  1   force =     0.00018138   -0.00011912    0.09635523
     atom    2 type  1   force =    -0.00021880   -0.00063160   -0.17551902
     atom    3 type  2   force =    -0.00004460   -0.00003611   -0.02419565
     atom    4 type  2   force =     0.00004839   -0.00143884    0.05289070
     atom    5 type  2   force =    -0.01181602   -0.00049251    0.00395234
     atom    6 type  2   force =     0.01312508    0.00023690    0.00228919
     atom    7 type  1   force =    -0.00140314    0.00080003   -0.01148299
     atom    8 type  1   force =     0.00053694    0.00920827    0.02522469
     atom    9 type  2   force =    -0.00010926    0.00017326    0.00039393
     atom   10 type  2   force =    -0.00087233    0.00148597   -0.01581338
     atom   11 type  2   force =    -0.00019215   -0.00049777    0.00038992
     atom   12 type  2   force =    -0.00014118   -0.00024713    0.00002435
     atom   13 type  1   force =     0.00052927   -0.00092034    0.00011042
     atom   14 type  1   force =    -0.00007042   -0.00040913    0.00026626
     atom   15 type  2   force =    -0.00004353   -0.00005219   -0.00042274
     atom   16 type  2   force =     0.00006715    0.00024578    0.00002813
     atom   17 type  2   force =    -0.00070802    0.00023657    0.00037397
     atom   18 type  2   force =    -0.00013097    0.00020312    0.00034883
     atom   19 type  1   force =     0.00010755   -0.00054022    0.00036388
     atom   20 type  1   force =    -0.00008678    0.00029666    0.00038984
     atom   21 type  2   force =     0.00007494   -0.00008268    0.10322748
     atom   22 type  2   force =    -0.00039374   -0.00039342    0.00016673
     atom   23 type  2   force =    -0.07148752   -0.00018414   -0.02770696
     atom   24 type  2   force =     0.07140653    0.00024970   -0.02770841
     atom   25 type  1   force =     0.00003168   -0.00027590    0.09582941
     atom   26 type  1   force =    -0.00014322   -0.00023435   -0.17568836
     atom   27 type  2   force =     0.00009335   -0.00012582   -0.02329853
     atom   28 type  2   force =     0.00007896   -0.00129611    0.05331722
     atom   29 type  2   force =    -0.01194527   -0.00005484    0.00374950
     atom   30 type  2   force =     0.01319183    0.00043233    0.00212657
     atom   31 type  1   force =    -0.00140802    0.00344556   -0.01082528
     atom   32 type  1   force =     0.00064008   -0.01009826    0.02563394
     atom   33 type  2   force =    -0.00039005    0.00005004    0.00005860
     atom   34 type  2   force =     0.00075557    0.00089881   -0.02308349
     atom   35 type  2   force =    -0.00011235    0.00029504   -0.00002506
     atom   36 type  2   force =    -0.00023563    0.00058722   -0.00029768
     atom   37 type  1   force =    -0.00082652   -0.00102419   -0.00007860
     atom   38 type  1   force =    -0.00000916   -0.00009085   -0.00001422
     atom   39 type  2   force =    -0.00020803    0.00002770    0.00052120
     atom   40 type  2   force =     0.00049185    0.00024586    0.00027002
     atom   41 type  2   force =    -0.00013623    0.00062973    0.00015999
     atom   42 type  2   force =    -0.00017303    0.00021623   -0.00014829
     atom   43 type  1   force =     0.00032600    0.00008506   -0.00018287
     atom   44 type  1   force =    -0.00045401   -0.00035350   -0.00004380
     atom   45 type  2   force =     0.00007101   -0.00008715    0.10325311
     atom   46 type  2   force =    -0.07148926   -0.00016606   -0.02770426
     atom   47 type  2   force =     0.07141125    0.00030819   -0.02771711
     atom   48 type  3   force =    -0.00555109    0.00080247   -0.00329261
     atom   49 type  3   force =     0.01643096   -0.00017794   -0.00276570
     atom   50 type  4   force =    -0.00008575   -0.00010840    0.00081916
     atom   51 type  5   force =     0.00132940    0.00049609   -0.00046161
     atom   52 type  5   force =    -0.00023161    0.00066675   -0.00069012
     atom   53 type  5   force =    -0.00020830   -0.00165643    0.00056970
     atom   54 type  5   force =    -0.00076269    0.00077436   -0.00072419
     atom   55 type  5   force =    -0.00884048   -0.00130273    0.00678663

     Total force =     0.367950     Total SCF correction =     0.000535
  @ DRIVER MODE: Message from server: STATUS
  @ DRIVER MODE: Message from server: GETFORCE
  @ DRIVER MODE: Returning v,forces,stress,ensemble

     Writing output data file ./calc.save/
  @ DRIVER MODE: Message from server: EXIT
  @ DRIVE MODE: Exiting

     General routines

     Parallel routines

   This run was terminated on:  20:57:30  24Aug2021

   JOB DONE.