     Program PWSCF v.6.7GPU starts on 16Sep2021 at  2: 5:29

     R & G space division:  proc/nbgrp/npool/nimage =      10
     Reading input from /storage/home/hcoda1/3/ntian30/research/carbon/CxH_vib/H2O_calc/ads_slab/CH3OHH2O_e/out_0033/pw.inp
Warning: card &CELL ignored
Warning: card   CELL_DYNAMICS='IPI', ignored
Warning: card / ignored

     Current dimensions of program PWSCF are:
     Max number of different atomic species (ntypx) = 10
     Max number of k-points (npk) =  40000
     Max angular momentum in pseudopotentials (lmaxx) =  3
     Presently no symmetry can be used with electric field

     Message from routine cell_base_init:
     DEPRECATED: use true lattice parameter, not A to a.u. conversion factor

     IMPORTANT: XC functional enforced from input :
     Exchange-correlation= BEEF-VDW
                           (   1   4  43  14   2   0   0)
     Any further DFT definition will be discarded
     Please, verify this is what you really want

  @ DRIVER MODE: Connecting to
 qe_1139763_2852623.sched-torque.pace.gatech.edu3bhaeanc_scratch
  using UNIX socket
  @ DRIVER MODE: Message from server: STATUS
  @ DRIVER MODE: Message from server: INIT
  @ DRIVER MODE: Receiving replica           0          -1
  @ DRIVER MODE: Receiving encoded integer          25
  @ DRIVER MODE:  SCF:  T  FORCE:  T  STRESS:  F  VC:  F  ENSEMBLE:  F
  @ DRIVER MODE:  SCF:  T  FORCE:  T  STRESS:  F  VC:  F  ENSEMBLE:  F

     Using Slab Decomposition

     bravais-lattice index     =            0
     lattice parameter (alat)  =       1.8897  a.u.
     unit-cell volume          =    6658.9804 (a.u.)^3
     number of atoms/cell      =           56
     number of atomic types    =            4
     number of electrons       =       400.00
     number of Kohn-Sham states=          210
     kinetic-energy cutoff     =      29.3995  Ry
     charge density cutoff     =     293.9946  Ry
     scf convergence threshold =      7.3E-08
     mixing beta               =       0.0500
     number of iterations used =            8  plain     mixing
     Exchange-correlation= BEEF-VDW
                           (   1   4  43  14   2   0   0)

     celldm(1)=   1.889726  celldm(2)=   0.000000  celldm(3)=   0.000000
     celldm(4)=   0.000000  celldm(5)=   0.000000  celldm(6)=   0.000000

     crystal axes: (cart. coord. in units of alat)
               a(1) = (   6.579727   0.000000   0.000000 )
               a(2) = (  -0.000775   5.961596   0.000000 )
               a(3) = (   0.000000   0.000000  25.155947 )

     reciprocal axes: (cart. coord. in units 2 pi/alat)
               b(1) = (  0.151982  0.000020  0.000000 )
               b(2) = (  0.000000  0.167740  0.000000 )
               b(3) = (  0.000000  0.000000  0.039752 )

     PseudoPot. # 1 for Ti read from file:
     /storage/coda1/p-amedford6/0/shared/rich_project_chbe-medford/medford-share/data/pseudos_module/espresso/nninc/pbe/van/Ti.UPF
     MD5 check sum: 8e4df49b7f0d34bbd5052bf3f5ea0213
     Pseudo is Ultrasoft, Zval = 12.0
     Generated by new atomic code, or converted to UPF format
     Using radial grid of  851 points,  6 beta functions with:
                l(1) =   0
                l(2) =   0
                l(3) =   1
                l(4) =   1
                l(5) =   2
                l(6) =   2
     Q(r) pseudized with  8 coefficients,  rinner =    1.000   1.000   1.000
                                                       1.000   1.000

     PseudoPot. # 2 for O  read from file:
     /storage/coda1/p-amedford6/0/shared/rich_project_chbe-medford/medford-share/data/pseudos_module/espresso/nninc/pbe/van/O.UPF
     MD5 check sum: 78c19812648e8988a0fe644b0f25305e
     Pseudo is Ultrasoft, Zval =  6.0
     Generated by new atomic code, or converted to UPF format
     Using radial grid of  737 points,  4 beta functions with:
                l(1) =   0
                l(2) =   0
                l(3) =   1
                l(4) =   1
     Q(r) pseudized with  8 coefficients,  rinner =    0.800   0.800   0.800

     PseudoPot. # 3 for C  read from file:
     /storage/coda1/p-amedford6/0/shared/rich_project_chbe-medford/medford-share/data/pseudos_module/espresso/nninc/pbe/van/C.UPF
     MD5 check sum: 1a69bf6b8db32088f5b2163dbdb77a27
     Pseudo is Ultrasoft, Zval =  4.0
     Generated by new atomic code, or converted to UPF format
     Using radial grid of  721 points,  4 beta functions with:
                l(1) =   0
                l(2) =   0
                l(3) =   1
                l(4) =   1
     Q(r) pseudized with  8 coefficients,  rinner =    0.800   0.800   0.800

     PseudoPot. # 4 for H  read from file:
     /storage/coda1/p-amedford6/0/shared/rich_project_chbe-medford/medford-share/data/pseudos_module/espresso/nninc/pbe/van/H.UPF
     MD5 check sum: b5ee9d7bfd3a09ee7748110bda690ff7
     Pseudo is Ultrasoft, Zval =  1.0
     Generated by new atomic code, or converted to UPF format
     Using radial grid of  615 points,  1 beta functions with:
                l(1) =   0
     Q(r) pseudized with  8 coefficients,  rinner =    0.800

     atomic species   valence    mass     pseudopotential
        Ti1           12.00    47.86700     Ti( 1.00)
        O1             6.00    15.99900     O ( 1.00)
        C1             4.00    12.01100     C ( 1.00)
        H1             1.00     1.00800     H ( 1.00)

     No symmetry found

   Cartesian axes

     site n.     atom                  positions (alat units)
         1           Ti1 tau(   1) = (   0.0004258   2.9801865   6.0000000  )
         2           Ti1 tau(   2) = (   3.2906075   1.4906267   6.0002472  )
         3           O1  tau(   3) = (   0.0006271   0.0005054   7.9858123  )
         4           O1  tau(   4) = (   3.2906025   0.0005020   7.3038282  )
         5           O1  tau(   5) = (   4.5942328   1.4918067   9.2879030  )
         6           O1  tau(   6) = (   1.9868534   1.4903216   9.2879459  )
         7           Ti1 tau(   7) = (   3.3179988   2.9667087   9.1587561  )
         8           Ti1 tau(   8) = (   0.0368451   1.4888401   9.2646154  )
         9           O1  tau(   9) = (   3.2981896   5.9413050  11.3756853  )
        10           O1  tau(  10) = (   0.0022081   5.9550161  10.6068466  )
        11           O1  tau(  11) = (   1.2930414   1.4711740  12.6526869  )
        12           O1  tau(  12) = (   5.2963464   1.4745835  12.6500758  )
        13           Ti1 tau(  13) = (   0.0229324   2.9590759  12.5385950  )
        14           Ti1 tau(  14) = (   3.3157970   1.4644123  12.5194148  )
        15           O1  tau(  15) = (   6.5691168   5.9481840  14.6869282  )
        16           O1  tau(  16) = (   3.2964787   5.9455965  14.0277316  )
        17           O1  tau(  17) = (   4.5665908   1.5027878  16.2081754  )
        18           O1  tau(  18) = (   2.0283028   1.5092035  16.1774433  )
        19           Ti1 tau(  19) = (   3.2999954   2.9453206  15.7178785  )
        20           Ti1 tau(  20) = (   6.5724188   1.3235339  15.9896992  )
        21           O1  tau(  21) = (   3.2904802   0.0005063   4.7018136  )
        22           O1  tau(  22) = (   0.0286320   5.9425150  17.2304330  )
        23           O1  tau(  23) = (   1.3043587   1.4918075   6.0039043  )
        24           O1  tau(  24) = (   5.2767064   1.4903225   6.0039473  )
        25           Ti1 tau(  25) = (   0.0000382   5.9609847   6.0000000  )
        26           Ti1 tau(  26) = (   3.2902200   4.4714249   6.0002472  )
        27           O1  tau(  27) = (   0.0002396   2.9813036   7.9858123  )
        28           O1  tau(  28) = (   3.2902150   2.9813002   7.3038282  )
        29           O1  tau(  29) = (   4.5938453   4.4726049   9.2879030  )
        30           O1  tau(  30) = (   1.9864658   4.4711199   9.2879459  )
        31           Ti1 tau(  31) = (   3.3176359   5.9492212   9.1540102  )
        32           Ti1 tau(  32) = (   0.0367062   4.4560090   9.2708352  )
        33           O1  tau(  33) = (   3.2951800   2.9650663  11.3684769  )
        34           O1  tau(  34) = (   0.0080098   2.9764013  10.6279654  )
        35           O1  tau(  35) = (   1.2931912   4.4560454  12.6592269  )
        36           O1  tau(  36) = (   5.2946864   4.4524020  12.6579832  )
        37           Ti1 tau(  37) = (   0.0159028   5.9413441  12.4831893  )
        38           Ti1 tau(  38) = (   3.3151975   4.4500431  12.5204281  )
        39           O1  tau(  39) = (   0.0034497   2.9621527  14.8596962  )
        40           O1  tau(  40) = (   3.2989893   2.9535984  13.9376031  )
        41           O1  tau(  41) = (   4.5724332   4.4114593  16.1445292  )
        42           O1  tau(  42) = (   2.0255208   4.3883007  16.1585022  )
        43           Ti1 tau(  43) = (   3.2821299   5.9114753  15.8432964  )
        44           Ti1 tau(  44) = (   6.5414858   4.5242847  15.8739915  )
        45           O1  tau(  45) = (   3.2900926   2.9813045   4.7018136  )
        46           O1  tau(  46) = (   1.3039711   4.4726057   6.0039043  )
        47           O1  tau(  47) = (   5.2763189   4.4711207   6.0039473  )
        48           C1  tau(  48) = (   5.9754720   3.1749164  18.9278073  )
        49           O1  tau(  49) = (   0.1533887   3.0270296  17.7012840  )
        50           H1  tau(  50) = (   4.9293134   3.0706859  18.6584277  )
        51           H1  tau(  51) = (   1.0910173   3.2466920  17.8500278  )
        52           H1  tau(  52) = (   6.2690755   2.3937635  19.6305738  )
        53           H1  tau(  53) = (   6.1431946   4.1594627  19.3379575  )
        54           O1  tau(  54) = (   3.1723115   5.9428592  18.3689464  )
        55           H1  tau(  55) = (   3.8852673   0.6353712  18.4582360  )
        56           H1  tau(  56) = (   2.3406934   0.4831942  18.3201771  )

     number of k points=    10  Fermi-Dirac smearing, width (Ry)=  0.0073
                       cart. coord. in units 2pi/alat
        k(    1) = (   0.0000000   0.0000000   0.0000000), wk =   0.1250000
        k(    2) = (   0.0000000   0.0419351   0.0000000), wk =   0.2500000
        k(    3) = (   0.0000000  -0.0838702   0.0000000), wk =   0.1250000
        k(    4) = (   0.0379955   0.0000049   0.0000000), wk =   0.2500000
        k(    5) = (   0.0379955   0.0419400   0.0000000), wk =   0.2500000
        k(    6) = (   0.0379955  -0.0838652   0.0000000), wk =   0.2500000
        k(    7) = (   0.0379955  -0.0419301   0.0000000), wk =   0.2500000
        k(    8) = (  -0.0759910  -0.0000099   0.0000000), wk =   0.1250000
        k(    9) = (  -0.0759910   0.0419252   0.0000000), wk =   0.2500000
        k(   10) = (  -0.0759910  -0.0838800   0.0000000), wk =   0.1250000

     Initial potential from superposition of free atoms

     starting charge  383.99915, renormalised to  400.00000

     negative rho (up, down):  1.599E-02 0.000E+00

     %%%%%%%%%%%%%%%%%%%%%%%%%%%%%%%%%%%%%%%%%%%%%%%%%%%%%%%%%%%%%%%%%%%%%%%%
     %                                                                      %
     % You are using vdW-DF, which was implemented by the Thonhauser group. %
     % Please cite the following two papers that made this development      %
     % possible and the two reviews that describe the various versions:     %
     %                                                                      %
     %   T. Thonhauser et al., PRL 115, 136402 (2015).                      %
     %   T. Thonhauser et al., PRB 76, 125112 (2007).                       %
     %   K. Berland et al., Rep. Prog. Phys. 78, 066501 (2015).             %
     %   D.C. Langreth et al., J. Phys.: Condens. Matter 21, 084203 (2009). %
     %                                                                      %
     %                                                                      %
     % If you are calculating the stress with vdW-DF, please also cite:     %
     %                                                                      %
     %   R. Sabatini et al., J. Phys.: Condens. Matter 24, 424209 (2012).   %
     %                                                                      %
     %%%%%%%%%%%%%%%%%%%%%%%%%%%%%%%%%%%%%%%%%%%%%%%%%%%%%%%%%%%%%%%%%%%%%%%%

     Adding external electric field

     Computed dipole along edir(3) :
        Dipole              -11.7400 Ry au,        -29.8402 Debye
        Dipole field         -0.0222 Ry au,

        Potential amp.        2.0537 Ry
        Total length         46.3494 bohr

     Starting wfcs are  302 atomic wfcs
  @ DRIVER MODE: Message from server: STATUS
  @ DRIVER MODE: Message from server: POSDATA
  @ DRIVER MODE: Reading and sharing cell
  @ DRIVER MODE: Reading and sharing positions
  @ DRIVER MODE: Received positions

     Self-consistent Calculation

     iteration #  1     ecut=    29.40 Ry     beta= 0.05
     Davidson diagonalization with overlap
     c_bands:  2 eigenvalues not converged
     c_bands:  2 eigenvalues not converged
     c_bands:  4 eigenvalues not converged
     c_bands:  3 eigenvalues not converged
     c_bands:  4 eigenvalues not converged
     c_bands:  4 eigenvalues not converged
     c_bands:  3 eigenvalues not converged
     c_bands:  2 eigenvalues not converged
     ethr =  1.00E-05,  avg # of iterations = 21.3

[...]

     total energy              =   -2420.20548518 Ry
     estimated scf accuracy    <    6189.14521659 Ry

     iteration #  2     ecut=    29.40 Ry     beta= 0.05
     Davidson diagonalization with overlap
     ethr =  1.00E-02,  avg # of iterations = 29.2

[...]

     iteration # 87     ecut=    29.40 Ry     beta= 0.05
     Davidson diagonalization with overlap
     c_bands:  3 eigenvalues not converged
     ethr =  2.45E-10,  avg # of iterations = 13.5

[...]

     total energy              =   -2967.47591207 Ry
     estimated scf accuracy    <       0.00000014 Ry

     iteration # 91     ecut=    29.40 Ry     beta= 0.05
     Davidson diagonalization with overlap
     ethr =  3.43E-11,  avg # of iterations =  7.8

     negative rho (up, down):  1.588E-02 0.000E+00

     Adding external electric field

     Computed dipole along edir(3) :
        Dipole                1.3781 Ry au,          3.5029 Debye
        Dipole field          0.0026 Ry au,

        Potential amp.       -0.2411 Ry
        Total length         46.3494 bohr

     End of self-consistent calculation

          k = 0.0000 0.0000 0.0000 ( 18029 PWs)   bands (ev):

   -55.2494 -55.2217 -55.2133 -55.1873 -55.1555 -55.1477 -55.1422 -55.0954
   -55.0949 -55.0888 -55.0546 -55.0368 -55.0069 -55.0028 -54.3110 -54.2770
   -31.8161 -31.7654 -31.7168 -31.6267 -31.5642 -31.5541 -31.5493 -31.5469
   -31.5104 -31.4810 -31.4648 -31.4627 -31.4515 -31.4415 -31.4275 -31.4128
   -31.3959 -31.3896 -31.3864 -31.3819 -31.3757 -31.3669 -31.3444 -31.3395
   -31.3377 -31.3178 -31.3152 -31.3131 -31.2923 -31.2789 -31.2632 -31.2427
   -31.2412 -31.2404 -31.2291 -31.2200 -31.2016 -31.1881 -31.1761 -31.1716
   -31.1585 -31.1480 -30.7232 -30.6206 -30.5990 -30.5394 -30.4530 -30.3420
   -20.1686 -19.0855 -16.0788 -15.8317 -15.6919 -15.5934 -15.4725 -15.3390
   -15.2788 -15.1640 -15.0729 -14.9829 -14.9681 -14.9494 -14.9201 -14.8976
   -14.8727 -14.8345 -14.8084 -14.7646 -14.7557 -14.7393 -14.7325 -14.6958
   -14.6926 -14.6476 -14.6393 -14.4823 -14.4122 -14.3520 -14.1298 -12.8119
   -12.6925 -11.2047  -6.9399  -6.8531  -5.1365  -5.0254  -3.4189  -3.2619
    -3.2287  -3.2015  -3.1824  -3.1429  -3.0629  -2.9636  -2.7884  -2.6786
    -2.5427  -2.5337  -2.4874  -2.4604  -2.4035  -2.3216  -2.2331  -2.2065
    -2.1714  -2.1383  -2.1350  -2.1192  -2.1089  -2.0529  -2.0172  -1.9593
    -1.8635  -1.8130  -1.7735  -1.7551  -1.6943  -1.6505  -1.6162  -1.5881
    -1.5814  -1.5750  -1.5166  -1.5145  -1.5065  -1.4950  -1.4771  -1.2887
    -1.2490  -1.1164  -1.0255  -0.9857  -0.9711  -0.8168  -0.8101  -0.7658
    -0.7325  -0.6983  -0.6578  -0.6002  -0.5027  -0.4721  -0.4206  -0.3825
    -0.2744  -0.2423  -0.2114  -0.1566  -0.0492  -0.0410  -0.0151   0.0044
     0.0783   0.1740   0.2033   0.2245   0.3014   0.3066   0.3677   0.4084
     0.4422   0.5171   0.5624   0.5735   0.6652   0.6821   0.6957   0.7223
     0.7257   0.8244   0.8605   0.9051   0.9234   1.0751   1.1695   1.3088
     1.3376   1.6040   1.6995   1.7147   1.8751   2.3008   2.3555   3.8419
     3.9102   3.9486   3.9563   3.9697   4.0493   4.3330   4.3482   4.3601
     4.3698   4.3878

[...]

          k = 0.0380-0.0419 0.0000 ( 17876 PWs)   bands (ev):

[...]

          k =-0.0760-0.0000 0.0000 ( 17886 PWs)   bands (ev):

[...]

          k =-0.0760-0.0839 0.0000 ( 17948 PWs)   bands (ev):

   -55.2323 -55.2302 -55.2064 -55.2024 -55.1524 -55.1418 -55.1348 -55.1028
   -55.1016 -55.0730 -55.0701 -55.0217 -55.0180 -55.0088 -54.2940 -54.2939
   -31.6824 -31.6231 -31.6161 -31.5337 -31.5297 -31.5160 -31.5046 -31.4995
   -31.4919 -31.4714 -31.4533 -31.4477 -31.4436 -31.4300 -31.4042 -31.4018
   -31.3902 -31.3878 -31.3807 -31.3797 -31.3762 -31.3731 -31.3602 -31.3461
   -31.3384 -31.3336 -31.3326 -31.3262 -31.3231 -31.3229 -31.3224 -31.3042
   -31.2969 -31.2944 -31.2758 -31.2712 -31.2707 -31.2467 -31.2429 -31.2078
   -31.2036 -31.1906 -30.6116 -30.6115 -30.5359 -30.5357 -30.4963 -30.4961
   -20.1653 -19.0849 -15.6372 -15.5384 -15.3881 -15.2648 -15.2525 -15.2399
   -15.1879 -15.1235 -15.1097 -15.0595 -15.0468 -15.0159 -15.0001 -14.9940
   -14.9581 -14.8496 -14.8455 -14.8352 -14.8145 -14.7695 -14.7585 -14.7514
   -14.7392 -14.7030 -14.6946 -14.6804 -14.6700 -14.5781 -14.4391 -12.7938
   -12.7931 -11.2066  -6.9368  -6.8529  -5.1378  -5.0042  -3.1850  -2.9952
    -2.8065  -2.7276  -2.6301  -2.4828  -2.4681  -2.3871  -2.3752  -2.3247
    -2.2538  -2.2508  -2.2472  -2.1659  -2.1538  -2.1537  -2.1324  -2.1129
    -2.0727  -2.0640  -2.0403  -2.0300  -1.9885  -1.9579  -1.9448  -1.9276
    -1.9174  -1.9135  -1.8825  -1.8677  -1.8524  -1.8111  -1.7882  -1.7276
    -1.6415  -1.6024  -1.4796  -1.4771  -1.4411  -1.4126  -1.3865  -1.3462
    -1.3261  -1.2783  -1.2587  -1.2325  -1.0491  -1.0331  -0.9785  -0.9387
    -0.9188  -0.9053  -0.8435  -0.7717  -0.7448  -0.7134  -0.6476  -0.5745
    -0.4785  -0.4542  -0.4458  -0.3401  -0.2876  -0.2481  -0.2437  -0.2344
    -0.2104  -0.1619  -0.1421  -0.0803  -0.0413   0.0024   0.0278   0.0447
     0.2258   0.2643   0.3227   0.4141   0.4429   0.5879   0.6364   0.6882
     0.7488   0.8251   0.8362   0.9022   1.0164   1.0287   1.0586   1.1356
     1.1789   1.1847   1.2098   2.0660   2.0681   2.1698   2.1728   3.9717
     4.0791   4.0978   4.1766   4.2428   4.3510   4.3641   4.3933   4.4038
     4.4490   4.4809

     the Fermi energy is     3.8983 ev

!    total energy              =   -2967.47591744 Ry
     estimated scf accuracy    <       0.00000007 Ry
     smearing contrib. (-TS)   =      -0.03654070 Ry
     internal energy E=F+TS    =   -2967.43937674 Ry

     The total energy is F=E-TS. E is the sum of the following terms:
     one-electron contribution =  -23962.87520633 Ry
     hartree contribution      =   12077.03996940 Ry
     xc contribution           =    -491.86597976 Ry
     ewald contribution        =    9410.25825577 Ry
     electric field correction =       0.00358418 Ry

     convergence has been achieved in  91 iterations

     Forces acting on atoms (cartesian axes, Ry/au):

     atom    1 type  1   force =    -0.00026173    0.00020126    0.09245536
     atom    2 type  1   force =    -0.00035484    0.00105163   -0.18340530
     atom    3 type  2   force =     0.00050331   -0.00072936   -0.02350011
     atom    4 type  2   force =     0.00072533   -0.00018547    0.05071051
     atom    5 type  2   force =    -0.01404847   -0.00131613    0.00494892
     atom    6 type  2   force =     0.01522141   -0.00065030    0.00509856
     atom    7 type  1   force =    -0.00047530    0.00105695   -0.00010409
     atom    8 type  1   force =     0.00015203   -0.00054193    0.00041263
     atom    9 type  2   force =    -0.00043875    0.00017304    0.00039782
     atom   10 type  2   force =     0.00040915    0.00016595    0.00047814
     atom   11 type  2   force =     0.00035770    0.00044261    0.00033332
     atom   12 type  2   force =     0.00005730    0.00014418    0.00026122
     atom   13 type  1   force =    -0.00087906   -0.00118593   -0.00010598
     atom   14 type  1   force =     0.00059332   -0.00004526    0.00019767
     atom   15 type  2   force =     0.00051289    0.00076371    0.00005902
     atom   16 type  2   force =    -0.00061352   -0.00036643    0.00003767
     atom   17 type  2   force =     0.00005927    0.00021652   -0.00037847
     atom   18 type  2   force =    -0.00015397    0.00028880   -0.00015307
     atom   19 type  1   force =     0.00063827   -0.00005565   -0.00032841
     atom   20 type  1   force =    -0.00003359    0.00018601   -0.00012134
     atom   21 type  2   force =    -0.00004104    0.00015822    0.10499435
     atom   22 type  2   force =    -0.00035225    0.00056886   -0.00085830
     atom   23 type  2   force =    -0.06800742    0.00013255   -0.02681359
     atom   24 type  2   force =     0.06771358    0.00053084   -0.02686539
     atom   25 type  1   force =    -0.00038346   -0.00008767    0.09623393
     atom   26 type  1   force =    -0.00036139   -0.00099543   -0.18320971
     atom   27 type  2   force =     0.00041488   -0.00124623   -0.02226536
     atom   28 type  2   force =     0.00070541   -0.00033322    0.05102719
     atom   29 type  2   force =    -0.01424101   -0.00105907    0.00466948
     atom   30 type  2   force =     0.01518463    0.00021483    0.00484817
     atom   31 type  1   force =    -0.00049253   -0.00145969    0.00018752
     atom   32 type  1   force =     0.00012154    0.00072364   -0.00025284
     atom   33 type  2   force =     0.00002286   -0.00020431    0.00006543
     atom   34 type  2   force =     0.00002385   -0.00006948   -0.00007977
     atom   35 type  2   force =     0.00021225    0.00008067    0.00030093
     atom   36 type  2   force =     0.00039723    0.00044858    0.00004669
     atom   37 type  1   force =    -0.00106032    0.00125104   -0.00006092
     atom   38 type  1   force =     0.00037389    0.00010779   -0.00045315
     atom   39 type  2   force =     0.00039120    0.00022352   -0.00034013
     atom   40 type  2   force =    -0.00008111    0.00019520    0.00004196
     atom   41 type  2   force =    -0.00020622    0.00019098   -0.00050128
     atom   42 type  2   force =     0.00012211   -0.00002115    0.00020300
     atom   43 type  1   force =    -0.00058991    0.00013247    0.00019851
     atom   44 type  1   force =    -0.00003794    0.00003294   -0.00085758
     atom   45 type  2   force =    -0.00005385    0.00015435    0.10493695
     atom   46 type  2   force =    -0.06803996   -0.00038345   -0.02678316
     atom   47 type  2   force =     0.06776728    0.00005125   -0.02688095
     atom   48 type  3   force =    -0.00166716   -0.00990828   -0.00361893
     atom   49 type  2   force =    -0.00103106    0.00040528    0.00076932
     atom   50 type  4   force =     0.00048368    0.00053363    0.00010338
     atom   51 type  4   force =     0.00073396    0.00088281   -0.00006145
     atom   52 type  4   force =    -0.00062389   -0.00003794   -0.00049660
     atom   53 type  4   force =     0.00152031    0.01078272    0.00385496
     atom   54 type  2   force =     0.00087412   -0.00026151    0.00106920
     atom   55 type  4   force =    -0.00082422   -0.00037614   -0.00059329
     atom   56 type  4   force =    -0.00093878   -0.00097282    0.00014738

     Total force =     0.368547     Total SCF correction =     0.000644
  @ DRIVER MODE: Message from server: STATUS
  @ DRIVER MODE: Message from server: GETFORCE
  @ DRIVER MODE: Returning v,forces,stress,ensemble

     Writing output data file ./calc.save/
  @ DRIVER MODE: Message from server: EXIT
  @ DRIVE MODE: Exiting

     General routines

     Parallel routines

   This run was terminated on:   2:28:22  16Sep2021

   JOB DONE.