     Program PWSCF v.6.7GPU starts on  5Aug2021 at 16:47: 9

     R & G space division:  proc/nbgrp/npool/nimage =      16
     Reading input from /storage/home/hcoda1/3/ntian30/research/carbon/02Aug_vib_paired/ads_slab/CH3_a/out_0001/pw.inp
Warning: card &CELL ignored
Warning: card   CELL_DYNAMICS='IPI', ignored
Warning: card / ignored

     Current dimensions of program PWSCF are:
     Max number of different atomic species (ntypx) = 10
     Max number of k-points (npk) =  40000
     Max angular momentum in pseudopotentials (lmaxx) =  3
     Presently no symmetry can be used with electric field

     Message from routine cell_base_init:
     DEPRECATED: use true lattice parameter, not A to a.u. conversion factor

     IMPORTANT: XC functional enforced from input :
     Exchange-correlation= BEEF-VDW
                           (   1   4  43  14   2   0   0)
     Any further DFT definition will be discarded
     Please, verify this is what you really want

  @ DRIVER MODE: Connecting to
 qe_1139763_2507748.sched-torque.pace.gatech.eduzhofy_oh_scratch
  using UNIX socket
  @ DRIVER MODE: Message from server: STATUS
  @ DRIVER MODE: Message from server: INIT
  @ DRIVER MODE: Receiving replica           0          -1
  @ DRIVER MODE: Receiving encoded integer          25
  @ DRIVER MODE:  SCF:  T  FORCE:  T  STRESS:  F  VC:  F  ENSEMBLE:  F
  @ DRIVER MODE:  SCF:  T  FORCE:  T  STRESS:  F  VC:  F  ENSEMBLE:  F

     Using Slab Decomposition

     bravais-lattice index     =            0
     lattice parameter (alat)  =       1.8897  a.u.
     unit-cell volume          =    6658.9804 (a.u.)^3
     number of atoms/cell      =           51
     number of atomic types    =            4
     number of electrons       =       385.00
     number of Kohn-Sham states=          202
     kinetic-energy cutoff     =      29.3995  Ry
     charge density cutoff     =     293.9946  Ry
     scf convergence threshold =      7.3E-08
     mixing beta               =       0.0500
     number of iterations used =            8  plain     mixing
     Exchange-correlation= BEEF-VDW
                           (   1   4  43  14   2   0   0)

     celldm(1)=   1.889726  celldm(2)=   0.000000  celldm(3)=   0.000000
     celldm(4)=   0.000000  celldm(5)=   0.000000  celldm(6)=   0.000000

     crystal axes: (cart. coord. in units of alat)
               a(1) = (   6.579727   0.000000   0.000000 )
               a(2) = (  -0.000775   5.961596   0.000000 )
               a(3) = (   0.000000   0.000000  25.155947 )

     reciprocal axes: (cart. coord. in units 2 pi/alat)
               b(1) = (  0.151982  0.000020  0.000000 )
               b(2) = (  0.000000  0.167740  0.000000 )
               b(3) = (  0.000000  0.000000  0.039752 )

     PseudoPot. # 1 for Ti read from file:
     /storage/coda1/p-amedford6/0/shared/rich_project_chbe-medford/medford-share/data/pseudos_module/espresso/nninc/pbe/van/Ti.UPF
     MD5 check sum: 8e4df49b7f0d34bbd5052bf3f5ea0213
     Pseudo is Ultrasoft, Zval = 12.0
     Generated by new atomic code, or converted to UPF format
     Using radial grid of  851 points,  6 beta functions with:
                l(1) =   0
                l(2) =   0
                l(3) =   1
                l(4) =   1
                l(5) =   2
                l(6) =   2
     Q(r) pseudized with  8 coefficients,  rinner =    1.000   1.000   1.000
                                                       1.000   1.000

     PseudoPot. # 2 for O  read from file:
     /storage/coda1/p-amedford6/0/shared/rich_project_chbe-medford/medford-share/data/pseudos_module/espresso/nninc/pbe/van/O.UPF
     MD5 check sum: 78c19812648e8988a0fe644b0f25305e
     Pseudo is Ultrasoft, Zval =  6.0
     Generated by new atomic code, or converted to UPF format
     Using radial grid of  737 points,  4 beta functions with:
                l(1) =   0
                l(2) =   0
                l(3) =   1
                l(4) =   1
     Q(r) pseudized with  8 coefficients,  rinner =    0.800   0.800   0.800

     PseudoPot. # 3 for C  read from file:
     /storage/coda1/p-amedford6/0/shared/rich_project_chbe-medford/medford-share/data/pseudos_module/espresso/nninc/pbe/van/C.UPF
     MD5 check sum: 1a69bf6b8db32088f5b2163dbdb77a27
     Pseudo is Ultrasoft, Zval =  4.0
     Generated by new atomic code, or converted to UPF format
     Using radial grid of  721 points,  4 beta functions with:
                l(1) =   0
                l(2) =   0
                l(3) =   1
                l(4) =   1
     Q(r) pseudized with  8 coefficients,  rinner =    0.800   0.800   0.800

     PseudoPot. # 4 for H  read from file:
     /storage/coda1/p-amedford6/0/shared/rich_project_chbe-medford/medford-share/data/pseudos_module/espresso/nninc/pbe/van/H.UPF
     MD5 check sum: b5ee9d7bfd3a09ee7748110bda690ff7
     Pseudo is Ultrasoft, Zval =  1.0
     Generated by new atomic code, or converted to UPF format
     Using radial grid of  615 points,  1 beta functions with:
                l(1) =   0
     Q(r) pseudized with  8 coefficients,  rinner =    0.800

     atomic species   valence    mass     pseudopotential
        Ti1           12.00    47.86700     Ti( 1.00)
        O1             6.00    15.99900     O ( 1.00)
        C1             4.00    12.01100     C ( 1.00)
        H1             1.00     1.00800     H ( 1.00)

     No symmetry found

   Cartesian axes

     site n.     atom                  positions (alat units)
         1           Ti1 tau(   1) = (   0.0004258   2.9801865   6.0000000  )
         2           Ti1 tau(   2) = (   3.2906075   1.4906267   6.0002472  )
         3           O1  tau(   3) = (   0.0006271   0.0005054   7.9858123  )
         4           O1  tau(   4) = (   3.2906025   0.0005020   7.3038282  )
         5           O1  tau(   5) = (   4.5942328   1.4918067   9.2879030  )
         6           O1  tau(   6) = (   1.9868534   1.4903216   9.2879459  )
         7           Ti1 tau(   7) = (   3.3226903   2.9514341   9.1576891  )
         8           Ti1 tau(   8) = (   0.0343464   1.5915341   9.3698150  )
         9           O1  tau(   9) = (   3.2914246   5.9565917  11.3520874  )
        10           O1  tau(  10) = (   0.0056322   0.0001635  10.6062760  )
        11           O1  tau(  11) = (   1.2817320   1.4815673  12.6483243  )
        12           O1  tau(  12) = (   5.2831613   1.4908443  12.6423163  )
        13           Ti1 tau(  13) = (   0.0382653   2.9371430  12.8126397  )
        14           Ti1 tau(  14) = (   3.3532929   1.4821923  12.4951370  )
        15           O1  tau(  15) = (   6.5662424   5.9331786  14.6600200  )
        16           O1  tau(  16) = (   3.2816364   5.9551084  13.9465949  )
        17           O1  tau(  17) = (   4.5315606   1.5040344  16.0986503  )
        18           O1  tau(  18) = (   2.0287349   1.4998145  16.0995964  )
        19           Ti1 tau(  19) = (   3.2668404   2.9769305  15.7222481  )
        20           Ti1 tau(  20) = (   6.5415330   1.4777109  16.1743724  )
        21           O1  tau(  21) = (   3.2904802   0.0005063   4.7018136  )
        22           O1  tau(  22) = (   6.5659521   0.0029676  17.1944956  )
        23           O1  tau(  23) = (   1.3043587   1.4918075   6.0039043  )
        24           O1  tau(  24) = (   5.2767064   1.4903225   6.0039473  )
        25           Ti1 tau(  25) = (   0.0000382   5.9609847   6.0000000  )
        26           Ti1 tau(  26) = (   3.2902200   4.4714249   6.0002472  )
        27           O1  tau(  27) = (   0.0002396   2.9813036   7.9858123  )
        28           O1  tau(  28) = (   3.2902150   2.9813002   7.3038282  )
        29           O1  tau(  29) = (   4.5938453   4.4726049   9.2879030  )
        30           O1  tau(  30) = (   1.9864658   4.4711199   9.2879459  )
        31           Ti1 tau(  31) = (   3.3086233   5.9367107   9.1526142  )
        32           Ti1 tau(  32) = (   0.0357814   4.5182409   9.2638332  )
        33           O1  tau(  33) = (   3.2921447   2.9709340  11.3500156  )
        34           O1  tau(  34) = (   0.0064783   2.9842416  10.5732297  )
        35           O1  tau(  35) = (   1.2836142   4.4569143  12.6423601  )
        36           O1  tau(  36) = (   5.2821634   4.4598214  12.6376843  )
        37           Ti1 tau(  37) = (   0.0453433   5.9192801  12.5257453  )
        38           Ti1 tau(  38) = (   3.3504828   4.4607682  12.4868234  )
        39           O1  tau(  39) = (   0.0004961   2.9772524  14.7247240  )
        40           O1  tau(  40) = (   3.2810368   2.9729593  13.9290527  )
        41           O1  tau(  41) = (   4.5304642   4.4591278  16.0913236  )
        42           O1  tau(  42) = (   2.0231910   4.4609068  16.0933517  )
        43           Ti1 tau(  43) = (   3.2586866   5.9546939  15.7393459  )
        44           Ti1 tau(  44) = (   6.5465221   4.6060206  15.8931146  )
        45           O1  tau(  45) = (   3.2900926   2.9813045   4.7018136  )
        46           O1  tau(  46) = (   1.3039711   4.4726057   6.0039043  )
        47           O1  tau(  47) = (   5.2763189   4.4711207   6.0039473  )
        48           C1  tau(  48) = (   6.5576456   2.8990966  17.8516705  )
        49           H1  tau(  49) = (   6.5659762   3.9554521  18.1205428  )
        50           H1  tau(  50) = (   0.8773746   2.4756544  18.3284787  )
        51           H1  tau(  51) = (   5.6845275   2.4719798  18.3396978  )

     number of k points=    10  Fermi-Dirac smearing, width (Ry)=  0.0073
                       cart. coord. in units 2pi/alat
        k(    1) = (   0.0000000   0.0000000   0.0000000), wk =   0.1250000
        k(    2) = (   0.0000000   0.0419351   0.0000000), wk =   0.2500000
        k(    3) = (   0.0000000  -0.0838702   0.0000000), wk =   0.1250000
        k(    4) = (   0.0379955   0.0000049   0.0000000), wk =   0.2500000
        k(    5) = (   0.0379955   0.0419400   0.0000000), wk =   0.2500000
        k(    6) = (   0.0379955  -0.0838652   0.0000000), wk =   0.2500000
        k(    7) = (   0.0379955  -0.0419301   0.0000000), wk =   0.2500000
        k(    8) = (  -0.0759910  -0.0000099   0.0000000), wk =   0.1250000
        k(    9) = (  -0.0759910   0.0419252   0.0000000), wk =   0.2500000
        k(   10) = (  -0.0759910  -0.0838800   0.0000000), wk =   0.1250000

     Initial potential from superposition of free atoms

     starting charge  368.99918, renormalised to  385.00000

     negative rho (up, down):  2.032E-02 0.000E+00

     %%%%%%%%%%%%%%%%%%%%%%%%%%%%%%%%%%%%%%%%%%%%%%%%%%%%%%%%%%%%%%%%%%%%%%%%
     %                                                                      %
     % You are using vdW-DF, which was implemented by the Thonhauser group. %
     % Please cite the following two papers that made this development      %
     % possible and the two reviews that describe the various versions:     %
     %                                                                      %
     %   T. Thonhauser et al., PRL 115, 136402 (2015).                      %
     %   T. Thonhauser et al., PRB 76, 125112 (2007).                       %
     %   K. Berland et al., Rep. Prog. Phys. 78, 066501 (2015).             %
     %   D.C. Langreth et al., J. Phys.: Condens. Matter 21, 084203 (2009). %
     %                                                                      %
     %                                                                      %
     % If you are calculating the stress with vdW-DF, please also cite:     %
     %                                                                      %
     %   R. Sabatini et al., J. Phys.: Condens. Matter 24, 424209 (2012).   %
     %                                                                      %
     %%%%%%%%%%%%%%%%%%%%%%%%%%%%%%%%%%%%%%%%%%%%%%%%%%%%%%%%%%%%%%%%%%%%%%%%

     Adding external electric field

     Computed dipole along edir(3) :
        Dipole               -1.9974 Ry au,         -5.0769 Debye
        Dipole field         -0.0038 Ry au,

        Potential amp.        0.3494 Ry
        Total length         46.3494 bohr

     Starting wfcs are  291 atomic wfcs
  @ DRIVER MODE: Message from server: STATUS
  @ DRIVER MODE: Message from server: POSDATA
  @ DRIVER MODE: Reading and sharing cell
  @ DRIVER MODE: Reading and sharing positions
  @ DRIVER MODE: Received positions

     Self-consistent Calculation

     iteration #  1     ecut=    29.40 Ry     beta= 0.05
     Davidson diagonalization with overlap
     c_bands:  2 eigenvalues not converged
     c_bands:  1 eigenvalues not converged
     c_bands:  3 eigenvalues not converged
     c_bands:  1 eigenvalues not converged
     ethr =  1.00E-05,  avg # of iterations = 18.5

[...]

     total energy              =   -2900.52527352 Ry
     estimated scf accuracy    <      12.60244490 Ry

     iteration #  2     ecut=    29.40 Ry     beta= 0.05
     Davidson diagonalization with overlap
     ethr =  3.27E-03,  avg # of iterations =  1.0

[...]

     iteration # 50     ecut=    29.40 Ry     beta= 0.05
     Davidson diagonalization with overlap
     ethr =  7.07E-11,  avg # of iterations =  4.1

[...]

     total energy              =   -2899.02558399 Ry
     estimated scf accuracy    <       0.00000039 Ry

     iteration # 52     ecut=    29.40 Ry     beta= 0.05
     Davidson diagonalization with overlap
     c_bands:  1 eigenvalues not converged
     ethr =  4.00E-11,  avg # of iterations = 12.6

     negative rho (up, down):  1.951E-02 0.000E+00

     Adding external electric field

     Computed dipole along edir(3) :
        Dipole                0.4676 Ry au,          1.1886 Debye
        Dipole field          0.0009 Ry au,

        Potential amp.       -0.0818 Ry
        Total length         46.3494 bohr

     End of self-consistent calculation

          k = 0.0000 0.0000 0.0000 ( 18029 PWs)   bands (ev):

   -56.2369 -56.2160 -56.2003 -56.1797 -56.1266 -56.1252 -56.0888 -56.0734
   -56.0038 -55.9975 -55.9651 -55.9616 -55.8920 -55.8701 -55.2533 -55.2192
   -32.7805 -32.7045 -32.6038 -32.5746 -32.5419 -32.5278 -32.5042 -32.4737
   -32.4640 -32.4597 -32.4451 -32.4423 -32.4382 -32.3984 -32.3975 -32.3632
   -32.3602 -32.3576 -32.3424 -32.3266 -32.3063 -32.3023 -32.2914 -32.2759
   -32.2741 -32.2543 -32.2497 -32.2405 -32.2322 -32.2253 -32.2174 -32.1893
   -32.1654 -32.1569 -32.1388 -32.1313 -32.1099 -32.0982 -32.0907 -32.0800
   -32.0758 -31.9723 -31.6635 -31.5655 -31.5431 -31.4800 -31.3939 -31.2829
   -16.9849 -16.6859 -16.5418 -16.3932 -16.3653 -16.2465 -16.0646 -15.9289
   -15.9146 -15.8399 -15.8120 -15.8067 -15.7759 -15.7583 -15.7502 -15.7432
   -15.6898 -15.6858 -15.6504 -15.6400 -15.6102 -15.5363 -15.5128 -15.4528
   -15.4116 -15.3550 -15.2599 -15.2316 -15.1979 -13.7542 -13.6359  -9.4874
    -4.3416  -4.1727  -4.1471  -4.1281  -4.0439  -3.8053  -3.7873  -3.5406
    -3.4183  -3.3973  -3.3730  -3.3682  -3.3198  -3.1817  -3.0906  -3.0653
    -3.0631  -3.0511  -3.0232  -3.0151  -2.9841  -2.9803  -2.9469  -2.9252
    -2.8991  -2.7309  -2.6538  -2.6476  -2.5873  -2.5379  -2.5207  -2.5060
    -2.4676  -2.4568  -2.4441  -2.4276  -2.3750  -2.2878  -2.2417  -2.1464
    -2.0670  -2.0364  -1.9451  -1.8545  -1.7796  -1.6889  -1.6620  -1.6362
    -1.5595  -1.5538  -1.4864  -1.4408  -1.4248  -1.3309  -1.2666  -1.2346
    -1.1351  -1.0952  -1.0047  -0.9893  -0.9749  -0.9587  -0.9465  -0.7697
    -0.7216  -0.6990  -0.6906  -0.5707  -0.5578  -0.5327  -0.5017  -0.4432
    -0.4034  -0.3495  -0.3188  -0.2726  -0.2546  -0.2486  -0.2322  -0.2085
    -0.1281  -0.0492  -0.0308   0.0628   0.1146   0.2364   0.3024   0.4076
     0.4946   0.6732   0.7710   0.8125   0.8484   0.9390   1.3607   1.4232
     2.9522   2.9941   3.0188   3.0535   3.0656   3.2225   3.3283   3.4051
     3.4070   3.4470

[...]

          k = 0.0380-0.0419 0.0000 ( 17876 PWs)   bands (ev):

[...]

          k =-0.0760-0.0000 0.0000 ( 17886 PWs)   bands (ev):

[...]

          k =-0.0760-0.0839 0.0000 ( 17948 PWs)   bands (ev):

   -56.2253 -56.2117 -56.1986 -56.1969 -56.1202 -56.1152 -56.0988 -56.0796
   -55.9995 -55.9823 -55.9816 -55.9588 -55.8947 -55.8728 -55.2367 -55.2356
   -32.5840 -32.5813 -32.5280 -32.5172 -32.5133 -32.5097 -32.4956 -32.4885
   -32.4529 -32.4367 -32.4255 -32.4215 -32.3916 -32.3723 -32.3656 -32.3568
   -32.3544 -32.3518 -32.3432 -32.3402 -32.3260 -32.3200 -32.3146 -32.3103
   -32.2995 -32.2991 -32.2973 -32.2767 -32.2435 -32.2410 -32.2358 -32.2276
   -32.2012 -32.1848 -32.1838 -32.1754 -32.1637 -32.1348 -32.1272 -32.1194
   -32.0896 -32.0210 -31.5565 -31.5551 -31.4769 -31.4760 -31.4374 -31.4365
   -16.4201 -16.3951 -16.1659 -16.1566 -16.1488 -16.0843 -15.9991 -15.9771
   -15.9603 -15.9560 -15.9014 -15.8825 -15.8743 -15.8378 -15.7800 -15.7718
   -15.7644 -15.7408 -15.6895 -15.6833 -15.6282 -15.6029 -15.5876 -15.5838
   -15.5655 -15.5612 -15.4633 -15.4202 -15.3865 -13.7381 -13.7360  -9.5031
    -3.7127  -3.6811  -3.4171  -3.3711  -3.3659  -3.2874  -3.2050  -3.1733
    -3.1483  -3.1387  -3.0893  -3.0753  -3.0744  -3.0695  -3.0359  -3.0278
    -3.0051  -2.9927  -2.9884  -2.9728  -2.9293  -2.8665  -2.8583  -2.8570
    -2.8455  -2.8002  -2.7901  -2.7830  -2.7635  -2.7629  -2.7082  -2.5102
    -2.4920  -2.4359  -2.3777  -2.3588  -2.3311  -2.3214  -2.2956  -2.2712
    -2.2053  -2.1362  -2.0179  -1.9797  -1.9563  -1.9414  -1.8876  -1.8382
    -1.7229  -1.6822  -1.6556  -1.6370  -1.5712  -1.4980  -1.4729  -1.4579
    -1.3745  -1.3475  -1.3051  -1.2409  -1.2040  -1.1908  -1.1398  -1.1268
    -1.0407  -0.9805  -0.9450  -0.9021  -0.8906  -0.8571  -0.8087  -0.7580
    -0.7449  -0.6842  -0.6222  -0.5249  -0.3157  -0.2302  -0.2208  -0.1786
    -0.1211  -0.0955   0.0121   0.0465   0.0611   0.1551   0.2212   0.2872
     0.3045   0.3297   0.3973   0.8886   1.1311   1.1320   1.2236   1.2340
     3.1564   3.1666   3.1962   3.2635   3.4096   3.4157   3.4349   3.4406
     3.5336   3.5864

     the Fermi energy is     2.9194 ev

!    total energy              =   -2899.02566232 Ry
     estimated scf accuracy    <       0.00000004 Ry
     smearing contrib. (-TS)   =      -0.02330154 Ry
     internal energy E=F+TS    =   -2899.00236077 Ry

     The total energy is F=E-TS. E is the sum of the following terms:
     one-electron contribution =  -24814.64284087 Ry
     hartree contribution      =   12486.26842182 Ry
     xc contribution           =    -474.70130889 Ry
     ewald contribution        =    9904.07295450 Ry
     electric field correction =       0.00041266 Ry

     convergence has been achieved in  52 iterations

     Forces acting on atoms (cartesian axes, Ry/au):

     atom    1 type  1   force =    -0.00012022   -0.00193789    0.10691119
     atom    2 type  1   force =    -0.00037779    0.00069957   -0.18022544
     atom    3 type  2   force =     0.00034958   -0.00663073   -0.03350386
     atom    4 type  2   force =     0.00056881   -0.00063016    0.04567302
     atom    5 type  2   force =    -0.01961530   -0.00121655    0.00434950
     atom    6 type  2   force =     0.02145085   -0.00007084    0.00423480
     atom    7 type  1   force =    -0.00029201    0.00034189   -0.00015448
     atom    8 type  1   force =    -0.00049094    0.00047713    0.00014117
     atom    9 type  2   force =    -0.00004891   -0.00039449   -0.00056851
     atom   10 type  2   force =     0.00009757    0.00046350   -0.00037064
     atom   11 type  2   force =     0.00014372   -0.00002752   -0.00003620
     atom   12 type  2   force =     0.00026678   -0.00014602   -0.00004255
     atom   13 type  1   force =    -0.00056076    0.00008085    0.00068074
     atom   14 type  1   force =    -0.00058158    0.00016065    0.00002861
     atom   15 type  2   force =    -0.00016874    0.00028150   -0.00022082
     atom   16 type  2   force =    -0.00004395   -0.00003811    0.00049352
     atom   17 type  2   force =    -0.00107887   -0.00104147   -0.00027114
     atom   18 type  2   force =     0.00055793   -0.00065786   -0.00031401
     atom   19 type  1   force =    -0.00006216    0.00042213   -0.00028398
     atom   20 type  1   force =     0.00064464    0.00073569    0.00046567
     atom   21 type  2   force =     0.00000446    0.00003525    0.10431789
     atom   22 type  2   force =    -0.00009311   -0.00021146   -0.00069693
     atom   23 type  2   force =    -0.06876368    0.00084637   -0.02966323
     atom   24 type  2   force =     0.06851906    0.00129996   -0.02973410
     atom   25 type  1   force =    -0.00010660    0.00130671    0.11805961
     atom   26 type  1   force =    -0.00021385   -0.00066725   -0.18054224
     atom   27 type  2   force =     0.00055675    0.00239696   -0.02741511
     atom   28 type  2   force =     0.00073062   -0.00048956    0.04718592
     atom   29 type  2   force =    -0.01934909    0.00075696    0.00375310
     atom   30 type  2   force =     0.01930086    0.00249351    0.00343631
     atom   31 type  1   force =    -0.00008254   -0.00074485    0.00033799
     atom   32 type  1   force =    -0.00042839    0.00003070    0.00034920
     atom   33 type  2   force =    -0.00013608    0.00036612   -0.00075137
     atom   34 type  2   force =    -0.00007389    0.00004846   -0.00013092
     atom   35 type  2   force =     0.00042361    0.00023137   -0.00042044
     atom   36 type  2   force =    -0.00079316    0.00001877   -0.00041731
     atom   37 type  1   force =    -0.00056095    0.00051462    0.00063072
     atom   38 type  1   force =     0.00015394   -0.00043062    0.00035956
     atom   39 type  2   force =    -0.00020319   -0.00015454   -0.00019629
     atom   40 type  2   force =    -0.00004528    0.00078168    0.00059186
     atom   41 type  2   force =    -0.00040642    0.00136967   -0.00031561
     atom   42 type  2   force =     0.00016474    0.00115033   -0.00029273
     atom   43 type  1   force =    -0.00001299    0.00063572   -0.00020834
     atom   44 type  1   force =     0.00014083    0.00000506    0.00010999
     atom   45 type  2   force =    -0.00000429    0.00006035    0.10433234
     atom   46 type  2   force =    -0.06829626   -0.00103732   -0.02972435
     atom   47 type  2   force =     0.06814756   -0.00065508   -0.02976496
     atom   48 type  3   force =     0.01674702   -0.00101970    0.00036175
     atom   49 type  4   force =    -0.00129396   -0.00077303   -0.00005162
     atom   50 type  4   force =    -0.00793965    0.00311678   -0.00419139
     atom   51 type  4   force =    -0.00672472   -0.00215321    0.00370411

     Total force =     0.377948     Total SCF correction =     0.000567
  @ DRIVER MODE: Message from server: STATUS
  @ DRIVER MODE: Message from server: GETFORCE
  @ DRIVER MODE: Returning v,forces,stress,ensemble

     Writing output data file ./calc.save/
  @ DRIVER MODE: Message from server: EXIT
  @ DRIVE MODE: Exiting

     General routines

     Parallel routines

   This run was terminated on:  16:58: 8   5Aug2021

   JOB DONE.