     Program PWSCF v.6.7GPU starts on 10Sep2021 at 16:36:43

     R & G space division:  proc/nbgrp/npool/nimage =      10
     Reading input from /storage/home/hcoda1/3/ntian30/research/carbon/CxH_vib/CH_calc/ads_slab/CHNHNH_a/out_0019/pw.inp
Warning: card &CELL ignored
Warning: card   CELL_DYNAMICS='IPI', ignored
Warning: card / ignored

     Current dimensions of program PWSCF are:
     Max number of different atomic species (ntypx) = 10
     Max number of k-points (npk) =  40000
     Max angular momentum in pseudopotentials (lmaxx) =  3
     Presently no symmetry can be used with electric field

     Message from routine cell_base_init:
     DEPRECATED: use true lattice parameter, not A to a.u. conversion factor

     IMPORTANT: XC functional enforced from input :
     Exchange-correlation= BEEF-VDW
                           (   1   4  43  14   2   0   0)
     Any further DFT definition will be discarded
     Please, verify this is what you really want

  @ DRIVER MODE: Connecting to
 qe_1139763_2787518.sched-torque.pace.gatech.edurd68_9uc_scratch
  using UNIX socket
  @ DRIVER MODE: Message from server: STATUS
  @ DRIVER MODE: Message from server: INIT
  @ DRIVER MODE: Receiving replica           0          -1
  @ DRIVER MODE: Receiving encoded integer          25
  @ DRIVER MODE:  SCF:  T  FORCE:  T  STRESS:  F  VC:  F  ENSEMBLE:  F
  @ DRIVER MODE:  SCF:  T  FORCE:  T  STRESS:  F  VC:  F  ENSEMBLE:  F

     Using Slab Decomposition

     bravais-lattice index     =            0
     lattice parameter (alat)  =       1.8897  a.u.
     unit-cell volume          =    6658.9804 (a.u.)^3
     number of atoms/cell      =           53
     number of atomic types    =            5
     number of electrons       =       395.00
     number of Kohn-Sham states=          207
     kinetic-energy cutoff     =      29.3995  Ry
     charge density cutoff     =     293.9946  Ry
     scf convergence threshold =      7.3E-08
     mixing beta               =       0.0500
     number of iterations used =            8  plain     mixing
     Exchange-correlation= BEEF-VDW
                           (   1   4  43  14   2   0   0)

     celldm(1)=   1.889726  celldm(2)=   0.000000  celldm(3)=   0.000000
     celldm(4)=   0.000000  celldm(5)=   0.000000  celldm(6)=   0.000000

     crystal axes: (cart. coord. in units of alat)
               a(1) = (   6.579727   0.000000   0.000000 )
               a(2) = (  -0.000775   5.961596   0.000000 )
               a(3) = (   0.000000   0.000000  25.155947 )

     reciprocal axes: (cart. coord. in units 2 pi/alat)
               b(1) = (  0.151982  0.000020  0.000000 )
               b(2) = (  0.000000  0.167740  0.000000 )
               b(3) = (  0.000000  0.000000  0.039752 )

     PseudoPot. # 1 for Ti read from file:
     /storage/coda1/p-amedford6/0/shared/rich_project_chbe-medford/medford-share/data/pseudos_module/espresso/nninc/pbe/van/Ti.UPF
     MD5 check sum: 8e4df49b7f0d34bbd5052bf3f5ea0213
     Pseudo is Ultrasoft, Zval = 12.0
     Generated by new atomic code, or converted to UPF format
     Using radial grid of  851 points,  6 beta functions with:
                l(1) =   0
                l(2) =   0
                l(3) =   1
                l(4) =   1
                l(5) =   2
                l(6) =   2
     Q(r) pseudized with  8 coefficients,  rinner =    1.000   1.000   1.000
                                                       1.000   1.000

     PseudoPot. # 2 for O  read from file:
     /storage/coda1/p-amedford6/0/shared/rich_project_chbe-medford/medford-share/data/pseudos_module/espresso/nninc/pbe/van/O.UPF
     MD5 check sum: 78c19812648e8988a0fe644b0f25305e
     Pseudo is Ultrasoft, Zval =  6.0
     Generated by new atomic code, or converted to UPF format
     Using radial grid of  737 points,  4 beta functions with:
                l(1) =   0
                l(2) =   0
                l(3) =   1
                l(4) =   1
     Q(r) pseudized with  8 coefficients,  rinner =    0.800   0.800   0.800

     PseudoPot. # 3 for N  read from file:
     /storage/coda1/p-amedford6/0/shared/rich_project_chbe-medford/medford-share/data/pseudos_module/espresso/nninc/pbe/van/N.UPF
     MD5 check sum: 90d10febe142ad51ac9d5be1deb811c4
     Pseudo is Ultrasoft, Zval =  5.0
     Generated by new atomic code, or converted to UPF format
     Using radial grid of  729 points,  4 beta functions with:
                l(1) =   0
                l(2) =   0
                l(3) =   1
                l(4) =   1
     Q(r) pseudized with  8 coefficients,  rinner =    0.800   0.800   0.800

     PseudoPot. # 4 for C  read from file:
     /storage/coda1/p-amedford6/0/shared/rich_project_chbe-medford/medford-share/data/pseudos_module/espresso/nninc/pbe/van/C.UPF
     MD5 check sum: 1a69bf6b8db32088f5b2163dbdb77a27
     Pseudo is Ultrasoft, Zval =  4.0
     Generated by new atomic code, or converted to UPF format
     Using radial grid of  721 points,  4 beta functions with:
                l(1) =   0
                l(2) =   0
                l(3) =   1
                l(4) =   1
     Q(r) pseudized with  8 coefficients,  rinner =    0.800   0.800   0.800

     PseudoPot. # 5 for H  read from file:
     /storage/coda1/p-amedford6/0/shared/rich_project_chbe-medford/medford-share/data/pseudos_module/espresso/nninc/pbe/van/H.UPF
     MD5 check sum: b5ee9d7bfd3a09ee7748110bda690ff7
     Pseudo is Ultrasoft, Zval =  1.0
     Generated by new atomic code, or converted to UPF format
     Using radial grid of  615 points,  1 beta functions with:
                l(1) =   0
     Q(r) pseudized with  8 coefficients,  rinner =    0.800

     atomic species   valence    mass     pseudopotential
        Ti1           12.00    47.86700     Ti( 1.00)
        O1             6.00    15.99900     O ( 1.00)
        N1             5.00    14.00700     N ( 1.00)
        C1             4.00    12.01100     C ( 1.00)
        H1             1.00     1.00800     H ( 1.00)

     No symmetry found

   Cartesian axes

     site n.     atom                  positions (alat units)
         1           Ti1 tau(   1) = (   0.0004258   2.9801865   6.0000000  )
         2           Ti1 tau(   2) = (   3.2906075   1.4906267   6.0002472  )
         3           O1  tau(   3) = (   0.0006271   0.0005054   7.9858123  )
         4           O1  tau(   4) = (   3.2906025   0.0005020   7.3038282  )
         5           O1  tau(   5) = (   4.5942328   1.4918067   9.2879030  )
         6           O1  tau(   6) = (   1.9868534   1.4903216   9.2879459  )
         7           Ti1 tau(   7) = (   3.2907910   2.8959150   9.1758416  )
         8           Ti1 tau(   8) = (   0.0015273   1.4827037   9.2680791  )
         9           O1  tau(   9) = (   3.2974950   5.9468587  11.3331085  )
        10           O1  tau(  10) = (   0.0116148   5.9584955  10.6183126  )
        11           O1  tau(  11) = (   1.3019594   1.4757037  12.6170356  )
        12           O1  tau(  12) = (   5.2841045   1.4688878  12.6073194  )
        13           Ti1 tau(  13) = (   0.0658538   3.0089988  12.6217963  )
        14           Ti1 tau(  14) = (   3.3903573   1.4765488  12.4775701  )
        15           O1  tau(  15) = (   6.5762050   0.0002902  14.6414759  )
        16           O1  tau(  16) = (   3.3078303   5.9588356  13.9306596  )
        17           O1  tau(  17) = (   4.5399328   1.5113171  16.0740780  )
        18           O1  tau(  18) = (   2.0525891   1.5105181  16.0861438  )
        19           Ti1 tau(  19) = (   3.3041007   2.9930787  15.6963055  )
        20           Ti1 tau(  20) = (   0.0280933   1.5113244  15.8467906  )
        21           O1  tau(  21) = (   3.2904802   0.0005063   4.7018136  )
        22           O1  tau(  22) = (   0.0368235   0.0128086  17.1990618  )
        23           O1  tau(  23) = (   1.3043587   1.4918075   6.0039043  )
        24           O1  tau(  24) = (   5.2767064   1.4903225   6.0039473  )
        25           Ti1 tau(  25) = (   0.0000382   5.9609847   6.0000000  )
        26           Ti1 tau(  26) = (   3.2902200   4.4714249   6.0002472  )
        27           O1  tau(  27) = (   0.0002396   2.9813036   7.9858123  )
        28           O1  tau(  28) = (   3.2902150   2.9813002   7.3038282  )
        29           O1  tau(  29) = (   4.5938453   4.4726049   9.2879030  )
        30           O1  tau(  30) = (   1.9864658   4.4711199   9.2879459  )
        31           Ti1 tau(  31) = (   3.2891106   5.8743827   9.1763621  )
        32           Ti1 tau(  32) = (   0.0006254   4.4649316   9.2693709  )
        33           O1  tau(  33) = (   3.3000731   2.9737533  11.3293525  )
        34           O1  tau(  34) = (   0.0092240   2.9805883  10.6323155  )
        35           O1  tau(  35) = (   1.3001503   4.4664650  12.6348062  )
        36           O1  tau(  36) = (   5.2875254   4.4541756  12.6228532  )
        37           Ti1 tau(  37) = (   0.0765437   0.0243871  12.5594496  )
        38           Ti1 tau(  38) = (   3.3883988   4.4566399  12.4818539  )
        39           O1  tau(  39) = (   0.0169469   2.9261715  14.6451004  )
        40           O1  tau(  40) = (   3.3035743   2.9719493  13.9037931  )
        41           O1  tau(  41) = (   4.5445893   4.4635849  16.0933648  )
        42           O1  tau(  42) = (   2.0554864   4.4706235  16.0676963  )
        43           Ti1 tau(  43) = (   3.3300396   0.0018144  15.7250798  )
        44           Ti1 tau(  44) = (   0.0441581   4.6348571  16.0952712  )
        45           O1  tau(  45) = (   3.2900926   2.9813045   4.7018136  )
        46           O1  tau(  46) = (   1.3039711   4.4726057   6.0039043  )
        47           O1  tau(  47) = (   5.2763189   4.4711207   6.0039473  )
        48           N1  tau(  48) = (   1.0252718   2.8101955  18.5330041  )
        49           N1  tau(  49) = (   6.5702222   2.9467621  17.4444712  )
        50           C1  tau(  50) = (   1.2122298   3.5280882  19.5702009  )
        51           H1  tau(  51) = (   0.4937382   4.3646449  19.6222421  )
        52           H1  tau(  52) = (   1.5845460   1.9874866  18.3412699  )
        53           H1  tau(  53) = (   5.6894004   2.9582294  17.9538253  )

     number of k points=    10  Fermi-Dirac smearing, width (Ry)=  0.0073
                       cart. coord. in units 2pi/alat
        k(    1) = (   0.0000000   0.0000000   0.0000000), wk =   0.1250000
        k(    2) = (   0.0000000   0.0419351   0.0000000), wk =   0.2500000
        k(    3) = (   0.0000000  -0.0838702   0.0000000), wk =   0.1250000
        k(    4) = (   0.0379955   0.0000049   0.0000000), wk =   0.2500000
        k(    5) = (   0.0379955   0.0419400   0.0000000), wk =   0.2500000
        k(    6) = (   0.0379955  -0.0838652   0.0000000), wk =   0.2500000
        k(    7) = (   0.0379955  -0.0419301   0.0000000), wk =   0.2500000
        k(    8) = (  -0.0759910  -0.0000099   0.0000000), wk =   0.1250000
        k(    9) = (  -0.0759910   0.0419252   0.0000000), wk =   0.2500000
        k(   10) = (  -0.0759910  -0.0838800   0.0000000), wk =   0.1250000

     Initial potential from superposition of free atoms

     starting charge  378.99916, renormalised to  395.00000

     negative rho (up, down):  1.643E-02 0.000E+00

     %%%%%%%%%%%%%%%%%%%%%%%%%%%%%%%%%%%%%%%%%%%%%%%%%%%%%%%%%%%%%%%%%%%%%%%%
     %                                                                      %
     % You are using vdW-DF, which was implemented by the Thonhauser group. %
     % Please cite the following two papers that made this development      %
     % possible and the two reviews that describe the various versions:     %
     %                                                                      %
     %   T. Thonhauser et al., PRL 115, 136402 (2015).                      %
     %   T. Thonhauser et al., PRB 76, 125112 (2007).                       %
     %   K. Berland et al., Rep. Prog. Phys. 78, 066501 (2015).             %
     %   D.C. Langreth et al., J. Phys.: Condens. Matter 21, 084203 (2009). %
     %                                                                      %
     %                                                                      %
     % If you are calculating the stress with vdW-DF, please also cite:     %
     %                                                                      %
     %   R. Sabatini et al., J. Phys.: Condens. Matter 24, 424209 (2012).   %
     %                                                                      %
     %%%%%%%%%%%%%%%%%%%%%%%%%%%%%%%%%%%%%%%%%%%%%%%%%%%%%%%%%%%%%%%%%%%%%%%%

     Adding external electric field

     Computed dipole along edir(3) :
        Dipole               -8.5017 Ry au,        -21.6093 Debye
        Dipole field         -0.0160 Ry au,

        Potential amp.        1.4872 Ry
        Total length         46.3494 bohr

     Starting wfcs are  299 atomic wfcs
  @ DRIVER MODE: Message from server: STATUS
  @ DRIVER MODE: Message from server: POSDATA
  @ DRIVER MODE: Reading and sharing cell
  @ DRIVER MODE: Reading and sharing positions
  @ DRIVER MODE: Received positions

     Self-consistent Calculation

     iteration #  1     ecut=    29.40 Ry     beta= 0.05
     Davidson diagonalization with overlap
     c_bands:  1 eigenvalues not converged
     c_bands:  1 eigenvalues not converged
     c_bands:  2 eigenvalues not converged
     c_bands:  3 eigenvalues not converged
     c_bands:  3 eigenvalues not converged
     c_bands:  1 eigenvalues not converged
     c_bands:  1 eigenvalues not converged
     ethr =  1.00E-05,  avg # of iterations = 19.2

[...]

     total energy              =   -2621.19285505 Ry
     estimated scf accuracy    <    3530.45837773 Ry

[...]

     iteration #  3     ecut=    29.40 Ry     beta= 0.05
     Davidson diagonalization with overlap
     ethr =  1.00E-02,  avg # of iterations = 14.7

[...]

     iteration # 87     ecut=    29.40 Ry     beta= 0.05
     Davidson diagonalization with overlap
     c_bands:  2 eigenvalues not converged
     ethr =  3.05E-11,  avg # of iterations = 15.9

[...]

     total energy              =   -2939.04806723 Ry
     estimated scf accuracy    <       0.00000014 Ry

     iteration # 90     ecut=    29.40 Ry     beta= 0.05
     Davidson diagonalization with overlap
     ethr =  1.95E-11,  avg # of iterations =  8.9

     negative rho (up, down):  1.570E-02 0.000E+00

     Adding external electric field

     Computed dipole along edir(3) :
        Dipole                0.0391 Ry au,          0.0995 Debye
        Dipole field          0.0001 Ry au,

        Potential amp.       -0.0068 Ry
        Total length         46.3494 bohr

     End of self-consistent calculation

          k = 0.0000 0.0000 0.0000 ( 18029 PWs)   bands (ev):

   -56.2425 -56.2363 -56.2084 -56.2003 -56.1507 -56.0794 -56.0788 -56.0506
   -56.0433 -56.0166 -56.0146 -55.9810 -55.7882 -55.5238 -55.2194 -55.1854
   -32.7928 -32.7247 -32.5923 -32.5803 -32.5604 -32.5493 -32.5355 -32.5053
   -32.4848 -32.4830 -32.4574 -32.4454 -32.4175 -32.3946 -32.3890 -32.3777
   -32.3775 -32.3466 -32.3312 -32.2996 -32.2918 -32.2892 -32.2650 -32.2455
   -32.2408 -32.2379 -32.2378 -32.2250 -32.2174 -32.2014 -32.1952 -32.1933
   -32.1896 -32.1810 -32.1676 -32.1574 -32.1268 -32.0405 -31.9778 -31.8020
   -31.7854 -31.7251 -31.6266 -31.5383 -31.5158 -31.4432 -31.3567 -31.2457
   -17.3030 -16.9913 -16.7191 -16.5097 -16.3983 -16.3662 -16.2664 -16.0834
   -15.9598 -15.9292 -15.8296 -15.8022 -15.7787 -15.7671 -15.7455 -15.7350
   -15.6883 -15.6841 -15.6716 -15.6564 -15.6032 -15.5781 -15.5489 -15.4399
   -15.4334 -15.4003 -15.3748 -15.2984 -15.2920 -14.8303 -13.7221 -13.6057
   -12.7650  -8.6470  -5.3267  -4.3667  -4.2204  -4.1942  -4.1478  -4.0955
    -3.8778  -3.8132  -3.7514  -3.5684  -3.4703  -3.4293  -3.4170  -3.4010
    -3.3715  -3.1452  -3.1194  -3.0564  -3.0325  -3.0267  -3.0159  -3.0063
    -2.9846  -2.9681  -2.8951  -2.7911  -2.7176  -2.6690  -2.6215  -2.6120
    -2.5545  -2.5084  -2.5034  -2.4861  -2.4813  -2.4727  -2.4352  -2.4265
    -2.2903  -2.2294  -2.0959  -2.0598  -2.0395  -1.8909  -1.8496  -1.7540
    -1.6882  -1.6709  -1.6614  -1.6331  -1.5476  -1.5257  -1.4056  -1.3830
    -1.3422  -1.2691  -1.2580  -1.2364  -1.1340  -1.1186  -1.0137  -1.0063
    -0.9994  -0.9826  -0.9238  -0.7354  -0.7141  -0.6835  -0.6639  -0.6309
    -0.5545  -0.5243  -0.4333  -0.4206  -0.3623  -0.3416  -0.3178  -0.2681
    -0.2619  -0.2500  -0.2461  -0.2302  -0.0545   0.0068   0.0640   0.1148
     0.1306   0.2872   0.3374   0.4149   0.5007   0.7280   0.8024   0.8401
     0.8911   0.9946   1.3737   1.4193   2.4345   2.8983   2.9785   3.0285
     3.0388   3.1334   3.1393   3.3466   3.3684   3.3744   3.4385

[...]

          k = 0.0380-0.0419 0.0000 ( 17876 PWs)   bands (ev):

[...]

          k =-0.0760-0.0000 0.0000 ( 17886 PWs)   bands (ev):

[...]

          k =-0.0760-0.0839 0.0000 ( 17948 PWs)   bands (ev):

   -56.2259 -56.2249 -56.2190 -56.2174 -56.1462 -56.0837 -56.0655 -56.0566
   -56.0345 -56.0321 -55.9981 -55.9977 -55.7871 -55.5247 -55.2024 -55.2023
   -32.5978 -32.5950 -32.5404 -32.5395 -32.5287 -32.5213 -32.5203 -32.5018
   -32.4442 -32.4427 -32.4373 -32.4342 -32.4090 -32.3738 -32.3632 -32.3588
   -32.3516 -32.3475 -32.3456 -32.3453 -32.3443 -32.3373 -32.3352 -32.2871
   -32.2862 -32.2754 -32.2574 -32.2471 -32.2330 -32.2325 -32.2299 -32.2297
   -32.2131 -32.2123 -32.2047 -32.2023 -32.1322 -32.0429 -31.9729 -31.8588
   -31.7945 -31.7501 -31.5286 -31.5285 -31.4394 -31.4393 -31.4000 -31.4000
   -17.2855 -16.4421 -16.4106 -16.1845 -16.1741 -16.1594 -16.1561 -16.0186
   -15.9511 -15.9480 -15.9413 -15.9091 -15.8811 -15.8432 -15.7985 -15.7769
   -15.7763 -15.7645 -15.7578 -15.7046 -15.6995 -15.6778 -15.6709 -15.5687
   -15.5579 -15.5545 -15.5006 -15.4123 -15.2832 -15.0042 -13.7076 -13.7074
   -12.7758  -8.6523  -5.3240  -3.8652  -3.7329  -3.6959  -3.5046  -3.4111
    -3.4099  -3.3989  -3.3259  -3.1582  -3.1439  -3.1208  -3.0971  -3.0702
    -3.0699  -3.0551  -3.0496  -3.0309  -3.0067  -2.9712  -2.9323  -2.9284
    -2.9072  -2.8973  -2.8715  -2.8576  -2.8276  -2.8156  -2.8000  -2.7819
    -2.7632  -2.7477  -2.5940  -2.4745  -2.4412  -2.3789  -2.3705  -2.3508
    -2.3163  -2.3059  -2.2929  -2.2307  -2.1292  -1.9931  -1.9459  -1.9394
    -1.9068  -1.8272  -1.8149  -1.6699  -1.6553  -1.6277  -1.5890  -1.5356
    -1.5188  -1.4683  -1.4056  -1.3931  -1.3613  -1.3310  -1.2553  -1.2054
    -1.2026  -1.1845  -1.1250  -1.0368  -1.0292  -1.0124  -1.0045  -0.9547
    -0.8772  -0.8634  -0.8317  -0.7468  -0.7293  -0.6308  -0.5472  -0.3464
    -0.2630  -0.2158  -0.1700  -0.1363  -0.0333   0.0129   0.0287   0.0646
     0.0776   0.1246   0.1846   0.2901   0.2969   0.3583   0.4677   0.8054
     1.1661   1.1670   1.2390   1.2392   2.3921   3.1585   3.1671   3.2224
     3.2447   3.3952   3.4009   3.4253   3.4266   3.5467   3.5642

     the Fermi energy is     2.8930 ev

!    total energy              =   -2939.04806971 Ry
     estimated scf accuracy    <       0.00000006 Ry
     smearing contrib. (-TS)   =      -0.02294597 Ry
     internal energy E=F+TS    =   -2939.02512374 Ry

     The total energy is F=E-TS. E is the sum of the following terms:
     one-electron contribution =  -24314.73984608 Ry
     hartree contribution      =   12241.18986562 Ry
     xc contribution           =    -485.12260387 Ry
     ewald contribution        =    9619.64745769 Ry
     electric field correction =       0.00000289 Ry

     convergence has been achieved in  90 iterations

     Forces acting on atoms (cartesian axes, Ry/au):

     atom    1 type  1   force =     0.00026709   -0.00024323    0.09662643
     atom    2 type  1   force =    -0.00018003   -0.00052035   -0.17531054
     atom    3 type  2   force =    -0.00000390   -0.00008001   -0.02503342
     atom    4 type  2   force =     0.00005858   -0.00154380    0.05298791
     atom    5 type  2   force =    -0.01218097   -0.00104189    0.00344344
     atom    6 type  2   force =     0.01405702   -0.00028597    0.00273343
     atom    7 type  1   force =    -0.00095154    0.00049299   -0.01192319
     atom    8 type  1   force =     0.00044356    0.00876623    0.02925857
     atom    9 type  2   force =     0.00051178    0.00030578   -0.00019216
     atom   10 type  2   force =    -0.00090206   -0.00020701   -0.01711671
     atom   11 type  2   force =     0.00037357    0.00018079    0.00035022
     atom   12 type  2   force =    -0.00106476    0.00082318    0.00048529
     atom   13 type  1   force =     0.00145956    0.00080602   -0.00001821
     atom   14 type  1   force =    -0.00124423    0.00035045   -0.00024324
     atom   15 type  2   force =    -0.00065243    0.00071671    0.00047972
     atom   16 type  2   force =     0.00032212   -0.00036361   -0.00020490
     atom   17 type  2   force =     0.00060462    0.00019560   -0.00017857
     atom   18 type  2   force =    -0.00062918    0.00006293   -0.00029448
     atom   19 type  1   force =    -0.00009690   -0.00055727    0.00002529
     atom   20 type  1   force =     0.00002400   -0.00009971    0.00041915
     atom   21 type  2   force =     0.00008051   -0.00005991    0.10318807
     atom   22 type  2   force =    -0.00000105    0.00160234    0.00028273
     atom   23 type  2   force =    -0.07150014   -0.00014997   -0.02776021
     atom   24 type  2   force =     0.07144697    0.00026994   -0.02776181
     atom   25 type  1   force =     0.00007628   -0.00022493    0.09646858
     atom   26 type  1   force =    -0.00012777   -0.00034798   -0.17548532
     atom   27 type  2   force =     0.00006297   -0.00023789   -0.02406701
     atom   28 type  2   force =     0.00011754   -0.00128317    0.05275979
     atom   29 type  2   force =    -0.01229118    0.00002067    0.00301030
     atom   30 type  2   force =     0.01405694    0.00039741    0.00237720
     atom   31 type  1   force =    -0.00094468    0.00315038   -0.01286598
     atom   32 type  1   force =     0.00028894   -0.01002413    0.02994572
     atom   33 type  2   force =     0.00025731   -0.00014057    0.00045014
     atom   34 type  2   force =    -0.00003389    0.00000084   -0.02439039
     atom   35 type  2   force =    -0.00032653    0.00022431   -0.00028484
     atom   36 type  2   force =    -0.00115114    0.00054189   -0.00008268
     atom   37 type  1   force =     0.00123249   -0.00092286    0.00049691
     atom   38 type  1   force =    -0.00091678   -0.00057389   -0.00002501
     atom   39 type  2   force =    -0.00021792   -0.00059516    0.00062233
     atom   40 type  2   force =     0.00008830    0.00054673    0.00011188
     atom   41 type  2   force =    -0.00111676   -0.00009372   -0.00026593
     atom   42 type  2   force =     0.00164320   -0.00023856   -0.00024359
     atom   43 type  1   force =    -0.00053072    0.00032853   -0.00039362
     atom   44 type  1   force =    -0.00010466    0.00014852    0.00013634
     atom   45 type  2   force =     0.00005313   -0.00008803    0.10319007
     atom   46 type  2   force =    -0.07152689   -0.00016389   -0.02774677
     atom   47 type  2   force =     0.07149714    0.00033354   -0.02778547
     atom   48 type  3   force =    -0.00062212    0.00064886   -0.00059669
     atom   49 type  3   force =    -0.00038702   -0.00061567    0.00019207
     atom   50 type  4   force =    -0.00467218    0.00609137    0.00108814
     atom   51 type  5   force =     0.00512888   -0.00426255   -0.00077037
     atom   52 type  5   force =     0.00099082   -0.00136406   -0.00074082
     atom   53 type  5   force =    -0.00076591   -0.00067623    0.00065219

     Total force =     0.368515     Total SCF correction =     0.000677
  @ DRIVER MODE: Message from server: STATUS
  @ DRIVER MODE: Message from server: GETFORCE
  @ DRIVER MODE: Returning v,forces,stress,ensemble

     Writing output data file ./calc.save/
  @ DRIVER MODE: Message from server: EXIT
  @ DRIVE MODE: Exiting

     General routines

     Parallel routines

   This run was terminated on:  16:59:58  10Sep2021

   JOB DONE.