     Program PWSCF v.6.7GPU starts on 23Sep2021 at 13:32:19

     R & G space division:  proc/nbgrp/npool/nimage =       8
     Reading input from /storage/home/hcoda1/3/ntian30/research/carbon/CxH_vib/H2O_calc/ads_slab/CH3OHHO_e/out_0039/pw.inp
Warning: card &CELL ignored
Warning: card   CELL_DYNAMICS='IPI', ignored
Warning: card / ignored

     Current dimensions of program PWSCF are:
     Max number of different atomic species (ntypx) = 10
     Max number of k-points (npk) =  40000
     Max angular momentum in pseudopotentials (lmaxx) =  3
     Presently no symmetry can be used with electric field

     Message from routine cell_base_init:
     DEPRECATED: use true lattice parameter, not A to a.u. conversion factor

     IMPORTANT: XC functional enforced from input :
     Exchange-correlation= BEEF-VDW
                           (   1   4  43  14   2   0   0)
     Any further DFT definition will be discarded
     Please, verify this is what you really want

  @ DRIVER MODE: Connecting to
 qe_1139763_2941008.sched-torque.pace.gatech.edusb84enno_scratch
  using UNIX socket
  @ DRIVER MODE: Message from server: STATUS
  @ DRIVER MODE: Message from server: INIT
  @ DRIVER MODE: Receiving replica           0          -1
  @ DRIVER MODE: Receiving encoded integer          25
  @ DRIVER MODE:  SCF:  T  FORCE:  T  STRESS:  F  VC:  F  ENSEMBLE:  F
  @ DRIVER MODE:  SCF:  T  FORCE:  T  STRESS:  F  VC:  F  ENSEMBLE:  F

     Using Slab Decomposition

     bravais-lattice index     =            0
     lattice parameter (alat)  =       1.8897  a.u.
     unit-cell volume          =    6658.9804 (a.u.)^3
     number of atoms/cell      =           55
     number of atomic types    =            4
     number of electrons       =       399.00
     number of Kohn-Sham states=          209
     kinetic-energy cutoff     =      29.3995  Ry
     charge density cutoff     =     293.9946  Ry
     scf convergence threshold =      7.3E-08
     mixing beta               =       0.0500
     number of iterations used =            8  plain     mixing
     Exchange-correlation= BEEF-VDW
                           (   1   4  43  14   2   0   0)

     celldm(1)=   1.889726  celldm(2)=   0.000000  celldm(3)=   0.000000
     celldm(4)=   0.000000  celldm(5)=   0.000000  celldm(6)=   0.000000

     crystal axes: (cart. coord. in units of alat)
               a(1) = (   6.579727   0.000000   0.000000 )
               a(2) = (  -0.000775   5.961596   0.000000 )
               a(3) = (   0.000000   0.000000  25.155947 )

     reciprocal axes: (cart. coord. in units 2 pi/alat)
               b(1) = (  0.151982  0.000020  0.000000 )
               b(2) = (  0.000000  0.167740  0.000000 )
               b(3) = (  0.000000  0.000000  0.039752 )

     PseudoPot. # 1 for Ti read from file:
     /storage/coda1/p-amedford6/0/shared/rich_project_chbe-medford/medford-share/data/pseudos_module/espresso/nninc/pbe/van/Ti.UPF
     MD5 check sum: 8e4df49b7f0d34bbd5052bf3f5ea0213
     Pseudo is Ultrasoft, Zval = 12.0
     Generated by new atomic code, or converted to UPF format
     Using radial grid of  851 points,  6 beta functions with:
                l(1) =   0
                l(2) =   0
                l(3) =   1
                l(4) =   1
                l(5) =   2
                l(6) =   2
     Q(r) pseudized with  8 coefficients,  rinner =    1.000   1.000   1.000
                                                       1.000   1.000

     PseudoPot. # 2 for O  read from file:
     /storage/coda1/p-amedford6/0/shared/rich_project_chbe-medford/medford-share/data/pseudos_module/espresso/nninc/pbe/van/O.UPF
     MD5 check sum: 78c19812648e8988a0fe644b0f25305e
     Pseudo is Ultrasoft, Zval =  6.0
     Generated by new atomic code, or converted to UPF format
     Using radial grid of  737 points,  4 beta functions with:
                l(1) =   0
                l(2) =   0
                l(3) =   1
                l(4) =   1
     Q(r) pseudized with  8 coefficients,  rinner =    0.800   0.800   0.800

     PseudoPot. # 3 for C  read from file:
     /storage/coda1/p-amedford6/0/shared/rich_project_chbe-medford/medford-share/data/pseudos_module/espresso/nninc/pbe/van/C.UPF
     MD5 check sum: 1a69bf6b8db32088f5b2163dbdb77a27
     Pseudo is Ultrasoft, Zval =  4.0
     Generated by new atomic code, or converted to UPF format
     Using radial grid of  721 points,  4 beta functions with:
                l(1) =   0
                l(2) =   0
                l(3) =   1
                l(4) =   1
     Q(r) pseudized with  8 coefficients,  rinner =    0.800   0.800   0.800

     PseudoPot. # 4 for H  read from file:
     /storage/coda1/p-amedford6/0/shared/rich_project_chbe-medford/medford-share/data/pseudos_module/espresso/nninc/pbe/van/H.UPF
     MD5 check sum: b5ee9d7bfd3a09ee7748110bda690ff7
     Pseudo is Ultrasoft, Zval =  1.0
     Generated by new atomic code, or converted to UPF format
     Using radial grid of  615 points,  1 beta functions with:
                l(1) =   0
     Q(r) pseudized with  8 coefficients,  rinner =    0.800

     atomic species   valence    mass     pseudopotential
        Ti1           12.00    47.86700     Ti( 1.00)
        O1             6.00    15.99900     O ( 1.00)
        C1             4.00    12.01100     C ( 1.00)
        H1             1.00     1.00800     H ( 1.00)

     No symmetry found

   Cartesian axes

     site n.     atom                  positions (alat units)
         1           Ti1 tau(   1) = (   0.0004258   2.9801865   6.0000000  )
         2           Ti1 tau(   2) = (   3.2906075   1.4906267   6.0002472  )
         3           O1  tau(   3) = (   0.0006271   0.0005054   7.9858123  )
         4           O1  tau(   4) = (   3.2906025   0.0005020   7.3038282  )
         5           O1  tau(   5) = (   4.5942328   1.4918067   9.2879030  )
         6           O1  tau(   6) = (   1.9868534   1.4903216   9.2879459  )
         7           Ti1 tau(   7) = (   3.3364693   3.0244086   9.1899460  )
         8           Ti1 tau(   8) = (   0.0614121   1.5180315   9.2736979  )
         9           O1  tau(   9) = (   3.3192415   0.0109611  11.3574448  )
        10           O1  tau(  10) = (   0.0135824   0.0030625  10.5923660  )
        11           O1  tau(  11) = (   1.3113730   1.4888140  12.6397483  )
        12           O1  tau(  12) = (   5.3365169   1.4868518  12.6422516  )
        13           Ti1 tau(  13) = (   0.0249591   3.0356721  12.5595363  )
        14           Ti1 tau(  14) = (   3.3216347   1.5719315  12.4302660  )
        15           O1  tau(  15) = (   0.0475996   5.9320359  14.6592625  )
        16           O1  tau(  16) = (   3.3253441   5.8716044  14.0084122  )
        17           O1  tau(  17) = (   4.6294077   1.4993822  16.1384749  )
        18           O1  tau(  18) = (   2.0712093   1.5368213  16.0656395  )
        19           Ti1 tau(  19) = (   3.3420502   2.9337026  15.6791356  )
        20           Ti1 tau(  20) = (   0.0819182   1.3209985  15.9439250  )
        21           O1  tau(  21) = (   3.2904802   0.0005063   4.7018136  )
        22           O1  tau(  22) = (   0.1121901   0.0005398  17.1797988  )
        23           O1  tau(  23) = (   1.3043587   1.4918075   6.0039043  )
        24           O1  tau(  24) = (   5.2767064   1.4903225   6.0039473  )
        25           Ti1 tau(  25) = (   0.0000382   5.9609847   6.0000000  )
        26           Ti1 tau(  26) = (   3.2902200   4.4714249   6.0002472  )
        27           O1  tau(  27) = (   0.0002396   2.9813036   7.9858123  )
        28           O1  tau(  28) = (   3.2902150   2.9813002   7.3038282  )
        29           O1  tau(  29) = (   4.5938453   4.4726049   9.2879030  )
        30           O1  tau(  30) = (   1.9864658   4.4711199   9.2879459  )
        31           Ti1 tau(  31) = (   3.3365859   0.0383882   9.1683042  )
        32           Ti1 tau(  32) = (   0.0607984   4.4756772   9.2727477  )
        33           O1  tau(  33) = (   3.3154497   2.9528697  11.3100477  )
        34           O1  tau(  34) = (   0.0130381   2.9821538  10.6068333  )
        35           O1  tau(  35) = (   1.3079814   4.4632751  12.6339740  )
        36           O1  tau(  36) = (   5.3374838   4.4678533  12.6371107  )
        37           Ti1 tau(  37) = (   0.0367351   0.0553833  12.4739561  )
        38           Ti1 tau(  38) = (   3.3178111   4.6524667  12.7070490  )
        39           O1  tau(  39) = (   0.0226182   2.9861015  14.7894940  )
        40           O1  tau(  40) = (   3.3464301   2.9603322  13.9061577  )
        41           O1  tau(  41) = (   4.6320376   4.4053937  16.1659747  )
        42           O1  tau(  42) = (   2.0651706   4.3480327  16.1155179  )
        43           Ti1 tau(  43) = (   3.4032537   5.9185344  16.2710929  )
        44           Ti1 tau(  44) = (   0.0646745   4.5145260  15.8553686  )
        45           O1  tau(  45) = (   3.2900926   2.9813045   4.7018136  )
        46           O1  tau(  46) = (   1.3039711   4.4726057   6.0039043  )
        47           O1  tau(  47) = (   5.2763189   4.4711207   6.0039473  )
        48           C1  tau(  48) = (   5.9353497   3.0583042  18.8699169  )
        49           O1  tau(  49) = (   0.1856485   3.0014673  17.6677584  )
        50           H1  tau(  50) = (   4.9577780   2.6849493  18.5881267  )
        51           H1  tau(  51) = (   1.1185258   3.1466834  17.9024234  )
        52           H1  tau(  52) = (   6.3707541   2.4080388  19.6265123  )
        53           H1  tau(  53) = (   5.8722695   4.0904670  19.2075282  )
        54           O1  tau(  54) = (   3.1419305   5.9439177  18.1124628  )
        55           H1  tau(  55) = (   2.2021640   0.0520986  18.3490109  )

     number of k points=    10  Fermi-Dirac smearing, width (Ry)=  0.0073
                       cart. coord. in units 2pi/alat
        k(    1) = (   0.0000000   0.0000000   0.0000000), wk =   0.1250000
        k(    2) = (   0.0000000   0.0419351   0.0000000), wk =   0.2500000
        k(    3) = (   0.0000000  -0.0838702   0.0000000), wk =   0.1250000
        k(    4) = (   0.0379955   0.0000049   0.0000000), wk =   0.2500000
        k(    5) = (   0.0379955   0.0419400   0.0000000), wk =   0.2500000
        k(    6) = (   0.0379955  -0.0838652   0.0000000), wk =   0.2500000
        k(    7) = (   0.0379955  -0.0419301   0.0000000), wk =   0.2500000
        k(    8) = (  -0.0759910  -0.0000099   0.0000000), wk =   0.1250000
        k(    9) = (  -0.0759910   0.0419252   0.0000000), wk =   0.2500000
        k(   10) = (  -0.0759910  -0.0838800   0.0000000), wk =   0.1250000

     Initial potential from superposition of free atoms

     starting charge  382.99916, renormalised to  399.00000

     negative rho (up, down):  1.653E-02 0.000E+00

     %%%%%%%%%%%%%%%%%%%%%%%%%%%%%%%%%%%%%%%%%%%%%%%%%%%%%%%%%%%%%%%%%%%%%%%%
     %                                                                      %
     % You are using vdW-DF, which was implemented by the Thonhauser group. %
     % Please cite the following two papers that made this development      %
     % possible and the two reviews that describe the various versions:     %
     %                                                                      %
     %   T. Thonhauser et al., PRL 115, 136402 (2015).                      %
     %   T. Thonhauser et al., PRB 76, 125112 (2007).                       %
     %   K. Berland et al., Rep. Prog. Phys. 78, 066501 (2015).             %
     %   D.C. Langreth et al., J. Phys.: Condens. Matter 21, 084203 (2009). %
     %                                                                      %
     %                                                                      %
     % If you are calculating the stress with vdW-DF, please also cite:     %
     %                                                                      %
     %   R. Sabatini et al., J. Phys.: Condens. Matter 24, 424209 (2012).   %
     %                                                                      %
     %%%%%%%%%%%%%%%%%%%%%%%%%%%%%%%%%%%%%%%%%%%%%%%%%%%%%%%%%%%%%%%%%%%%%%%%

     Adding external electric field

     Computed dipole along edir(3) :
        Dipole              -10.2322 Ry au,        -26.0076 Debye
        Dipole field         -0.0193 Ry au,

        Potential amp.        1.7900 Ry
        Total length         46.3494 bohr

     Starting wfcs are  301 atomic wfcs
  @ DRIVER MODE: Message from server: STATUS
  @ DRIVER MODE: Message from server: POSDATA
  @ DRIVER MODE: Reading and sharing cell
  @ DRIVER MODE: Reading and sharing positions
  @ DRIVER MODE: Received positions

     Self-consistent Calculation

     iteration #  1     ecut=    29.40 Ry     beta= 0.05
     Davidson diagonalization with overlap
     c_bands:  3 eigenvalues not converged
     c_bands:  3 eigenvalues not converged
     c_bands:  4 eigenvalues not converged
     c_bands:  1 eigenvalues not converged
     c_bands:  5 eigenvalues not converged
     c_bands:  5 eigenvalues not converged
     c_bands:  4 eigenvalues not converged
     c_bands:  4 eigenvalues not converged
     c_bands:  4 eigenvalues not converged
     ethr =  1.00E-05,  avg # of iterations = 21.1

[...]

     total energy              =   -2463.85454173 Ry
     estimated scf accuracy    <    5598.09691640 Ry

     iteration #  2     ecut=    29.40 Ry     beta= 0.05
     Davidson diagonalization with overlap
     ethr =  1.00E-02,  avg # of iterations = 25.0

[...]

     iteration # 67     ecut=    29.40 Ry     beta= 0.05
     Davidson diagonalization with overlap
     c_bands:  2 eigenvalues not converged
     ethr =  3.91E-11,  avg # of iterations = 11.9

[...]

     total energy              =   -2966.27813919 Ry
     estimated scf accuracy    <       0.00000009 Ry

     iteration # 68     ecut=    29.40 Ry     beta= 0.05
     Davidson diagonalization with overlap
     ethr =  2.23E-11,  avg # of iterations =  4.7

     negative rho (up, down):  1.671E-02 0.000E+00

     Adding external electric field

     Computed dipole along edir(3) :
        Dipole                1.0460 Ry au,          2.6586 Debye
        Dipole field          0.0020 Ry au,

        Potential amp.       -0.1830 Ry
        Total length         46.3494 bohr

     End of self-consistent calculation

          k = 0.0000 0.0000 0.0000 ( 18029 PWs)   bands (ev):

   -55.7005 -55.6313 -55.5964 -55.5170 -55.4928 -55.4660 -55.4337 -55.4264
   -55.4228 -55.4094 -55.3972 -55.3698 -55.2839 -55.2117 -54.5894 -54.5554
   -32.1103 -32.0925 -32.0120 -32.0015 -31.9574 -31.9491 -31.9213 -31.9184
   -31.8914 -31.8750 -31.8655 -31.7930 -31.7903 -31.7848 -31.7575 -31.7395
   -31.7324 -31.7204 -31.7108 -31.6971 -31.6941 -31.6900 -31.6457 -31.6449
   -31.6434 -31.6357 -31.6309 -31.6238 -31.6119 -31.5961 -31.5907 -31.5808
   -31.5749 -31.5596 -31.5554 -31.5460 -31.5357 -31.5116 -31.4726 -31.4558
   -31.4235 -31.4162 -30.9955 -30.9097 -30.8871 -30.8125 -30.7261 -30.6145
   -20.0620 -16.5131 -16.2841 -16.1046 -15.9033 -15.8398 -15.7815 -15.5931
   -15.5177 -15.3770 -15.2321 -15.2197 -15.1655 -15.1650 -15.1562 -15.1330
   -15.1021 -15.0579 -15.0485 -15.0425 -15.0370 -14.9814 -14.9395 -14.9311
   -14.9248 -14.8839 -14.7557 -14.7153 -14.6591 -14.4881 -14.4454 -13.0892
   -12.9731 -10.9303  -6.7706  -4.9664  -4.7707  -4.0088  -3.6363  -3.5358
    -3.5179  -3.4555  -3.3992  -3.1867  -3.0673  -3.0150  -2.9025  -2.7758
    -2.7369  -2.6811  -2.6569  -2.5652  -2.5433  -2.5128  -2.4884  -2.4305
    -2.4011  -2.3928  -2.3805  -2.3086  -2.2990  -2.1689  -2.1647  -2.0917
    -2.0235  -2.0022  -1.9834  -1.9653  -1.9340  -1.9332  -1.8871  -1.8665
    -1.8449  -1.8115  -1.7414  -1.7205  -1.6595  -1.6197  -1.3858  -1.2246
    -1.2020  -1.1322  -1.1144  -1.0827  -1.0456  -1.0307  -1.0252  -0.9869
    -0.9701  -0.8617  -0.7649  -0.7533  -0.6924  -0.6532  -0.6519  -0.5183
    -0.4702  -0.3966  -0.3706  -0.3455  -0.3225  -0.2299  -0.1873  -0.1696
    -0.1062  -0.0766   0.0354   0.0748   0.0928   0.1316   0.1872   0.2553
     0.2851   0.3222   0.3300   0.3623   0.4113   0.4358   0.4689   0.4961
     0.5347   0.6395   0.6789   0.6942   0.8362   0.8402   0.9282   1.0545
     1.1027   1.3835   1.4356   1.4737   1.6285   2.0032   2.0494   3.4876
     3.6046   3.6153   3.6336   3.7041   3.7942   3.9498   3.9781   4.0495
     4.1439

[...]

          k = 0.0380-0.0419 0.0000 ( 17876 PWs)   bands (ev):

[...]

          k =-0.0760-0.0000 0.0000 ( 17886 PWs)   bands (ev):

[...]

          k =-0.0760-0.0839 0.0000 ( 17948 PWs)   bands (ev):

   -55.6997 -55.6177 -55.6099 -55.5101 -55.4880 -55.4726 -55.4277 -55.4269
   -55.4210 -55.4093 -55.4003 -55.3792 -55.2800 -55.2155 -54.5725 -54.5721
   -32.0119 -31.9534 -31.9428 -31.9295 -31.9218 -31.9176 -31.9140 -31.9001
   -31.8330 -31.8317 -31.7964 -31.7663 -31.7619 -31.7543 -31.7379 -31.7376
   -31.7327 -31.7294 -31.7271 -31.7167 -31.7144 -31.7119 -31.6997 -31.6981
   -31.6703 -31.6683 -31.6350 -31.6296 -31.6294 -31.6282 -31.6180 -31.6142
   -31.6077 -31.6056 -31.5987 -31.5975 -31.5956 -31.5590 -31.5393 -31.4769
   -31.4627 -31.4202 -30.9000 -30.8997 -30.8092 -30.8077 -30.7695 -30.7686
   -20.0583 -16.4879 -15.8999 -15.7557 -15.5933 -15.5751 -15.4974 -15.4019
   -15.3854 -15.3558 -15.3475 -15.3266 -15.3008 -15.2993 -15.2490 -15.1954
   -15.1536 -15.1306 -15.1263 -15.0802 -15.0709 -15.0673 -15.0116 -14.9989
   -14.9896 -14.9510 -14.8912 -14.8624 -14.7845 -14.7570 -14.6032 -13.0753
   -13.0747 -10.9324  -6.7717  -4.9477  -4.7633  -3.9717  -3.0497  -2.9764
    -2.9040  -2.8163  -2.7352  -2.6778  -2.6270  -2.6082  -2.5650  -2.5448
    -2.4744  -2.4404  -2.4330  -2.4117  -2.4093  -2.3828  -2.3666  -2.3547
    -2.3315  -2.3016  -2.2875  -2.2737  -2.2552  -2.2347  -2.2139  -2.1945
    -2.1817  -2.1709  -2.1513  -2.0432  -2.0200  -1.9839  -1.8299  -1.8184
    -1.7531  -1.7206  -1.6902  -1.6850  -1.6522  -1.6443  -1.6013  -1.4915
    -1.4634  -1.4157  -1.3597  -1.2683  -1.2634  -1.2166  -1.1637  -1.1244
    -1.0951  -1.0481  -1.0450  -0.9999  -0.8587  -0.8316  -0.7929  -0.6688
    -0.5968  -0.5813  -0.5675  -0.5504  -0.5245  -0.4776  -0.4719  -0.4153
    -0.3934  -0.3218  -0.3200  -0.2952  -0.2708  -0.1641  -0.0485   0.0418
     0.0764   0.1328   0.1731   0.2035   0.2895   0.3621   0.4458   0.5321
     0.5581   0.5690   0.6903   0.7170   0.7683   0.8206   0.8378   0.8966
     0.9297   0.9728   1.0009   1.7967   1.8100   1.8658   1.8706   3.6755
     3.9249   3.9768   3.9950   4.0078   4.0412   4.0612   4.1080   4.1258
     4.1514

     the Fermi energy is     3.5010 ev

!    total energy              =   -2966.27816609 Ry
     estimated scf accuracy    <       0.00000005 Ry
     smearing contrib. (-TS)   =      -0.02072802 Ry
     internal energy E=F+TS    =   -2966.25743807 Ry

     The total energy is F=E-TS. E is the sum of the following terms:
     one-electron contribution =  -24038.94554481 Ry
     hartree contribution      =   12111.98715573 Ry
     xc contribution           =    -490.94319935 Ry
     ewald contribution        =    9451.64208574 Ry
     electric field correction =       0.00206462 Ry

     convergence has been achieved in  68 iterations

     Forces acting on atoms (cartesian axes, Ry/au):

     atom    1 type  1   force =    -0.00039518    0.00004503    0.09457176
     atom    2 type  1   force =    -0.00032344    0.00499195   -0.17463589
     atom    3 type  2   force =     0.00082412   -0.00023498   -0.02593392
     atom    4 type  2   force =     0.00125490    0.00074990    0.05284466
     atom    5 type  2   force =    -0.01096365   -0.00285162    0.00049521
     atom    6 type  2   force =     0.01162765   -0.00410179    0.00187282
     atom    7 type  1   force =     0.00052504    0.00038663   -0.00014036
     atom    8 type  1   force =    -0.00045018    0.00020237    0.00076706
     atom    9 type  2   force =    -0.00044436    0.00028083   -0.00024430
     atom   10 type  2   force =     0.00031903   -0.00035241   -0.00045067
     atom   11 type  2   force =     0.00062023    0.00031747   -0.00022206
     atom   12 type  2   force =    -0.00038266   -0.00046464   -0.00037901
     atom   13 type  1   force =    -0.00129638   -0.00079016    0.00032909
     atom   14 type  1   force =     0.00029622    0.00010151    0.00057275
     atom   15 type  2   force =     0.00048552    0.00073604    0.00022081
     atom   16 type  2   force =    -0.00048969    0.00048854    0.00053574
     atom   17 type  2   force =    -0.00001942    0.00035689    0.00024002
     atom   18 type  2   force =    -0.00004580   -0.00030882    0.00083507
     atom   19 type  1   force =    -0.00041504    0.00150907   -0.00023313
     atom   20 type  1   force =    -0.00031045   -0.00030742   -0.00074362
     atom   21 type  2   force =    -0.00001211    0.00005449    0.10307616
     atom   22 type  2   force =    -0.00036961   -0.00050025   -0.00051407
     atom   23 type  2   force =    -0.07207663    0.00005850   -0.02789228
     atom   24 type  2   force =     0.07193530    0.00054809   -0.02799804
     atom   25 type  1   force =    -0.00043871    0.00000173    0.10115181
     atom   26 type  1   force =    -0.00006295   -0.00460392   -0.17490111
     atom   27 type  2   force =     0.00089834    0.00114624   -0.02443384
     atom   28 type  2   force =     0.00113693    0.00015102    0.05240989
     atom   29 type  2   force =    -0.01185050    0.00306171    0.00196462
     atom   30 type  2   force =     0.01324993    0.00116087    0.00310000
     atom   31 type  1   force =     0.00058569    0.00002696   -0.00053129
     atom   32 type  1   force =    -0.00036575    0.00070173    0.00046842
     atom   33 type  2   force =    -0.00020086    0.00091865    0.00018888
     atom   34 type  2   force =     0.00014118   -0.00012962   -0.00095879
     atom   35 type  2   force =     0.00034333    0.00007405    0.00053964
     atom   36 type  2   force =     0.00008998    0.00016320    0.00048137
     atom   37 type  1   force =    -0.00145979   -0.00060515    0.00030245
     atom   38 type  1   force =     0.00077034   -0.00025652   -0.00011697
     atom   39 type  2   force =     0.00044270   -0.00026771    0.00124757
     atom   40 type  2   force =    -0.00010745    0.00033315    0.00054400
     atom   41 type  2   force =    -0.00047018    0.00004887   -0.00083151
     atom   42 type  2   force =    -0.00029349   -0.00054618   -0.00104285
     atom   43 type  1   force =    -0.00000663   -0.00092470   -0.00070446
     atom   44 type  1   force =    -0.00008323   -0.00049626   -0.00114659
     atom   45 type  2   force =    -0.00001173    0.00013133    0.10265685
     atom   46 type  2   force =    -0.07204964   -0.00057082   -0.02787504
     atom   47 type  2   force =     0.07189999   -0.00008000   -0.02795641
     atom   48 type  3   force =     0.00012038   -0.00093567   -0.00130088
     atom   49 type  2   force =    -0.00075036   -0.00045478   -0.00089491
     atom   50 type  4   force =     0.00011826   -0.00008956   -0.00005596
     atom   51 type  4   force =    -0.00008222   -0.00003167   -0.00031378
     atom   52 type  4   force =    -0.00006020   -0.00000118   -0.00000749
     atom   53 type  4   force =    -0.00082013    0.00055281   -0.00006389
     atom   54 type  2   force =    -0.00018700    0.00109917    0.00106838
     atom   55 type  4   force =    -0.00038967   -0.00049300    0.00003806

     Total force =     0.364417     Total SCF correction =     0.000833
  @ DRIVER MODE: Message from server: STATUS
  @ DRIVER MODE: Message from server: GETFORCE
  @ DRIVER MODE: Returning v,forces,stress,ensemble

     Writing output data file ./calc.save/
  @ DRIVER MODE: Message from server: EXIT
  @ DRIVE MODE: Exiting

     General routines

     Parallel routines

   This run was terminated on:  13:54:10  23Sep2021

   JOB DONE.