     Program PWSCF v.6.7GPU starts on  4Aug2021 at 11:59:38

     R & G space division:  proc/nbgrp/npool/nimage =      16
     Reading input from /storage/home/hcoda1/3/ntian30/research/carbon/02Aug_vib_paired/ads_slab/CH3NN_b/out_0023/pw.inp
Warning: card &CELL ignored
Warning: card   CELL_DYNAMICS='IPI', ignored
Warning: card / ignored

     Current dimensions of program PWSCF are:
     Max number of different atomic species (ntypx) = 10
     Max number of k-points (npk) =  40000
     Max angular momentum in pseudopotentials (lmaxx) =  3
     Presently no symmetry can be used with electric field

     Message from routine cell_base_init:
     DEPRECATED: use true lattice parameter, not A to a.u. conversion factor

     IMPORTANT: XC functional enforced from input :
     Exchange-correlation= BEEF-VDW
                           (   1   4  43  14   2   0   0)
     Any further DFT definition will be discarded
     Please, verify this is what you really want

  @ DRIVER MODE: Connecting to
 qe_1139763_2492023.sched-torque.pace.gatech.edurym55a0v_scratch
  using UNIX socket
  @ DRIVER MODE: Message from server: STATUS
  @ DRIVER MODE: Message from server: INIT
  @ DRIVER MODE: Receiving replica           0          -1
  @ DRIVER MODE: Receiving encoded integer          25
  @ DRIVER MODE:  SCF:  T  FORCE:  T  STRESS:  F  VC:  F  ENSEMBLE:  F
  @ DRIVER MODE:  SCF:  T  FORCE:  T  STRESS:  F  VC:  F  ENSEMBLE:  F

     Using Slab Decomposition

     bravais-lattice index     =            0
     lattice parameter (alat)  =       1.8897  a.u.
     unit-cell volume          =    6658.9804 (a.u.)^3
     number of atoms/cell      =           53
     number of atomic types    =            5
     number of electrons       =       395.00
     number of Kohn-Sham states=          207
     kinetic-energy cutoff     =      29.3995  Ry
     charge density cutoff     =     293.9946  Ry
     scf convergence threshold =      7.3E-08
     mixing beta               =       0.0500
     number of iterations used =            8  plain     mixing
     Exchange-correlation= BEEF-VDW
                           (   1   4  43  14   2   0   0)

     celldm(1)=   1.889726  celldm(2)=   0.000000  celldm(3)=   0.000000
     celldm(4)=   0.000000  celldm(5)=   0.000000  celldm(6)=   0.000000

     crystal axes: (cart. coord. in units of alat)
               a(1) = (   6.579727   0.000000   0.000000 )
               a(2) = (  -0.000775   5.961596   0.000000 )
               a(3) = (   0.000000   0.000000  25.155947 )

     reciprocal axes: (cart. coord. in units 2 pi/alat)
               b(1) = (  0.151982  0.000020  0.000000 )
               b(2) = (  0.000000  0.167740  0.000000 )
               b(3) = (  0.000000  0.000000  0.039752 )

     PseudoPot. # 1 for Ti read from file:
     /storage/coda1/p-amedford6/0/shared/rich_project_chbe-medford/medford-share/data/pseudos_module/espresso/nninc/pbe/van/Ti.UPF
     MD5 check sum: 8e4df49b7f0d34bbd5052bf3f5ea0213
     Pseudo is Ultrasoft, Zval = 12.0
     Generated by new atomic code, or converted to UPF format
     Using radial grid of  851 points,  6 beta functions with:
                l(1) =   0
                l(2) =   0
                l(3) =   1
                l(4) =   1
                l(5) =   2
                l(6) =   2
     Q(r) pseudized with  8 coefficients,  rinner =    1.000   1.000   1.000
                                                       1.000   1.000

     PseudoPot. # 2 for O  read from file:
     /storage/coda1/p-amedford6/0/shared/rich_project_chbe-medford/medford-share/data/pseudos_module/espresso/nninc/pbe/van/O.UPF
     MD5 check sum: 78c19812648e8988a0fe644b0f25305e
     Pseudo is Ultrasoft, Zval =  6.0
     Generated by new atomic code, or converted to UPF format
     Using radial grid of  737 points,  4 beta functions with:
                l(1) =   0
                l(2) =   0
                l(3) =   1
                l(4) =   1
     Q(r) pseudized with  8 coefficients,  rinner =    0.800   0.800   0.800

     PseudoPot. # 3 for N  read from file:
     /storage/coda1/p-amedford6/0/shared/rich_project_chbe-medford/medford-share/data/pseudos_module/espresso/nninc/pbe/van/N.UPF
     MD5 check sum: 90d10febe142ad51ac9d5be1deb811c4
     Pseudo is Ultrasoft, Zval =  5.0
     Generated by new atomic code, or converted to UPF format
     Using radial grid of  729 points,  4 beta functions with:
                l(1) =   0
                l(2) =   0
                l(3) =   1
                l(4) =   1
     Q(r) pseudized with  8 coefficients,  rinner =    0.800   0.800   0.800

     PseudoPot. # 4 for C  read from file:
     /storage/coda1/p-amedford6/0/shared/rich_project_chbe-medford/medford-share/data/pseudos_module/espresso/nninc/pbe/van/C.UPF
     MD5 check sum: 1a69bf6b8db32088f5b2163dbdb77a27
     Pseudo is Ultrasoft, Zval =  4.0
     Generated by new atomic code, or converted to UPF format
     Using radial grid of  721 points,  4 beta functions with:
                l(1) =   0
                l(2) =   0
                l(3) =   1
                l(4) =   1
     Q(r) pseudized with  8 coefficients,  rinner =    0.800   0.800   0.800

     PseudoPot. # 5 for H  read from file:
     /storage/coda1/p-amedford6/0/shared/rich_project_chbe-medford/medford-share/data/pseudos_module/espresso/nninc/pbe/van/H.UPF
     MD5 check sum: b5ee9d7bfd3a09ee7748110bda690ff7
     Pseudo is Ultrasoft, Zval =  1.0
     Generated by new atomic code, or converted to UPF format
     Using radial grid of  615 points,  1 beta functions with:
                l(1) =   0
     Q(r) pseudized with  8 coefficients,  rinner =    0.800

     atomic species   valence    mass     pseudopotential
        Ti1           12.00    47.86700     Ti( 1.00)
        O1             6.00    15.99900     O ( 1.00)
        N1             5.00    14.00700     N ( 1.00)
        C1             4.00    12.01100     C ( 1.00)
        H1             1.00     1.00800     H ( 1.00)

     No symmetry found

   Cartesian axes

     site n.     atom                  positions (alat units)
         1           Ti1 tau(   1) = (   0.0004258   2.9801865   6.0000000  )
         2           Ti1 tau(   2) = (   3.2906075   1.4906267   6.0002472  )
         3           O1  tau(   3) = (   0.0006271   0.0005054   7.9858123  )
         4           O1  tau(   4) = (   3.2906025   0.0005020   7.3038282  )
         5           O1  tau(   5) = (   4.5942328   1.4918067   9.2879030  )
         6           O1  tau(   6) = (   1.9868534   1.4903216   9.2879459  )
         7           Ti1 tau(   7) = (   3.2907910   2.8959150   9.1758416  )
         8           Ti1 tau(   8) = (   0.0015273   1.4827037   9.2680791  )
         9           O1  tau(   9) = (   3.2846693   5.9452209  11.3340492  )
        10           O1  tau(  10) = (   0.0116148   5.9584955  10.6183126  )
        11           O1  tau(  11) = (   1.2834543   1.4847615  12.6293855  )
        12           O1  tau(  12) = (   5.2674731   1.4768263  12.6150299  )
        13           Ti1 tau(  13) = (   0.0515077   3.0114797  12.6524288  )
        14           Ti1 tau(  14) = (   3.3730355   1.4714245  12.4820590  )
        15           O1  tau(  15) = (   6.5599962   0.0037305  14.6029173  )
        16           O1  tau(  16) = (   3.2800597   5.9387738  13.9271036  )
        17           O1  tau(  17) = (   4.5186125   1.4654914  16.0451899  )
        18           O1  tau(  18) = (   2.0258539   1.4687252  16.0523685  )
        19           Ti1 tau(  19) = (   3.2649076   2.9492218  15.6988400  )
        20           Ti1 tau(  20) = (   6.5508048   1.3556675  15.8025096  )
        21           O1  tau(  21) = (   3.2904802   0.0005063   4.7018136  )
        22           O1  tau(  22) = (   6.5741700   5.9536011  17.1303138  )
        23           O1  tau(  23) = (   1.3043587   1.4918075   6.0039043  )
        24           O1  tau(  24) = (   5.2767064   1.4903225   6.0039473  )
        25           Ti1 tau(  25) = (   0.0000382   5.9609847   6.0000000  )
        26           Ti1 tau(  26) = (   3.2902200   4.4714249   6.0002472  )
        27           O1  tau(  27) = (   0.0002396   2.9813036   7.9858123  )
        28           O1  tau(  28) = (   3.2902150   2.9813002   7.3038282  )
        29           O1  tau(  29) = (   4.5938453   4.4726049   9.2879030  )
        30           O1  tau(  30) = (   1.9864658   4.4711199   9.2879459  )
        31           Ti1 tau(  31) = (   3.2891106   5.8743827   9.1763621  )
        32           Ti1 tau(  32) = (   0.0006254   4.4649316   9.2693709  )
        33           O1  tau(  33) = (   3.2861826   2.9668924  11.3320306  )
        34           O1  tau(  34) = (   0.0092240   2.9805883  10.6323155  )
        35           O1  tau(  35) = (   1.2809698   4.4658153  12.6346578  )
        36           O1  tau(  36) = (   5.2715881   4.4563464  12.6201172  )
        37           Ti1 tau(  37) = (   0.0635592   0.0233401  12.5351680  )
        38           Ti1 tau(  38) = (   3.3726470   4.4512063  12.4842852  )
        39           O1  tau(  39) = (   6.5700678   2.9603531  14.7052597  )
        40           O1  tau(  40) = (   3.2800127   2.9650284  13.9044324  )
        41           O1  tau(  41) = (   4.5221929   4.4260918  16.0817388  )
        42           O1  tau(  42) = (   2.0277389   4.4301665  16.0727494  )
        43           Ti1 tau(  43) = (   3.2617617   5.9330256  15.7261539  )
        44           Ti1 tau(  44) = (   6.5423007   4.4542687  16.1498850  )
        45           O1  tau(  45) = (   3.2900926   2.9813045   4.7018136  )
        46           O1  tau(  46) = (   1.3039711   4.4726057   6.0039043  )
        47           O1  tau(  47) = (   5.2763189   4.4711207   6.0039473  )
        48           N1  tau(  48) = (   2.8794700   5.9070534  18.9683957  )
        49           C1  tau(  49) = (   6.5502552   3.0456858  17.8350167  )
        50           H1  tau(  50) = (   5.8927902   3.7356694  18.3776660  )
        51           H1  tau(  51) = (   6.1439290   2.0579341  18.0513002  )
        52           H1  tau(  52) = (   0.9604482   3.1013269  18.2919552  )
        53           N1  tau(  53) = (   2.0963344   5.7664004  19.7355773  )

     number of k points=    10  Fermi-Dirac smearing, width (Ry)=  0.0073
                       cart. coord. in units 2pi/alat
        k(    1) = (   0.0000000   0.0000000   0.0000000), wk =   0.1250000
        k(    2) = (   0.0000000   0.0419351   0.0000000), wk =   0.2500000
        k(    3) = (   0.0000000  -0.0838702   0.0000000), wk =   0.1250000
        k(    4) = (   0.0379955   0.0000049   0.0000000), wk =   0.2500000
        k(    5) = (   0.0379955   0.0419400   0.0000000), wk =   0.2500000
        k(    6) = (   0.0379955  -0.0838652   0.0000000), wk =   0.2500000
        k(    7) = (   0.0379955  -0.0419301   0.0000000), wk =   0.2500000
        k(    8) = (  -0.0759910  -0.0000099   0.0000000), wk =   0.1250000
        k(    9) = (  -0.0759910   0.0419252   0.0000000), wk =   0.2500000
        k(   10) = (  -0.0759910  -0.0838800   0.0000000), wk =   0.1250000

     Initial potential from superposition of free atoms

     starting charge  378.99916, renormalised to  395.00000

     negative rho (up, down):  1.681E-02 0.000E+00

     %%%%%%%%%%%%%%%%%%%%%%%%%%%%%%%%%%%%%%%%%%%%%%%%%%%%%%%%%%%%%%%%%%%%%%%%
     %                                                                      %
     % You are using vdW-DF, which was implemented by the Thonhauser group. %
     % Please cite the following two papers that made this development      %
     % possible and the two reviews that describe the various versions:     %
     %                                                                      %
     %   T. Thonhauser et al., PRL 115, 136402 (2015).                      %
     %   T. Thonhauser et al., PRB 76, 125112 (2007).                       %
     %   K. Berland et al., Rep. Prog. Phys. 78, 066501 (2015).             %
     %   D.C. Langreth et al., J. Phys.: Condens. Matter 21, 084203 (2009). %
     %                                                                      %
     %                                                                      %
     % If you are calculating the stress with vdW-DF, please also cite:     %
     %                                                                      %
     %   R. Sabatini et al., J. Phys.: Condens. Matter 24, 424209 (2012).   %
     %                                                                      %
     %%%%%%%%%%%%%%%%%%%%%%%%%%%%%%%%%%%%%%%%%%%%%%%%%%%%%%%%%%%%%%%%%%%%%%%%

     Adding external electric field

     Computed dipole along edir(3) :
        Dipole               -8.8656 Ry au,        -22.5341 Debye
        Dipole field         -0.0167 Ry au,

        Potential amp.        1.5509 Ry
        Total length         46.3494 bohr

     Starting wfcs are  299 atomic wfcs
  @ DRIVER MODE: Message from server: STATUS
  @ DRIVER MODE: Message from server: POSDATA
  @ DRIVER MODE: Reading and sharing cell
  @ DRIVER MODE: Reading and sharing positions
  @ DRIVER MODE: Received positions

     Self-consistent Calculation

     iteration #  1     ecut=    29.40 Ry     beta= 0.05
     Davidson diagonalization with overlap
     c_bands:  2 eigenvalues not converged
     c_bands:  1 eigenvalues not converged
     c_bands:  1 eigenvalues not converged
     c_bands:  3 eigenvalues not converged
     c_bands:  3 eigenvalues not converged
     c_bands:  1 eigenvalues not converged
     c_bands:  1 eigenvalues not converged
     ethr =  1.00E-05,  avg # of iterations = 19.2

[...]

     total energy              =   -2623.98789904 Ry
     estimated scf accuracy    <    3510.38564785 Ry

     iteration #  2     ecut=    29.40 Ry     beta= 0.05
     Davidson diagonalization with overlap
     ethr =  1.00E-02,  avg # of iterations = 22.1

[...]

     iteration # 60     ecut=    29.40 Ry     beta= 0.05
     Davidson diagonalization with overlap
     c_bands:  1 eigenvalues not converged
     ethr =  2.04E-10,  avg # of iterations =  9.3

[...]

     total energy              =   -2939.21028733 Ry
     estimated scf accuracy    <       0.00000008 Ry

     iteration # 68     ecut=    29.40 Ry     beta= 0.05
     Davidson diagonalization with overlap
     ethr =  1.90E-11,  avg # of iterations =  2.8

     negative rho (up, down):  1.664E-02 0.000E+00

     Adding external electric field

     Computed dipole along edir(3) :
        Dipole                0.4573 Ry au,          1.1624 Debye
        Dipole field          0.0009 Ry au,

        Potential amp.       -0.0800 Ry
        Total length         46.3494 bohr

     End of self-consistent calculation

          k = 0.0000 0.0000 0.0000 ( 18029 PWs)   bands (ev):

   -56.0384 -56.0285 -56.0043 -55.9920 -55.9294 -55.8954 -55.8732 -55.8513
   -55.8446 -55.8113 -55.8105 -55.7776 -55.6066 -55.4871 -55.0155 -54.9814
   -32.5832 -32.5206 -32.3918 -32.3778 -32.3446 -32.3440 -32.3312 -32.3018
   -32.2804 -32.2600 -32.2527 -32.2363 -32.2088 -32.1905 -32.1811 -32.1679
   -32.1569 -32.1425 -32.1267 -32.1010 -32.0982 -32.0954 -32.0673 -32.0492
   -32.0452 -32.0421 -32.0326 -32.0288 -32.0154 -32.0136 -32.0058 -31.9879
   -31.9852 -31.9792 -31.9640 -31.9476 -31.9231 -31.8918 -31.8184 -31.7669
   -31.7018 -31.5936 -31.4225 -31.3343 -31.3119 -31.2393 -31.1528 -31.0417
   -20.9612 -16.7850 -16.5145 -16.2944 -16.1936 -16.1691 -16.0438 -15.8817
   -15.7585 -15.7109 -15.6098 -15.6006 -15.5742 -15.5519 -15.5377 -15.5268
   -15.4908 -15.4801 -15.4628 -15.4520 -15.4019 -15.3920 -15.3737 -15.2759
   -15.2191 -15.1732 -15.1592 -15.0937 -15.0417 -14.6802 -13.5179 -13.4014
    -9.1517  -6.2374  -4.1600  -4.1249  -4.1052  -3.9984  -3.9443  -3.9033
    -3.8760  -3.6576  -3.5866  -3.2907  -3.2292  -3.2096  -3.1949  -3.1643
    -3.0264  -2.9876  -2.9433  -2.8798  -2.8560  -2.8410  -2.8169  -2.8070
    -2.7891  -2.7568  -2.7214  -2.7117  -2.6525  -2.6048  -2.5311  -2.4528
    -2.4347  -2.3541  -2.3388  -2.3112  -2.2810  -2.2715  -2.2665  -2.2394
    -2.2108  -2.2047  -2.0157  -1.9916  -1.9294  -1.8331  -1.8094  -1.6452
    -1.5779  -1.4958  -1.4854  -1.4658  -1.4475  -1.4286  -1.3376  -1.1983
    -1.1768  -1.1549  -1.1053  -1.0445  -1.0108  -0.9156  -0.8833  -0.8066
    -0.7996  -0.7759  -0.7117  -0.6607  -0.5266  -0.4949  -0.4833  -0.4394
    -0.3939  -0.3317  -0.3161  -0.2560  -0.1900  -0.1806  -0.1048  -0.0753
    -0.0688  -0.0532  -0.0318   0.0033   0.0169   0.1432   0.1662   0.2526
     0.2931   0.3816   0.5140   0.6206   0.6470   0.7144   0.9324   1.0067
     1.1042   1.1291   1.1987   1.5779   1.6235   3.1001   3.1837   3.2317
     3.2425   3.3294   3.3468   3.5490   3.5775   3.6084   3.6434

[...]

          k = 0.0380-0.0419 0.0000 ( 17876 PWs)   bands (ev):

[...]

          k =-0.0760-0.0000 0.0000 ( 17886 PWs)   bands (ev):

[...]

          k =-0.0760-0.0839 0.0000 ( 17948 PWs)   bands (ev):

   -56.0220 -56.0206 -56.0132 -56.0071 -55.9234 -55.8873 -55.8790 -55.8593
   -55.8287 -55.8259 -55.7960 -55.7931 -55.6046 -55.4890 -54.9985 -54.9983
   -32.3896 -32.3836 -32.3364 -32.3354 -32.3172 -32.3159 -32.3040 -32.2922
   -32.2472 -32.2308 -32.2287 -32.2264 -32.1926 -32.1706 -32.1682 -32.1568
   -32.1499 -32.1415 -32.1403 -32.1398 -32.1341 -32.1308 -32.1212 -32.1055
   -32.0771 -32.0762 -32.0736 -32.0474 -32.0288 -32.0276 -32.0262 -32.0246
   -32.0101 -32.0088 -32.0061 -31.9998 -31.9715 -31.8772 -31.8206 -31.7698
   -31.7421 -31.6450 -31.3247 -31.3244 -31.2354 -31.2351 -31.1962 -31.1960
   -20.9610 -16.2231 -16.1918 -16.0001 -15.9529 -15.9477 -15.9365 -15.8467
   -15.7388 -15.7333 -15.7321 -15.6617 -15.6393 -15.6313 -15.5787 -15.5761
   -15.5655 -15.5544 -15.5493 -15.5007 -15.4929 -15.4764 -15.4669 -15.4101
   -15.3546 -15.3503 -15.3415 -15.1435 -15.0285 -14.9636 -13.5034 -13.5031
    -9.1653  -6.2385  -4.1364  -4.1120  -3.5160  -3.4761  -3.2644  -3.1990
    -3.1849  -3.1126  -2.9792  -2.9652  -2.9372  -2.9310  -2.9163  -2.8854
    -2.8712  -2.8524  -2.8455  -2.8286  -2.8144  -2.7890  -2.7523  -2.7448
    -2.7373  -2.7077  -2.6905  -2.6673  -2.6585  -2.6386  -2.6318  -2.5981
    -2.5742  -2.5538  -2.5475  -2.4241  -2.2812  -2.2359  -2.1822  -2.1661
    -2.1644  -2.1301  -2.1005  -2.0902  -2.0653  -2.0218  -1.8679  -1.7664
    -1.7411  -1.7122  -1.6681  -1.6280  -1.5726  -1.4386  -1.4247  -1.3970
    -1.3411  -1.3273  -1.2793  -1.2647  -1.2489  -1.1689  -1.1363  -1.0826
    -1.0104  -0.9994  -0.9924  -0.9371  -0.8828  -0.8079  -0.7990  -0.7594
    -0.7179  -0.6783  -0.6446  -0.6187  -0.5504  -0.5149  -0.3993  -0.3459
    -0.1145  -0.0737   0.0096   0.0539   0.1071   0.1505   0.1611   0.2794
     0.2819   0.3022   0.3870   0.3969   0.4892   0.5081   0.5192   0.7188
     1.2175   1.3704   1.3713   1.4430   1.4435   3.3831   3.3961   3.4218
     3.4674   3.6016   3.6103   3.6289   3.6309   3.7567   3.7777

     the Fermi energy is     3.0967 ev

!    total energy              =   -2939.21031103 Ry
     estimated scf accuracy    <       0.00000005 Ry
     smearing contrib. (-TS)   =      -0.02183476 Ry
     internal energy E=F+TS    =   -2939.18847627 Ry

     The total energy is F=E-TS. E is the sum of the following terms:
     one-electron contribution =  -24056.65379877 Ry
     hartree contribution      =   12113.88569273 Ry
     xc contribution           =    -484.93778487 Ry
     ewald contribution        =    9488.51701994 Ry
     electric field correction =       0.00039470 Ry

     convergence has been achieved in  68 iterations

     Forces acting on atoms (cartesian axes, Ry/au):

     atom    1 type  1   force =     0.00024364   -0.00017844    0.09663921
     atom    2 type  1   force =    -0.00017839   -0.00055381   -0.17531529
     atom    3 type  2   force =    -0.00000864   -0.00004403   -0.02514073
     atom    4 type  2   force =     0.00006881   -0.00152038    0.05287925
     atom    5 type  2   force =    -0.01232433   -0.00155783    0.00379697
     atom    6 type  2   force =     0.01380322   -0.00083427    0.00222455
     atom    7 type  1   force =    -0.00113888    0.00042770   -0.01134804
     atom    8 type  1   force =     0.00079854    0.01677562    0.02866890
     atom    9 type  2   force =     0.00010752   -0.00021066   -0.00002022
     atom   10 type  2   force =    -0.00174048    0.00057405   -0.01859596
     atom   11 type  2   force =    -0.00019487   -0.00005097   -0.00014449
     atom   12 type  2   force =    -0.00000026   -0.00000462   -0.00002008
     atom   13 type  1   force =     0.00012857   -0.00028505   -0.00023174
     atom   14 type  1   force =    -0.00009240    0.00033236    0.00029116
     atom   15 type  2   force =    -0.00022355   -0.00003666   -0.00102203
     atom   16 type  2   force =    -0.00000007   -0.00022909   -0.00031893
     atom   17 type  2   force =     0.00039299    0.00032724    0.00034062
     atom   18 type  2   force =    -0.00050083    0.00001030   -0.00009079
     atom   19 type  1   force =    -0.00043962   -0.00010890   -0.00010171
     atom   20 type  1   force =    -0.00005421    0.00084653    0.00016987
     atom   21 type  2   force =     0.00013216    0.00001071    0.10324021
     atom   22 type  2   force =     0.00007400   -0.00047330   -0.00009691
     atom   23 type  2   force =    -0.07149598   -0.00011872   -0.02775369
     atom   24 type  2   force =     0.07149140    0.00030503   -0.02773798
     atom   25 type  1   force =     0.00012823   -0.00016601    0.09646792
     atom   26 type  1   force =    -0.00006363   -0.00019644   -0.17539596
     atom   27 type  2   force =     0.00008830   -0.00016530   -0.02392339
     atom   28 type  2   force =     0.00008877   -0.00126298    0.05294807
     atom   29 type  2   force =    -0.01251185    0.00044360    0.00363669
     atom   30 type  2   force =     0.01394393    0.00085024    0.00204663
     atom   31 type  1   force =    -0.00129542    0.00340127   -0.01271813
     atom   32 type  1   force =     0.00074127   -0.01754716    0.02977275
     atom   33 type  2   force =     0.00017341    0.00017386   -0.00009115
     atom   34 type  2   force =    -0.00105378    0.00009282   -0.02246737
     atom   35 type  2   force =     0.00009911    0.00022317    0.00005710
     atom   36 type  2   force =     0.00009201    0.00010259    0.00019826
     atom   37 type  1   force =    -0.00013319    0.00038208   -0.00019958
     atom   38 type  1   force =    -0.00017650    0.00027620    0.00032362
     atom   39 type  2   force =     0.00007062    0.00021940    0.00047356
     atom   40 type  2   force =    -0.00003093   -0.00000499    0.00001302
     atom   41 type  2   force =     0.00031639   -0.00021230    0.00008376
     atom   42 type  2   force =     0.00016687   -0.00019897    0.00014891
     atom   43 type  1   force =    -0.00004819   -0.00023335    0.00016894
     atom   44 type  1   force =    -0.00001243   -0.00010134    0.00036831
     atom   45 type  2   force =     0.00011033   -0.00001394    0.10325077
     atom   46 type  2   force =    -0.07148142   -0.00010940   -0.02772413
     atom   47 type  2   force =     0.07149093    0.00036764   -0.02774967
     atom   48 type  3   force =    -0.00646197   -0.00080546    0.00417159
     atom   49 type  4   force =    -0.00027056   -0.00036503   -0.00025005
     atom   50 type  5   force =    -0.00031552    0.00015699    0.00040880
     atom   51 type  5   force =    -0.00015718   -0.00024925    0.00011394
     atom   52 type  5   force =     0.00069367    0.00014220   -0.00012307
     atom   53 type  3   force =     0.00696039    0.00139703   -0.00432227

     Total force =     0.368948     Total SCF correction =     0.000582
  @ DRIVER MODE: Message from server: STATUS
  @ DRIVER MODE: Message from server: GETFORCE
  @ DRIVER MODE: Returning v,forces,stress,ensemble

     Writing output data file ./calc.save/
  @ DRIVER MODE: Message from server: EXIT
  @ DRIVE MODE: Exiting

     General routines

     Parallel routines

   This run was terminated on:  12:49:49   4Aug2021

   JOB DONE.