     Program PWSCF v.6.7GPU starts on 11Sep2021 at  0:32:28

     R & G space division:  proc/nbgrp/npool/nimage =      10
     Reading input from /storage/home/hcoda1/3/ntian30/research/carbon/CxH_vib/CH2_calc/ads_slab/CH2NHNH2_a/out_0018/pw.inp
Warning: card &CELL ignored
Warning: card   CELL_DYNAMICS='IPI', ignored
Warning: card / ignored

     Current dimensions of program PWSCF are:
     Max number of different atomic species (ntypx) = 10
     Max number of k-points (npk) =  40000
     Max angular momentum in pseudopotentials (lmaxx) =  3
     Presently no symmetry can be used with electric field

     Message from routine cell_base_init:
     DEPRECATED: use true lattice parameter, not A to a.u. conversion factor

     IMPORTANT: XC functional enforced from input :
     Exchange-correlation= BEEF-VDW
                           (   1   4  43  14   2   0   0)
     Any further DFT definition will be discarded
     Please, verify this is what you really want

  @ DRIVER MODE: Connecting to
 qe_1139763_2792044.sched-torque.pace.gatech.edu3femn4tk_scratch
  using UNIX socket
  @ DRIVER MODE: Message from server: STATUS
  @ DRIVER MODE: Message from server: INIT
  @ DRIVER MODE: Receiving replica           0          -1
  @ DRIVER MODE: Receiving encoded integer          25
  @ DRIVER MODE:  SCF:  T  FORCE:  T  STRESS:  F  VC:  F  ENSEMBLE:  F
  @ DRIVER MODE:  SCF:  T  FORCE:  T  STRESS:  F  VC:  F  ENSEMBLE:  F

     Using Slab Decomposition

     bravais-lattice index     =            0
     lattice parameter (alat)  =       1.8897  a.u.
     unit-cell volume          =    6658.9804 (a.u.)^3
     number of atoms/cell      =           55
     number of atomic types    =            5
     number of electrons       =       397.00
     number of Kohn-Sham states=          208
     kinetic-energy cutoff     =      29.3995  Ry
     charge density cutoff     =     293.9946  Ry
     scf convergence threshold =      7.3E-08
     mixing beta               =       0.0500
     number of iterations used =            8  plain     mixing
     Exchange-correlation= BEEF-VDW
                           (   1   4  43  14   2   0   0)

     celldm(1)=   1.889726  celldm(2)=   0.000000  celldm(3)=   0.000000
     celldm(4)=   0.000000  celldm(5)=   0.000000  celldm(6)=   0.000000

     crystal axes: (cart. coord. in units of alat)
               a(1) = (   6.579727   0.000000   0.000000 )
               a(2) = (  -0.000775   5.961596   0.000000 )
               a(3) = (   0.000000   0.000000  25.155947 )

     reciprocal axes: (cart. coord. in units 2 pi/alat)
               b(1) = (  0.151982  0.000020  0.000000 )
               b(2) = (  0.000000  0.167740  0.000000 )
               b(3) = (  0.000000  0.000000  0.039752 )

     PseudoPot. # 1 for Ti read from file:
     /storage/coda1/p-amedford6/0/shared/rich_project_chbe-medford/medford-share/data/pseudos_module/espresso/nninc/pbe/van/Ti.UPF
     MD5 check sum: 8e4df49b7f0d34bbd5052bf3f5ea0213
     Pseudo is Ultrasoft, Zval = 12.0
     Generated by new atomic code, or converted to UPF format
     Using radial grid of  851 points,  6 beta functions with:
                l(1) =   0
                l(2) =   0
                l(3) =   1
                l(4) =   1
                l(5) =   2
                l(6) =   2
     Q(r) pseudized with  8 coefficients,  rinner =    1.000   1.000   1.000
                                                       1.000   1.000

     PseudoPot. # 2 for O  read from file:
     /storage/coda1/p-amedford6/0/shared/rich_project_chbe-medford/medford-share/data/pseudos_module/espresso/nninc/pbe/van/O.UPF
     MD5 check sum: 78c19812648e8988a0fe644b0f25305e
     Pseudo is Ultrasoft, Zval =  6.0
     Generated by new atomic code, or converted to UPF format
     Using radial grid of  737 points,  4 beta functions with:
                l(1) =   0
                l(2) =   0
                l(3) =   1
                l(4) =   1
     Q(r) pseudized with  8 coefficients,  rinner =    0.800   0.800   0.800

     PseudoPot. # 3 for N  read from file:
     /storage/coda1/p-amedford6/0/shared/rich_project_chbe-medford/medford-share/data/pseudos_module/espresso/nninc/pbe/van/N.UPF
     MD5 check sum: 90d10febe142ad51ac9d5be1deb811c4
     Pseudo is Ultrasoft, Zval =  5.0
     Generated by new atomic code, or converted to UPF format
     Using radial grid of  729 points,  4 beta functions with:
                l(1) =   0
                l(2) =   0
                l(3) =   1
                l(4) =   1
     Q(r) pseudized with  8 coefficients,  rinner =    0.800   0.800   0.800

     PseudoPot. # 4 for C  read from file:
     /storage/coda1/p-amedford6/0/shared/rich_project_chbe-medford/medford-share/data/pseudos_module/espresso/nninc/pbe/van/C.UPF
     MD5 check sum: 1a69bf6b8db32088f5b2163dbdb77a27
     Pseudo is Ultrasoft, Zval =  4.0
     Generated by new atomic code, or converted to UPF format
     Using radial grid of  721 points,  4 beta functions with:
                l(1) =   0
                l(2) =   0
                l(3) =   1
                l(4) =   1
     Q(r) pseudized with  8 coefficients,  rinner =    0.800   0.800   0.800

     PseudoPot. # 5 for H  read from file:
     /storage/coda1/p-amedford6/0/shared/rich_project_chbe-medford/medford-share/data/pseudos_module/espresso/nninc/pbe/van/H.UPF
     MD5 check sum: b5ee9d7bfd3a09ee7748110bda690ff7
     Pseudo is Ultrasoft, Zval =  1.0
     Generated by new atomic code, or converted to UPF format
     Using radial grid of  615 points,  1 beta functions with:
                l(1) =   0
     Q(r) pseudized with  8 coefficients,  rinner =    0.800

     atomic species   valence    mass     pseudopotential
        Ti1           12.00    47.86700     Ti( 1.00)
        O1             6.00    15.99900     O ( 1.00)
        N1             5.00    14.00700     N ( 1.00)
        C1             4.00    12.01100     C ( 1.00)
        H1             1.00     1.00800     H ( 1.00)

     No symmetry found

   Cartesian axes

     site n.     atom                  positions (alat units)
         1           Ti1 tau(   1) = (   0.0004258   2.9801865   6.0000000  )
         2           Ti1 tau(   2) = (   3.2906075   1.4906267   6.0002472  )
         3           O1  tau(   3) = (   0.0006271   0.0005054   7.9858123  )
         4           O1  tau(   4) = (   3.2906025   0.0005020   7.3038282  )
         5           O1  tau(   5) = (   4.5942328   1.4918067   9.2879030  )
         6           O1  tau(   6) = (   1.9868534   1.4903216   9.2879459  )
         7           Ti1 tau(   7) = (   3.2907910   2.8959150   9.1758416  )
         8           Ti1 tau(   8) = (   0.0015273   1.4827037   9.2680791  )
         9           O1  tau(   9) = (   3.2904964   5.9585769  11.3857690  )
        10           O1  tau(  10) = (   0.0116148   5.9584955  10.6183126  )
        11           O1  tau(  11) = (   1.2878431   1.4867815  12.6991744  )
        12           O1  tau(  12) = (   5.2968392   1.4897239  12.6840540  )
        13           Ti1 tau(  13) = (   0.0031652   2.9724310  12.5021289  )
        14           Ti1 tau(  14) = (   3.2974598   1.4750309  12.5411678  )
        15           O1  tau(  15) = (   6.5490940   5.8844369  14.7025010  )
        16           O1  tau(  16) = (   3.3056738   5.9474069  14.0077327  )
        17           O1  tau(  17) = (   4.5358307   1.5199601  16.1809847  )
        18           O1  tau(  18) = (   2.0145668   1.5037208  16.1256758  )
        19           Ti1 tau(  19) = (   3.2722398   2.9952086  15.7861162  )
        20           Ti1 tau(  20) = (   6.5630583   1.3046800  15.8709962  )
        21           O1  tau(  21) = (   3.2904802   0.0005063   4.7018136  )
        22           O1  tau(  22) = (   0.0019326   0.1554656  17.2922311  )
        23           O1  tau(  23) = (   1.3043587   1.4918075   6.0039043  )
        24           O1  tau(  24) = (   5.2767064   1.4903225   6.0039473  )
        25           Ti1 tau(  25) = (   0.0000382   5.9609847   6.0000000  )
        26           Ti1 tau(  26) = (   3.2902200   4.4714249   6.0002472  )
        27           O1  tau(  27) = (   0.0002396   2.9813036   7.9858123  )
        28           O1  tau(  28) = (   3.2902150   2.9813002   7.3038282  )
        29           O1  tau(  29) = (   4.5938453   4.4726049   9.2879030  )
        30           O1  tau(  30) = (   1.9864658   4.4711199   9.2879459  )
        31           Ti1 tau(  31) = (   3.2891106   5.8743827   9.1763621  )
        32           Ti1 tau(  32) = (   0.0006254   4.4649316   9.2693709  )
        33           O1  tau(  33) = (   3.2902589   2.9648534  11.3782866  )
        34           O1  tau(  34) = (   0.0092240   2.9805883  10.6323155  )
        35           O1  tau(  35) = (   1.2907939   4.4579819  12.6664495  )
        36           O1  tau(  36) = (   5.2949113   4.4550998  12.6520156  )
        37           Ti1 tau(  37) = (   0.0082621   5.9437129  12.5015890  )
        38           Ti1 tau(  38) = (   3.2989848   4.4491302  12.5337562  )
        39           O1  tau(  39) = (   6.5545586   3.0159292  14.9830317  )
        40           O1  tau(  40) = (   3.2960925   2.9977268  13.9872472  )
        41           O1  tau(  41) = (   4.5245867   4.4695491  16.2648171  )
        42           O1  tau(  42) = (   2.0004542   4.4779941  16.2115700  )
        43           Ti1 tau(  43) = (   3.2998562   0.0139781  15.8031611  )
        44           Ti1 tau(  44) = (   0.0298651   4.5190837  16.0363964  )
        45           O1  tau(  45) = (   3.2900926   2.9813045   4.7018136  )
        46           O1  tau(  46) = (   1.3039711   4.4726057   6.0039043  )
        47           O1  tau(  47) = (   5.2763189   4.4711207   6.0039473  )
        48           N1  tau(  48) = (   0.7490466   2.5008218  18.8353846  )
        49           N1  tau(  49) = (   6.4369825   3.4131575  18.1751453  )
        50           C1  tau(  50) = (   1.9829018   2.9174465  19.2041100  )
        51           H1  tau(  51) = (   2.1359794   3.9544348  19.4490303  )
        52           H1  tau(  52) = (   2.6935556   2.1521737  19.4548401  )
        53           H1  tau(  53) = (   0.6355624   1.5475814  18.4636284  )
        54           H1  tau(  54) = (   6.4936903   4.3158724  18.6511896  )
        55           H1  tau(  55) = (   5.4890587   3.0624770  18.3097170  )

     number of k points=    10  Fermi-Dirac smearing, width (Ry)=  0.0073
                       cart. coord. in units 2pi/alat
        k(    1) = (   0.0000000   0.0000000   0.0000000), wk =   0.1250000
        k(    2) = (   0.0000000   0.0419351   0.0000000), wk =   0.2500000
        k(    3) = (   0.0000000  -0.0838702   0.0000000), wk =   0.1250000
        k(    4) = (   0.0379955   0.0000049   0.0000000), wk =   0.2500000
        k(    5) = (   0.0379955   0.0419400   0.0000000), wk =   0.2500000
        k(    6) = (   0.0379955  -0.0838652   0.0000000), wk =   0.2500000
        k(    7) = (   0.0379955  -0.0419301   0.0000000), wk =   0.2500000
        k(    8) = (  -0.0759910  -0.0000099   0.0000000), wk =   0.1250000
        k(    9) = (  -0.0759910   0.0419252   0.0000000), wk =   0.2500000
        k(   10) = (  -0.0759910  -0.0838800   0.0000000), wk =   0.1250000

     Initial potential from superposition of free atoms

     starting charge  380.99914, renormalised to  397.00000

     negative rho (up, down):  1.605E-02 0.000E+00

     %%%%%%%%%%%%%%%%%%%%%%%%%%%%%%%%%%%%%%%%%%%%%%%%%%%%%%%%%%%%%%%%%%%%%%%%
     %                                                                      %
     % You are using vdW-DF, which was implemented by the Thonhauser group. %
     % Please cite the following two papers that made this development      %
     % possible and the two reviews that describe the various versions:     %
     %                                                                      %
     %   T. Thonhauser et al., PRL 115, 136402 (2015).                      %
     %   T. Thonhauser et al., PRB 76, 125112 (2007).                       %
     %   K. Berland et al., Rep. Prog. Phys. 78, 066501 (2015).             %
     %   D.C. Langreth et al., J. Phys.: Condens. Matter 21, 084203 (2009). %
     %                                                                      %
     %                                                                      %
     % If you are calculating the stress with vdW-DF, please also cite:     %
     %                                                                      %
     %   R. Sabatini et al., J. Phys.: Condens. Matter 24, 424209 (2012).   %
     %                                                                      %
     %%%%%%%%%%%%%%%%%%%%%%%%%%%%%%%%%%%%%%%%%%%%%%%%%%%%%%%%%%%%%%%%%%%%%%%%

     Adding external electric field

     Computed dipole along edir(3) :
        Dipole              -10.6801 Ry au,        -27.1462 Debye
        Dipole field         -0.0202 Ry au,

        Potential amp.        1.8683 Ry
        Total length         46.3494 bohr

     Starting wfcs are  301 atomic wfcs
  @ DRIVER MODE: Message from server: STATUS
  @ DRIVER MODE: Message from server: POSDATA
  @ DRIVER MODE: Reading and sharing cell
  @ DRIVER MODE: Reading and sharing positions
  @ DRIVER MODE: Received positions

     Self-consistent Calculation

     iteration #  1     ecut=    29.40 Ry     beta= 0.05
     Davidson diagonalization with overlap
     c_bands:  2 eigenvalues not converged
     c_bands:  3 eigenvalues not converged
     c_bands:  1 eigenvalues not converged
     c_bands:  4 eigenvalues not converged
     c_bands:  4 eigenvalues not converged
     c_bands:  4 eigenvalues not converged
     c_bands:  1 eigenvalues not converged
     c_bands:  2 eigenvalues not converged
     c_bands:  2 eigenvalues not converged
     ethr =  1.00E-05,  avg # of iterations = 20.0

[...]

     total energy              =   -2465.30317414 Ry
     estimated scf accuracy    <    5331.60679063 Ry

     iteration #  2     ecut=    29.40 Ry     beta= 0.05
     Davidson diagonalization with overlap
     ethr =  1.00E-02,  avg # of iterations = 22.7

[...]

     iteration # 77     ecut=    29.40 Ry     beta= 0.05
     Davidson diagonalization with overlap
     ethr =  2.91E-11,  avg # of iterations =  5.3

[...]

     total energy              =   -2941.51055405 Ry
     estimated scf accuracy    <       0.00000008 Ry

     iteration # 78     ecut=    29.40 Ry     beta= 0.05
     Davidson diagonalization with overlap
     c_bands:  1 eigenvalues not converged
     ethr =  1.95E-11,  avg # of iterations = 16.6

     negative rho (up, down):  1.514E-02 0.000E+00

     Adding external electric field

     Computed dipole along edir(3) :
        Dipole                1.2008 Ry au,          3.0522 Debye
        Dipole field          0.0023 Ry au,

        Potential amp.       -0.2101 Ry
        Total length         46.3494 bohr

     End of self-consistent calculation

          k = 0.0000 0.0000 0.0000 ( 18029 PWs)   bands (ev):

   -55.3831 -55.3462 -55.3375 -55.3034 -55.2649 -55.2593 -55.2303 -55.2118
   -55.1879 -55.1853 -55.1774 -55.1680 -55.1343 -55.0331 -54.3705 -54.3365
   -31.9460 -31.8308 -31.7783 -31.7522 -31.7008 -31.6909 -31.6852 -31.6745
   -31.6262 -31.6181 -31.5953 -31.5822 -31.5738 -31.5488 -31.5424 -31.5353
   -31.5228 -31.5069 -31.5058 -31.4901 -31.4894 -31.4525 -31.4522 -31.4421
   -31.4421 -31.4141 -31.3953 -31.3947 -31.3945 -31.3895 -31.3738 -31.3668
   -31.3659 -31.3599 -31.3596 -31.3571 -31.3250 -31.3013 -31.2958 -31.2794
   -31.2482 -31.2030 -30.7801 -30.6854 -30.6634 -30.5964 -30.5096 -30.3987
   -18.8887 -16.2156 -15.9621 -15.8152 -15.7077 -15.5898 -15.4812 -15.4265
   -15.3200 -15.2485 -15.1351 -15.0858 -15.0694 -15.0376 -15.0281 -15.0161
   -14.9360 -14.9296 -14.9119 -14.8887 -14.8831 -14.8411 -14.8294 -14.7885
   -14.7636 -14.7583 -14.6363 -14.5502 -14.4756 -14.3153 -14.3127 -12.8732
   -12.7557  -9.8670  -7.4666  -6.2679  -4.9973  -4.0128  -3.6233  -3.5478
    -3.4089  -3.3008  -3.2800  -3.2444  -3.1435  -2.9632  -2.8262  -2.7925
    -2.6767  -2.5961  -2.5828  -2.5524  -2.4273  -2.3900  -2.3517  -2.2871
    -2.2572  -2.1945  -2.1757  -2.1646  -2.1456  -2.1219  -2.0967  -1.9958
    -1.9568  -1.8612  -1.8214  -1.7877  -1.7466  -1.7294  -1.7092  -1.6784
    -1.6683  -1.6141  -1.6014  -1.5864  -1.5374  -1.4197  -1.2990  -1.2654
    -1.1774  -1.0287  -0.9915  -0.9714  -0.9149  -0.8790  -0.8571  -0.8265
    -0.7656  -0.7265  -0.6667  -0.6094  -0.5421  -0.4977  -0.4497  -0.4135
    -0.3787  -0.2945  -0.2122  -0.1685  -0.1554  -0.1380  -0.0393  -0.0028
     0.0513   0.1285   0.1303   0.1427   0.1854   0.2675   0.3447   0.3623
     0.3854   0.4908   0.4956   0.5384   0.5409   0.5610   0.5954   0.6295
     0.6801   0.7073   0.7943   0.8909   1.1168   1.2181   1.2216   1.5449
     1.5559   1.6521   1.8351   2.2287   2.2772   3.7086   3.7791   3.8012
     3.8565   3.8595   3.9289   3.9459   4.1916   4.2172   4.2176   4.2366

[...]

          k = 0.0380-0.0419 0.0000 ( 17876 PWs)   bands (ev):

[...]

          k =-0.0760-0.0000 0.0000 ( 17886 PWs)   bands (ev):

[...]

          k =-0.0760-0.0839 0.0000 ( 17948 PWs)   bands (ev):

   -55.3690 -55.3600 -55.3206 -55.3202 -55.2549 -55.2498 -55.2454 -55.1960
   -55.1928 -55.1912 -55.1839 -55.1517 -55.1507 -55.0352 -54.3536 -54.3533
   -31.7551 -31.7461 -31.6872 -31.6633 -31.6460 -31.6458 -31.6281 -31.6115
   -31.6114 -31.5948 -31.5868 -31.5787 -31.5637 -31.5313 -31.5290 -31.5248
   -31.5242 -31.5232 -31.5115 -31.5073 -31.4785 -31.4659 -31.4618 -31.4523
   -31.4465 -31.4429 -31.4403 -31.4399 -31.4372 -31.4285 -31.4257 -31.4087
   -31.4078 -31.4052 -31.3856 -31.3843 -31.3839 -31.3742 -31.3323 -31.3310
   -31.2971 -31.2499 -30.6761 -30.6759 -30.5926 -30.5925 -30.5531 -30.5530
   -18.8825 -15.7674 -15.5985 -15.5794 -15.4347 -15.3985 -15.3561 -15.3450
   -15.2512 -15.2164 -15.1900 -15.1587 -15.1378 -15.1020 -15.0884 -15.0720
   -15.0144 -14.9920 -14.9864 -14.9666 -14.9073 -14.9029 -14.8953 -14.8924
   -14.8376 -14.8344 -14.8268 -14.7438 -14.7408 -14.6287 -14.2385 -12.8572
   -12.8572  -9.8368  -7.4266  -6.2650  -5.0947  -3.9558  -3.6476  -2.8559
    -2.8494  -2.8361  -2.6508  -2.5682  -2.5454  -2.5399  -2.4499  -2.4123
    -2.3678  -2.3648  -2.3121  -2.3055  -2.2781  -2.2374  -2.2259  -2.2060
    -2.1872  -2.1787  -2.1431  -2.1193  -2.1095  -2.0798  -2.0489  -2.0328
    -2.0249  -2.0033  -1.9728  -1.9531  -1.9410  -1.8876  -1.7759  -1.7606
    -1.6659  -1.5984  -1.5941  -1.5208  -1.4966  -1.4552  -1.4465  -1.4220
    -1.3768  -1.1986  -1.1668  -1.1354  -1.1277  -1.0422  -0.9898  -0.9185
    -0.9130  -0.8870  -0.8518  -0.7586  -0.7220  -0.7029  -0.6274  -0.6038
    -0.5370  -0.4938  -0.4298  -0.3992  -0.3449  -0.3429  -0.3078  -0.2943
    -0.2730  -0.2054  -0.1590  -0.1247  -0.1123  -0.0807   0.1165   0.1258
     0.1414   0.2501   0.2951   0.4420   0.4569   0.5199   0.6256   0.6516
     0.7222   0.7471   0.9034   0.9154   0.9298   0.9839   0.9920   1.0618
     1.0712   2.0082   2.0087   2.0970   2.0973   3.6777   3.8953   3.9664
     3.9820   4.0146   4.1394   4.2081   4.2263   4.2948   4.2973   4.3262

     the Fermi energy is     3.7746 ev

!    total energy              =   -2941.51056527 Ry
     estimated scf accuracy    <       0.00000004 Ry
     smearing contrib. (-TS)   =      -0.04443944 Ry
     internal energy E=F+TS    =   -2941.46612583 Ry

     The total energy is F=E-TS. E is the sum of the following terms:
     one-electron contribution =  -23631.89731539 Ry
     hartree contribution      =   11908.22345803 Ry
     xc contribution           =    -486.88664297 Ry
     ewald contribution        =    9269.09165328 Ry
     electric field correction =       0.00272122 Ry

     convergence has been achieved in  78 iterations

     Forces acting on atoms (cartesian axes, Ry/au):

     atom    1 type  1   force =     0.00014006   -0.00019246    0.09303075
     atom    2 type  1   force =    -0.00008869   -0.00045387   -0.17841708
     atom    3 type  2   force =     0.00004486   -0.00036453   -0.02007163
     atom    4 type  2   force =    -0.00000946   -0.00201599    0.05931180
     atom    5 type  2   force =    -0.01031458   -0.00098353    0.00817209
     atom    6 type  2   force =     0.01174586   -0.00038648    0.00731432
     atom    7 type  1   force =    -0.00037985    0.00239523   -0.01419198
     atom    8 type  1   force =     0.00023541   -0.00123543   -0.00619446
     atom    9 type  2   force =    -0.00023022    0.00021634    0.00015261
     atom   10 type  2   force =    -0.00162465    0.00148770    0.00162599
     atom   11 type  2   force =    -0.00004286   -0.00015992    0.00010086
     atom   12 type  2   force =    -0.00017908   -0.00016102   -0.00000800
     atom   13 type  1   force =     0.00006607   -0.00027224    0.00004476
     atom   14 type  1   force =     0.00017441    0.00018144    0.00026916
     atom   15 type  2   force =    -0.00005589    0.00020748   -0.00026762
     atom   16 type  2   force =     0.00017120   -0.00021899    0.00015710
     atom   17 type  2   force =    -0.00001087    0.00001871    0.00049018
     atom   18 type  2   force =    -0.00017637    0.00005563   -0.00004734
     atom   19 type  1   force =    -0.00005865   -0.00009413   -0.00020089
     atom   20 type  1   force =    -0.00014704   -0.00004243    0.00010489
     atom   21 type  2   force =     0.00005960   -0.00008091    0.10401148
     atom   22 type  2   force =     0.00008569   -0.00015983   -0.00028253
     atom   23 type  2   force =    -0.07033346   -0.00017983   -0.02687619
     atom   24 type  2   force =     0.07021978    0.00026607   -0.02690102
     atom   25 type  1   force =    -0.00001738   -0.00014699    0.09261198
     atom   26 type  1   force =    -0.00005525   -0.00039500   -0.17856659
     atom   27 type  2   force =     0.00009469   -0.00030838   -0.01916099
     atom   28 type  2   force =     0.00003896   -0.00178901    0.05865386
     atom   29 type  2   force =    -0.01081131   -0.00126227    0.00871944
     atom   30 type  2   force =     0.01216500   -0.00086008    0.00782165
     atom   31 type  1   force =    -0.00028776    0.00613189   -0.01444169
     atom   32 type  1   force =     0.00029096    0.00071187   -0.00651592
     atom   33 type  2   force =    -0.00022791   -0.00024836    0.00002130
     atom   34 type  2   force =    -0.00093733   -0.00223292   -0.00016468
     atom   35 type  2   force =    -0.00039680    0.00022945    0.00015554
     atom   36 type  2   force =     0.00010896    0.00019088   -0.00026898
     atom   37 type  1   force =     0.00017144   -0.00001338    0.00003177
     atom   38 type  1   force =     0.00031875    0.00021942    0.00007670
     atom   39 type  2   force =    -0.00026061    0.00010081   -0.00021434
     atom   40 type  2   force =    -0.00008397   -0.00015085    0.00003889
     atom   41 type  2   force =    -0.00003176    0.00027685    0.00006930
     atom   42 type  2   force =    -0.00015376    0.00000190    0.00018131
     atom   43 type  1   force =     0.00045838   -0.00000794    0.00010940
     atom   44 type  1   force =     0.00001968   -0.00008446   -0.00019750
     atom   45 type  2   force =     0.00004441   -0.00009213    0.10399549
     atom   46 type  2   force =    -0.07030924   -0.00009541   -0.02683381
     atom   47 type  2   force =     0.07018560    0.00031886   -0.02686958
     atom   48 type  3   force =     0.00441138    0.00096198    0.00165574
     atom   49 type  3   force =     0.00144157   -0.00010939    0.00004057
     atom   50 type  4   force =    -0.00846214   -0.00165850   -0.00527309
     atom   51 type  5   force =     0.00122873    0.00140886    0.00115041
     atom   52 type  5   force =     0.00256658   -0.00129609    0.00127455
     atom   53 type  5   force =    -0.00005743    0.00157849    0.00030052
     atom   54 type  5   force =    -0.00016313    0.00115921    0.00030839
     atom   55 type  5   force =    -0.00058054   -0.00036632   -0.00003693

     Total force =     0.366639     Total SCF correction =     0.000472
  @ DRIVER MODE: Message from server: STATUS
  @ DRIVER MODE: Message from server: GETFORCE
  @ DRIVER MODE: Returning v,forces,stress,ensemble

     Writing output data file ./calc.save/
  @ DRIVER MODE: Message from server: EXIT
  @ DRIVE MODE: Exiting

     General routines

     Parallel routines

   This run was terminated on:   0:54:41  11Sep2021

   JOB DONE.