     Program PWSCF v.6.7GPU starts on 15Sep2021 at 21:16: 0

     R & G space division:  proc/nbgrp/npool/nimage =      10
     Reading input from /storage/home/hcoda1/3/ntian30/research/carbon/CxH_vib/H2O_calc/ads_slab/CH2OH2O_a/out_0017/pw.inp
Warning: card &CELL ignored
Warning: card   CELL_DYNAMICS='IPI', ignored
Warning: card / ignored

     Current dimensions of program PWSCF are:
     Max number of different atomic species (ntypx) = 10
     Max number of k-points (npk) =  40000
     Max angular momentum in pseudopotentials (lmaxx) =  3
     Presently no symmetry can be used with electric field

     Message from routine cell_base_init:
     DEPRECATED: use true lattice parameter, not A to a.u. conversion factor

     IMPORTANT: XC functional enforced from input :
     Exchange-correlation= BEEF-VDW
                           (   1   4  43  14   2   0   0)
     Any further DFT definition will be discarded
     Please, verify this is what you really want

  @ DRIVER MODE: Connecting to
 qe_1139763_2852613.sched-torque.pace.gatech.edu_k84fh79_scratch
  using UNIX socket
  @ DRIVER MODE: Message from server: STATUS
  @ DRIVER MODE: Message from server: INIT
  @ DRIVER MODE: Receiving replica           0          -1
  @ DRIVER MODE: Receiving encoded integer          25
  @ DRIVER MODE:  SCF:  T  FORCE:  T  STRESS:  F  VC:  F  ENSEMBLE:  F
  @ DRIVER MODE:  SCF:  T  FORCE:  T  STRESS:  F  VC:  F  ENSEMBLE:  F

     Using Slab Decomposition

     bravais-lattice index     =            0
     lattice parameter (alat)  =       1.8897  a.u.
     unit-cell volume          =    6658.9804 (a.u.)^3
     number of atoms/cell      =           54
     number of atomic types    =            4
     number of electrons       =       398.00
     number of Kohn-Sham states=          209
     kinetic-energy cutoff     =      29.3995  Ry
     charge density cutoff     =     293.9946  Ry
     scf convergence threshold =      7.3E-08
     mixing beta               =       0.0500
     number of iterations used =            8  plain     mixing
     Exchange-correlation= BEEF-VDW
                           (   1   4  43  14   2   0   0)

     celldm(1)=   1.889726  celldm(2)=   0.000000  celldm(3)=   0.000000
     celldm(4)=   0.000000  celldm(5)=   0.000000  celldm(6)=   0.000000

     crystal axes: (cart. coord. in units of alat)
               a(1) = (   6.579727   0.000000   0.000000 )
               a(2) = (  -0.000775   5.961596   0.000000 )
               a(3) = (   0.000000   0.000000  25.155947 )

     reciprocal axes: (cart. coord. in units 2 pi/alat)
               b(1) = (  0.151982  0.000020  0.000000 )
               b(2) = (  0.000000  0.167740  0.000000 )
               b(3) = (  0.000000  0.000000  0.039752 )

     PseudoPot. # 1 for O  read from file:
     /storage/coda1/p-amedford6/0/shared/rich_project_chbe-medford/medford-share/data/pseudos_module/espresso/nninc/pbe/van/O.UPF
     MD5 check sum: 78c19812648e8988a0fe644b0f25305e
     Pseudo is Ultrasoft, Zval =  6.0
     Generated by new atomic code, or converted to UPF format
     Using radial grid of  737 points,  4 beta functions with:
                l(1) =   0
                l(2) =   0
                l(3) =   1
                l(4) =   1
     Q(r) pseudized with  8 coefficients,  rinner =    0.800   0.800   0.800

     PseudoPot. # 2 for Ti read from file:
     /storage/coda1/p-amedford6/0/shared/rich_project_chbe-medford/medford-share/data/pseudos_module/espresso/nninc/pbe/van/Ti.UPF
     MD5 check sum: 8e4df49b7f0d34bbd5052bf3f5ea0213
     Pseudo is Ultrasoft, Zval = 12.0
     Generated by new atomic code, or converted to UPF format
     Using radial grid of  851 points,  6 beta functions with:
                l(1) =   0
                l(2) =   0
                l(3) =   1
                l(4) =   1
                l(5) =   2
                l(6) =   2
     Q(r) pseudized with  8 coefficients,  rinner =    1.000   1.000   1.000
                                                       1.000   1.000

     PseudoPot. # 3 for C  read from file:
     /storage/coda1/p-amedford6/0/shared/rich_project_chbe-medford/medford-share/data/pseudos_module/espresso/nninc/pbe/van/C.UPF
     MD5 check sum: 1a69bf6b8db32088f5b2163dbdb77a27
     Pseudo is Ultrasoft, Zval =  4.0
     Generated by new atomic code, or converted to UPF format
     Using radial grid of  721 points,  4 beta functions with:
                l(1) =   0
                l(2) =   0
                l(3) =   1
                l(4) =   1
     Q(r) pseudized with  8 coefficients,  rinner =    0.800   0.800   0.800

     PseudoPot. # 4 for H  read from file:
     /storage/coda1/p-amedford6/0/shared/rich_project_chbe-medford/medford-share/data/pseudos_module/espresso/nninc/pbe/van/H.UPF
     MD5 check sum: b5ee9d7bfd3a09ee7748110bda690ff7
     Pseudo is Ultrasoft, Zval =  1.0
     Generated by new atomic code, or converted to UPF format
     Using radial grid of  615 points,  1 beta functions with:
                l(1) =   0
     Q(r) pseudized with  8 coefficients,  rinner =    0.800

     atomic species   valence    mass     pseudopotential
        O1             6.00    15.99900     O ( 1.00)
        Ti1           12.00    47.86700     Ti( 1.00)
        C1             4.00    12.01100     C ( 1.00)
        H1             1.00     1.00800     H ( 1.00)

     No symmetry found

   Cartesian axes

     site n.     atom                  positions (alat units)
         1           O1  tau(   1) = (   3.2904802   0.0005063   4.7018136  )
         2           O1  tau(   2) = (   3.2900926   2.9813045   4.7018136  )
         3           Ti1 tau(   3) = (   0.0004258   2.9801865   6.0000000  )
         4           Ti1 tau(   4) = (   0.0000382   5.9609847   6.0000000  )
         5           Ti1 tau(   5) = (   3.2906075   1.4906267   6.0002472  )
         6           Ti1 tau(   6) = (   3.2902200   4.4714249   6.0002472  )
         7           O1  tau(   7) = (   1.3043587   1.4918075   6.0039043  )
         8           O1  tau(   8) = (   1.3039711   4.4726057   6.0039043  )
         9           O1  tau(   9) = (   5.2767064   1.4903225   6.0039473  )
        10           O1  tau(  10) = (   5.2763189   4.4711207   6.0039473  )
        11           O1  tau(  11) = (   3.2906025   0.0005020   7.3038282  )
        12           O1  tau(  12) = (   3.2902150   2.9813002   7.3038282  )
        13           O1  tau(  13) = (   0.0006271   0.0005054   7.9858123  )
        14           O1  tau(  14) = (   0.0002396   2.9813036   7.9858123  )
        15           Ti1 tau(  15) = (   3.3036605   0.0548493   9.1550340  )
        16           Ti1 tau(  16) = (   3.3179312   3.0323762   9.1622521  )
        17           Ti1 tau(  17) = (   0.0293130   4.5303424   9.2586280  )
        18           Ti1 tau(  18) = (   0.0255512   1.6071936   9.3606264  )
        19           O1  tau(  19) = (   4.5942328   1.4918067   9.2879030  )
        20           O1  tau(  20) = (   4.5938453   4.4726049   9.2879030  )
        21           O1  tau(  21) = (   1.9868534   1.4903216   9.2879459  )
        22           O1  tau(  22) = (   1.9864658   4.4711199   9.2879459  )
        23           O1  tau(  23) = (   0.0067149   0.0090568  10.6008527  )
        24           O1  tau(  24) = (   0.0066098   2.9904127  10.5810825  )
        25           O1  tau(  25) = (   3.3023248   2.9935247  11.3558429  )
        26           O1  tau(  26) = (   3.3019398   0.0103095  11.3581380  )
        27           Ti1 tau(  27) = (   0.0322082   0.0188897  12.5014682  )
        28           Ti1 tau(  28) = (   3.3323403   4.4947089  12.5096490  )
        29           Ti1 tau(  29) = (   3.3327227   1.5059056  12.5040540  )
        30           Ti1 tau(  30) = (   0.0321551   3.0004163  12.7750784  )
        31           O1  tau(  31) = (   1.2963378   4.4834263  12.6382484  )
        32           O1  tau(  32) = (   1.2968596   1.4996660  12.6342602  )
        33           O1  tau(  33) = (   5.3004736   4.4821179  12.6410582  )
        34           O1  tau(  34) = (   5.3007909   1.4998706  12.6367838  )
        35           O1  tau(  35) = (   3.3017874   2.9879694  13.9086975  )
        36           O1  tau(  36) = (   3.3040514   0.0100701  13.9766235  )
        37           O1  tau(  37) = (   0.0177811   0.0165449  14.6846256  )
        38           O1  tau(  38) = (   0.0218693   2.9952767  14.7100221  )
        39           Ti1 tau(  39) = (   3.3083447   2.9915206  15.7010863  )
        40           Ti1 tau(  40) = (   3.3165693   0.0114089  15.8055842  )
        41           Ti1 tau(  41) = (   0.0300915   4.5703342  15.9344200  )
        42           Ti1 tau(  42) = (   0.0294271   1.3911826  15.9958598  )
        43           O1  tau(  43) = (   4.5666857   4.4545776  16.0545193  )
        44           O1  tau(  44) = (   4.5654216   1.5273373  16.0688375  )
        45           O1  tau(  45) = (   2.0398213   1.5345912  16.0698912  )
        46           O1  tau(  46) = (   2.0372649   4.4468515  16.0554978  )
        47           O1  tau(  47) = (   0.0160947   0.0056016  17.2166677  )
        48           O1  tau(  48) = (   6.5639191   3.0028441  17.4181802  )
        49           C1  tau(  49) = (   6.3909186   3.0704891  18.6902598  )
        50           H1  tau(  50) = (   6.3116585   4.0479728  19.1470877  )
        51           H1  tau(  51) = (   6.3127454   2.1532251  19.2664540  )
        52           O1  tau(  52) = (   3.2659488   5.9319982  18.2141537  )
        53           H1  tau(  53) = (   4.0486762   5.9278262  18.7801078  )
        54           H1  tau(  54) = (   2.4667005   5.9275743  18.7583984  )

     number of k points=    10  Fermi-Dirac smearing, width (Ry)=  0.0073
                       cart. coord. in units 2pi/alat
        k(    1) = (   0.0000000   0.0000000   0.0000000), wk =   0.1250000
        k(    2) = (   0.0000000   0.0419351   0.0000000), wk =   0.2500000
        k(    3) = (   0.0000000  -0.0838702   0.0000000), wk =   0.1250000
        k(    4) = (   0.0379955   0.0000049   0.0000000), wk =   0.2500000
        k(    5) = (   0.0379955   0.0419400   0.0000000), wk =   0.2500000
        k(    6) = (   0.0379955  -0.0838652   0.0000000), wk =   0.2500000
        k(    7) = (   0.0379955  -0.0419301   0.0000000), wk =   0.2500000
        k(    8) = (  -0.0759910  -0.0000099   0.0000000), wk =   0.1250000
        k(    9) = (  -0.0759910   0.0419252   0.0000000), wk =   0.2500000
        k(   10) = (  -0.0759910  -0.0838800   0.0000000), wk =   0.1250000

     Initial potential from superposition of free atoms

     starting charge  381.99917, renormalised to  398.00000

     negative rho (up, down):  1.687E-02 0.000E+00

     %%%%%%%%%%%%%%%%%%%%%%%%%%%%%%%%%%%%%%%%%%%%%%%%%%%%%%%%%%%%%%%%%%%%%%%%
     %                                                                      %
     % You are using vdW-DF, which was implemented by the Thonhauser group. %
     % Please cite the following two papers that made this development      %
     % possible and the two reviews that describe the various versions:     %
     %                                                                      %
     %   T. Thonhauser et al., PRL 115, 136402 (2015).                      %
     %   T. Thonhauser et al., PRB 76, 125112 (2007).                       %
     %   K. Berland et al., Rep. Prog. Phys. 78, 066501 (2015).             %
     %   D.C. Langreth et al., J. Phys.: Condens. Matter 21, 084203 (2009). %
     %                                                                      %
     %                                                                      %
     % If you are calculating the stress with vdW-DF, please also cite:     %
     %                                                                      %
     %   R. Sabatini et al., J. Phys.: Condens. Matter 24, 424209 (2012).   %
     %                                                                      %
     %%%%%%%%%%%%%%%%%%%%%%%%%%%%%%%%%%%%%%%%%%%%%%%%%%%%%%%%%%%%%%%%%%%%%%%%

     Adding external electric field

     Computed dipole along edir(3) :
        Dipole               -9.6365 Ry au,        -24.4934 Debye
        Dipole field         -0.0182 Ry au,

        Potential amp.        1.6858 Ry
        Total length         46.3494 bohr

     Starting wfcs are  300 atomic wfcs
  @ DRIVER MODE: Message from server: STATUS
  @ DRIVER MODE: Message from server: POSDATA
  @ DRIVER MODE: Reading and sharing cell
  @ DRIVER MODE: Reading and sharing positions
  @ DRIVER MODE: Received positions

     Self-consistent Calculation

     iteration #  1     ecut=    29.40 Ry     beta= 0.05
     Davidson diagonalization with overlap
     c_bands:  1 eigenvalues not converged
     c_bands:  3 eigenvalues not converged
     c_bands:  2 eigenvalues not converged
     c_bands:  2 eigenvalues not converged
     c_bands:  2 eigenvalues not converged
     c_bands:  1 eigenvalues not converged
     c_bands:  2 eigenvalues not converged
     c_bands:  1 eigenvalues not converged
     c_bands:  2 eigenvalues not converged
     ethr =  1.00E-05,  avg # of iterations = 19.6

[...]

     total energy              =   -2526.83261893 Ry
     estimated scf accuracy    <    4873.59612208 Ry

     iteration #  2     ecut=    29.40 Ry     beta= 0.05
     Davidson diagonalization with overlap
     ethr =  1.00E-02,  avg # of iterations = 26.5

[...]

     iteration # 82     ecut=    29.40 Ry     beta= 0.05
     Davidson diagonalization with overlap
     ethr =  8.26E-11,  avg # of iterations = 13.0

[...]

     total energy              =   -2964.99532387 Ry
     estimated scf accuracy    <       0.00000013 Ry

     iteration # 84     ecut=    29.40 Ry     beta= 0.05
     Davidson diagonalization with overlap
     c_bands:  1 eigenvalues not converged
     ethr =  3.32E-11,  avg # of iterations =  9.8

     negative rho (up, down):  1.529E-02 0.000E+00

     Adding external electric field

     Computed dipole along edir(3) :
        Dipole                1.2234 Ry au,          3.1096 Debye
        Dipole field          0.0023 Ry au,

        Potential amp.       -0.2140 Ry
        Total length         46.3494 bohr

     End of self-consistent calculation

          k = 0.0000 0.0000 0.0000 ( 18029 PWs)   bands (ev):

   -55.5388 -55.5022 -55.5021 -55.4660 -55.4624 -55.4178 -55.3815 -55.3144
   -55.3016 -55.2785 -55.2682 -55.2590 -55.2172 -55.2092 -54.5498 -54.5157
   -32.0579 -32.0091 -31.8956 -31.8524 -31.8509 -31.8331 -31.8128 -31.8045
   -31.7806 -31.7689 -31.7355 -31.7257 -31.6977 -31.6854 -31.6834 -31.6490
   -31.6455 -31.6399 -31.6350 -31.6310 -31.6024 -31.5970 -31.5898 -31.5853
   -31.5577 -31.5539 -31.5502 -31.5297 -31.5227 -31.5209 -31.4754 -31.4742
   -31.4478 -31.4463 -31.4330 -31.4276 -31.4216 -31.4075 -31.3960 -31.3943
   -31.3914 -31.3747 -30.9593 -30.8631 -30.8408 -30.7758 -30.6897 -30.5787
   -19.3617 -19.1367 -16.2543 -15.9914 -15.8198 -15.7087 -15.6618 -15.4597
   -15.3666 -15.2859 -15.2223 -15.1449 -15.1279 -15.0905 -15.0643 -15.0587
   -15.0536 -15.0049 -14.9959 -14.9565 -14.9444 -14.9432 -14.9245 -14.9057
   -14.8238 -14.7214 -14.6782 -14.6597 -14.6012 -14.5446 -14.5313 -13.0505
   -12.9325  -9.0224  -7.1507  -5.2411  -5.1746  -3.7757  -3.5756  -3.4579
    -3.4232  -3.3874  -3.3190  -3.1369  -3.1284  -3.0365  -2.7991  -2.7087
    -2.6753  -2.6177  -2.6076  -2.5078  -2.4672  -2.3605  -2.3517  -2.3475
    -2.3312  -2.3054  -2.2724  -2.2303  -2.2058  -2.1942  -2.0662  -2.0551
    -1.9270  -1.9212  -1.8977  -1.8427  -1.8379  -1.7958  -1.7832  -1.7793
    -1.7665  -1.7183  -1.7065  -1.5934  -1.5199  -1.4570  -1.3698  -1.2311
    -1.1697  -1.0981  -1.0434  -1.0086  -0.9463  -0.9429  -0.8887  -0.8482
    -0.7898  -0.7792  -0.7711  -0.6744  -0.5758  -0.5538  -0.5235  -0.4452
    -0.3673  -0.2805  -0.2613  -0.2591  -0.2579  -0.2367  -0.0991  -0.0157
     0.0416   0.0467   0.1429   0.1760   0.2115   0.2252   0.2575   0.2782
     0.3342   0.4092   0.4209   0.4340   0.4597   0.5054   0.5109   0.6235
     0.6997   0.7012   0.7375   0.7703   0.9455   0.9806   1.1078   1.2148
     1.3813   1.4744   1.5460   1.6475   2.0605   2.1181   3.6343   3.6760
     3.6911   3.7336   3.7831   3.8097   3.8774   4.0767   4.0930   4.1419
     4.1863

[...]

          k = 0.0380-0.0419 0.0000 ( 17876 PWs)   bands (ev):

[...]

          k =-0.0760-0.0000 0.0000 ( 17886 PWs)   bands (ev):

[...]

          k =-0.0760-0.0839 0.0000 ( 17948 PWs)   bands (ev):

   -55.5274 -55.5133 -55.4854 -55.4826 -55.4608 -55.4075 -55.3917 -55.3109
   -55.2863 -55.2839 -55.2729 -55.2605 -55.2225 -55.2120 -54.5333 -54.5322
   -31.8686 -31.8538 -31.8332 -31.8205 -31.8176 -31.7983 -31.7737 -31.7554
   -31.7431 -31.7381 -31.7375 -31.7300 -31.6966 -31.6624 -31.6561 -31.6522
   -31.6431 -31.6408 -31.6374 -31.6351 -31.6289 -31.6100 -31.6090 -31.6079
   -31.6031 -31.5887 -31.5677 -31.5522 -31.5392 -31.5377 -31.5308 -31.5137
   -31.4962 -31.4917 -31.4846 -31.4833 -31.4648 -31.4470 -31.4416 -31.4363
   -31.4058 -31.3991 -30.8541 -30.8527 -30.7727 -30.7718 -30.7333 -30.7323
   -19.3529 -19.1364 -15.7058 -15.5966 -15.5621 -15.4152 -15.4110 -15.3599
   -15.3516 -15.3158 -15.2359 -15.2324 -15.1826 -15.1634 -15.1289 -15.1053
   -15.0934 -15.0480 -15.0456 -15.0269 -15.0030 -14.9844 -14.9679 -14.9404
   -14.9162 -14.9090 -14.8712 -14.8628 -14.7983 -14.7446 -14.7228 -13.0349
   -13.0327  -9.0232  -7.1482  -5.2188  -5.1507  -3.7321  -3.1548  -2.9897
    -2.8024  -2.7869  -2.6545  -2.6195  -2.6016  -2.5112  -2.4778  -2.4443
    -2.3811  -2.3701  -2.3636  -2.3421  -2.3369  -2.3234  -2.3023  -2.2653
    -2.2553  -2.2236  -2.1938  -2.1799  -2.1592  -2.1495  -2.1209  -2.1015
    -2.0889  -2.0852  -2.0233  -1.9952  -1.9101  -1.8442  -1.7631  -1.7109
    -1.6792  -1.6769  -1.6407  -1.6021  -1.5944  -1.5791  -1.4335  -1.3839
    -1.2613  -1.2480  -1.2287  -1.1525  -1.1366  -1.1034  -1.0976  -1.0311
    -0.9442  -0.9398  -0.9184  -0.8888  -0.8013  -0.7332  -0.6920  -0.6563
    -0.6125  -0.5823  -0.5087  -0.4948  -0.4840  -0.4217  -0.3813  -0.2962
    -0.2825  -0.2634  -0.2122  -0.1832  -0.1485  -0.0796  -0.0616  -0.0387
     0.0420   0.1084   0.1146   0.3245   0.4871   0.5158   0.5323   0.6173
     0.6638   0.7730   0.7956   0.8052   0.8476   0.8929   0.9804   1.0064
     1.0082   1.0856   1.8348   1.8355   1.9229   1.9335   3.5662   3.8796
     3.9442   3.9675   3.9923   4.1079   4.1105   4.1297   4.1383   4.2816
     4.2967

     the Fermi energy is     3.6125 ev

!    total energy              =   -2964.99532947 Ry
     estimated scf accuracy    <       0.00000007 Ry
     smearing contrib. (-TS)   =      -0.03110326 Ry
     internal energy E=F+TS    =   -2964.96422621 Ry

     The total energy is F=E-TS. E is the sum of the following terms:
     one-electron contribution =  -24342.96257971 Ry
     hartree contribution      =   12264.53869076 Ry
     xc contribution           =    -490.10574607 Ry
     ewald contribution        =    9603.56258422 Ry
     electric field correction =       0.00282459 Ry

     convergence has been achieved in  84 iterations

     Forces acting on atoms (cartesian axes, Ry/au):

     atom    1 type  1   force =    -0.00009769    0.00006777    0.10409139
     atom    2 type  1   force =    -0.00008928    0.00006188    0.10410521
     atom    3 type  2   force =    -0.00029813   -0.00188802    0.10329370
     atom    4 type  2   force =    -0.00015596    0.00151612    0.11461489
     atom    5 type  2   force =    -0.00037436    0.00124478   -0.17937175
     atom    6 type  2   force =    -0.00016859   -0.00076615   -0.17975586
     atom    7 type  1   force =    -0.06939160    0.00065510   -0.02929159
     atom    8 type  1   force =    -0.06893627   -0.00122604   -0.02933130
     atom    9 type  1   force =     0.06903390    0.00114615   -0.02935285
     atom   10 type  1   force =     0.06866599   -0.00080883   -0.02940333
     atom   11 type  1   force =     0.00041983    0.00056843    0.04681651
     atom   12 type  1   force =     0.00063185    0.00080678    0.04852357
     atom   13 type  1   force =     0.00026587   -0.00568375   -0.03323869
     atom   14 type  1   force =     0.00033088    0.00339640   -0.02637382
     atom   15 type  2   force =    -0.00010207   -0.00002000    0.00036791
     atom   16 type  2   force =     0.00001664    0.00003375    0.00048184
     atom   17 type  2   force =    -0.00002422    0.00012305    0.00040390
     atom   18 type  2   force =    -0.00006606   -0.00033218    0.00006502
     atom   19 type  1   force =    -0.01806719   -0.00015634    0.00404312
     atom   20 type  1   force =    -0.01684237    0.00147934    0.00329739
     atom   21 type  1   force =     0.01933673   -0.00136814    0.00449060
     atom   22 type  1   force =     0.01790413    0.00116361    0.00356962
     atom   23 type  1   force =     0.00001721    0.00002972   -0.00012280
     atom   24 type  1   force =    -0.00005395   -0.00000916   -0.00006381
     atom   25 type  1   force =    -0.00004680    0.00000404   -0.00055092
     atom   26 type  1   force =    -0.00023157    0.00014186   -0.00063134
     atom   27 type  2   force =     0.00004830    0.00014689   -0.00042181
     atom   28 type  2   force =     0.00023217    0.00002807   -0.00009971
     atom   29 type  2   force =     0.00021986    0.00000695   -0.00022319
     atom   30 type  2   force =    -0.00008259    0.00020681    0.00019608
     atom   31 type  1   force =    -0.00063167   -0.00024329    0.00053509
     atom   32 type  1   force =    -0.00054115    0.00032434    0.00056543
     atom   33 type  1   force =     0.00037895   -0.00014368    0.00035067
     atom   34 type  1   force =     0.00030094    0.00019154    0.00038085
     atom   35 type  1   force =    -0.00014849    0.00000887    0.00021561
     atom   36 type  1   force =    -0.00008927    0.00000693   -0.00019790
     atom   37 type  1   force =    -0.00036708   -0.00001714   -0.00022956
     atom   38 type  1   force =    -0.00051422    0.00026219   -0.00005852
     atom   39 type  2   force =    -0.00017028   -0.00009226    0.00130271
     atom   40 type  2   force =     0.00008891    0.00022449   -0.00135890
     atom   41 type  2   force =    -0.00031043   -0.00104896   -0.00064381
     atom   42 type  2   force =    -0.00026571    0.00110191   -0.00042479
     atom   43 type  1   force =    -0.00002393    0.00022456    0.00031251
     atom   44 type  1   force =    -0.00008641   -0.00009254    0.00009696
     atom   45 type  1   force =    -0.00039441   -0.00026420   -0.00002032
     atom   46 type  1   force =    -0.00045800    0.00042313    0.00014136
     atom   47 type  1   force =    -0.00006199   -0.00023617    0.00031974
     atom   48 type  1   force =    -0.00002634   -0.00115679   -0.00055955
     atom   49 type  3   force =     0.00062231   -0.00382032   -0.00313280
     atom   50 type  4   force =    -0.00010359    0.00295091    0.00455811
     atom   51 type  4   force =     0.00034435    0.00018698   -0.00031549
     atom   52 type  1   force =     0.00048716    0.00065538   -0.00054949
     atom   53 type  4   force =     0.00033471    0.00000009    0.00023159
     atom   54 type  4   force =    -0.00045901   -0.00001486   -0.00164747

     Total force =     0.374573     Total SCF correction =     0.000534
  @ DRIVER MODE: Message from server: STATUS
  @ DRIVER MODE: Message from server: GETFORCE
  @ DRIVER MODE: Returning v,forces,stress,ensemble

     Writing output data file ./calc.save/
  @ DRIVER MODE: Message from server: EXIT
  @ DRIVE MODE: Exiting

     General routines

     Parallel routines

   This run was terminated on:  21:38:22  15Sep2021

   JOB DONE.