     Program PWSCF v.6.7GPU starts on  9Sep2021 at 13:12:18

     R & G space division:  proc/nbgrp/npool/nimage =      10
     Reading input from /storage/home/hcoda1/3/ntian30/research/carbon/CxH_vib/CH3_calc/ads_slab/CH3NNHHH_a/out_0046/pw.inp
Warning: card &CELL ignored
Warning: card   CELL_DYNAMICS='IPI', ignored
Warning: card / ignored

     Current dimensions of program PWSCF are:
     Max number of different atomic species (ntypx) = 10
     Max number of k-points (npk) =  40000
     Max angular momentum in pseudopotentials (lmaxx) =  3
     Presently no symmetry can be used with electric field

     Message from routine cell_base_init:
     DEPRECATED: use true lattice parameter, not A to a.u. conversion factor

     IMPORTANT: XC functional enforced from input :
     Exchange-correlation= BEEF-VDW
                           (   1   4  43  14   2   0   0)
     Any further DFT definition will be discarded
     Please, verify this is what you really want

  @ DRIVER MODE: Connecting to
 qe_1139763_2767399.sched-torque.pace.gatech.edunmxjcwsx_scratch
  using UNIX socket
  @ DRIVER MODE: Message from server: STATUS
  @ DRIVER MODE: Message from server: INIT
  @ DRIVER MODE: Receiving replica           0          -1
  @ DRIVER MODE: Receiving encoded integer          25
  @ DRIVER MODE:  SCF:  T  FORCE:  T  STRESS:  F  VC:  F  ENSEMBLE:  F
  @ DRIVER MODE:  SCF:  T  FORCE:  T  STRESS:  F  VC:  F  ENSEMBLE:  F

     Using Slab Decomposition

     bravais-lattice index     =            0
     lattice parameter (alat)  =       1.8897  a.u.
     unit-cell volume          =    6658.9804 (a.u.)^3
     number of atoms/cell      =           56
     number of atomic types    =            5
     number of electrons       =       398.00
     number of Kohn-Sham states=          209
     kinetic-energy cutoff     =      29.3995  Ry
     charge density cutoff     =     293.9946  Ry
     scf convergence threshold =      7.3E-08
     mixing beta               =       0.0500
     number of iterations used =            8  plain     mixing
     Exchange-correlation= BEEF-VDW
                           (   1   4  43  14   2   0   0)

     celldm(1)=   1.889726  celldm(2)=   0.000000  celldm(3)=   0.000000
     celldm(4)=   0.000000  celldm(5)=   0.000000  celldm(6)=   0.000000

     crystal axes: (cart. coord. in units of alat)
               a(1) = (   6.579727   0.000000   0.000000 )
               a(2) = (  -0.000775   5.961596   0.000000 )
               a(3) = (   0.000000   0.000000  25.155947 )

     reciprocal axes: (cart. coord. in units 2 pi/alat)
               b(1) = (  0.151982  0.000020  0.000000 )
               b(2) = (  0.000000  0.167740  0.000000 )
               b(3) = (  0.000000  0.000000  0.039752 )

     PseudoPot. # 1 for Ti read from file:
     /storage/coda1/p-amedford6/0/shared/rich_project_chbe-medford/medford-share/data/pseudos_module/espresso/nninc/pbe/van/Ti.UPF
     MD5 check sum: 8e4df49b7f0d34bbd5052bf3f5ea0213
     Pseudo is Ultrasoft, Zval = 12.0
     Generated by new atomic code, or converted to UPF format
     Using radial grid of  851 points,  6 beta functions with:
                l(1) =   0
                l(2) =   0
                l(3) =   1
                l(4) =   1
                l(5) =   2
                l(6) =   2
     Q(r) pseudized with  8 coefficients,  rinner =    1.000   1.000   1.000
                                                       1.000   1.000

     PseudoPot. # 2 for O  read from file:
     /storage/coda1/p-amedford6/0/shared/rich_project_chbe-medford/medford-share/data/pseudos_module/espresso/nninc/pbe/van/O.UPF
     MD5 check sum: 78c19812648e8988a0fe644b0f25305e
     Pseudo is Ultrasoft, Zval =  6.0
     Generated by new atomic code, or converted to UPF format
     Using radial grid of  737 points,  4 beta functions with:
                l(1) =   0
                l(2) =   0
                l(3) =   1
                l(4) =   1
     Q(r) pseudized with  8 coefficients,  rinner =    0.800   0.800   0.800

     PseudoPot. # 3 for N  read from file:
     /storage/coda1/p-amedford6/0/shared/rich_project_chbe-medford/medford-share/data/pseudos_module/espresso/nninc/pbe/van/N.UPF
     MD5 check sum: 90d10febe142ad51ac9d5be1deb811c4
     Pseudo is Ultrasoft, Zval =  5.0
     Generated by new atomic code, or converted to UPF format
     Using radial grid of  729 points,  4 beta functions with:
                l(1) =   0
                l(2) =   0
                l(3) =   1
                l(4) =   1
     Q(r) pseudized with  8 coefficients,  rinner =    0.800   0.800   0.800

     PseudoPot. # 4 for C  read from file:
     /storage/coda1/p-amedford6/0/shared/rich_project_chbe-medford/medford-share/data/pseudos_module/espresso/nninc/pbe/van/C.UPF
     MD5 check sum: 1a69bf6b8db32088f5b2163dbdb77a27
     Pseudo is Ultrasoft, Zval =  4.0
     Generated by new atomic code, or converted to UPF format
     Using radial grid of  721 points,  4 beta functions with:
                l(1) =   0
                l(2) =   0
                l(3) =   1
                l(4) =   1
     Q(r) pseudized with  8 coefficients,  rinner =    0.800   0.800   0.800

     PseudoPot. # 5 for H  read from file:
     /storage/coda1/p-amedford6/0/shared/rich_project_chbe-medford/medford-share/data/pseudos_module/espresso/nninc/pbe/van/H.UPF
     MD5 check sum: b5ee9d7bfd3a09ee7748110bda690ff7
     Pseudo is Ultrasoft, Zval =  1.0
     Generated by new atomic code, or converted to UPF format
     Using radial grid of  615 points,  1 beta functions with:
                l(1) =   0
     Q(r) pseudized with  8 coefficients,  rinner =    0.800

     atomic species   valence    mass     pseudopotential
        Ti1           12.00    47.86700     Ti( 1.00)
        O1             6.00    15.99900     O ( 1.00)
        N1             5.00    14.00700     N ( 1.00)
        C1             4.00    12.01100     C ( 1.00)
        H1             1.00     1.00800     H ( 1.00)

     No symmetry found

   Cartesian axes

     site n.     atom                  positions (alat units)
         1           Ti1 tau(   1) = (   0.0004258   2.9801865   6.0000000  )
         2           Ti1 tau(   2) = (   3.2906075   1.4906267   6.0002472  )
         3           O1  tau(   3) = (   0.0006271   0.0005054   7.9858123  )
         4           O1  tau(   4) = (   3.2906025   0.0005020   7.3038282  )
         5           O1  tau(   5) = (   4.5942328   1.4918067   9.2879030  )
         6           O1  tau(   6) = (   1.9868534   1.4903216   9.2879459  )
         7           Ti1 tau(   7) = (   3.2907910   2.8959150   9.1758416  )
         8           Ti1 tau(   8) = (   0.0015273   1.4827037   9.2680791  )
         9           O1  tau(   9) = (   3.3120675   0.0079458  11.3762204  )
        10           O1  tau(  10) = (   0.0116148   5.9584955  10.6183126  )
        11           O1  tau(  11) = (   1.3148726   1.5133626  12.6447579  )
        12           O1  tau(  12) = (   5.3140862   1.5122126  12.6508301  )
        13           Ti1 tau(  13) = (   0.0289753   2.9995974  12.5105963  )
        14           Ti1 tau(  14) = (   3.3300932   1.5144954  12.5190352  )
        15           O1  tau(  15) = (   0.0303621   0.0967028  14.6836000  )
        16           O1  tau(  16) = (   3.3188409   0.0235386  14.0025835  )
        17           O1  tau(  17) = (   4.5661268   1.5053193  16.2317874  )
        18           O1  tau(  18) = (   2.0488868   1.5039614  16.2002260  )
        19           Ti1 tau(  19) = (   3.3211226   2.9745325  15.7560014  )
        20           Ti1 tau(  20) = (   0.0641794   1.4487855  16.0607878  )
        21           O1  tau(  21) = (   3.2904802   0.0005063   4.7018136  )
        22           O1  tau(  22) = (   0.0207051   5.8381987  17.2232637  )
        23           O1  tau(  23) = (   1.3043587   1.4918075   6.0039043  )
        24           O1  tau(  24) = (   5.2767064   1.4903225   6.0039473  )
        25           Ti1 tau(  25) = (   0.0000382   5.9609847   6.0000000  )
        26           Ti1 tau(  26) = (   3.2902200   4.4714249   6.0002472  )
        27           O1  tau(  27) = (   0.0002396   2.9813036   7.9858123  )
        28           O1  tau(  28) = (   3.2902150   2.9813002   7.3038282  )
        29           O1  tau(  29) = (   4.5938453   4.4726049   9.2879030  )
        30           O1  tau(  30) = (   1.9864658   4.4711199   9.2879459  )
        31           Ti1 tau(  31) = (   3.2891106   5.8743827   9.1763621  )
        32           Ti1 tau(  32) = (   0.0006254   4.4649316   9.2693709  )
        33           O1  tau(  33) = (   3.3137607   3.0039157  11.3695003  )
        34           O1  tau(  34) = (   0.0092240   2.9805883  10.6323155  )
        35           O1  tau(  35) = (   1.3103219   4.4840529  12.6837359  )
        36           O1  tau(  36) = (   5.3166572   4.4842854  12.6901167  )
        37           Ti1 tau(  37) = (   0.0376818   0.0300362  12.4998423  )
        38           Ti1 tau(  38) = (   3.3279277   4.4933691  12.5326681  )
        39           O1  tau(  39) = (   0.0236785   2.9473731  14.9547601  )
        40           O1  tau(  40) = (   3.3158584   2.9778716  13.9675922  )
        41           O1  tau(  41) = (   4.5769684   4.4551829  16.1482216  )
        42           O1  tau(  42) = (   2.0574928   4.4544973  16.1629196  )
        43           Ti1 tau(  43) = (   3.3270828   0.0048838  15.7999907  )
        44           Ti1 tau(  44) = (   0.0216784   4.6657176  15.8371636  )
        45           O1  tau(  45) = (   3.2900926   2.9813045   4.7018136  )
        46           O1  tau(  46) = (   1.3039711   4.4726057   6.0039043  )
        47           O1  tau(  47) = (   5.2763189   4.4711207   6.0039473  )
        48           N1  tau(  48) = (   1.0300599   3.1028741  18.8625222  )
        49           N1  tau(  49) = (   6.4529598   2.6395754  18.1308714  )
        50           C1  tau(  50) = (   0.6566364   3.8075245  20.0867497  )
        51           H1  tau(  51) = (   6.5334193   4.6337433  19.9095685  )
        52           H1  tau(  52) = (   0.2127083   3.1054723  20.7945791  )
        53           H1  tau(  53) = (   1.5644534   4.2160081  20.5287796  )
        54           H1  tau(  54) = (   5.6912064   3.3271340  18.1715891  )
        55           H1  tau(  55) = (   6.1153184   1.8091689  18.5966666  )
        56           H1  tau(  56) = (   1.4989484   3.7555826  18.2384742  )

     number of k points=    10  Fermi-Dirac smearing, width (Ry)=  0.0073
                       cart. coord. in units 2pi/alat
        k(    1) = (   0.0000000   0.0000000   0.0000000), wk =   0.1250000
        k(    2) = (   0.0000000   0.0419351   0.0000000), wk =   0.2500000
        k(    3) = (   0.0000000  -0.0838702   0.0000000), wk =   0.1250000
        k(    4) = (   0.0379955   0.0000049   0.0000000), wk =   0.2500000
        k(    5) = (   0.0379955   0.0419400   0.0000000), wk =   0.2500000
        k(    6) = (   0.0379955  -0.0838652   0.0000000), wk =   0.2500000
        k(    7) = (   0.0379955  -0.0419301   0.0000000), wk =   0.2500000
        k(    8) = (  -0.0759910  -0.0000099   0.0000000), wk =   0.1250000
        k(    9) = (  -0.0759910   0.0419252   0.0000000), wk =   0.2500000
        k(   10) = (  -0.0759910  -0.0838800   0.0000000), wk =   0.1250000

     Initial potential from superposition of free atoms

     starting charge  381.99914, renormalised to  398.00000

     negative rho (up, down):  1.340E-02 0.000E+00

     %%%%%%%%%%%%%%%%%%%%%%%%%%%%%%%%%%%%%%%%%%%%%%%%%%%%%%%%%%%%%%%%%%%%%%%%
     %                                                                      %
     % You are using vdW-DF, which was implemented by the Thonhauser group. %
     % Please cite the following two papers that made this development      %
     % possible and the two reviews that describe the various versions:     %
     %                                                                      %
     %   T. Thonhauser et al., PRL 115, 136402 (2015).                      %
     %   T. Thonhauser et al., PRB 76, 125112 (2007).                       %
     %   K. Berland et al., Rep. Prog. Phys. 78, 066501 (2015).             %
     %   D.C. Langreth et al., J. Phys.: Condens. Matter 21, 084203 (2009). %
     %                                                                      %
     %                                                                      %
     % If you are calculating the stress with vdW-DF, please also cite:     %
     %                                                                      %
     %   R. Sabatini et al., J. Phys.: Condens. Matter 24, 424209 (2012).   %
     %                                                                      %
     %%%%%%%%%%%%%%%%%%%%%%%%%%%%%%%%%%%%%%%%%%%%%%%%%%%%%%%%%%%%%%%%%%%%%%%%

     Adding external electric field

     Computed dipole along edir(3) :
        Dipole              -11.7464 Ry au,        -29.8564 Debye
        Dipole field         -0.0222 Ry au,

        Potential amp.        2.0549 Ry
        Total length         46.3494 bohr

     Starting wfcs are  302 atomic wfcs
  @ DRIVER MODE: Message from server: STATUS
  @ DRIVER MODE: Message from server: POSDATA
  @ DRIVER MODE: Reading and sharing cell
  @ DRIVER MODE: Reading and sharing positions
  @ DRIVER MODE: Received positions

     Self-consistent Calculation

     iteration #  1     ecut=    29.40 Ry     beta= 0.05
     Davidson diagonalization with overlap
     c_bands:  1 eigenvalues not converged
     c_bands:  1 eigenvalues not converged
     c_bands:  1 eigenvalues not converged
     c_bands:  3 eigenvalues not converged
     c_bands:  3 eigenvalues not converged
     c_bands:  3 eigenvalues not converged
     c_bands:  4 eigenvalues not converged
     c_bands:  2 eigenvalues not converged
     ethr =  1.00E-05,  avg # of iterations = 21.6

[...]

     total energy              =   -2428.06893225 Ry
     estimated scf accuracy    <    5789.77064233 Ry

     iteration #  2     ecut=    29.40 Ry     beta= 0.05
     Davidson diagonalization with overlap
     ethr =  1.00E-02,  avg # of iterations = 22.2

[...]

     iteration # 88     ecut=    29.40 Ry     beta= 0.05
     Davidson diagonalization with overlap
     c_bands:  2 eigenvalues not converged
     ethr =  1.94E-11,  avg # of iterations = 12.7

[...]

     total energy              =   -2942.85963882 Ry
     estimated scf accuracy    <       0.00000009 Ry

     iteration # 89     ecut=    29.40 Ry     beta= 0.05
     Davidson diagonalization with overlap
     ethr =  1.94E-11,  avg # of iterations =  8.3

     negative rho (up, down):  1.465E-02 0.000E+00

     Adding external electric field

     Computed dipole along edir(3) :
        Dipole                1.2237 Ry au,          3.1103 Debye
        Dipole field          0.0023 Ry au,

        Potential amp.       -0.2141 Ry
        Total length         46.3494 bohr

     End of self-consistent calculation

          k = 0.0000 0.0000 0.0000 ( 18029 PWs)   bands (ev):

   -55.3480 -55.3110 -55.3000 -55.2692 -55.2659 -55.2319 -55.2247 -55.1894
   -55.1683 -55.1445 -55.1338 -55.1318 -55.0982 -55.0257 -54.3300 -54.2960
   -31.9164 -31.8008 -31.7925 -31.7132 -31.6637 -31.6577 -31.6510 -31.6375
   -31.5893 -31.5888 -31.5575 -31.5522 -31.5451 -31.5292 -31.5179 -31.5105
   -31.5032 -31.4880 -31.4854 -31.4655 -31.4526 -31.4448 -31.4180 -31.4138
   -31.4028 -31.4004 -31.3992 -31.3710 -31.3572 -31.3552 -31.3503 -31.3307
   -31.3276 -31.3194 -31.3183 -31.3162 -31.2820 -31.2680 -31.2602 -31.2432
   -31.2321 -31.2076 -30.7394 -30.6451 -30.6231 -30.5558 -30.4690 -30.3581
   -17.8158 -16.1842 -15.9166 -15.7766 -15.6668 -15.5477 -15.4293 -15.4097
   -15.2777 -15.1948 -15.0747 -15.0517 -15.0254 -15.0063 -14.9939 -14.9790
   -14.8934 -14.8874 -14.8700 -14.8426 -14.8363 -14.7936 -14.7862 -14.7465
   -14.7253 -14.7237 -14.5952 -14.5075 -14.4357 -14.1986 -13.2021 -12.8327
   -12.7153  -9.7402  -6.3837  -5.4059  -4.8903  -3.5390  -3.4983  -3.3680
    -3.2784  -3.2630  -3.2409  -3.1048  -2.9515  -2.7815  -2.7699  -2.7567
    -2.6380  -2.5603  -2.5540  -2.5293  -2.3781  -2.3563  -2.3052  -2.2399
    -2.2122  -2.1645  -2.1533  -2.1320  -2.1126  -2.0928  -2.0844  -1.9705
    -1.9197  -1.8269  -1.7711  -1.7437  -1.7081  -1.6803  -1.6657  -1.6377
    -1.6296  -1.5873  -1.5603  -1.5384  -1.4878  -1.3751  -1.2663  -1.2369
    -1.1386  -0.9865  -0.9605  -0.9407  -0.9295  -0.8529  -0.8354  -0.7892
    -0.7354  -0.7264  -0.6955  -0.5847  -0.5262  -0.4613  -0.3947  -0.3830
    -0.3362  -0.2744  -0.1620  -0.1378  -0.1153  -0.0900   0.0035   0.0430
     0.0880   0.1627   0.1820   0.1956   0.3024   0.3102   0.3903   0.4023
     0.4481   0.5345   0.5688   0.5911   0.5949   0.6084   0.6384   0.7055
     0.7297   0.7560   0.8311   0.9549   1.0218   1.1873   1.2502   1.2636
     1.5934   1.5975   1.6925   1.8765   2.2689   2.3171   3.7494   3.8189
     3.8938   3.9005   3.9124   3.9862   4.2233   4.2396   4.2520   4.2582
     4.2931

[...]

          k = 0.0380-0.0419 0.0000 ( 17876 PWs)   bands (ev):

[...]

          k =-0.0760-0.0000 0.0000 ( 17886 PWs)   bands (ev):

[...]

          k =-0.0760-0.0839 0.0000 ( 17948 PWs)   bands (ev):

   -55.3338 -55.3250 -55.2830 -55.2828 -55.2677 -55.2285 -55.2111 -55.2028
   -55.1527 -55.1490 -55.1478 -55.1153 -55.1150 -55.0270 -54.3130 -54.3129
   -31.7237 -31.7209 -31.7171 -31.6335 -31.6076 -31.6075 -31.6050 -31.5745
   -31.5744 -31.5563 -31.5490 -31.5465 -31.5406 -31.5106 -31.5038 -31.4857
   -31.4853 -31.4814 -31.4780 -31.4727 -31.4698 -31.4689 -31.4318 -31.4268
   -31.4246 -31.4199 -31.4158 -31.4044 -31.4027 -31.4025 -31.3957 -31.3862
   -31.3820 -31.3658 -31.3624 -31.3464 -31.3456 -31.3363 -31.2962 -31.2960
   -31.2854 -31.2368 -30.6357 -30.6357 -30.5519 -30.5518 -30.5125 -30.5124
   -17.8111 -15.7077 -15.5956 -15.5494 -15.3762 -15.3540 -15.3314 -15.3166
   -15.1887 -15.1703 -15.1423 -15.1159 -15.0909 -15.0633 -15.0520 -15.0471
   -14.9646 -14.9527 -14.9452 -14.9291 -14.8612 -14.8582 -14.8540 -14.8481
   -14.7974 -14.7948 -14.7144 -14.7009 -14.6995 -14.5006 -13.2030 -12.8168
   -12.8168  -9.7367  -6.3714  -5.4056  -4.8959  -3.4754  -2.8642  -2.8289
    -2.8053  -2.7871  -2.5918  -2.5537  -2.5167  -2.5044  -2.4052  -2.3630
    -2.3453  -2.3381  -2.2677  -2.2643  -2.2336  -2.2034  -2.1824  -2.1653
    -2.1515  -2.1296  -2.1049  -2.0755  -2.0694  -2.0544  -2.0003  -1.9977
    -1.9820  -1.9598  -1.9427  -1.9215  -1.9048  -1.8483  -1.7259  -1.7156
    -1.6619  -1.5551  -1.5506  -1.4706  -1.4656  -1.4220  -1.3934  -1.3812
    -1.3546  -1.1739  -1.1204  -1.0940  -1.0867  -1.0774  -0.9663  -0.9321
    -0.8740  -0.8584  -0.8322  -0.7345  -0.6841  -0.6795  -0.6002  -0.5664
    -0.5286  -0.4869  -0.3847  -0.3549  -0.3358  -0.3059  -0.3025  -0.2490
    -0.2436  -0.1669  -0.1190  -0.0830  -0.0686  -0.0376   0.1618   0.1715
     0.1898   0.3368   0.3598   0.4997   0.5436   0.5857   0.6463   0.6979
     0.7639   0.8046   0.9319   0.9593   0.9602   1.0303   1.0503   1.0536
     1.1085   1.1105   2.0491   2.0497   2.1370   2.1372   3.8924   3.9969
     4.0118   4.0572   4.1669   4.2413   4.2640   4.2910   4.3336   4.3367
     4.4005

     the Fermi energy is     3.8122 ev

!    total energy              =   -2942.85964601 Ry
     estimated scf accuracy    <       0.00000004 Ry
     smearing contrib. (-TS)   =      -0.03701590 Ry
     internal energy E=F+TS    =   -2942.82263011 Ry

     The total energy is F=E-TS. E is the sum of the following terms:
     one-electron contribution =  -23389.55755300 Ry
     hartree contribution      =   11787.32036792 Ry
     xc contribution           =    -487.76308158 Ry
     ewald contribution        =    9147.17481066 Ry
     electric field correction =       0.00282588 Ry

     convergence has been achieved in  89 iterations

     Forces acting on atoms (cartesian axes, Ry/au):

     atom    1 type  1   force =     0.00000464   -0.00026001    0.09307978
     atom    2 type  1   force =    -0.00014935   -0.00043082   -0.17825385
     atom    3 type  2   force =     0.00007410   -0.00009020   -0.02024993
     atom    4 type  2   force =     0.00001751   -0.00186748    0.05881927
     atom    5 type  2   force =    -0.01020323   -0.00054198    0.00773856
     atom    6 type  2   force =     0.01225602    0.00007587    0.00819899
     atom    7 type  1   force =     0.00038757    0.00327457   -0.01426736
     atom    8 type  1   force =    -0.00045790    0.00045753   -0.00455749
     atom    9 type  2   force =    -0.00002502   -0.00061782   -0.00037257
     atom   10 type  2   force =    -0.00059457    0.00091142   -0.00142364
     atom   11 type  2   force =    -0.00037984   -0.00012017    0.00023063
     atom   12 type  2   force =     0.00006990   -0.00006539    0.00003902
     atom   13 type  1   force =     0.00005158   -0.00031910    0.00016730
     atom   14 type  1   force =    -0.00036604    0.00013329    0.00040979
     atom   15 type  2   force =    -0.00015667    0.00080818    0.00024309
     atom   16 type  2   force =    -0.00008689   -0.00018473    0.00033175
     atom   17 type  2   force =    -0.00045600    0.00007095    0.00044712
     atom   18 type  2   force =     0.00014268   -0.00018903   -0.00007721
     atom   19 type  1   force =     0.00034852    0.00028518    0.00087688
     atom   20 type  1   force =    -0.00064258   -0.00088187    0.00040670
     atom   21 type  2   force =     0.00000230   -0.00010403    0.10393398
     atom   22 type  2   force =    -0.00017658    0.00004120   -0.00074646
     atom   23 type  2   force =    -0.07034938   -0.00022761   -0.02686201
     atom   24 type  2   force =     0.07024891    0.00019961   -0.02694203
     atom   25 type  1   force =     0.00002082   -0.00026336    0.09274354
     atom   26 type  1   force =    -0.00011945   -0.00044890   -0.17829112
     atom   27 type  2   force =     0.00013906   -0.00032710   -0.01927539
     atom   28 type  2   force =     0.00008221   -0.00155089    0.05821492
     atom   29 type  2   force =    -0.01020802   -0.00032853    0.00695830
     atom   30 type  2   force =     0.01215911   -0.00008660    0.00749361
     atom   31 type  1   force =     0.00040139    0.00495560   -0.01540529
     atom   32 type  1   force =    -0.00037557   -0.00033113   -0.00466198
     atom   33 type  2   force =    -0.00021849   -0.00047578    0.00015794
     atom   34 type  2   force =    -0.00014026    0.00364123   -0.00060795
     atom   35 type  2   force =     0.00003177   -0.00056343    0.00032057
     atom   36 type  2   force =    -0.00018764   -0.00053152   -0.00002976
     atom   37 type  1   force =    -0.00025939   -0.00049301    0.00048612
     atom   38 type  1   force =    -0.00019468   -0.00090377    0.00045046
     atom   39 type  2   force =    -0.00047396   -0.00053863    0.00054673
     atom   40 type  2   force =     0.00001388   -0.00048802   -0.00041084
     atom   41 type  2   force =    -0.00081272   -0.00012640   -0.00012403
     atom   42 type  2   force =     0.00030502   -0.00027283   -0.00029251
     atom   43 type  1   force =     0.00005912   -0.00031807   -0.00004391
     atom   44 type  1   force =    -0.00009305   -0.00051520    0.00074028
     atom   45 type  2   force =     0.00000981   -0.00014445    0.10390681
     atom   46 type  2   force =    -0.07039899   -0.00018107   -0.02687654
     atom   47 type  2   force =     0.07026091    0.00026036   -0.02694646
     atom   48 type  3   force =     0.00101758    0.00184019   -0.00051863
     atom   49 type  3   force =     0.00344010    0.01177592   -0.00545963
     atom   50 type  4   force =    -0.00189257    0.00003236    0.00001347
     atom   51 type  5   force =    -0.00053623    0.00007917    0.00007197
     atom   52 type  5   force =     0.00028816   -0.00011518    0.00035802
     atom   53 type  5   force =     0.00102205    0.00022392    0.00092249
     atom   54 type  5   force =     0.00032574    0.00027579   -0.00098518
     atom   55 type  5   force =    -0.00331985   -0.01352012    0.00545926
     atom   56 type  5   force =     0.00009446   -0.00091810   -0.00008558

     Total force =     0.366659     Total SCF correction =     0.000435
  @ DRIVER MODE: Message from server: STATUS
  @ DRIVER MODE: Message from server: GETFORCE
  @ DRIVER MODE: Returning v,forces,stress,ensemble

     Writing output data file ./calc.save/
  @ DRIVER MODE: Message from server: EXIT
  @ DRIVE MODE: Exiting

     General routines

     Parallel routines

   This run was terminated on:  13:35:49   9Sep2021

   JOB DONE.