     Program PWSCF v.6.7GPU starts on 10Sep2021 at 18:41:27

     R & G space division:  proc/nbgrp/npool/nimage =      10
     Reading input from /storage/home/hcoda1/3/ntian30/research/carbon/CxH_vib/CH2_calc/ads_slab/CH2NHNH2_a/out_0003/pw.inp
Warning: card &CELL ignored
Warning: card   CELL_DYNAMICS='IPI', ignored
Warning: card / ignored

     Current dimensions of program PWSCF are:
     Max number of different atomic species (ntypx) = 10
     Max number of k-points (npk) =  40000
     Max angular momentum in pseudopotentials (lmaxx) =  3
     Presently no symmetry can be used with electric field

     Message from routine cell_base_init:
     DEPRECATED: use true lattice parameter, not A to a.u. conversion factor

     IMPORTANT: XC functional enforced from input :
     Exchange-correlation= BEEF-VDW
                           (   1   4  43  14   2   0   0)
     Any further DFT definition will be discarded
     Please, verify this is what you really want

  @ DRIVER MODE: Connecting to
 qe_1139763_2792044.sched-torque.pace.gatech.eduj84x_03o_scratch
  using UNIX socket
  @ DRIVER MODE: Message from server: STATUS
  @ DRIVER MODE: Message from server: INIT
  @ DRIVER MODE: Receiving replica           0          -1
  @ DRIVER MODE: Receiving encoded integer          25
  @ DRIVER MODE:  SCF:  T  FORCE:  T  STRESS:  F  VC:  F  ENSEMBLE:  F
  @ DRIVER MODE:  SCF:  T  FORCE:  T  STRESS:  F  VC:  F  ENSEMBLE:  F

     Using Slab Decomposition

     bravais-lattice index     =            0
     lattice parameter (alat)  =       1.8897  a.u.
     unit-cell volume          =    6658.9804 (a.u.)^3
     number of atoms/cell      =           55
     number of atomic types    =            5
     number of electrons       =       397.00
     number of Kohn-Sham states=          208
     kinetic-energy cutoff     =      29.3995  Ry
     charge density cutoff     =     293.9946  Ry
     scf convergence threshold =      7.3E-08
     mixing beta               =       0.0500
     number of iterations used =            8  plain     mixing
     Exchange-correlation= BEEF-VDW
                           (   1   4  43  14   2   0   0)

     celldm(1)=   1.889726  celldm(2)=   0.000000  celldm(3)=   0.000000
     celldm(4)=   0.000000  celldm(5)=   0.000000  celldm(6)=   0.000000

     crystal axes: (cart. coord. in units of alat)
               a(1) = (   6.579727   0.000000   0.000000 )
               a(2) = (  -0.000775   5.961596   0.000000 )
               a(3) = (   0.000000   0.000000  25.155947 )

     reciprocal axes: (cart. coord. in units 2 pi/alat)
               b(1) = (  0.151982  0.000020  0.000000 )
               b(2) = (  0.000000  0.167740  0.000000 )
               b(3) = (  0.000000  0.000000  0.039752 )

     PseudoPot. # 1 for Ti read from file:
     /storage/coda1/p-amedford6/0/shared/rich_project_chbe-medford/medford-share/data/pseudos_module/espresso/nninc/pbe/van/Ti.UPF
     MD5 check sum: 8e4df49b7f0d34bbd5052bf3f5ea0213
     Pseudo is Ultrasoft, Zval = 12.0
     Generated by new atomic code, or converted to UPF format
     Using radial grid of  851 points,  6 beta functions with:
                l(1) =   0
                l(2) =   0
                l(3) =   1
                l(4) =   1
                l(5) =   2
                l(6) =   2
     Q(r) pseudized with  8 coefficients,  rinner =    1.000   1.000   1.000
                                                       1.000   1.000

     PseudoPot. # 2 for O  read from file:
     /storage/coda1/p-amedford6/0/shared/rich_project_chbe-medford/medford-share/data/pseudos_module/espresso/nninc/pbe/van/O.UPF
     MD5 check sum: 78c19812648e8988a0fe644b0f25305e
     Pseudo is Ultrasoft, Zval =  6.0
     Generated by new atomic code, or converted to UPF format
     Using radial grid of  737 points,  4 beta functions with:
                l(1) =   0
                l(2) =   0
                l(3) =   1
                l(4) =   1
     Q(r) pseudized with  8 coefficients,  rinner =    0.800   0.800   0.800

     PseudoPot. # 3 for N  read from file:
     /storage/coda1/p-amedford6/0/shared/rich_project_chbe-medford/medford-share/data/pseudos_module/espresso/nninc/pbe/van/N.UPF
     MD5 check sum: 90d10febe142ad51ac9d5be1deb811c4
     Pseudo is Ultrasoft, Zval =  5.0
     Generated by new atomic code, or converted to UPF format
     Using radial grid of  729 points,  4 beta functions with:
                l(1) =   0
                l(2) =   0
                l(3) =   1
                l(4) =   1
     Q(r) pseudized with  8 coefficients,  rinner =    0.800   0.800   0.800

     PseudoPot. # 4 for C  read from file:
     /storage/coda1/p-amedford6/0/shared/rich_project_chbe-medford/medford-share/data/pseudos_module/espresso/nninc/pbe/van/C.UPF
     MD5 check sum: 1a69bf6b8db32088f5b2163dbdb77a27
     Pseudo is Ultrasoft, Zval =  4.0
     Generated by new atomic code, or converted to UPF format
     Using radial grid of  721 points,  4 beta functions with:
                l(1) =   0
                l(2) =   0
                l(3) =   1
                l(4) =   1
     Q(r) pseudized with  8 coefficients,  rinner =    0.800   0.800   0.800

     PseudoPot. # 5 for H  read from file:
     /storage/coda1/p-amedford6/0/shared/rich_project_chbe-medford/medford-share/data/pseudos_module/espresso/nninc/pbe/van/H.UPF
     MD5 check sum: b5ee9d7bfd3a09ee7748110bda690ff7
     Pseudo is Ultrasoft, Zval =  1.0
     Generated by new atomic code, or converted to UPF format
     Using radial grid of  615 points,  1 beta functions with:
                l(1) =   0
     Q(r) pseudized with  8 coefficients,  rinner =    0.800

     atomic species   valence    mass     pseudopotential
        Ti1           12.00    47.86700     Ti( 1.00)
        O1             6.00    15.99900     O ( 1.00)
        N1             5.00    14.00700     N ( 1.00)
        C1             4.00    12.01100     C ( 1.00)
        H1             1.00     1.00800     H ( 1.00)

     No symmetry found

   Cartesian axes

     site n.     atom                  positions (alat units)
         1           Ti1 tau(   1) = (   0.0004258   2.9801865   6.0000000  )
         2           Ti1 tau(   2) = (   3.2906075   1.4906267   6.0002472  )
         3           O1  tau(   3) = (   0.0006271   0.0005054   7.9858123  )
         4           O1  tau(   4) = (   3.2906025   0.0005020   7.3038282  )
         5           O1  tau(   5) = (   4.5942328   1.4918067   9.2879030  )
         6           O1  tau(   6) = (   1.9868534   1.4903216   9.2879459  )
         7           Ti1 tau(   7) = (   3.2907910   2.8959150   9.1758416  )
         8           Ti1 tau(   8) = (   0.0015273   1.4827037   9.2680791  )
         9           O1  tau(   9) = (   3.2904964   5.9585769  11.3857690  )
        10           O1  tau(  10) = (   0.0116148   5.9584955  10.6183126  )
        11           O1  tau(  11) = (   1.2878431   1.4867815  12.6991744  )
        12           O1  tau(  12) = (   5.2968392   1.4897239  12.6840540  )
        13           Ti1 tau(  13) = (   0.0031652   2.9724310  12.5021289  )
        14           Ti1 tau(  14) = (   3.2974598   1.4750309  12.5411678  )
        15           O1  tau(  15) = (   6.5490940   5.8844369  14.7025010  )
        16           O1  tau(  16) = (   3.3056738   5.9474069  14.0077327  )
        17           O1  tau(  17) = (   4.5358307   1.5199601  16.1809847  )
        18           O1  tau(  18) = (   2.0145668   1.5037208  16.1256758  )
        19           Ti1 tau(  19) = (   3.2722398   2.9952086  15.7861162  )
        20           Ti1 tau(  20) = (   6.5630583   1.3046800  15.8709962  )
        21           O1  tau(  21) = (   3.2904802   0.0005063   4.7018136  )
        22           O1  tau(  22) = (   0.0019326   0.1554656  17.2922311  )
        23           O1  tau(  23) = (   1.3043587   1.4918075   6.0039043  )
        24           O1  tau(  24) = (   5.2767064   1.4903225   6.0039473  )
        25           Ti1 tau(  25) = (   0.0000382   5.9609847   6.0000000  )
        26           Ti1 tau(  26) = (   3.2902200   4.4714249   6.0002472  )
        27           O1  tau(  27) = (   0.0002396   2.9813036   7.9858123  )
        28           O1  tau(  28) = (   3.2902150   2.9813002   7.3038282  )
        29           O1  tau(  29) = (   4.5938453   4.4726049   9.2879030  )
        30           O1  tau(  30) = (   1.9864658   4.4711199   9.2879459  )
        31           Ti1 tau(  31) = (   3.2891106   5.8743827   9.1763621  )
        32           Ti1 tau(  32) = (   0.0006254   4.4649316   9.2693709  )
        33           O1  tau(  33) = (   3.2902589   2.9648534  11.3782866  )
        34           O1  tau(  34) = (   0.0092240   2.9805883  10.6323155  )
        35           O1  tau(  35) = (   1.2907939   4.4579819  12.6664495  )
        36           O1  tau(  36) = (   5.2949113   4.4550998  12.6520156  )
        37           Ti1 tau(  37) = (   0.0082621   5.9437129  12.5015890  )
        38           Ti1 tau(  38) = (   3.2989848   4.4491302  12.5337562  )
        39           O1  tau(  39) = (   6.5545586   3.0159292  14.9830317  )
        40           O1  tau(  40) = (   3.2960925   2.9977268  13.9872472  )
        41           O1  tau(  41) = (   4.5245867   4.4695491  16.2648171  )
        42           O1  tau(  42) = (   2.0004542   4.4779941  16.2115700  )
        43           Ti1 tau(  43) = (   3.2998562   0.0139781  15.8031611  )
        44           Ti1 tau(  44) = (   0.0298651   4.5190837  16.0363964  )
        45           O1  tau(  45) = (   3.2900926   2.9813045   4.7018136  )
        46           O1  tau(  46) = (   1.3039711   4.4726057   6.0039043  )
        47           O1  tau(  47) = (   5.2763189   4.4711207   6.0039473  )
        48           N1  tau(  48) = (   0.7490466   2.4908218  18.8353846  )
        49           N1  tau(  49) = (   6.4369825   3.4131575  18.1751453  )
        50           C1  tau(  50) = (   1.9829018   2.9174465  19.1941100  )
        51           H1  tau(  51) = (   2.1359794   3.9544348  19.4490303  )
        52           H1  tau(  52) = (   2.6935556   2.1521737  19.4548401  )
        53           H1  tau(  53) = (   0.6355624   1.5475814  18.4636284  )
        54           H1  tau(  54) = (   6.4936903   4.3158724  18.6511896  )
        55           H1  tau(  55) = (   5.4890587   3.0624770  18.3097170  )

     number of k points=    10  Fermi-Dirac smearing, width (Ry)=  0.0073
                       cart. coord. in units 2pi/alat
        k(    1) = (   0.0000000   0.0000000   0.0000000), wk =   0.1250000
        k(    2) = (   0.0000000   0.0419351   0.0000000), wk =   0.2500000
        k(    3) = (   0.0000000  -0.0838702   0.0000000), wk =   0.1250000
        k(    4) = (   0.0379955   0.0000049   0.0000000), wk =   0.2500000
        k(    5) = (   0.0379955   0.0419400   0.0000000), wk =   0.2500000
        k(    6) = (   0.0379955  -0.0838652   0.0000000), wk =   0.2500000
        k(    7) = (   0.0379955  -0.0419301   0.0000000), wk =   0.2500000
        k(    8) = (  -0.0759910  -0.0000099   0.0000000), wk =   0.1250000
        k(    9) = (  -0.0759910   0.0419252   0.0000000), wk =   0.2500000
        k(   10) = (  -0.0759910  -0.0838800   0.0000000), wk =   0.1250000

     Initial potential from superposition of free atoms

     starting charge  380.99914, renormalised to  397.00000

     negative rho (up, down):  1.606E-02 0.000E+00

     %%%%%%%%%%%%%%%%%%%%%%%%%%%%%%%%%%%%%%%%%%%%%%%%%%%%%%%%%%%%%%%%%%%%%%%%
     %                                                                      %
     % You are using vdW-DF, which was implemented by the Thonhauser group. %
     % Please cite the following two papers that made this development      %
     % possible and the two reviews that describe the various versions:     %
     %                                                                      %
     %   T. Thonhauser et al., PRL 115, 136402 (2015).                      %
     %   T. Thonhauser et al., PRB 76, 125112 (2007).                       %
     %   K. Berland et al., Rep. Prog. Phys. 78, 066501 (2015).             %
     %   D.C. Langreth et al., J. Phys.: Condens. Matter 21, 084203 (2009). %
     %                                                                      %
     %                                                                      %
     % If you are calculating the stress with vdW-DF, please also cite:     %
     %                                                                      %
     %   R. Sabatini et al., J. Phys.: Condens. Matter 24, 424209 (2012).   %
     %                                                                      %
     %%%%%%%%%%%%%%%%%%%%%%%%%%%%%%%%%%%%%%%%%%%%%%%%%%%%%%%%%%%%%%%%%%%%%%%%

     Adding external electric field

     Computed dipole along edir(3) :
        Dipole              -10.6770 Ry au,        -27.1381 Debye
        Dipole field         -0.0201 Ry au,

        Potential amp.        1.8678 Ry
        Total length         46.3494 bohr

     Starting wfcs are  301 atomic wfcs
  @ DRIVER MODE: Message from server: STATUS
  @ DRIVER MODE: Message from server: POSDATA
  @ DRIVER MODE: Reading and sharing cell
  @ DRIVER MODE: Reading and sharing positions
  @ DRIVER MODE: Received positions

     Self-consistent Calculation

     iteration #  1     ecut=    29.40 Ry     beta= 0.05
     Davidson diagonalization with overlap
     c_bands:  2 eigenvalues not converged
     c_bands:  3 eigenvalues not converged
     c_bands:  1 eigenvalues not converged
     c_bands:  4 eigenvalues not converged
     c_bands:  4 eigenvalues not converged
     c_bands:  4 eigenvalues not converged
     c_bands:  1 eigenvalues not converged
     c_bands:  2 eigenvalues not converged
     c_bands:  2 eigenvalues not converged
     ethr =  1.00E-05,  avg # of iterations = 20.0

[...]

     total energy              =   -2465.30503894 Ry
     estimated scf accuracy    <    5331.46971836 Ry

     iteration #  2     ecut=    29.40 Ry     beta= 0.05
     Davidson diagonalization with overlap
     ethr =  1.00E-02,  avg # of iterations = 22.6

[...]

     iteration # 59     ecut=    29.40 Ry     beta= 0.05
     Davidson diagonalization with overlap
     c_bands:  1 eigenvalues not converged
     ethr =  1.40E-10,  avg # of iterations = 11.6

[...]

     total energy              =   -2941.51035528 Ry
     estimated scf accuracy    <       0.00000017 Ry

     iteration # 61     ecut=    29.40 Ry     beta= 0.05
     Davidson diagonalization with overlap
     ethr =  4.37E-11,  avg # of iterations =  4.6

     negative rho (up, down):  1.515E-02 0.000E+00

     Adding external electric field

     Computed dipole along edir(3) :
        Dipole                1.1966 Ry au,          3.0414 Debye
        Dipole field          0.0023 Ry au,

        Potential amp.       -0.2093 Ry
        Total length         46.3494 bohr

     End of self-consistent calculation

          k = 0.0000 0.0000 0.0000 ( 18029 PWs)   bands (ev):

   -55.3885 -55.3515 -55.3427 -55.3086 -55.2701 -55.2639 -55.2354 -55.2170
   -55.1931 -55.1908 -55.1826 -55.1734 -55.1397 -55.0364 -54.3758 -54.3417
   -31.9512 -31.8361 -31.7826 -31.7574 -31.7061 -31.6955 -31.6899 -31.6799
   -31.6314 -31.6227 -31.6006 -31.5874 -31.5779 -31.5540 -31.5475 -31.5406
   -31.5282 -31.5121 -31.5106 -31.4954 -31.4946 -31.4575 -31.4573 -31.4473
   -31.4473 -31.4193 -31.4004 -31.3999 -31.3993 -31.3948 -31.3786 -31.3722
   -31.3711 -31.3651 -31.3648 -31.3624 -31.3303 -31.3062 -31.3013 -31.2848
   -31.2514 -31.2067 -30.7854 -30.6906 -30.6686 -30.6017 -30.5149 -30.4040
   -18.8328 -16.2200 -15.9663 -15.8189 -15.7113 -15.5949 -15.4857 -15.4310
   -15.3249 -15.2536 -15.1374 -15.0895 -15.0722 -15.0405 -15.0327 -15.0198
   -14.9413 -14.9349 -14.9168 -14.8941 -14.8884 -14.8465 -14.8347 -14.7939
   -14.7689 -14.7599 -14.6412 -14.5555 -14.4809 -14.3140 -14.3074 -12.8787
   -12.7612  -9.8688  -7.4255  -6.2484  -4.9846  -3.9961  -3.5877  -3.5520
    -3.4141  -3.3055  -3.2853  -3.2395  -3.1486  -2.9673  -2.8311  -2.7965
    -2.6813  -2.6009  -2.5874  -2.5568  -2.4318  -2.3949  -2.3552  -2.2903
    -2.2612  -2.1995  -2.1809  -2.1686  -2.1495  -2.1237  -2.1014  -1.9981
    -1.9619  -1.8659  -1.8260  -1.7926  -1.7515  -1.7346  -1.7138  -1.6837
    -1.6736  -1.6191  -1.6038  -1.5912  -1.5421  -1.4248  -1.3028  -1.2698
    -1.1794  -1.0340  -0.9965  -0.9761  -0.9169  -0.8841  -0.8598  -0.8297
    -0.7709  -0.7317  -0.6688  -0.6136  -0.5439  -0.5014  -0.4528  -0.4144
    -0.3838  -0.2985  -0.2140  -0.1736  -0.1604  -0.1419  -0.0427  -0.0075
     0.0485   0.1236   0.1260   0.1380   0.1832   0.2632   0.3404   0.3597
     0.3819   0.4859   0.4909   0.5337   0.5362   0.5566   0.5903   0.6260
     0.6751   0.7020   0.7897   0.8866   1.1144   1.2152   1.2167   1.5398
     1.5505   1.6467   1.8297   2.2233   2.2718   3.7034   3.7739   3.7946
     3.8512   3.8543   3.9237   3.9407   4.1865   4.2119   4.2124   4.2315

[...]

          k = 0.0380-0.0419 0.0000 ( 17876 PWs)   bands (ev):

[...]

          k =-0.0760-0.0000 0.0000 ( 17886 PWs)   bands (ev):

[...]

          k =-0.0760-0.0839 0.0000 ( 17948 PWs)   bands (ev):

   -55.3744 -55.3654 -55.3258 -55.3254 -55.2595 -55.2550 -55.2505 -55.2013
   -55.1980 -55.1961 -55.1898 -55.1572 -55.1559 -55.0385 -54.3588 -54.3586
   -31.7603 -31.7513 -31.6917 -31.6677 -31.6513 -31.6511 -31.6328 -31.6166
   -31.6166 -31.6000 -31.5920 -31.5838 -31.5683 -31.5365 -31.5342 -31.5298
   -31.5293 -31.5282 -31.5168 -31.5125 -31.4835 -31.4712 -31.4672 -31.4570
   -31.4512 -31.4481 -31.4455 -31.4451 -31.4423 -31.4337 -31.4310 -31.4140
   -31.4127 -31.4104 -31.3908 -31.3893 -31.3892 -31.3797 -31.3379 -31.3364
   -31.3004 -31.2531 -30.6814 -30.6812 -30.5979 -30.5977 -30.5583 -30.5582
   -18.8263 -15.7711 -15.6028 -15.5838 -15.4400 -15.4038 -15.3602 -15.3492
   -15.2546 -15.2192 -15.1933 -15.1630 -15.1414 -15.1064 -15.0934 -15.0751
   -15.0191 -14.9970 -14.9913 -14.9714 -14.9126 -14.9082 -14.9006 -14.8977
   -14.8430 -14.8397 -14.8296 -14.7492 -14.7462 -14.6288 -14.2306 -12.8626
   -12.8626  -9.8395  -7.3849  -6.2445  -5.0802  -3.9423  -3.6052  -2.8603
    -2.8536  -2.8406  -2.6560  -2.5727  -2.5502  -2.5443  -2.4545  -2.4175
    -2.3714  -2.3693  -2.3154  -2.3093  -2.2823  -2.2420  -2.2308  -2.2107
    -2.1920  -2.1824  -2.1466  -2.1245  -2.1147  -2.0839  -2.0529  -2.0360
    -2.0297  -2.0080  -1.9769  -1.9580  -1.9452  -1.8892  -1.7806  -1.7654
    -1.6687  -1.6037  -1.5994  -1.5259  -1.5016  -1.4580  -1.4511  -1.4273
    -1.3809  -1.2016  -1.1706  -1.1407  -1.1327  -1.0452  -0.9946  -0.9223
    -0.9169  -0.8915  -0.8543  -0.7617  -0.7259  -0.7070  -0.6309  -0.6083
    -0.5405  -0.4965  -0.4342  -0.4035  -0.3500  -0.3482  -0.3120  -0.2990
    -0.2742  -0.2099  -0.1642  -0.1298  -0.1175  -0.0851   0.1133   0.1224
     0.1390   0.2488   0.2903   0.4386   0.4534   0.5163   0.6220   0.6484
     0.7172   0.7422   0.8992   0.9102   0.9283   0.9788   0.9870   1.0565
     1.0659   2.0028   2.0033   2.0916   2.0919   3.6722   3.8908   3.9621
     3.9771   4.0095   4.1358   4.2032   4.2211   4.2893   4.2921   4.3221

     the Fermi energy is     3.7693 ev

!    total energy              =   -2941.51039611 Ry
     estimated scf accuracy    <       0.00000005 Ry
     smearing contrib. (-TS)   =      -0.04437218 Ry
     internal energy E=F+TS    =   -2941.46602393 Ry

     The total energy is F=E-TS. E is the sum of the following terms:
     one-electron contribution =  -23633.48801758 Ry
     hartree contribution      =   11908.98189458 Ry
     xc contribution           =    -486.88422097 Ry
     ewald contribution        =    9269.92161812 Ry
     electric field correction =       0.00270192 Ry

     convergence has been achieved in  61 iterations

     Forces acting on atoms (cartesian axes, Ry/au):

     atom    1 type  1   force =     0.00012405   -0.00018064    0.09304779
     atom    2 type  1   force =    -0.00007607   -0.00046211   -0.17837822
     atom    3 type  2   force =     0.00004559   -0.00035864   -0.02006791
     atom    4 type  2   force =    -0.00000699   -0.00201603    0.05929516
     atom    5 type  2   force =    -0.01030566   -0.00098608    0.00818262
     atom    6 type  2   force =     0.01173808   -0.00038580    0.00732100
     atom    7 type  1   force =    -0.00037836    0.00240523   -0.01418967
     atom    8 type  1   force =     0.00022601   -0.00125123   -0.00620474
     atom    9 type  2   force =    -0.00022945    0.00021540    0.00014610
     atom   10 type  2   force =    -0.00162557    0.00149342    0.00162186
     atom   11 type  2   force =    -0.00006646   -0.00016439    0.00007857
     atom   12 type  2   force =    -0.00015580   -0.00015892   -0.00002578
     atom   13 type  1   force =     0.00007363   -0.00028137    0.00009575
     atom   14 type  1   force =     0.00017925    0.00020150    0.00031463
     atom   15 type  2   force =    -0.00004924    0.00015060   -0.00033267
     atom   16 type  2   force =     0.00017374   -0.00021785    0.00008148
     atom   17 type  2   force =    -0.00013224   -0.00006281    0.00031125
     atom   18 type  2   force =    -0.00011779   -0.00011330   -0.00031116
     atom   19 type  1   force =    -0.00011965   -0.00011766    0.00048241
     atom   20 type  1   force =    -0.00011751   -0.00012537    0.00064501
     atom   21 type  2   force =     0.00006060   -0.00008311    0.10397393
     atom   22 type  2   force =    -0.00012185   -0.00057227   -0.00120345
     atom   23 type  2   force =    -0.07032485   -0.00017873   -0.02688277
     atom   24 type  2   force =     0.07021457    0.00026616   -0.02691052
     atom   25 type  1   force =    -0.00001989   -0.00014400    0.09261848
     atom   26 type  1   force =    -0.00005470   -0.00039521   -0.17854507
     atom   27 type  2   force =     0.00009651   -0.00030937   -0.01915021
     atom   28 type  2   force =     0.00004055   -0.00178734    0.05863552
     atom   29 type  2   force =    -0.01080636   -0.00126529    0.00872820
     atom   30 type  2   force =     0.01215992   -0.00086483    0.00783053
     atom   31 type  1   force =    -0.00028603    0.00614746   -0.01442420
     atom   32 type  1   force =     0.00028996    0.00071025   -0.00653714
     atom   33 type  2   force =    -0.00022328   -0.00024764    0.00000203
     atom   34 type  2   force =    -0.00093466   -0.00223758   -0.00017690
     atom   35 type  2   force =    -0.00041956    0.00023391    0.00013596
     atom   36 type  2   force =     0.00013091    0.00019285   -0.00028824
     atom   37 type  1   force =     0.00016533    0.00000408    0.00007740
     atom   38 type  1   force =     0.00033051    0.00019110    0.00012269
     atom   39 type  2   force =    -0.00026810    0.00016935   -0.00036212
     atom   40 type  2   force =    -0.00009141   -0.00015652   -0.00013037
     atom   41 type  2   force =    -0.00017570    0.00038983   -0.00016151
     atom   42 type  2   force =    -0.00014151    0.00017218   -0.00012436
     atom   43 type  1   force =     0.00042350    0.00001143    0.00037319
     atom   44 type  1   force =     0.00006950   -0.00015743    0.00042657
     atom   45 type  2   force =     0.00004516   -0.00008757    0.10395813
     atom   46 type  2   force =    -0.07030187   -0.00009418   -0.02684066
     atom   47 type  2   force =     0.07018046    0.00031667   -0.02687872
     atom   48 type  3   force =     0.00301837    0.02448450    0.00533012
     atom   49 type  3   force =     0.00147625   -0.00593133   -0.00019301
     atom   50 type  4   force =    -0.00323280   -0.00536764   -0.00234708
     atom   51 type  5   force =    -0.00088971   -0.00128360   -0.00001915
     atom   52 type  5   force =     0.00124086    0.00083473    0.00034632
     atom   53 type  5   force =    -0.00111440   -0.01064904   -0.00473219
     atom   54 type  5   force =     0.00096725    0.00005484    0.00140641
     atom   55 type  5   force =    -0.00068309    0.00004935   -0.00017126

     Total force =     0.367567     Total SCF correction =     0.000705
  @ DRIVER MODE: Message from server: STATUS
  @ DRIVER MODE: Message from server: GETFORCE
  @ DRIVER MODE: Returning v,forces,stress,ensemble

     Writing output data file ./calc.save/
  @ DRIVER MODE: Message from server: EXIT
  @ DRIVE MODE: Exiting

     General routines

     Parallel routines

   This run was terminated on:  18:58: 0  10Sep2021

   JOB DONE.