     Program PWSCF v.6.7GPU starts on  8Sep2021 at 23: 6:22

     R & G space division:  proc/nbgrp/npool/nimage =      10
     Reading input from /storage/home/hcoda1/3/ntian30/research/carbon/CxH_vib/CH_calc/ads_slab/CH_a/out_0005/pw.inp
Warning: card &CELL ignored
Warning: card   CELL_DYNAMICS='IPI', ignored
Warning: card / ignored

     Current dimensions of program PWSCF are:
     Max number of different atomic species (ntypx) = 10
     Max number of k-points (npk) =  40000
     Max angular momentum in pseudopotentials (lmaxx) =  3
     Presently no symmetry can be used with electric field

     Message from routine cell_base_init:
     DEPRECATED: use true lattice parameter, not A to a.u. conversion factor

     IMPORTANT: XC functional enforced from input :
     Exchange-correlation= BEEF-VDW
                           (   1   4  43  14   2   0   0)
     Any further DFT definition will be discarded
     Please, verify this is what you really want

  @ DRIVER MODE: Connecting to
 qe_1139763_2767381.sched-torque.pace.gatech.edu9cjc2v_b_scratch
  using UNIX socket
  @ DRIVER MODE: Message from server: STATUS
  @ DRIVER MODE: Message from server: INIT
  @ DRIVER MODE: Receiving replica           0          -1
  @ DRIVER MODE: Receiving encoded integer          25
  @ DRIVER MODE:  SCF:  T  FORCE:  T  STRESS:  F  VC:  F  ENSEMBLE:  F
  @ DRIVER MODE:  SCF:  T  FORCE:  T  STRESS:  F  VC:  F  ENSEMBLE:  F

     Using Slab Decomposition

     bravais-lattice index     =            0
     lattice parameter (alat)  =       1.8897  a.u.
     unit-cell volume          =    6658.9804 (a.u.)^3
     number of atoms/cell      =           49
     number of atomic types    =            4
     number of electrons       =       383.00
     number of Kohn-Sham states=          201
     kinetic-energy cutoff     =      29.3995  Ry
     charge density cutoff     =     293.9946  Ry
     scf convergence threshold =      7.3E-08
     mixing beta               =       0.0500
     number of iterations used =            8  plain     mixing
     Exchange-correlation= BEEF-VDW
                           (   1   4  43  14   2   0   0)

     celldm(1)=   1.889726  celldm(2)=   0.000000  celldm(3)=   0.000000
     celldm(4)=   0.000000  celldm(5)=   0.000000  celldm(6)=   0.000000

     crystal axes: (cart. coord. in units of alat)
               a(1) = (   6.579727   0.000000   0.000000 )
               a(2) = (  -0.000775   5.961596   0.000000 )
               a(3) = (   0.000000   0.000000  25.155947 )

     reciprocal axes: (cart. coord. in units 2 pi/alat)
               b(1) = (  0.151982  0.000020  0.000000 )
               b(2) = (  0.000000  0.167740  0.000000 )
               b(3) = (  0.000000  0.000000  0.039752 )

     PseudoPot. # 1 for Ti read from file:
     /storage/coda1/p-amedford6/0/shared/rich_project_chbe-medford/medford-share/data/pseudos_module/espresso/nninc/pbe/van/Ti.UPF
     MD5 check sum: 8e4df49b7f0d34bbd5052bf3f5ea0213
     Pseudo is Ultrasoft, Zval = 12.0
     Generated by new atomic code, or converted to UPF format
     Using radial grid of  851 points,  6 beta functions with:
                l(1) =   0
                l(2) =   0
                l(3) =   1
                l(4) =   1
                l(5) =   2
                l(6) =   2
     Q(r) pseudized with  8 coefficients,  rinner =    1.000   1.000   1.000
                                                       1.000   1.000

     PseudoPot. # 2 for O  read from file:
     /storage/coda1/p-amedford6/0/shared/rich_project_chbe-medford/medford-share/data/pseudos_module/espresso/nninc/pbe/van/O.UPF
     MD5 check sum: 78c19812648e8988a0fe644b0f25305e
     Pseudo is Ultrasoft, Zval =  6.0
     Generated by new atomic code, or converted to UPF format
     Using radial grid of  737 points,  4 beta functions with:
                l(1) =   0
                l(2) =   0
                l(3) =   1
                l(4) =   1
     Q(r) pseudized with  8 coefficients,  rinner =    0.800   0.800   0.800

     PseudoPot. # 3 for C  read from file:
     /storage/coda1/p-amedford6/0/shared/rich_project_chbe-medford/medford-share/data/pseudos_module/espresso/nninc/pbe/van/C.UPF
     MD5 check sum: 1a69bf6b8db32088f5b2163dbdb77a27
     Pseudo is Ultrasoft, Zval =  4.0
     Generated by new atomic code, or converted to UPF format
     Using radial grid of  721 points,  4 beta functions with:
                l(1) =   0
                l(2) =   0
                l(3) =   1
                l(4) =   1
     Q(r) pseudized with  8 coefficients,  rinner =    0.800   0.800   0.800

     PseudoPot. # 4 for H  read from file:
     /storage/coda1/p-amedford6/0/shared/rich_project_chbe-medford/medford-share/data/pseudos_module/espresso/nninc/pbe/van/H.UPF
     MD5 check sum: b5ee9d7bfd3a09ee7748110bda690ff7
     Pseudo is Ultrasoft, Zval =  1.0
     Generated by new atomic code, or converted to UPF format
     Using radial grid of  615 points,  1 beta functions with:
                l(1) =   0
     Q(r) pseudized with  8 coefficients,  rinner =    0.800

     atomic species   valence    mass     pseudopotential
        Ti1           12.00    47.86700     Ti( 1.00)
        O1             6.00    15.99900     O ( 1.00)
        C1             4.00    12.01100     C ( 1.00)
        H1             1.00     1.00800     H ( 1.00)

     No symmetry found

   Cartesian axes

     site n.     atom                  positions (alat units)
         1           Ti1 tau(   1) = (   0.0004258   2.9801865   6.0000000  )
         2           Ti1 tau(   2) = (   3.2906075   1.4906267   6.0002472  )
         3           O1  tau(   3) = (   0.0006271   0.0005054   7.9858123  )
         4           O1  tau(   4) = (   3.2906025   0.0005020   7.3038282  )
         5           O1  tau(   5) = (   4.5942328   1.4918067   9.2879030  )
         6           O1  tau(   6) = (   1.9868534   1.4903216   9.2879459  )
         7           Ti1 tau(   7) = (   3.2921849   2.8658251   9.1648892  )
         8           Ti1 tau(   8) = (   0.0073351   1.4983988   9.3831490  )
         9           O1  tau(   9) = (   3.2842540   0.0070318  11.3521760  )
        10           O1  tau(  10) = (   0.0010487   0.0043113  10.5580200  )
        11           O1  tau(  11) = (   1.2736759   1.5124129  12.6486185  )
        12           O1  tau(  12) = (   5.2630300   1.5084811  12.6300625  )
        13           Ti1 tau(  13) = (   0.0799159   2.9885021  12.8537609  )
        14           Ti1 tau(  14) = (   3.3962166   1.4899997  12.4930974  )
        15           O1  tau(  15) = (   6.5670857   5.9608082  14.6055349  )
        16           O1  tau(  16) = (   3.2779887   0.0262294  13.9455360  )
        17           O1  tau(  17) = (   4.5047259   1.5524619  16.1062024  )
        18           O1  tau(  18) = (   2.0328015   1.5482461  16.0993997  )
        19           Ti1 tau(  19) = (   3.2588990   3.0258902  15.7259251  )
        20           Ti1 tau(  20) = (   6.5443225   1.5921241  16.1654916  )
        21           O1  tau(  21) = (   3.2904802   0.0005063   4.7018136  )
        22           O1  tau(  22) = (   6.5577444   0.0567680  17.2452940  )
        23           O1  tau(  23) = (   1.3043587   1.4918075   6.0039043  )
        24           O1  tau(  24) = (   5.2767064   1.4903225   6.0039473  )
        25           Ti1 tau(  25) = (   0.0000382   5.9609847   6.0000000  )
        26           Ti1 tau(  26) = (   3.2902200   4.4714249   6.0002472  )
        27           O1  tau(  27) = (   0.0002396   2.9813036   7.9858123  )
        28           O1  tau(  28) = (   3.2902150   2.9813002   7.3038282  )
        29           O1  tau(  29) = (   4.5938453   4.4726049   9.2879030  )
        30           O1  tau(  30) = (   1.9864658   4.4711199   9.2879459  )
        31           Ti1 tau(  31) = (   3.2960881   5.8478476   9.1648656  )
        32           Ti1 tau(  32) = (   0.0086818   4.4758218   9.3788328  )
        33           O1  tau(  33) = (   3.2854246   2.9850844  11.3450670  )
        34           O1  tau(  34) = (   0.0004502   2.9836692  10.5560002  )
        35           O1  tau(  35) = (   1.2751814   4.4662498  12.6462591  )
        36           O1  tau(  36) = (   5.2612828   4.4711168  12.6263095  )
        37           Ti1 tau(  37) = (   0.0650160   0.0072273  12.8037121  )
        38           Ti1 tau(  38) = (   3.3952379   4.4681493  12.4860303  )
        39           O1  tau(  39) = (   6.5700874   2.9943110  14.6990684  )
        40           O1  tau(  40) = (   3.2774739   3.0059374  13.9302241  )
        41           O1  tau(  41) = (   4.5038310   4.5165569  16.1051355  )
        42           O1  tau(  42) = (   2.0336826   4.5180826  16.0999700  )
        43           Ti1 tau(  43) = (   3.2582433   0.0441072  15.7465997  )
        44           Ti1 tau(  44) = (   6.5393581   4.6163053  16.1595090  )
        45           O1  tau(  45) = (   3.2900926   2.9813045   4.7018136  )
        46           O1  tau(  46) = (   1.3039711   4.4726057   6.0039043  )
        47           O1  tau(  47) = (   5.2763189   4.4711207   6.0039473  )
        48           C1  tau(  48) = (   6.5669965   3.0274956  17.5043990  )
        49           H1  tau(  49) = (   0.0036594   3.1884539  18.5931066  )

     number of k points=    10  Fermi-Dirac smearing, width (Ry)=  0.0073
                       cart. coord. in units 2pi/alat
        k(    1) = (   0.0000000   0.0000000   0.0000000), wk =   0.1250000
        k(    2) = (   0.0000000   0.0419351   0.0000000), wk =   0.2500000
        k(    3) = (   0.0000000  -0.0838702   0.0000000), wk =   0.1250000
        k(    4) = (   0.0379955   0.0000049   0.0000000), wk =   0.2500000
        k(    5) = (   0.0379955   0.0419400   0.0000000), wk =   0.2500000
        k(    6) = (   0.0379955  -0.0838652   0.0000000), wk =   0.2500000
        k(    7) = (   0.0379955  -0.0419301   0.0000000), wk =   0.2500000
        k(    8) = (  -0.0759910  -0.0000099   0.0000000), wk =   0.1250000
        k(    9) = (  -0.0759910   0.0419252   0.0000000), wk =   0.2500000
        k(   10) = (  -0.0759910  -0.0838800   0.0000000), wk =   0.1250000

     Initial potential from superposition of free atoms

     starting charge  366.99920, renormalised to  383.00000

     negative rho (up, down):  2.157E-02 0.000E+00

     %%%%%%%%%%%%%%%%%%%%%%%%%%%%%%%%%%%%%%%%%%%%%%%%%%%%%%%%%%%%%%%%%%%%%%%%
     %                                                                      %
     % You are using vdW-DF, which was implemented by the Thonhauser group. %
     % Please cite the following two papers that made this development      %
     % possible and the two reviews that describe the various versions:     %
     %                                                                      %
     %   T. Thonhauser et al., PRL 115, 136402 (2015).                      %
     %   T. Thonhauser et al., PRB 76, 125112 (2007).                       %
     %   K. Berland et al., Rep. Prog. Phys. 78, 066501 (2015).             %
     %   D.C. Langreth et al., J. Phys.: Condens. Matter 21, 084203 (2009). %
     %                                                                      %
     %                                                                      %
     % If you are calculating the stress with vdW-DF, please also cite:     %
     %                                                                      %
     %   R. Sabatini et al., J. Phys.: Condens. Matter 24, 424209 (2012).   %
     %                                                                      %
     %%%%%%%%%%%%%%%%%%%%%%%%%%%%%%%%%%%%%%%%%%%%%%%%%%%%%%%%%%%%%%%%%%%%%%%%

     Adding external electric field

     Computed dipole along edir(3) :
        Dipole                0.0534 Ry au,          0.1357 Debye
        Dipole field          0.0001 Ry au,

        Potential amp.       -0.0093 Ry
        Total length         46.3494 bohr

     Starting wfcs are  289 atomic wfcs
  @ DRIVER MODE: Message from server: STATUS
  @ DRIVER MODE: Message from server: POSDATA
  @ DRIVER MODE: Reading and sharing cell
  @ DRIVER MODE: Reading and sharing positions
  @ DRIVER MODE: Received positions

     Self-consistent Calculation

     iteration #  1     ecut=    29.40 Ry     beta= 0.05
     Davidson diagonalization with overlap
     c_bands:  1 eigenvalues not converged
     c_bands:  1 eigenvalues not converged
     c_bands:  1 eigenvalues not converged
     c_bands:  1 eigenvalues not converged
     c_bands:  1 eigenvalues not converged
     c_bands:  1 eigenvalues not converged
     c_bands:  1 eigenvalues not converged
     ethr =  1.00E-05,  avg # of iterations = 19.4

[...]

     total energy              =   -2897.80900086 Ry
     estimated scf accuracy    <      11.74595339 Ry

     iteration #  2     ecut=    29.40 Ry     beta= 0.05
     Davidson diagonalization with overlap
     ethr =  3.07E-03,  avg # of iterations =  1.0

[...]

     iteration # 35     ecut=    29.40 Ry     beta= 0.05
     Davidson diagonalization with overlap
     c_bands:  2 eigenvalues not converged
     ethr =  1.78E-07,  avg # of iterations =  7.3

[...]

     total energy              =   -2896.37491880 Ry
     estimated scf accuracy    <       0.00000013 Ry

     iteration # 57     ecut=    29.40 Ry     beta= 0.05
     Davidson diagonalization with overlap
     ethr =  2.70E-11,  avg # of iterations =  5.0

     negative rho (up, down):  2.069E-02 0.000E+00

     Adding external electric field

     Computed dipole along edir(3) :
        Dipole                0.3706 Ry au,          0.9419 Debye
        Dipole field          0.0007 Ry au,

        Potential amp.       -0.0648 Ry
        Total length         46.3494 bohr

     End of self-consistent calculation

          k = 0.0000 0.0000 0.0000 ( 18029 PWs)   bands (ev):

   -56.6401 -56.6062 -56.3412 -56.3044 -56.2265 -56.1657 -56.0395 -56.0389
   -56.0046 -55.9440 -55.9327 -55.9076 -55.4373 -55.4033 -55.3460 -55.2580
   -33.0684 -32.8864 -32.8845 -32.8579 -32.8321 -32.7408 -32.6952 -32.6794
   -32.6483 -32.5564 -32.5431 -32.5362 -32.5222 -32.5187 -32.5101 -32.4939
   -32.4713 -32.4544 -32.4434 -32.3488 -32.3106 -32.2876 -32.2859 -32.2731
   -32.2591 -32.2581 -32.1961 -32.1919 -32.1650 -32.1588 -32.1532 -32.1291
   -32.1210 -32.1095 -32.0977 -32.0400 -31.8879 -31.8376 -31.7625 -31.7387
   -31.6561 -31.6187 -31.5799 -31.5711 -31.5507 -31.4777 -31.4590 -31.3346
   -16.9958 -16.8085 -16.5759 -16.4407 -16.3498 -16.2776 -16.0116 -16.0089
   -15.9625 -15.8910 -15.8624 -15.7994 -15.7964 -15.7696 -15.7593 -15.7498
   -15.7285 -15.6820 -15.6668 -15.6387 -15.6065 -15.5647 -15.4419 -15.4199
   -15.4065 -15.2926 -15.2424 -15.2047 -15.0178 -13.9302 -13.8162  -7.7443
    -4.3992  -4.3399  -4.1850  -4.1598  -4.0695  -3.8252  -3.6978  -3.4753
    -3.4339  -3.4034  -3.3886  -3.3227  -3.2641  -3.1561  -3.1404  -3.1185
    -3.0775  -3.0695  -3.0482  -3.0339  -3.0090  -2.9687  -2.8857  -2.8467
    -2.8287  -2.7490  -2.7214  -2.6435  -2.6178  -2.5732  -2.5473  -2.4883
    -2.4823  -2.4185  -2.3443  -2.2897  -2.1376  -2.0973  -2.0893  -2.0813
    -2.0121  -1.9033  -1.7604  -1.7261  -1.6606  -1.6589  -1.6410  -1.6032
    -1.5117  -1.4921  -1.4094  -1.3027  -1.2926  -1.2400  -1.1895  -1.1492
    -1.1321  -1.1314  -1.0743  -1.0417  -1.0057  -0.8725  -0.8490  -0.7322
    -0.7148  -0.6797  -0.6428  -0.6379  -0.5877  -0.5291  -0.4755  -0.4454
    -0.4240  -0.3770  -0.3667  -0.3311  -0.3084  -0.2524  -0.1383  -0.1148
    -0.1050  -0.0385   0.1450   0.1707   0.2140   0.3022   0.3512   0.5134
     0.5329   0.5914   0.7995   0.8374   1.1819   1.2620   1.5246   2.2684
     2.6277   2.8228   3.0847   3.1205   3.1376   3.1687   3.3445   3.3791
     3.3973

[...]

          k = 0.0380-0.0419 0.0000 ( 17876 PWs)   bands (ev):

[...]

          k =-0.0760-0.0000 0.0000 ( 17886 PWs)   bands (ev):

[...]

          k =-0.0760-0.0839 0.0000 ( 17948 PWs)   bands (ev):

   -56.6252 -56.6209 -56.3272 -56.3183 -56.2210 -56.1711 -56.0366 -56.0241
   -56.0191 -55.9356 -55.9302 -55.9213 -55.4202 -55.4202 -55.3424 -55.2615
   -32.8875 -32.8840 -32.8745 -32.8692 -32.7866 -32.7829 -32.6923 -32.6855
   -32.6039 -32.5929 -32.5359 -32.5260 -32.5233 -32.5150 -32.4906 -32.4636
   -32.4268 -32.3730 -32.3572 -32.3516 -32.3478 -32.2814 -32.2745 -32.2687
   -32.2653 -32.2574 -32.2492 -32.2403 -32.2301 -32.2246 -32.1805 -32.1719
   -32.1414 -32.1403 -32.1330 -32.1322 -31.7856 -31.7516 -31.7516 -31.6518
   -31.6517 -31.6257 -31.6171 -31.6137 -31.6137 -31.5538 -31.4999 -31.3751
   -16.4517 -16.4329 -16.2196 -16.2104 -16.1119 -16.1115 -16.1106 -16.1082
   -16.0067 -16.0039 -15.9330 -15.9187 -15.8623 -15.8546 -15.8195 -15.8176
   -15.7961 -15.7928 -15.7503 -15.7436 -15.6160 -15.6139 -15.5072 -15.5024
   -15.4643 -15.4233 -15.3846 -15.3729 -15.1541 -13.9186 -13.9182  -7.7463
    -3.7498  -3.7189  -3.4345  -3.4307  -3.2481  -3.2464  -3.2440  -3.2247
    -3.1806  -3.1505  -3.1409  -3.1153  -3.0834  -3.0416  -3.0312  -3.0118
    -3.0070  -3.0015  -2.9880  -2.9870  -2.9642  -2.9545  -2.9027  -2.8818
    -2.8710  -2.8614  -2.8122  -2.8108  -2.7045  -2.5833  -2.5373  -2.5333
    -2.4824  -2.4483  -2.3657  -2.3630  -2.3343  -2.3180  -2.2711  -2.1685
    -2.0365  -2.0339  -1.9879  -1.9573  -1.8913  -1.8158  -1.7150  -1.6470
    -1.6172  -1.5884  -1.5215  -1.4627  -1.4556  -1.4369  -1.4259  -1.4187
    -1.4043  -1.3080  -1.2958  -1.2238  -1.1871  -1.1768  -1.1664  -1.1340
    -1.1085  -1.0437  -0.9493  -0.9465  -0.9341  -0.9067  -0.7987  -0.7569
    -0.7005  -0.6502  -0.6019  -0.3571  -0.3546  -0.2004  -0.0902  -0.0274
     0.0370   0.0608   0.1033   0.1684   0.2306   0.2352   0.2625   0.2656
     0.3608   0.3632   0.9776   0.9781   1.0366   1.0377   1.7531   2.2100
     3.1088   3.1511   3.1688   3.1740   3.2001   3.2274   3.2456   3.2563
     3.5816

     the Fermi energy is     2.1316 ev

!    total energy              =   -2896.37496952 Ry
     estimated scf accuracy    <       0.00000003 Ry
     smearing contrib. (-TS)   =      -0.01048082 Ry
     internal energy E=F+TS    =   -2896.36448871 Ry

     The total energy is F=E-TS. E is the sum of the following terms:
     one-electron contribution =  -24785.88731717 Ry
     hartree contribution      =   12470.99486215 Ry
     xc contribution           =    -472.98116624 Ry
     ewald contribution        =    9891.50887338 Ry
     electric field correction =       0.00025917 Ry

     convergence has been achieved in  57 iterations

     Forces acting on atoms (cartesian axes, Ry/au):

     atom    1 type  1   force =     0.00019219   -0.00055292    0.14920561
     atom    2 type  1   force =    -0.00002465   -0.00029654   -0.17020156
     atom    3 type  2   force =     0.00005892    0.00011765   -0.06128858
     atom    4 type  2   force =     0.00010711   -0.00167287    0.04071883
     atom    5 type  2   force =    -0.02328635    0.00031257    0.00409986
     atom    6 type  2   force =     0.02300319    0.00152124    0.00330519
     atom    7 type  1   force =    -0.00054464    0.00074190    0.00022386
     atom    8 type  1   force =     0.00020591    0.00084415   -0.00014720
     atom    9 type  2   force =    -0.00005771    0.00009686   -0.00049440
     atom   10 type  2   force =    -0.00003668   -0.00051354    0.00023824
     atom   11 type  2   force =    -0.00019712    0.00045997    0.00027228
     atom   12 type  2   force =     0.00027321    0.00011702    0.00021897
     atom   13 type  1   force =     0.00031955    0.00066270   -0.00073745
     atom   14 type  1   force =    -0.00043426    0.00096412   -0.00031365
     atom   15 type  2   force =     0.00014244   -0.00020829   -0.00082495
     atom   16 type  2   force =     0.00013963   -0.00026353    0.00001910
     atom   17 type  2   force =     0.00058587    0.00017314    0.00018185
     atom   18 type  2   force =    -0.00053119    0.00026644    0.00015756
     atom   19 type  1   force =     0.00001355   -0.00107822    0.00049150
     atom   20 type  1   force =     0.00003464   -0.00314318   -0.00236008
     atom   21 type  2   force =     0.00008479   -0.00018406    0.10245131
     atom   22 type  2   force =    -0.00005167    0.00066529   -0.00002914
     atom   23 type  2   force =    -0.07446814    0.00019850   -0.03479212
     atom   24 type  2   force =     0.07442337    0.00062606   -0.03484267
     atom   25 type  1   force =    -0.00003690   -0.00050908    0.15026079
     atom   26 type  1   force =    -0.00002216   -0.00070524   -0.17014645
     atom   27 type  2   force =     0.00007286    0.00063774   -0.06049860
     atom   28 type  2   force =     0.00002730   -0.00161817    0.04016329
     atom   29 type  2   force =    -0.02286322    0.00144865    0.00427493
     atom   30 type  2   force =     0.02313106    0.00224307    0.00347439
     atom   31 type  1   force =    -0.00054553    0.00012787   -0.00074539
     atom   32 type  1   force =     0.00023636   -0.00110926    0.00057489
     atom   33 type  2   force =     0.00026093   -0.00008277    0.00119840
     atom   34 type  2   force =    -0.00004754    0.00059090   -0.00031929
     atom   35 type  2   force =    -0.00093098   -0.00041512    0.00001340
     atom   36 type  2   force =     0.00093274   -0.00023118    0.00008804
     atom   37 type  1   force =    -0.00003411   -0.00007058    0.00001931
     atom   38 type  1   force =    -0.00068408   -0.00076208    0.00031050
     atom   39 type  2   force =    -0.00003214   -0.00017862   -0.00089526
     atom   40 type  2   force =     0.00009823   -0.00016590   -0.00068693
     atom   41 type  2   force =     0.00059991   -0.00034869    0.00054055
     atom   42 type  2   force =    -0.00062143   -0.00043598    0.00056676
     atom   43 type  1   force =    -0.00000188    0.00082884   -0.00095362
     atom   44 type  1   force =     0.00013975    0.00088749   -0.00111507
     atom   45 type  2   force =     0.00007432   -0.00018433    0.10245174
     atom   46 type  2   force =    -0.07445722   -0.00013836   -0.03479811
     atom   47 type  2   force =     0.07441038    0.00030687   -0.03484890
     atom   48 type  3   force =     0.00025336    0.00202902    0.01813520
     atom   49 type  4   force =     0.00008805   -0.00199957   -0.01261693

     Total force =     0.405207     Total SCF correction =     0.000656
  @ DRIVER MODE: Message from server: STATUS
  @ DRIVER MODE: Message from server: GETFORCE
  @ DRIVER MODE: Returning v,forces,stress,ensemble

     Writing output data file ./calc.save/
  @ DRIVER MODE: Message from server: EXIT
  @ DRIVE MODE: Exiting

     General routines

     Parallel routines

   This run was terminated on:  23:19:32   8Sep2021

   JOB DONE.