     Program PWSCF v.6.7GPU starts on 23Aug2021 at 17:23:30

     R & G space division:  proc/nbgrp/npool/nimage =       6
     Reading input from /storage/home/hcoda1/3/ntian30/research/carbon/CH_vib/ads_slab/CHNHH_a/out_0010/pw.inp
Warning: card &CELL ignored
Warning: card   CELL_DYNAMICS='IPI', ignored
Warning: card / ignored

     Current dimensions of program PWSCF are:
     Max number of different atomic species (ntypx) = 10
     Max number of k-points (npk) =  40000
     Max angular momentum in pseudopotentials (lmaxx) =  3
     Presently no symmetry can be used with electric field

     Message from routine cell_base_init:
     DEPRECATED: use true lattice parameter, not A to a.u. conversion factor

     IMPORTANT: XC functional enforced from input :
     Exchange-correlation= BEEF-VDW
                           (   1   4  43  14   2   0   0)
     Any further DFT definition will be discarded
     Please, verify this is what you really want

  @ DRIVER MODE: Connecting to
 qe_1139763_2632797.sched-torque.pace.gatech.edu7tzv_ri0_scratch
  using UNIX socket
  @ DRIVER MODE: Message from server: STATUS
  @ DRIVER MODE: Message from server: INIT
  @ DRIVER MODE: Receiving replica           0          -1
  @ DRIVER MODE: Receiving encoded integer          25
  @ DRIVER MODE:  SCF:  T  FORCE:  T  STRESS:  F  VC:  F  ENSEMBLE:  F
  @ DRIVER MODE:  SCF:  T  FORCE:  T  STRESS:  F  VC:  F  ENSEMBLE:  F

     Using Slab Decomposition

     bravais-lattice index     =            0
     lattice parameter (alat)  =       1.8897  a.u.
     unit-cell volume          =    6658.9804 (a.u.)^3
     number of atoms/cell      =           52
     number of atomic types    =            5
     number of electrons       =       390.00
     number of Kohn-Sham states=          205
     kinetic-energy cutoff     =      29.3995  Ry
     charge density cutoff     =     293.9946  Ry
     scf convergence threshold =      7.3E-08
     mixing beta               =       0.0500
     number of iterations used =            8  plain     mixing
     Exchange-correlation= BEEF-VDW
                           (   1   4  43  14   2   0   0)

     celldm(1)=   1.889726  celldm(2)=   0.000000  celldm(3)=   0.000000
     celldm(4)=   0.000000  celldm(5)=   0.000000  celldm(6)=   0.000000

     crystal axes: (cart. coord. in units of alat)
               a(1) = (   6.579727   0.000000   0.000000 )
               a(2) = (  -0.000775   5.961596   0.000000 )
               a(3) = (   0.000000   0.000000  25.155947 )

     reciprocal axes: (cart. coord. in units 2 pi/alat)
               b(1) = (  0.151982  0.000020  0.000000 )
               b(2) = (  0.000000  0.167740  0.000000 )
               b(3) = (  0.000000  0.000000  0.039752 )

     PseudoPot. # 1 for Ti read from file:
     /storage/coda1/p-amedford6/0/shared/rich_project_chbe-medford/medford-share/data/pseudos_module/espresso/nninc/pbe/van/Ti.UPF
     MD5 check sum: 8e4df49b7f0d34bbd5052bf3f5ea0213
     Pseudo is Ultrasoft, Zval = 12.0
     Generated by new atomic code, or converted to UPF format
     Using radial grid of  851 points,  6 beta functions with:
                l(1) =   0
                l(2) =   0
                l(3) =   1
                l(4) =   1
                l(5) =   2
                l(6) =   2
     Q(r) pseudized with  8 coefficients,  rinner =    1.000   1.000   1.000
                                                       1.000   1.000

     PseudoPot. # 2 for O  read from file:
     /storage/coda1/p-amedford6/0/shared/rich_project_chbe-medford/medford-share/data/pseudos_module/espresso/nninc/pbe/van/O.UPF
     MD5 check sum: 78c19812648e8988a0fe644b0f25305e
     Pseudo is Ultrasoft, Zval =  6.0
     Generated by new atomic code, or converted to UPF format
     Using radial grid of  737 points,  4 beta functions with:
                l(1) =   0
                l(2) =   0
                l(3) =   1
                l(4) =   1
     Q(r) pseudized with  8 coefficients,  rinner =    0.800   0.800   0.800

     PseudoPot. # 3 for N  read from file:
     /storage/coda1/p-amedford6/0/shared/rich_project_chbe-medford/medford-share/data/pseudos_module/espresso/nninc/pbe/van/N.UPF
     MD5 check sum: 90d10febe142ad51ac9d5be1deb811c4
     Pseudo is Ultrasoft, Zval =  5.0
     Generated by new atomic code, or converted to UPF format
     Using radial grid of  729 points,  4 beta functions with:
                l(1) =   0
                l(2) =   0
                l(3) =   1
                l(4) =   1
     Q(r) pseudized with  8 coefficients,  rinner =    0.800   0.800   0.800

     PseudoPot. # 4 for C  read from file:
     /storage/coda1/p-amedford6/0/shared/rich_project_chbe-medford/medford-share/data/pseudos_module/espresso/nninc/pbe/van/C.UPF
     MD5 check sum: 1a69bf6b8db32088f5b2163dbdb77a27
     Pseudo is Ultrasoft, Zval =  4.0
     Generated by new atomic code, or converted to UPF format
     Using radial grid of  721 points,  4 beta functions with:
                l(1) =   0
                l(2) =   0
                l(3) =   1
                l(4) =   1
     Q(r) pseudized with  8 coefficients,  rinner =    0.800   0.800   0.800

     PseudoPot. # 5 for H  read from file:
     /storage/coda1/p-amedford6/0/shared/rich_project_chbe-medford/medford-share/data/pseudos_module/espresso/nninc/pbe/van/H.UPF
     MD5 check sum: b5ee9d7bfd3a09ee7748110bda690ff7
     Pseudo is Ultrasoft, Zval =  1.0
     Generated by new atomic code, or converted to UPF format
     Using radial grid of  615 points,  1 beta functions with:
                l(1) =   0
     Q(r) pseudized with  8 coefficients,  rinner =    0.800

     atomic species   valence    mass     pseudopotential
        Ti1           12.00    47.86700     Ti( 1.00)
        O1             6.00    15.99900     O ( 1.00)
        N1             5.00    14.00700     N ( 1.00)
        C1             4.00    12.01100     C ( 1.00)
        H1             1.00     1.00800     H ( 1.00)

     No symmetry found

   Cartesian axes

     site n.     atom                  positions (alat units)
         1           Ti1 tau(   1) = (   0.0004258   2.9801865   6.0000000  )
         2           Ti1 tau(   2) = (   3.2906075   1.4906267   6.0002472  )
         3           O1  tau(   3) = (   0.0006271   0.0005054   7.9858123  )
         4           O1  tau(   4) = (   3.2906025   0.0005020   7.3038282  )
         5           O1  tau(   5) = (   4.5942328   1.4918067   9.2879030  )
         6           O1  tau(   6) = (   1.9868534   1.4903216   9.2879459  )
         7           Ti1 tau(   7) = (   3.2907910   2.8959150   9.1758416  )
         8           Ti1 tau(   8) = (   0.0015273   1.4827037   9.2680791  )
         9           O1  tau(   9) = (   3.2768318   5.9518058  11.3501096  )
        10           O1  tau(  10) = (   0.0116148   5.9584955  10.6183126  )
        11           O1  tau(  11) = (   1.2820894   1.4890407  12.6429483  )
        12           O1  tau(  12) = (   5.2701592   1.4861355  12.6244956  )
        13           Ti1 tau(  13) = (   0.0263608   2.9732685  12.5725065  )
        14           Ti1 tau(  14) = (   3.3311081   1.4825583  12.4934812  )
        15           O1  tau(  15) = (   6.5448050   0.0382128  14.6485099  )
        16           O1  tau(  16) = (   3.2835306   5.9556129  13.9684075  )
        17           O1  tau(  17) = (   4.5065730   1.5084740  16.1486978  )
        18           O1  tau(  18) = (   2.0110176   1.4968469  16.1316129  )
        19           Ti1 tau(  19) = (   3.2365874   2.9692752  15.7101938  )
        20           Ti1 tau(  20) = (   6.5183500   1.5288441  15.9766389  )
        21           O1  tau(  21) = (   3.2904802   0.0005063   4.7018136  )
        22           O1  tau(  22) = (   6.5552815   5.8936090  17.2115513  )
        23           O1  tau(  23) = (   1.3043587   1.4918075   6.0039043  )
        24           O1  tau(  24) = (   5.2767064   1.4903225   6.0039473  )
        25           Ti1 tau(  25) = (   0.0000382   5.9609847   6.0000000  )
        26           Ti1 tau(  26) = (   3.2902200   4.4714249   6.0002472  )
        27           O1  tau(  27) = (   0.0002396   2.9813036   7.9858123  )
        28           O1  tau(  28) = (   3.2902150   2.9813002   7.3038282  )
        29           O1  tau(  29) = (   4.5938453   4.4726049   9.2879030  )
        30           O1  tau(  30) = (   1.9864658   4.4711199   9.2879459  )
        31           Ti1 tau(  31) = (   3.2891106   5.8743827   9.1763621  )
        32           Ti1 tau(  32) = (   0.0006254   4.4649316   9.2693709  )
        33           O1  tau(  33) = (   3.2825058   2.9767457  11.3441782  )
        34           O1  tau(  34) = (   0.0092240   2.9805883  10.6323155  )
        35           O1  tau(  35) = (   1.2778777   4.4660374  12.6604661  )
        36           O1  tau(  36) = (   5.2710664   4.4675109  12.6369154  )
        37           Ti1 tau(  37) = (   0.0243246   5.9574881  12.5203091  )
        38           Ti1 tau(  38) = (   3.3318591   4.4611298  12.5006215  )
        39           O1  tau(  39) = (   6.5359656   2.9584677  14.7835642  )
        40           O1  tau(  40) = (   3.2771955   2.9708399  13.9242642  )
        41           O1  tau(  41) = (   4.4981441   4.4410618  16.1740548  )
        42           O1  tau(  42) = (   2.0042129   4.4512231  16.1075086  )
        43           Ti1 tau(  43) = (   3.2538698   5.9555144  15.7617387  )
        44           Ti1 tau(  44) = (   6.5531130   4.6830099  15.9084494  )
        45           O1  tau(  45) = (   3.2900926   2.9813045   4.7018136  )
        46           O1  tau(  46) = (   1.3039711   4.4726057   6.0039043  )
        47           O1  tau(  47) = (   5.2763189   4.4711207   6.0039473  )
        48           N1  tau(  48) = (   5.6690603   3.2568973  18.6585782  )
        49           C1  tau(  49) = (   0.0091554   2.6944975  17.9068455  )
        50           H1  tau(  50) = (   0.8805123   2.3964943  18.5001670  )
        51           H1  tau(  51) = (   4.8619660   3.6873350  18.2178346  )
        52           H1  tau(  52) = (   5.8095507   3.4768026  19.6356901  )

     number of k points=    10  Fermi-Dirac smearing, width (Ry)=  0.0073
                       cart. coord. in units 2pi/alat
        k(    1) = (   0.0000000   0.0000000   0.0000000), wk =   0.1250000
        k(    2) = (   0.0000000   0.0419351   0.0000000), wk =   0.2500000
        k(    3) = (   0.0000000  -0.0838702   0.0000000), wk =   0.1250000
        k(    4) = (   0.0379955   0.0000049   0.0000000), wk =   0.2500000
        k(    5) = (   0.0379955   0.0419400   0.0000000), wk =   0.2500000
        k(    6) = (   0.0379955  -0.0838652   0.0000000), wk =   0.2500000
        k(    7) = (   0.0379955  -0.0419301   0.0000000), wk =   0.2500000
        k(    8) = (  -0.0759910  -0.0000099   0.0000000), wk =   0.1250000
        k(    9) = (  -0.0759910   0.0419252   0.0000000), wk =   0.2500000
        k(   10) = (  -0.0759910  -0.0838800   0.0000000), wk =   0.1250000

     Initial potential from superposition of free atoms

     starting charge  373.99917, renormalised to  390.00000

     negative rho (up, down):  1.782E-02 0.000E+00

     %%%%%%%%%%%%%%%%%%%%%%%%%%%%%%%%%%%%%%%%%%%%%%%%%%%%%%%%%%%%%%%%%%%%%%%%
     %                                                                      %
     % You are using vdW-DF, which was implemented by the Thonhauser group. %
     % Please cite the following two papers that made this development      %
     % possible and the two reviews that describe the various versions:     %
     %                                                                      %
     %   T. Thonhauser et al., PRL 115, 136402 (2015).                      %
     %   T. Thonhauser et al., PRB 76, 125112 (2007).                       %
     %   K. Berland et al., Rep. Prog. Phys. 78, 066501 (2015).             %
     %   D.C. Langreth et al., J. Phys.: Condens. Matter 21, 084203 (2009). %
     %                                                                      %
     %                                                                      %
     % If you are calculating the stress with vdW-DF, please also cite:     %
     %                                                                      %
     %   R. Sabatini et al., J. Phys.: Condens. Matter 24, 424209 (2012).   %
     %                                                                      %
     %%%%%%%%%%%%%%%%%%%%%%%%%%%%%%%%%%%%%%%%%%%%%%%%%%%%%%%%%%%%%%%%%%%%%%%%

     Adding external electric field

     Computed dipole along edir(3) :
        Dipole               -5.8555 Ry au,        -14.8831 Debye
        Dipole field         -0.0111 Ry au,

        Potential amp.        1.0243 Ry
        Total length         46.3494 bohr

     Starting wfcs are  295 atomic wfcs
  @ DRIVER MODE: Message from server: STATUS
  @ DRIVER MODE: Message from server: POSDATA
  @ DRIVER MODE: Reading and sharing cell
  @ DRIVER MODE: Reading and sharing positions
  @ DRIVER MODE: Received positions

     Self-consistent Calculation

     iteration #  1     ecut=    29.40 Ry     beta= 0.05
     Davidson diagonalization with overlap
     c_bands:  4 eigenvalues not converged
     c_bands:  1 eigenvalues not converged
     c_bands:  2 eigenvalues not converged
     c_bands:  3 eigenvalues not converged
     c_bands:  3 eigenvalues not converged
     c_bands:  4 eigenvalues not converged
     c_bands:  3 eigenvalues not converged
     c_bands:  3 eigenvalues not converged
     c_bands:  4 eigenvalues not converged
     c_bands:  5 eigenvalues not converged
     ethr =  1.00E-05,  avg # of iterations = 20.0

[...]

     total energy              =   -2777.33997836 Ry
     estimated scf accuracy    <    1560.39504554 Ry

     iteration #  2     ecut=    29.40 Ry     beta= 0.05
     Davidson diagonalization with overlap
     ethr =  1.00E-02,  avg # of iterations = 18.5

[...]

     iteration # 67     ecut=    29.40 Ry     beta= 0.05
     Davidson diagonalization with overlap
     c_bands:  1 eigenvalues not converged
     ethr =  1.56E-10,  avg # of iterations = 15.2

[...]

     total energy              =   -2919.04281740 Ry
     estimated scf accuracy    <       0.00000012 Ry

     iteration # 73     ecut=    29.40 Ry     beta= 0.05
     Davidson diagonalization with overlap
     ethr =  1.91E-11,  avg # of iterations =  9.3

     negative rho (up, down):  1.802E-02 0.000E+00

     Adding external electric field

     Computed dipole along edir(3) :
        Dipole                1.3851 Ry au,          3.5206 Debye
        Dipole field          0.0026 Ry au,

        Potential amp.       -0.2423 Ry
        Total length         46.3494 bohr

     End of self-consistent calculation

          k = 0.0000 0.0000 0.0000 ( 18029 PWs)   bands (ev):

   -55.5052 -55.4801 -55.4689 -55.4460 -55.4193 -55.3744 -55.3324 -55.3241
   -55.3052 -55.2982 -55.2687 -55.2668 -55.0560 -54.9436 -54.4837 -54.4497
   -32.0722 -31.9678 -31.8659 -31.8439 -31.8337 -31.8007 -31.7929 -31.7706
   -31.7604 -31.7240 -31.7199 -31.7151 -31.6817 -31.6566 -31.6468 -31.6447
   -31.6330 -31.6082 -31.5983 -31.5894 -31.5788 -31.5631 -31.5375 -31.5335
   -31.5333 -31.5127 -31.5099 -31.5053 -31.5040 -31.4950 -31.4809 -31.4654
   -31.4544 -31.4541 -31.4310 -31.4200 -31.4044 -31.3580 -31.2885 -31.1930
   -31.1779 -31.0920 -30.8920 -30.8008 -30.7786 -30.7086 -30.6220 -30.5109
   -17.0703 -16.3051 -16.0210 -15.8578 -15.7138 -15.6826 -15.5722 -15.3970
   -15.3198 -15.2443 -15.2248 -15.1450 -15.1297 -15.1150 -15.0940 -15.0348
   -15.0268 -14.9818 -14.9771 -14.9428 -14.9228 -14.8912 -14.8737 -14.8662
   -14.8125 -14.7717 -14.7081 -14.6416 -14.5864 -14.1178 -12.9861 -12.8691
    -9.4646  -7.2477  -4.6151  -3.6622  -3.4926  -3.4121  -3.4025  -3.3823
    -3.1923  -3.1161  -2.8414  -2.7471  -2.7122  -2.7059  -2.6791  -2.6210
    -2.5603  -2.4477  -2.3804  -2.3472  -2.3267  -2.3222  -2.3115  -2.2935
    -2.2830  -2.2516  -2.1805  -2.1233  -2.0496  -1.9667  -1.8915  -1.8761
    -1.8152  -1.7874  -1.7725  -1.7662  -1.7594  -1.7347  -1.7287  -1.6374
    -1.5513  -1.5087  -1.4085  -1.3859  -1.2916  -1.1578  -1.1272  -1.0235
    -1.0164  -0.9603  -0.9359  -0.8920  -0.8437  -0.8341  -0.8170  -0.6731
    -0.6063  -0.5453  -0.4867  -0.4601  -0.4415  -0.3539  -0.2874  -0.2803
    -0.2630  -0.2400  -0.0679  -0.0351  -0.0157   0.0081   0.0229   0.1123
     0.1443   0.2187   0.2985   0.3138   0.3183   0.3955   0.4186   0.4626
     0.4647   0.4921   0.4974   0.6685   0.6794   0.7056   0.7348   0.8160
     0.9004   1.1044   1.1286   1.1688   1.4543   1.5206   1.5389   1.7266
     2.1124   2.1593   3.5857   3.6898   3.7223   3.7382   3.7660   3.8357
     3.9029   4.0807   4.0878   4.1188   4.1238

[...]

          k = 0.0380-0.0419 0.0000 ( 17876 PWs)   bands (ev):

[...]

          k =-0.0760-0.0000 0.0000 ( 17886 PWs)   bands (ev):

[...]

          k =-0.0760-0.0839 0.0000 ( 17948 PWs)   bands (ev):

   -55.4894 -55.4844 -55.4633 -55.4627 -55.4161 -55.3655 -55.3413 -55.3271
   -55.2865 -55.2850 -55.2845 -55.2826 -55.0533 -54.9462 -54.4667 -54.4666
   -31.8776 -31.8736 -31.8086 -31.7832 -31.7827 -31.7713 -31.7563 -31.7556
   -31.7159 -31.7106 -31.7089 -31.7017 -31.6725 -31.6355 -31.6266 -31.6225
   -31.6221 -31.6195 -31.6154 -31.6140 -31.6038 -31.5831 -31.5824 -31.5698
   -31.5666 -31.5559 -31.5434 -31.5271 -31.5197 -31.5173 -31.5011 -31.5004
   -31.4998 -31.4987 -31.4763 -31.4635 -31.4600 -31.3625 -31.2845 -31.2103
   -31.1818 -31.1761 -30.7913 -30.7912 -30.7047 -30.7045 -30.6654 -30.6653
   -17.0655 -15.7628 -15.7010 -15.5660 -15.4842 -15.4623 -15.4500 -15.4267
   -15.2888 -15.2729 -15.2548 -15.2046 -15.2007 -15.1980 -15.1594 -15.1029
   -15.0687 -15.0662 -15.0574 -15.0318 -14.9963 -14.9910 -14.9568 -14.9481
   -14.9347 -14.8452 -14.8397 -14.8374 -14.6666 -14.3422 -12.9708 -12.9707
    -9.4693  -7.2491  -4.5964  -3.0455  -2.9721  -2.8119  -2.7094  -2.6794
    -2.6475  -2.5065  -2.4695  -2.4618  -2.4520  -2.4201  -2.4011  -2.3799
    -2.3504  -2.3363  -2.3318  -2.3143  -2.3027  -2.2901  -2.2472  -2.2043
    -2.2033  -2.1930  -2.1629  -2.1420  -2.1299  -2.1011  -2.0819  -2.0663
    -2.0525  -2.0057  -1.8304  -1.7987  -1.6998  -1.6777  -1.6687  -1.6493
    -1.5805  -1.5535  -1.5213  -1.4830  -1.4315  -1.3089  -1.2416  -1.2202
    -1.1916  -1.1819  -1.1300  -1.0075  -0.9718  -0.9490  -0.9025  -0.8658
    -0.8224  -0.8110  -0.6914  -0.6866  -0.6406  -0.5984  -0.4847  -0.4671
    -0.4577  -0.4464  -0.4316  -0.3021  -0.2924  -0.2858  -0.2682  -0.2239
    -0.2073  -0.1022  -0.0006   0.0124   0.1143   0.1690   0.2918   0.3537
     0.4505   0.4972   0.5212   0.6118   0.6477   0.7293   0.7495   0.8065
     0.8181   0.9114   0.9680   0.9870   0.9948   1.0624   1.8989   1.8998
     1.9793   1.9794   3.7449   3.8404   3.8787   3.9018   3.9471   4.1052
     4.1217   4.1690   4.1720   4.1860   4.2722

     the Fermi energy is     3.6428 ev

!    total energy              =   -2919.04282791 Ry
     estimated scf accuracy    <       0.00000005 Ry
     smearing contrib. (-TS)   =      -0.03614435 Ry
     internal energy E=F+TS    =   -2919.00668356 Ry

     The total energy is F=E-TS. E is the sum of the following terms:
     one-electron contribution =  -24479.36672531 Ry
     hartree contribution      =   12327.88391824 Ry
     xc contribution           =    -480.00185974 Ry
     ewald contribution        =    9712.47436263 Ry
     electric field correction =       0.00362062 Ry

     convergence has been achieved in  73 iterations

     Forces acting on atoms (cartesian axes, Ry/au):

     atom    1 type  1   force =     0.00009360   -0.00020693    0.09494655
     atom    2 type  1   force =    -0.00022802   -0.00036468   -0.17676315
     atom    3 type  2   force =    -0.00004421   -0.00006487   -0.02291283
     atom    4 type  2   force =    -0.00004388   -0.00167933    0.05578522
     atom    5 type  2   force =    -0.01135108   -0.00122976    0.00624511
     atom    6 type  2   force =     0.01253005   -0.00034838    0.00440842
     atom    7 type  1   force =    -0.00113965    0.00152300   -0.01378578
     atom    8 type  1   force =     0.00062822    0.00694560    0.01260520
     atom    9 type  2   force =     0.00020447   -0.00005004    0.00013863
     atom   10 type  2   force =    -0.00163930    0.00010171   -0.00993493
     atom   11 type  2   force =    -0.00020796    0.00002805    0.00015897
     atom   12 type  2   force =     0.00024551    0.00011284   -0.00006327
     atom   13 type  1   force =     0.00006673   -0.00002595    0.00025612
     atom   14 type  1   force =     0.00000315   -0.00014906    0.00019203
     atom   15 type  2   force =    -0.00002864    0.00048069    0.00018070
     atom   16 type  2   force =     0.00025877    0.00029075    0.00001244
     atom   17 type  2   force =     0.00014333   -0.00017299    0.00041917
     atom   18 type  2   force =     0.00014137    0.00012645    0.00028257
     atom   19 type  1   force =     0.00033128    0.00010648   -0.00028281
     atom   20 type  1   force =     0.00041444    0.00024825   -0.00007019
     atom   21 type  2   force =     0.00004736   -0.00004227    0.10364103
     atom   22 type  2   force =    -0.00002970    0.00068167    0.00036082
     atom   23 type  2   force =    -0.07099953   -0.00016301   -0.02732679
     atom   24 type  2   force =     0.07085243    0.00031846   -0.02734053
     atom   25 type  1   force =    -0.00012206   -0.00020420    0.09464434
     atom   26 type  1   force =    -0.00019516   -0.00046804   -0.17691643
     atom   27 type  2   force =     0.00006946   -0.00035670   -0.02193671
     atom   28 type  2   force =     0.00003653   -0.00139003    0.05533967
     atom   29 type  2   force =    -0.01158110   -0.00008937    0.00585038
     atom   30 type  2   force =     0.01265110    0.00013251    0.00406785
     atom   31 type  1   force =    -0.00125155    0.00416417   -0.01465953
     atom   32 type  1   force =     0.00055499   -0.00776028    0.01246866
     atom   33 type  2   force =    -0.00001300    0.00009250    0.00004701
     atom   34 type  2   force =    -0.00127208    0.00082386   -0.00834593
     atom   35 type  2   force =     0.00011161    0.00020752    0.00000526
     atom   36 type  2   force =     0.00012730    0.00004456    0.00019298
     atom   37 type  1   force =     0.00003024    0.00001406   -0.00008760
     atom   38 type  1   force =    -0.00003343   -0.00016349   -0.00017759
     atom   39 type  2   force =    -0.00016091   -0.00030916   -0.00006404
     atom   40 type  2   force =     0.00023679   -0.00003193   -0.00013982
     atom   41 type  2   force =     0.00031869   -0.00008681    0.00025679
     atom   42 type  2   force =    -0.00009641    0.00013498   -0.00037653
     atom   43 type  1   force =    -0.00027330   -0.00007098    0.00008313
     atom   44 type  1   force =     0.00050324   -0.00074922    0.00018312
     atom   45 type  2   force =     0.00003502   -0.00005001    0.10360721
     atom   46 type  2   force =    -0.07100136   -0.00007322   -0.02731657
     atom   47 type  2   force =     0.07085984    0.00032536   -0.02734682
     atom   48 type  3   force =    -0.00492706    0.00496328    0.00272447
     atom   49 type  4   force =     0.00718309   -0.00696317   -0.00281474
     atom   50 type  5   force =    -0.00181802    0.00173686   -0.00209167
     atom   51 type  5   force =     0.00029490    0.00008879    0.00006800
     atom   52 type  5   force =    -0.00051608   -0.00042849    0.00158239

     Total force =     0.366317     Total SCF correction =     0.000648
  @ DRIVER MODE: Message from server: STATUS
  @ DRIVER MODE: Message from server: GETFORCE
  @ DRIVER MODE: Returning v,forces,stress,ensemble

     Writing output data file ./calc.save/
  @ DRIVER MODE: Message from server: EXIT
  @ DRIVE MODE: Exiting

     General routines

     Parallel routines

   This run was terminated on:  17:55: 6  23Aug2021

   JOB DONE.