     Program PWSCF v.6.7GPU starts on 17Jul2021 at 12:50:51

     R & G space division:  proc/nbgrp/npool/nimage =      16
     Reading input from /storage/home/hcoda1/3/ntian30/research/carbon/15Jul_vib/ads_slab/CH3NNHHH_a/out_0054/pw.inp
Warning: card &CELL ignored
Warning: card   CELL_DYNAMICS='IPI', ignored
Warning: card / ignored

     Current dimensions of program PWSCF are:
     Max number of different atomic species (ntypx) = 10
     Max number of k-points (npk) =  40000
     Max angular momentum in pseudopotentials (lmaxx) =  3
     Presently no symmetry can be used with electric field

     Message from routine cell_base_init:
     DEPRECATED: use true lattice parameter, not A to a.u. conversion factor

     IMPORTANT: XC functional enforced from input :
     Exchange-correlation= BEEF-VDW
                           (   1   4  43  14   2   0   0)
     Any further DFT definition will be discarded
     Please, verify this is what you really want

  @ DRIVER MODE: Connecting to
 qe_1139763_2351652.sched-torque.pace.gatech.eduh2un5m5v_scratch
  using UNIX socket
  @ DRIVER MODE: Message from server: STATUS
  @ DRIVER MODE: Message from server: INIT
  @ DRIVER MODE: Receiving replica           0          -1
  @ DRIVER MODE: Receiving encoded integer          25
  @ DRIVER MODE:  SCF:  T  FORCE:  T  STRESS:  F  VC:  F  ENSEMBLE:  F
  @ DRIVER MODE:  SCF:  T  FORCE:  T  STRESS:  F  VC:  F  ENSEMBLE:  F

     Using Slab Decomposition

     bravais-lattice index     =            0
     lattice parameter (alat)  =       1.8897  a.u.
     unit-cell volume          =    6658.9804 (a.u.)^3
     number of atoms/cell      =           56
     number of atomic types    =            5
     number of electrons       =       398.00
     number of Kohn-Sham states=          209
     kinetic-energy cutoff     =      29.3995  Ry
     charge density cutoff     =     293.9946  Ry
     scf convergence threshold =      7.3E-08
     mixing beta               =       0.0500
     number of iterations used =            8  plain     mixing
     Exchange-correlation= BEEF-VDW
                           (   1   4  43  14   2   0   0)

     celldm(1)=   1.889726  celldm(2)=   0.000000  celldm(3)=   0.000000
     celldm(4)=   0.000000  celldm(5)=   0.000000  celldm(6)=   0.000000

     crystal axes: (cart. coord. in units of alat)
               a(1) = (   6.579727   0.000000   0.000000 )
               a(2) = (  -0.000775   5.961596   0.000000 )
               a(3) = (   0.000000   0.000000  25.155947 )

     reciprocal axes: (cart. coord. in units 2 pi/alat)
               b(1) = (  0.151982  0.000020  0.000000 )
               b(2) = (  0.000000  0.167740  0.000000 )
               b(3) = (  0.000000  0.000000  0.039752 )

     PseudoPot. # 1 for Ti read from file:
     /storage/coda1/p-amedford6/0/shared/rich_project_chbe-medford/medford-share/data/pseudos_module/espresso/nninc/pbe/van/Ti.UPF
     MD5 check sum: 8e4df49b7f0d34bbd5052bf3f5ea0213
     Pseudo is Ultrasoft, Zval = 12.0
     Generated by new atomic code, or converted to UPF format
     Using radial grid of  851 points,  6 beta functions with:
                l(1) =   0
                l(2) =   0
                l(3) =   1
                l(4) =   1
                l(5) =   2
                l(6) =   2
     Q(r) pseudized with  8 coefficients,  rinner =    1.000   1.000   1.000
                                                       1.000   1.000

     PseudoPot. # 2 for O  read from file:
     /storage/coda1/p-amedford6/0/shared/rich_project_chbe-medford/medford-share/data/pseudos_module/espresso/nninc/pbe/van/O.UPF
     MD5 check sum: 78c19812648e8988a0fe644b0f25305e
     Pseudo is Ultrasoft, Zval =  6.0
     Generated by new atomic code, or converted to UPF format
     Using radial grid of  737 points,  4 beta functions with:
                l(1) =   0
                l(2) =   0
                l(3) =   1
                l(4) =   1
     Q(r) pseudized with  8 coefficients,  rinner =    0.800   0.800   0.800

     PseudoPot. # 3 for N  read from file:
     /storage/coda1/p-amedford6/0/shared/rich_project_chbe-medford/medford-share/data/pseudos_module/espresso/nninc/pbe/van/N.UPF
     MD5 check sum: 90d10febe142ad51ac9d5be1deb811c4
     Pseudo is Ultrasoft, Zval =  5.0
     Generated by new atomic code, or converted to UPF format
     Using radial grid of  729 points,  4 beta functions with:
                l(1) =   0
                l(2) =   0
                l(3) =   1
                l(4) =   1
     Q(r) pseudized with  8 coefficients,  rinner =    0.800   0.800   0.800

     PseudoPot. # 4 for C  read from file:
     /storage/coda1/p-amedford6/0/shared/rich_project_chbe-medford/medford-share/data/pseudos_module/espresso/nninc/pbe/van/C.UPF
     MD5 check sum: 1a69bf6b8db32088f5b2163dbdb77a27
     Pseudo is Ultrasoft, Zval =  4.0
     Generated by new atomic code, or converted to UPF format
     Using radial grid of  721 points,  4 beta functions with:
                l(1) =   0
                l(2) =   0
                l(3) =   1
                l(4) =   1
     Q(r) pseudized with  8 coefficients,  rinner =    0.800   0.800   0.800

     PseudoPot. # 5 for H  read from file:
     /storage/coda1/p-amedford6/0/shared/rich_project_chbe-medford/medford-share/data/pseudos_module/espresso/nninc/pbe/van/H.UPF
     MD5 check sum: b5ee9d7bfd3a09ee7748110bda690ff7
     Pseudo is Ultrasoft, Zval =  1.0
     Generated by new atomic code, or converted to UPF format
     Using radial grid of  615 points,  1 beta functions with:
                l(1) =   0
     Q(r) pseudized with  8 coefficients,  rinner =    0.800

     atomic species   valence    mass     pseudopotential
        Ti1           12.00    47.86700     Ti( 1.00)
        O1             6.00    15.99900     O ( 1.00)
        N1             5.00    14.00700     N ( 1.00)
        C1             4.00    12.01100     C ( 1.00)
        H1             1.00     1.00800     H ( 1.00)

     Starting magnetic structure
     atomic species   magnetization
        Ti1          0.000
        O1           0.000
        N1           0.000
        C1           0.025
        H1           0.000

     No symmetry found

   Cartesian axes

     site n.     atom                  positions (alat units)
         1           Ti1 tau(   1) = (   0.0004258   2.9801865   6.0000000  )
         2           Ti1 tau(   2) = (   3.2906075   1.4906267   6.0002472  )
         3           O1  tau(   3) = (   0.0006271   0.0005054   7.9858123  )
         4           O1  tau(   4) = (   3.2906025   0.0005020   7.3038282  )
         5           O1  tau(   5) = (   4.5942328   1.4918067   9.2879030  )
         6           O1  tau(   6) = (   1.9868534   1.4903216   9.2879459  )
         7           Ti1 tau(   7) = (   3.2907910   2.8959150   9.1758416  )
         8           Ti1 tau(   8) = (   0.0015273   1.4827037   9.2680791  )
         9           O1  tau(   9) = (   3.2969863   5.9453513  11.3493076  )
        10           O1  tau(  10) = (   0.0116148   5.9584955  10.6183126  )
        11           O1  tau(  11) = (   1.3059050   1.4736943  12.6642453  )
        12           O1  tau(  12) = (   5.3003793   1.4775083  12.6459419  )
        13           Ti1 tau(  13) = (   0.0167275   2.9625105  12.5508078  )
        14           Ti1 tau(  14) = (   3.3131340   1.4712512  12.4909780  )
        15           O1  tau(  15) = (   6.5517612   5.9325698  14.7566896  )
        16           O1  tau(  16) = (   3.3302114   5.9429442  13.9823395  )
        17           O1  tau(  17) = (   4.5243935   1.5056208  16.2316672  )
        18           O1  tau(  18) = (   2.0170937   1.4633510  16.1378485  )
        19           Ti1 tau(  19) = (   3.2500237   2.9242626  15.6920970  )
        20           Ti1 tau(  20) = (   6.5441017   1.2779805  16.1516014  )
        21           O1  tau(  21) = (   3.2904802   0.0005063   4.7018136  )
        22           O1  tau(  22) = (   6.5540411   5.9581837  17.3465722  )
        23           O1  tau(  23) = (   1.3043587   1.4918075   6.0039043  )
        24           O1  tau(  24) = (   5.2767064   1.4903225   6.0039473  )
        25           Ti1 tau(  25) = (   0.0000382   5.9609847   6.0000000  )
        26           Ti1 tau(  26) = (   3.2902200   4.4714249   6.0002472  )
        27           O1  tau(  27) = (   0.0002396   2.9813036   7.9858123  )
        28           O1  tau(  28) = (   3.2902150   2.9813002   7.3038282  )
        29           O1  tau(  29) = (   4.5938453   4.4726049   9.2879030  )
        30           O1  tau(  30) = (   1.9864658   4.4711199   9.2879459  )
        31           Ti1 tau(  31) = (   3.2891106   5.8743827   9.1763621  )
        32           Ti1 tau(  32) = (   0.0006254   4.4649316   9.2693709  )
        33           O1  tau(  33) = (   3.2962403   2.9651072  11.3429128  )
        34           O1  tau(  34) = (   0.0092240   2.9805883  10.6323155  )
        35           O1  tau(  35) = (   1.3076126   4.4641214  12.6643835  )
        36           O1  tau(  36) = (   5.2981430   4.4591552  12.6429889  )
        37           Ti1 tau(  37) = (   0.0194730   5.9489450  12.5196332  )
        38           Ti1 tau(  38) = (   3.3150505   4.4522436  12.4946186  )
        39           O1  tau(  39) = (   6.5702761   2.9869041  14.8038460  )
        40           O1  tau(  40) = (   3.3119818   2.9576719  13.9204832  )
        41           O1  tau(  41) = (   4.5223198   4.3950437  16.2490866  )
        42           O1  tau(  42) = (   2.0356696   4.4339808  16.1311045  )
        43           Ti1 tau(  43) = (   3.3057863   5.9493229  15.7677403  )
        44           Ti1 tau(  44) = (   0.0958844   4.4293496  15.8701971  )
        45           O1  tau(  45) = (   3.2900926   2.9813045   4.7018136  )
        46           O1  tau(  46) = (   1.3039711   4.4726057   6.0039043  )
        47           O1  tau(  47) = (   5.2763189   4.4711207   6.0039473  )
        48           N1  tau(  48) = (   0.0620580   3.0375546  17.6897758  )
        49           C1  tau(  49) = (   1.1116374   2.9693208  18.6984743  )
        50           H1  tau(  50) = (   1.2951007   3.9532040  19.1583453  )
        51           H1  tau(  51) = (   0.8627774   2.2426413  19.4871689  )
        52           H1  tau(  52) = (   2.0263963   2.6228967  18.2308865  )
        53           N1  tau(  53) = (   5.4279256   3.3744730  18.4033390  )
        54           H1  tau(  54) = (   5.6103604   4.1199394  19.0852601  )
        55           H1  tau(  55) = (   4.7934260   3.8076565  17.6395878  )
        56           H1  tau(  56) = (   5.0090149   2.5598412  18.8778436  )

     number of k points=    10  Fermi-Dirac smearing, width (Ry)=  0.0073
                       cart. coord. in units 2pi/alat
        k(    1) = (   0.0000000   0.0000000   0.0000000), wk =   0.0625000
        k(    2) = (   0.0000000   0.0419351   0.0000000), wk =   0.1250000
        k(    3) = (   0.0000000  -0.0838702   0.0000000), wk =   0.0625000
        k(    4) = (   0.0379955   0.0000049   0.0000000), wk =   0.1250000
        k(    5) = (   0.0379955   0.0419400   0.0000000), wk =   0.1250000
[...]
     %   T. Thonhauser et al., PRL 115, 136402 (2015).                      %
     %   T. Thonhauser et al., PRB 76, 125112 (2007).                       %
     %   K. Berland et al., Rep. Prog. Phys. 78, 066501 (2015).             %
     %   D.C. Langreth et al., J. Phys.: Condens. Matter 21, 084203 (2009). %
     %                                                                      %
     %                                                                      %
     % If you are calculating the stress with vdW-DF, please also cite:     %
     %                                                                      %
     %   R. Sabatini et al., J. Phys.: Condens. Matter 24, 424209 (2012).   %
     %                                                                      %
     %%%%%%%%%%%%%%%%%%%%%%%%%%%%%%%%%%%%%%%%%%%%%%%%%%%%%%%%%%%%%%%%%%%%%%%%

     Adding external electric field

     Computed dipole along edir(3) :
        Dipole              -10.5737 Ry au,        -26.8756 Debye
        Dipole field         -0.0200 Ry au,

        Potential amp.        1.8497 Ry
        Total length         46.3494 bohr

[...]

     Starting wfcs are  302 atomic wfcs
  @ DRIVER MODE: Message from server: STATUS
  @ DRIVER MODE: Message from server: POSDATA
  @ DRIVER MODE: Reading and sharing cell
  @ DRIVER MODE: Reading and sharing positions
  @ DRIVER MODE: Received positions

     Self-consistent Calculation

     iteration #  1     ecut=    29.40 Ry     beta= 0.05
     Davidson diagonalization with overlap
     c_bands:  4 eigenvalues not converged
     c_bands:  3 eigenvalues not converged
     c_bands:  1 eigenvalues not converged
     c_bands:  4 eigenvalues not converged
     c_bands:  5 eigenvalues not converged
     c_bands:  5 eigenvalues not converged
     c_bands:  1 eigenvalues not converged
     c_bands:  5 eigenvalues not converged
     c_bands:  3 eigenvalues not converged
     c_bands:  3 eigenvalues not converged
     c_bands:  2 eigenvalues not converged
     c_bands:  1 eigenvalues not converged
     c_bands:  4 eigenvalues not converged
     c_bands:  5 eigenvalues not converged
     c_bands:  4 eigenvalues not converged
     c_bands:  5 eigenvalues not converged
     c_bands:  3 eigenvalues not converged
     ethr =  1.00E-05,  avg # of iterations = 20.0

[...]

     total energy              =   -2443.28986011 Ry
     estimated scf accuracy    <    5586.08261010 Ry

     total magnetization       =     0.00 Bohr mag/cell
     absolute magnetization    =     0.01 Bohr mag/cell

     iteration #  2     ecut=    29.40 Ry     beta= 0.05
     Davidson diagonalization with overlap
     ethr =  1.00E-02,  avg # of iterations = 23.7

[...]

     iteration # 82     ecut=    29.40 Ry     beta= 0.05
     Davidson diagonalization with overlap
     ethr =  8.01E-11,  avg # of iterations =  7.2

[...]

     total energy              =   -2942.82550646 Ry
     estimated scf accuracy    <       0.00000015 Ry

[...]

     iteration # 84     ecut=    29.40 Ry     beta= 0.05
     Davidson diagonalization with overlap
     c_bands:  1 eigenvalues not converged
     c_bands:  1 eigenvalues not converged
     c_bands:  1 eigenvalues not converged
     c_bands:  1 eigenvalues not converged
     c_bands:  1 eigenvalues not converged
     c_bands:  2 eigenvalues not converged
     ethr =  3.39E-11,  avg # of iterations = 16.9

     negative rho (up, down):  7.252E-03 7.242E-03

[...]

     Adding external electric field

     Computed dipole along edir(3) :
        Dipole                1.6162 Ry au,          4.1080 Debye
        Dipole field          0.0030 Ry au,

        Potential amp.       -0.2827 Ry
        Total length         46.3494 bohr

     Magnetic moment per site  (integrated on atomic sphere of radius R)
     atom   1 (R=0.723)  charge=  7.9140  magn=  0.0129
     atom   2 (R=0.723)  charge=  7.8963  magn=  0.0006
     atom   3 (R=0.633)  charge=  4.2081  magn= -0.0011
     atom   4 (R=0.633)  charge=  4.2373  magn= -0.0001
     atom   5 (R=0.633)  charge=  4.2137  magn= -0.0002
     atom   6 (R=0.633)  charge=  4.2139  magn= -0.0002
     atom   7 (R=0.723)  charge=  7.8964  magn=  0.0006
     atom   8 (R=0.723)  charge=  7.8945  magn=  0.0061
     atom   9 (R=0.633)  charge=  4.2238  magn= -0.0002
     atom  10 (R=0.633)  charge=  4.2125  magn= -0.0004
     atom  11 (R=0.633)  charge=  4.2093  magn= -0.0002
     atom  12 (R=0.633)  charge=  4.2112  magn= -0.0002
     atom  13 (R=0.723)  charge=  7.8926  magn=  0.0020
     atom  14 (R=0.723)  charge=  7.9040  magn=  0.0014
     atom  15 (R=0.633)  charge=  4.2098  magn= -0.0000
     atom  16 (R=0.633)  charge=  4.2161  magn= -0.0001
     atom  17 (R=0.633)  charge=  4.2035  magn= -0.0001
     atom  18 (R=0.633)  charge=  4.2034  magn= -0.0001
     atom  19 (R=0.723)  charge=  7.9504  magn=  0.0000
     atom  20 (R=0.723)  charge=  7.9298  magn=  0.0001
     atom  21 (R=0.633)  charge=  4.1284  magn= -0.0004
     atom  22 (R=0.633)  charge=  4.1764  magn= -0.0000
     atom  23 (R=0.633)  charge=  4.2074  magn= -0.0013
     atom  24 (R=0.633)  charge=  4.2074  magn= -0.0013
     atom  25 (R=0.723)  charge=  7.9141  magn=  0.0129
     atom  26 (R=0.723)  charge=  7.8963  magn=  0.0006
     atom  27 (R=0.633)  charge=  4.2076  magn= -0.0011
     atom  28 (R=0.633)  charge=  4.2375  magn= -0.0001
     atom  29 (R=0.633)  charge=  4.2143  magn= -0.0001
     atom  30 (R=0.633)  charge=  4.2144  magn= -0.0002
     atom  31 (R=0.723)  charge=  7.8969  magn=  0.0006
     atom  32 (R=0.723)  charge=  7.8947  magn=  0.0061
     atom  33 (R=0.633)  charge=  4.2222  magn= -0.0002
     atom  34 (R=0.633)  charge=  4.2053  magn= -0.0004
     atom  35 (R=0.633)  charge=  4.2090  magn= -0.0002
     atom  36 (R=0.633)  charge=  4.2115  magn= -0.0002
     atom  37 (R=0.723)  charge=  7.8964  magn=  0.0020
     atom  38 (R=0.723)  charge=  7.9034  magn=  0.0013
     atom  39 (R=0.633)  charge=  4.1926  magn= -0.0001
     atom  40 (R=0.633)  charge=  4.2343  magn= -0.0001
     atom  41 (R=0.633)  charge=  4.2025  magn= -0.0001
     atom  42 (R=0.633)  charge=  4.2135  magn= -0.0001
     atom  43 (R=0.723)  charge=  7.9399  magn=  0.0003
     atom  44 (R=0.723)  charge=  7.9262  magn=  0.0002
     atom  45 (R=0.633)  charge=  4.1284  magn= -0.0004
     atom  46 (R=0.633)  charge=  4.2074  magn= -0.0013
     atom  47 (R=0.633)  charge=  4.2074  magn= -0.0013
     atom  48 (R=0.423)  charge=  1.3355  magn= -0.0000
     atom  49 (R=0.447)  charge=  0.8385  magn=  0.0000
     atom  50 (R=0.423)  charge=  0.4486  magn= -0.0000
     atom  51 (R=0.423)  charge=  0.4499  magn= -0.0000
     atom  52 (R=0.423)  charge=  0.4552  magn= -0.0000
     atom  53 (R=0.423)  charge=  1.3740  magn= -0.0000
     atom  54 (R=0.423)  charge=  0.4522  magn= -0.0000
     atom  55 (R=0.423)  charge=  0.3987  magn=  0.0000
     atom  56 (R=0.423)  charge=  0.4485  magn= -0.0000

     End of self-consistent calculation

 ------ SPIN UP ------------

          k = 0.0000 0.0000 0.0000 ( 18029 PWs)   bands (ev):

   -55.1375 -55.1089 -55.1008 -55.0748 -55.0205 -55.0036 -54.9824 -54.9387
   -54.9298 -54.9165 -54.9030 -54.8974 -54.8583 -54.7868 -54.1099 -54.0759
   -31.7166 -31.5915 -31.5061 -31.4737 -31.4346 -31.4281 -31.4252 -31.4003
   -31.3960 -31.3923 -31.3612 -31.3545 -31.3474 -31.3149 -31.2967 -31.2723
   -31.2635 -31.2565 -31.2420 -31.2351 -31.2132 -31.2048 -31.1975 -31.1696
   -31.1682 -31.1498 -31.1412 -31.1365 -31.1363 -31.1233 -31.1229 -31.1141
   -31.0989 -31.0885 -31.0822 -31.0604 -31.0546 -31.0405 -31.0385 -31.0294
   -31.0179 -30.9766 -30.5180 -30.4265 -30.4042 -30.3349 -30.2482 -30.1368
   -18.9260 -16.0001 -15.7454 -15.6098 -15.3752 -15.3227 -15.2668 -15.0609
   -15.0576 -14.9868 -14.9714 -14.9227 -14.9025 -14.8358 -14.7513 -14.7311
   -14.6617 -14.6607 -14.6312 -14.6208 -14.6184 -14.5558 -14.5465 -14.5168
   -14.5033 -14.4787 -14.3607 -14.2759 -14.2170 -13.9677 -13.5920 -12.6115
   -12.4943  -9.7503  -7.6841  -7.2152  -5.4600  -3.8159  -3.3378  -3.2771
    -3.1630  -3.1341  -3.0573  -3.0276  -2.8434  -2.8218  -2.4805  -2.4450
    -2.3942  -2.3761  -2.3554  -2.3373  -2.1696  -2.1435  -2.0706  -2.0376
    -2.0190  -1.9786  -1.9618  -1.9517  -1.9179  -1.9127  -1.9029  -1.6955
    -1.6395  -1.5446  -1.5221  -1.5007  -1.4632  -1.4273  -1.4187  -1.4153
    -1.4093  -1.3959  -1.3834  -1.3032  -1.2454  -1.1640  -1.1545  -1.1192
    -1.0153  -0.9699  -0.7674  -0.7533  -0.7078  -0.6655  -0.6027  -0.5821
    -0.5149  -0.4841  -0.4653  -0.3436  -0.3148  -0.2752  -0.2470  -0.1797
    -0.1497  -0.1035  -0.0200   0.0518   0.0873   0.1066   0.1647   0.2951
     0.3063   0.3354   0.3966   0.4602   0.5010   0.5208   0.5394   0.5762
     0.6261   0.7521   0.7963   0.8165   0.8206   0.8552   0.8773   0.9283
     0.9529   1.0130   1.0189   1.1368   1.2062   1.4331   1.4674   1.4933
     1.8257   1.8492   1.9135   2.0994   2.4879   2.5346   3.9626   4.0261
     4.0836   4.0908   4.1173   4.2068   4.2412   4.4303   4.4558   4.4575
     4.4625

[...]

          k =-0.0760-0.0000 0.0000 ( 17886 PWs)   bands (ev):

[...]

 ------ SPIN DOWN ----------

[...]

          k = 0.0380-0.0419 0.0000 ( 17876 PWs)   bands (ev):

[...]

          k =-0.0760-0.0839 0.0000 ( 17948 PWs)   bands (ev):

   -55.1194 -55.1136 -55.0680 -55.0678 -55.0061 -54.9995 -54.9894 -54.9210
   -54.9199 -54.9169 -54.9045 -54.9032 -54.8544 -54.7904 -54.0919 -54.0917
   -31.5190 -31.5161 -31.4394 -31.4173 -31.3967 -31.3966 -31.3588 -31.3585
   -31.3457 -31.3402 -31.3375 -31.3367 -31.3045 -31.2687 -31.2609 -31.2566
   -31.2559 -31.2519 -31.2472 -31.2408 -31.2132 -31.2055 -31.2031 -31.2024
   -31.1856 -31.1848 -31.1846 -31.1818 -31.1555 -31.1508 -31.1353 -31.1313
   -31.1284 -31.1261 -31.1255 -31.1197 -31.0950 -31.0857 -31.0836 -31.0663
   -31.0411 -31.0233 -30.4157 -30.4155 -30.3301 -30.3299 -30.2905 -30.2904
   -18.9212 -15.5075 -15.3977 -15.2902 -15.2243 -15.1815 -15.1302 -15.1128
   -15.1023 -15.0567 -15.0273 -14.9584 -14.8940 -14.8411 -14.8401 -14.8056
   -14.7270 -14.7131 -14.7061 -14.6955 -14.6388 -14.6322 -14.6008 -14.5801
   -14.5770 -14.5468 -14.4729 -14.4705 -14.3843 -14.1766 -13.6278 -12.5969
   -12.5967  -9.7196  -7.6815  -7.1604  -5.4627  -3.8377  -3.4320  -2.7559
    -2.6448  -2.4338  -2.4083  -2.3483  -2.3282  -2.2458  -2.1830  -2.1605
    -2.1372  -2.1034  -2.1002  -2.0768  -2.0546  -2.0014  -1.9722  -1.9603
    -1.9546  -1.9397  -1.9271  -1.9072  -1.8506  -1.8403  -1.8329  -1.7903
    -1.7793  -1.7475  -1.7414  -1.7022  -1.6855  -1.6109  -1.5172  -1.4929
    -1.4342  -1.3328  -1.3182  -1.3126  -1.2202  -1.2110  -1.1814  -1.1506
    -1.0960  -0.9969  -0.9421  -0.8656  -0.8623  -0.8330  -0.7453  -0.6820
    -0.6481  -0.6384  -0.5996  -0.5421  -0.5195  -0.4855  -0.4027  -0.3614
    -0.3343  -0.3007  -0.2051  -0.1442  -0.1205  -0.0891  -0.0856   0.0035
     0.0368   0.0741   0.0951   0.1324   0.1591   0.2232   0.2462   0.3565
     0.4249   0.4564   0.5753   0.5993   0.6634   0.7953   0.8670   0.9075
     0.9605   1.0184   1.0457   1.1756   1.1827   1.2027   1.3015   1.3423
     1.3491   1.3618   2.2718   2.2729   2.3545   2.3546   4.1001   4.1875
     4.2321   4.2697   4.3756   4.4906   4.5091   4.5514   4.5520   4.6293
     4.6498

     the Fermi energy is     4.0207 ev

!    total energy              =   -2942.82551286 Ry
     estimated scf accuracy    <       0.00000006 Ry
     smearing contrib. (-TS)   =      -0.03683687 Ry
     internal energy E=F+TS    =   -2942.78867599 Ry

     The total energy is F=E-TS. E is the sum of the following terms:
     one-electron contribution =  -23971.71225752 Ry
     hartree contribution      =   12081.41860568 Ry
     xc contribution           =    -487.76874368 Ry
     ewald contribution        =    9435.26879018 Ry
     electric field correction =       0.00492935 Ry

     total magnetization       =     0.06 Bohr mag/cell
     absolute magnetization    =     0.09 Bohr mag/cell

     convergence has been achieved in  84 iterations

     Forces acting on atoms (cartesian axes, Ry/au):

     atom    1 type  1   force =     0.00014746   -0.00022612    0.09432450
     atom    2 type  1   force =    -0.00009565   -0.00033390   -0.17741011
     atom    3 type  2   force =     0.00005418   -0.00016364   -0.02132837
     atom    4 type  2   force =    -0.00001511   -0.00172664    0.05659967
     atom    5 type  2   force =    -0.01055117   -0.00127527    0.00624411
     atom    6 type  2   force =     0.01221751   -0.00074193    0.00571491
     atom    7 type  1   force =    -0.00032696    0.00172608   -0.01619200
     atom    8 type  1   force =    -0.00011152    0.00438737    0.00559431
     atom    9 type  2   force =     0.00000948   -0.00004382   -0.00005505
     atom   10 type  2   force =    -0.00074286   -0.00022264   -0.00045305
     atom   11 type  2   force =     0.00034596    0.00012842   -0.00019549
     atom   12 type  2   force =    -0.00051823    0.00000441   -0.00013213
     atom   13 type  1   force =     0.00003437   -0.00034876    0.00013696
     atom   14 type  1   force =     0.00056000    0.00011914   -0.00031488
     atom   15 type  2   force =    -0.00038778    0.00019964   -0.00021514
     atom   16 type  2   force =    -0.00033336    0.00019077   -0.00007048
     atom   17 type  2   force =    -0.00022270    0.00004925    0.00029553
     atom   18 type  2   force =     0.00011259    0.00033523   -0.00009750
     atom   19 type  1   force =     0.00022390   -0.00000073    0.00011844
     atom   20 type  1   force =     0.00001217    0.00047930   -0.00037138
     atom   21 type  2   force =     0.00003679    0.00004224    0.10362255
     atom   22 type  2   force =    -0.00000317   -0.00077496   -0.00038674
     atom   23 type  2   force =    -0.07081618   -0.00010058   -0.02718776
     atom   24 type  2   force =     0.07068054    0.00034129   -0.02721951
     atom   25 type  1   force =    -0.00009511   -0.00019582    0.09373668
     atom   26 type  1   force =    -0.00015241   -0.00032071   -0.17733420
     atom   27 type  2   force =     0.00008747   -0.00035213   -0.02042964
     atom   28 type  2   force =     0.00003137   -0.00144059    0.05590883
     atom   29 type  2   force =    -0.01091239   -0.00073680    0.00609275
     atom   30 type  2   force =     0.01246426   -0.00029283    0.00557100
     atom   31 type  1   force =    -0.00017375    0.00462980   -0.01722060
     atom   32 type  1   force =    -0.00003913   -0.00480508    0.00557441
     atom   33 type  2   force =     0.00005663    0.00012393    0.00026299
     atom   34 type  2   force =     0.00005638   -0.00085065   -0.00298005
     atom   35 type  2   force =     0.00023441    0.00002969    0.00007234
     atom   36 type  2   force =    -0.00042878    0.00015401   -0.00007265
     atom   37 type  1   force =    -0.00013228   -0.00011137   -0.00016944
     atom   38 type  1   force =     0.00043909   -0.00028695    0.00038462
     atom   39 type  2   force =    -0.00044725    0.00010738    0.00070940
     atom   40 type  2   force =    -0.00012048    0.00019132   -0.00023243
     atom   41 type  2   force =     0.00012536    0.00028347    0.00028452
     atom   42 type  2   force =    -0.00008664    0.00019992   -0.00003271
     atom   43 type  1   force =    -0.00038708    0.00064033   -0.00000862
     atom   44 type  1   force =    -0.00023932    0.00042184   -0.00020832
     atom   45 type  2   force =     0.00002651    0.00000906    0.10362624
     atom   46 type  2   force =    -0.07081853   -0.00003590   -0.02719487
     atom   47 type  2   force =     0.07068345    0.00037657   -0.02720001
     atom   48 type  3   force =    -0.00034229   -0.00106152    0.00084569
     atom   49 type  4   force =    -0.00024378    0.00020437   -0.00058898
     atom   50 type  5   force =     0.00002023   -0.00000077    0.00004548
     atom   51 type  5   force =    -0.00028674   -0.00032171    0.00000292
     atom   52 type  5   force =    -0.00034490   -0.00001543    0.00014558
     atom   53 type  3   force =    -0.00130735   -0.00347009    0.00528838
     atom   54 type  5   force =     0.00055927    0.00082535   -0.00070072
     atom   55 type  5   force =    -0.00054693   -0.00037348   -0.00068355
     atom   56 type  5   force =     0.00201048    0.00443064   -0.00451642

     Total force =     0.365709     Total SCF correction =     0.000488
  @ DRIVER MODE: Message from server: STATUS
  @ DRIVER MODE: Message from server: GETFORCE
  @ DRIVER MODE: Returning v,forces,stress,ensemble

     Writing output data file ./calc.save/
  @ DRIVER MODE: Message from server: EXIT
  @ DRIVE MODE: Exiting

     General routines

     Parallel routines

   This run was terminated on:  13:26:53  17Jul2021

   JOB DONE.