     Program PWSCF v.6.7GPU starts on  4Aug2021 at 11:27:31

     R & G space division:  proc/nbgrp/npool/nimage =      16
     Reading input from /storage/home/hcoda1/3/ntian30/research/carbon/02Aug_vib_paired/ads_slab/CH3NN_b/out_0021/pw.inp
Warning: card &CELL ignored
Warning: card   CELL_DYNAMICS='IPI', ignored
Warning: card / ignored

     Current dimensions of program PWSCF are:
     Max number of different atomic species (ntypx) = 10
     Max number of k-points (npk) =  40000
     Max angular momentum in pseudopotentials (lmaxx) =  3
     Presently no symmetry can be used with electric field

     Message from routine cell_base_init:
     DEPRECATED: use true lattice parameter, not A to a.u. conversion factor

     IMPORTANT: XC functional enforced from input :
     Exchange-correlation= BEEF-VDW
                           (   1   4  43  14   2   0   0)
     Any further DFT definition will be discarded
     Please, verify this is what you really want

  @ DRIVER MODE: Connecting to
 qe_1139763_2492023.sched-torque.pace.gatech.edu553dvrv5_scratch
  using UNIX socket
  @ DRIVER MODE: Message from server: STATUS
  @ DRIVER MODE: Message from server: INIT
  @ DRIVER MODE: Receiving replica           0          -1
  @ DRIVER MODE: Receiving encoded integer          25
  @ DRIVER MODE:  SCF:  T  FORCE:  T  STRESS:  F  VC:  F  ENSEMBLE:  F
  @ DRIVER MODE:  SCF:  T  FORCE:  T  STRESS:  F  VC:  F  ENSEMBLE:  F

     Using Slab Decomposition

     bravais-lattice index     =            0
     lattice parameter (alat)  =       1.8897  a.u.
     unit-cell volume          =    6658.9804 (a.u.)^3
     number of atoms/cell      =           53
     number of atomic types    =            5
     number of electrons       =       395.00
     number of Kohn-Sham states=          207
     kinetic-energy cutoff     =      29.3995  Ry
     charge density cutoff     =     293.9946  Ry
     scf convergence threshold =      7.3E-08
     mixing beta               =       0.0500
     number of iterations used =            8  plain     mixing
     Exchange-correlation= BEEF-VDW
                           (   1   4  43  14   2   0   0)

     celldm(1)=   1.889726  celldm(2)=   0.000000  celldm(3)=   0.000000
     celldm(4)=   0.000000  celldm(5)=   0.000000  celldm(6)=   0.000000

     crystal axes: (cart. coord. in units of alat)
               a(1) = (   6.579727   0.000000   0.000000 )
               a(2) = (  -0.000775   5.961596   0.000000 )
               a(3) = (   0.000000   0.000000  25.155947 )

     reciprocal axes: (cart. coord. in units 2 pi/alat)
               b(1) = (  0.151982  0.000020  0.000000 )
               b(2) = (  0.000000  0.167740  0.000000 )
               b(3) = (  0.000000  0.000000  0.039752 )

     PseudoPot. # 1 for Ti read from file:
     /storage/coda1/p-amedford6/0/shared/rich_project_chbe-medford/medford-share/data/pseudos_module/espresso/nninc/pbe/van/Ti.UPF
     MD5 check sum: 8e4df49b7f0d34bbd5052bf3f5ea0213
     Pseudo is Ultrasoft, Zval = 12.0
     Generated by new atomic code, or converted to UPF format
     Using radial grid of  851 points,  6 beta functions with:
                l(1) =   0
                l(2) =   0
                l(3) =   1
                l(4) =   1
                l(5) =   2
                l(6) =   2
     Q(r) pseudized with  8 coefficients,  rinner =    1.000   1.000   1.000
                                                       1.000   1.000

     PseudoPot. # 2 for O  read from file:
     /storage/coda1/p-amedford6/0/shared/rich_project_chbe-medford/medford-share/data/pseudos_module/espresso/nninc/pbe/van/O.UPF
     MD5 check sum: 78c19812648e8988a0fe644b0f25305e
     Pseudo is Ultrasoft, Zval =  6.0
     Generated by new atomic code, or converted to UPF format
     Using radial grid of  737 points,  4 beta functions with:
                l(1) =   0
                l(2) =   0
                l(3) =   1
                l(4) =   1
     Q(r) pseudized with  8 coefficients,  rinner =    0.800   0.800   0.800

     PseudoPot. # 3 for N  read from file:
     /storage/coda1/p-amedford6/0/shared/rich_project_chbe-medford/medford-share/data/pseudos_module/espresso/nninc/pbe/van/N.UPF
     MD5 check sum: 90d10febe142ad51ac9d5be1deb811c4
     Pseudo is Ultrasoft, Zval =  5.0
     Generated by new atomic code, or converted to UPF format
     Using radial grid of  729 points,  4 beta functions with:
                l(1) =   0
                l(2) =   0
                l(3) =   1
                l(4) =   1
     Q(r) pseudized with  8 coefficients,  rinner =    0.800   0.800   0.800

     PseudoPot. # 4 for C  read from file:
     /storage/coda1/p-amedford6/0/shared/rich_project_chbe-medford/medford-share/data/pseudos_module/espresso/nninc/pbe/van/C.UPF
     MD5 check sum: 1a69bf6b8db32088f5b2163dbdb77a27
     Pseudo is Ultrasoft, Zval =  4.0
     Generated by new atomic code, or converted to UPF format
     Using radial grid of  721 points,  4 beta functions with:
                l(1) =   0
                l(2) =   0
                l(3) =   1
                l(4) =   1
     Q(r) pseudized with  8 coefficients,  rinner =    0.800   0.800   0.800

     PseudoPot. # 5 for H  read from file:
     /storage/coda1/p-amedford6/0/shared/rich_project_chbe-medford/medford-share/data/pseudos_module/espresso/nninc/pbe/van/H.UPF
     MD5 check sum: b5ee9d7bfd3a09ee7748110bda690ff7
     Pseudo is Ultrasoft, Zval =  1.0
     Generated by new atomic code, or converted to UPF format
     Using radial grid of  615 points,  1 beta functions with:
                l(1) =   0
     Q(r) pseudized with  8 coefficients,  rinner =    0.800

     atomic species   valence    mass     pseudopotential
        Ti1           12.00    47.86700     Ti( 1.00)
        O1             6.00    15.99900     O ( 1.00)
        N1             5.00    14.00700     N ( 1.00)
        C1             4.00    12.01100     C ( 1.00)
        H1             1.00     1.00800     H ( 1.00)

     No symmetry found

   Cartesian axes

     site n.     atom                  positions (alat units)
         1           Ti1 tau(   1) = (   0.0004258   2.9801865   6.0000000  )
         2           Ti1 tau(   2) = (   3.2906075   1.4906267   6.0002472  )
         3           O1  tau(   3) = (   0.0006271   0.0005054   7.9858123  )
         4           O1  tau(   4) = (   3.2906025   0.0005020   7.3038282  )
         5           O1  tau(   5) = (   4.5942328   1.4918067   9.2879030  )
         6           O1  tau(   6) = (   1.9868534   1.4903216   9.2879459  )
         7           Ti1 tau(   7) = (   3.2907910   2.8959150   9.1758416  )
         8           Ti1 tau(   8) = (   0.0015273   1.4827037   9.2680791  )
         9           O1  tau(   9) = (   3.2846693   5.9452209  11.3340492  )
        10           O1  tau(  10) = (   0.0116148   5.9584955  10.6183126  )
        11           O1  tau(  11) = (   1.2834543   1.4847615  12.6293855  )
        12           O1  tau(  12) = (   5.2674731   1.4768263  12.6150299  )
        13           Ti1 tau(  13) = (   0.0515077   3.0114797  12.6524288  )
        14           Ti1 tau(  14) = (   3.3730355   1.4714245  12.4820590  )
        15           O1  tau(  15) = (   6.5599962   0.0037305  14.6029173  )
        16           O1  tau(  16) = (   3.2800597   5.9387738  13.9271036  )
        17           O1  tau(  17) = (   4.5186125   1.4654914  16.0451899  )
        18           O1  tau(  18) = (   2.0258539   1.4687252  16.0523685  )
        19           Ti1 tau(  19) = (   3.2649076   2.9492218  15.6988400  )
        20           Ti1 tau(  20) = (   6.5508048   1.3556675  15.8025096  )
        21           O1  tau(  21) = (   3.2904802   0.0005063   4.7018136  )
        22           O1  tau(  22) = (   6.5741700   5.9536011  17.1303138  )
        23           O1  tau(  23) = (   1.3043587   1.4918075   6.0039043  )
        24           O1  tau(  24) = (   5.2767064   1.4903225   6.0039473  )
        25           Ti1 tau(  25) = (   0.0000382   5.9609847   6.0000000  )
        26           Ti1 tau(  26) = (   3.2902200   4.4714249   6.0002472  )
        27           O1  tau(  27) = (   0.0002396   2.9813036   7.9858123  )
        28           O1  tau(  28) = (   3.2902150   2.9813002   7.3038282  )
        29           O1  tau(  29) = (   4.5938453   4.4726049   9.2879030  )
        30           O1  tau(  30) = (   1.9864658   4.4711199   9.2879459  )
        31           Ti1 tau(  31) = (   3.2891106   5.8743827   9.1763621  )
        32           Ti1 tau(  32) = (   0.0006254   4.4649316   9.2693709  )
        33           O1  tau(  33) = (   3.2861826   2.9668924  11.3320306  )
        34           O1  tau(  34) = (   0.0092240   2.9805883  10.6323155  )
        35           O1  tau(  35) = (   1.2809698   4.4658153  12.6346578  )
        36           O1  tau(  36) = (   5.2715881   4.4563464  12.6201172  )
        37           Ti1 tau(  37) = (   0.0635592   0.0233401  12.5351680  )
        38           Ti1 tau(  38) = (   3.3726470   4.4512063  12.4842852  )
        39           O1  tau(  39) = (   6.5700678   2.9603531  14.7052597  )
        40           O1  tau(  40) = (   3.2800127   2.9650284  13.9044324  )
        41           O1  tau(  41) = (   4.5221929   4.4260918  16.0817388  )
        42           O1  tau(  42) = (   2.0277389   4.4301665  16.0727494  )
        43           Ti1 tau(  43) = (   3.2617617   5.9330256  15.7261539  )
        44           Ti1 tau(  44) = (   6.5423007   4.4542687  16.1498850  )
        45           O1  tau(  45) = (   3.2900926   2.9813045   4.7018136  )
        46           O1  tau(  46) = (   1.3039711   4.4726057   6.0039043  )
        47           O1  tau(  47) = (   5.2763189   4.4711207   6.0039473  )
        48           N1  tau(  48) = (   2.8794700   5.9070534  18.9683957  )
        49           C1  tau(  49) = (   6.5502552   3.0456858  17.8350167  )
        50           H1  tau(  50) = (   5.8927902   3.7356694  18.3776660  )
        51           H1  tau(  51) = (   6.1439290   2.0579341  18.0513002  )
        52           H1  tau(  52) = (   0.9604482   3.1013269  18.2919552  )
        53           N1  tau(  53) = (   2.0863344   5.7764004  19.7355773  )

     number of k points=    10  Fermi-Dirac smearing, width (Ry)=  0.0073
                       cart. coord. in units 2pi/alat
        k(    1) = (   0.0000000   0.0000000   0.0000000), wk =   0.1250000
        k(    2) = (   0.0000000   0.0419351   0.0000000), wk =   0.2500000
        k(    3) = (   0.0000000  -0.0838702   0.0000000), wk =   0.1250000
        k(    4) = (   0.0379955   0.0000049   0.0000000), wk =   0.2500000
        k(    5) = (   0.0379955   0.0419400   0.0000000), wk =   0.2500000
        k(    6) = (   0.0379955  -0.0838652   0.0000000), wk =   0.2500000
        k(    7) = (   0.0379955  -0.0419301   0.0000000), wk =   0.2500000
        k(    8) = (  -0.0759910  -0.0000099   0.0000000), wk =   0.1250000
        k(    9) = (  -0.0759910   0.0419252   0.0000000), wk =   0.2500000
        k(   10) = (  -0.0759910  -0.0838800   0.0000000), wk =   0.1250000

     Initial potential from superposition of free atoms

     starting charge  378.99916, renormalised to  395.00000

     negative rho (up, down):  1.681E-02 0.000E+00

     %%%%%%%%%%%%%%%%%%%%%%%%%%%%%%%%%%%%%%%%%%%%%%%%%%%%%%%%%%%%%%%%%%%%%%%%
     %                                                                      %
     % You are using vdW-DF, which was implemented by the Thonhauser group. %
     % Please cite the following two papers that made this development      %
     % possible and the two reviews that describe the various versions:     %
     %                                                                      %
     %   T. Thonhauser et al., PRL 115, 136402 (2015).                      %
     %   T. Thonhauser et al., PRB 76, 125112 (2007).                       %
     %   K. Berland et al., Rep. Prog. Phys. 78, 066501 (2015).             %
     %   D.C. Langreth et al., J. Phys.: Condens. Matter 21, 084203 (2009). %
     %                                                                      %
     %                                                                      %
     % If you are calculating the stress with vdW-DF, please also cite:     %
     %                                                                      %
     %   R. Sabatini et al., J. Phys.: Condens. Matter 24, 424209 (2012).   %
     %                                                                      %
     %%%%%%%%%%%%%%%%%%%%%%%%%%%%%%%%%%%%%%%%%%%%%%%%%%%%%%%%%%%%%%%%%%%%%%%%

     Adding external electric field

     Computed dipole along edir(3) :
        Dipole               -8.8656 Ry au,        -22.5341 Debye
        Dipole field         -0.0167 Ry au,

        Potential amp.        1.5509 Ry
        Total length         46.3494 bohr

     Starting wfcs are  299 atomic wfcs
  @ DRIVER MODE: Message from server: STATUS
  @ DRIVER MODE: Message from server: POSDATA
  @ DRIVER MODE: Reading and sharing cell
  @ DRIVER MODE: Reading and sharing positions
  @ DRIVER MODE: Received positions

     Self-consistent Calculation

     iteration #  1     ecut=    29.40 Ry     beta= 0.05
     Davidson diagonalization with overlap
     c_bands:  2 eigenvalues not converged
     c_bands:  1 eigenvalues not converged
     c_bands:  1 eigenvalues not converged
     c_bands:  3 eigenvalues not converged
     c_bands:  3 eigenvalues not converged
     c_bands:  1 eigenvalues not converged
     c_bands:  1 eigenvalues not converged
     ethr =  1.00E-05,  avg # of iterations = 19.2

[...]

     total energy              =   -2624.01332143 Ry
     estimated scf accuracy    <    3510.40670753 Ry

[...]

     iteration #  3     ecut=    29.40 Ry     beta= 0.05
     Davidson diagonalization with overlap
     ethr =  1.00E-02,  avg # of iterations = 15.0

[...]

     iteration # 84     ecut=    29.40 Ry     beta= 0.05
     Davidson diagonalization with overlap
     c_bands:  1 eigenvalues not converged
     c_bands:  1 eigenvalues not converged
     ethr =  3.98E-10,  avg # of iterations = 16.1

[...]

     total energy              =   -2939.21001432 Ry
     estimated scf accuracy    <       0.00000009 Ry

     iteration # 88     ecut=    29.40 Ry     beta= 0.05
     Davidson diagonalization with overlap
     ethr =  2.35E-11,  avg # of iterations = 10.3

     negative rho (up, down):  1.663E-02 0.000E+00

     Adding external electric field

     Computed dipole along edir(3) :
        Dipole                0.4585 Ry au,          1.1654 Debye
        Dipole field          0.0009 Ry au,

        Potential amp.       -0.0802 Ry
        Total length         46.3494 bohr

     End of self-consistent calculation

          k = 0.0000 0.0000 0.0000 ( 18029 PWs)   bands (ev):

   -56.0378 -56.0283 -56.0037 -55.9918 -55.9293 -55.8951 -55.8730 -55.8510
   -55.8442 -55.8112 -55.8102 -55.7774 -55.6064 -55.4865 -55.0151 -54.9810
   -32.5831 -32.5200 -32.3915 -32.3776 -32.3443 -32.3438 -32.3308 -32.3016
   -32.2801 -32.2599 -32.2525 -32.2360 -32.2086 -32.1900 -32.1808 -32.1677
   -32.1567 -32.1418 -32.1265 -32.1007 -32.0978 -32.0950 -32.0669 -32.0490
   -32.0449 -32.0420 -32.0323 -32.0285 -32.0152 -32.0134 -32.0055 -31.9876
   -31.9850 -31.9788 -31.9639 -31.9473 -31.9229 -31.8914 -31.8182 -31.7663
   -31.7012 -31.5930 -31.4222 -31.3339 -31.3115 -31.2389 -31.1524 -31.0414
   -20.8661 -16.7849 -16.5142 -16.2942 -16.1933 -16.1689 -16.0437 -15.8815
   -15.7583 -15.7108 -15.6097 -15.6005 -15.5738 -15.5517 -15.5375 -15.5266
   -15.4906 -15.4799 -15.4626 -15.4517 -15.4017 -15.3918 -15.3735 -15.2756
   -15.2190 -15.1729 -15.1590 -15.0935 -15.0416 -14.6797 -13.5177 -13.4013
    -9.1508  -6.2755  -4.1578  -4.0760  -4.0570  -3.9982  -3.9439  -3.9031
    -3.8757  -3.6574  -3.5863  -3.2905  -3.2290  -3.2094  -3.1948  -3.1641
    -3.0260  -2.9813  -2.9423  -2.8791  -2.8557  -2.8406  -2.8167  -2.8068
    -2.7889  -2.7567  -2.7210  -2.7112  -2.6522  -2.6045  -2.5307  -2.4526
    -2.4345  -2.3537  -2.3383  -2.3109  -2.2808  -2.2713  -2.2662  -2.2392
    -2.2104  -2.2044  -2.0155  -1.9913  -1.9289  -1.8329  -1.8093  -1.6451
    -1.5776  -1.4956  -1.4852  -1.4656  -1.4473  -1.4283  -1.3375  -1.1982
    -1.1767  -1.1546  -1.1051  -1.0443  -1.0106  -0.9155  -0.8832  -0.8064
    -0.7993  -0.7757  -0.7113  -0.6604  -0.5264  -0.4947  -0.4831  -0.4391
    -0.3937  -0.3315  -0.3159  -0.2557  -0.1897  -0.1805  -0.1046  -0.0751
    -0.0686  -0.0529  -0.0316   0.0035   0.0171   0.1435   0.1663   0.2528
     0.2932   0.3819   0.5141   0.6208   0.6473   0.7146   0.9325   1.0068
     1.1043   1.1299   1.1989   1.5781   1.6238   3.1006   3.1842   3.2320
     3.2428   3.3297   3.3471   3.5497   3.5777   3.6087   3.6433

[...]

          k = 0.0380-0.0419 0.0000 ( 17876 PWs)   bands (ev):

[...]

          k =-0.0760-0.0000 0.0000 ( 17886 PWs)   bands (ev):

[...]

          k =-0.0760-0.0839 0.0000 ( 17948 PWs)   bands (ev):

   -56.0214 -56.0200 -56.0130 -56.0069 -55.9233 -55.8871 -55.8788 -55.8590
   -55.8284 -55.8256 -55.7959 -55.7929 -55.6043 -55.4884 -54.9981 -54.9979
   -32.3894 -32.3835 -32.3357 -32.3348 -32.3167 -32.3156 -32.3039 -32.2919
   -32.2470 -32.2306 -32.2285 -32.2262 -32.1924 -32.1703 -32.1679 -32.1566
   -32.1496 -32.1410 -32.1400 -32.1394 -32.1339 -32.1307 -32.1210 -32.1052
   -32.0768 -32.0758 -32.0733 -32.0471 -32.0286 -32.0274 -32.0260 -32.0244
   -32.0100 -32.0087 -32.0058 -31.9995 -31.9712 -31.8768 -31.8204 -31.7692
   -31.7416 -31.6444 -31.3242 -31.3241 -31.2351 -31.2348 -31.1958 -31.1956
   -20.8660 -16.2230 -16.1917 -15.9999 -15.9528 -15.9474 -15.9364 -15.8464
   -15.7387 -15.7330 -15.7318 -15.6617 -15.6390 -15.6311 -15.5785 -15.5759
   -15.5653 -15.5543 -15.5492 -15.5005 -15.4927 -15.4761 -15.4667 -15.4099
   -15.3544 -15.3501 -15.3413 -15.1433 -15.0283 -14.9631 -13.5033 -13.5030
    -9.1644  -6.2765  -4.0866  -4.0630  -3.5159  -3.4759  -3.2642  -3.1989
    -3.1848  -3.1124  -2.9763  -2.9604  -2.9370  -2.9308  -2.9161  -2.8851
    -2.8709  -2.8521  -2.8450  -2.8282  -2.8142  -2.7887  -2.7521  -2.7447
    -2.7369  -2.7075  -2.6903  -2.6671  -2.6581  -2.6382  -2.6315  -2.5978
    -2.5738  -2.5536  -2.5469  -2.4237  -2.2810  -2.2357  -2.1819  -2.1659
    -2.1640  -2.1298  -2.1002  -2.0899  -2.0650  -2.0215  -1.8677  -1.7662
    -1.7409  -1.7120  -1.6679  -1.6278  -1.5723  -1.4383  -1.4245  -1.3968
    -1.3409  -1.3270  -1.2791  -1.2645  -1.2487  -1.1687  -1.1361  -1.0824
    -1.0102  -0.9990  -0.9922  -0.9370  -0.8827  -0.8076  -0.7988  -0.7591
    -0.7176  -0.6781  -0.6444  -0.6184  -0.5503  -0.5147  -0.3992  -0.3458
    -0.1142  -0.0733   0.0098   0.0540   0.1072   0.1506   0.1613   0.2796
     0.2821   0.3024   0.3873   0.3971   0.4893   0.5082   0.5193   0.7189
     1.2182   1.3705   1.3714   1.4432   1.4438   3.3833   3.3963   3.4219
     3.4676   3.6019   3.6106   3.6295   3.6315   3.7570   3.7819

     the Fermi energy is     3.0971 ev

!    total energy              =   -2939.21001884 Ry
     estimated scf accuracy    <       0.00000005 Ry
     smearing contrib. (-TS)   =      -0.02183794 Ry
     internal energy E=F+TS    =   -2939.18818091 Ry

     The total energy is F=E-TS. E is the sum of the following terms:
     one-electron contribution =  -24056.46692644 Ry
     hartree contribution      =   12113.79537050 Ry
     xc contribution           =    -484.92438702 Ry
     ewald contribution        =    9488.40736533 Ry
     electric field correction =       0.00039673 Ry

     convergence has been achieved in  88 iterations

     Forces acting on atoms (cartesian axes, Ry/au):

     atom    1 type  1   force =     0.00024385   -0.00019213    0.09661637
     atom    2 type  1   force =    -0.00017497   -0.00055735   -0.17534078
     atom    3 type  2   force =    -0.00000721   -0.00005014   -0.02513815
     atom    4 type  2   force =     0.00007054   -0.00152193    0.05292533
     atom    5 type  2   force =    -0.01233746   -0.00156352    0.00379645
     atom    6 type  2   force =     0.01382140   -0.00083646    0.00222358
     atom    7 type  1   force =    -0.00113877    0.00041291   -0.01136987
     atom    8 type  1   force =     0.00079663    0.01677344    0.02865264
     atom    9 type  2   force =     0.00010902   -0.00020860   -0.00002863
     atom   10 type  2   force =    -0.00173848    0.00057286   -0.01859039
     atom   11 type  2   force =    -0.00017990   -0.00005605   -0.00014046
     atom   12 type  2   force =    -0.00001057   -0.00000999   -0.00001456
     atom   13 type  1   force =     0.00011963   -0.00027385   -0.00023238
     atom   14 type  1   force =    -0.00009657    0.00032328    0.00026280
     atom   15 type  2   force =    -0.00022462   -0.00003264   -0.00101523
     atom   16 type  2   force =     0.00000081   -0.00022748   -0.00030771
     atom   17 type  2   force =     0.00037071    0.00031048    0.00036267
     atom   18 type  2   force =    -0.00047695   -0.00001075   -0.00006067
     atom   19 type  1   force =    -0.00043016   -0.00008357   -0.00006082
     atom   20 type  1   force =    -0.00004440    0.00083158    0.00021742
     atom   21 type  2   force =     0.00013534    0.00001352    0.10322337
     atom   22 type  2   force =     0.00004725   -0.00048761   -0.00018766
     atom   23 type  2   force =    -0.07147144   -0.00012012   -0.02774205
     atom   24 type  2   force =     0.07146819    0.00030494   -0.02772355
     atom   25 type  1   force =     0.00011855   -0.00016955    0.09642112
     atom   26 type  1   force =    -0.00007927   -0.00019989   -0.17541901
     atom   27 type  2   force =     0.00008835   -0.00016345   -0.02392166
     atom   28 type  2   force =     0.00008958   -0.00126384    0.05299192
     atom   29 type  2   force =    -0.01252776    0.00044449    0.00363955
     atom   30 type  2   force =     0.01396302    0.00085195    0.00204937
     atom   31 type  1   force =    -0.00129167    0.00338892   -0.01272919
     atom   32 type  1   force =     0.00075092   -0.01753555    0.02976224
     atom   33 type  2   force =     0.00017272    0.00017236   -0.00009326
     atom   34 type  2   force =    -0.00105204    0.00009379   -0.02246099
     atom   35 type  2   force =     0.00011418    0.00022411    0.00005973
     atom   36 type  2   force =     0.00008263    0.00010447    0.00020385
     atom   37 type  1   force =    -0.00012909    0.00038317   -0.00021981
     atom   38 type  1   force =    -0.00018347    0.00027410    0.00029348
     atom   39 type  2   force =     0.00007175    0.00021382    0.00047284
     atom   40 type  2   force =    -0.00002904   -0.00000842    0.00002378
     atom   41 type  2   force =     0.00030183   -0.00020456    0.00006754
     atom   42 type  2   force =     0.00018019   -0.00018865    0.00015644
     atom   43 type  1   force =    -0.00004827   -0.00028341    0.00014698
     atom   44 type  1   force =    -0.00001924   -0.00009298    0.00041820
     atom   45 type  2   force =     0.00011350   -0.00001167    0.10323236
     atom   46 type  2   force =    -0.07146446   -0.00011182   -0.02770477
     atom   47 type  2   force =     0.07147696    0.00037090   -0.02773199
     atom   48 type  3   force =    -0.03031731   -0.00461414    0.02722042
     atom   49 type  4   force =    -0.00027414   -0.00036233   -0.00025704
     atom   50 type  5   force =    -0.00032549    0.00016086    0.00040747
     atom   51 type  5   force =    -0.00015960   -0.00025052    0.00011737
     atom   52 type  5   force =     0.00070110    0.00014013   -0.00012549
     atom   53 type  3   force =     0.03082369    0.00532690   -0.02734914

     Total force =     0.373353     Total SCF correction =     0.000406
  @ DRIVER MODE: Message from server: STATUS
  @ DRIVER MODE: Message from server: GETFORCE
  @ DRIVER MODE: Returning v,forces,stress,ensemble

     Writing output data file ./calc.save/
  @ DRIVER MODE: Message from server: EXIT
  @ DRIVE MODE: Exiting

     General routines

     Parallel routines

   This run was terminated on:  11:44:30   4Aug2021

   JOB DONE.