     Program PWSCF v.6.7GPU starts on 18Aug2021 at 11:36:29

     R & G space division:  proc/nbgrp/npool/nimage =       6
     Reading input from /storage/home/hcoda1/3/ntian30/research/carbon/CH3_vib_side_on/ads_slab/CH3N2_c/out_0001/pw.inp
Warning: card &CELL ignored
Warning: card   CELL_DYNAMICS='IPI', ignored
Warning: card / ignored

     Current dimensions of program PWSCF are:
     Max number of different atomic species (ntypx) = 10
     Max number of k-points (npk) =  40000
     Max angular momentum in pseudopotentials (lmaxx) =  3
     Presently no symmetry can be used with electric field

     Message from routine cell_base_init:
     DEPRECATED: use true lattice parameter, not A to a.u. conversion factor

     IMPORTANT: XC functional enforced from input :
     Exchange-correlation= BEEF-VDW
                           (   1   4  43  14   2   0   0)
     Any further DFT definition will be discarded
     Please, verify this is what you really want

  @ DRIVER MODE: Connecting to
 qe_1139763_2594174.sched-torque.pace.gatech.edu2ux2t319_scratch
  using UNIX socket
  @ DRIVER MODE: Message from server: STATUS
  @ DRIVER MODE: Message from server: INIT
  @ DRIVER MODE: Receiving replica           0          -1
  @ DRIVER MODE: Receiving encoded integer          25
  @ DRIVER MODE:  SCF:  T  FORCE:  T  STRESS:  F  VC:  F  ENSEMBLE:  F
  @ DRIVER MODE:  SCF:  T  FORCE:  T  STRESS:  F  VC:  F  ENSEMBLE:  F

     Using Slab Decomposition

     bravais-lattice index     =            0
     lattice parameter (alat)  =       1.8897  a.u.
     unit-cell volume          =    6658.9804 (a.u.)^3
     number of atoms/cell      =           53
     number of atomic types    =            5
     number of electrons       =       395.00
     number of Kohn-Sham states=          207
     kinetic-energy cutoff     =      29.3995  Ry
     charge density cutoff     =     293.9946  Ry
     scf convergence threshold =      7.3E-08
     mixing beta               =       0.0500
     number of iterations used =            8  plain     mixing
     Exchange-correlation= BEEF-VDW
                           (   1   4  43  14   2   0   0)

     celldm(1)=   1.889726  celldm(2)=   0.000000  celldm(3)=   0.000000
     celldm(4)=   0.000000  celldm(5)=   0.000000  celldm(6)=   0.000000

     crystal axes: (cart. coord. in units of alat)
               a(1) = (   6.579727   0.000000   0.000000 )
               a(2) = (  -0.000775   5.961596   0.000000 )
               a(3) = (   0.000000   0.000000  25.155947 )

     reciprocal axes: (cart. coord. in units 2 pi/alat)
               b(1) = (  0.151982  0.000020  0.000000 )
               b(2) = (  0.000000  0.167740  0.000000 )
               b(3) = (  0.000000  0.000000  0.039752 )

     PseudoPot. # 1 for Ti read from file:
     /storage/coda1/p-amedford6/0/shared/rich_project_chbe-medford/medford-share/data/pseudos_module/espresso/nninc/pbe/van/Ti.UPF
     MD5 check sum: 8e4df49b7f0d34bbd5052bf3f5ea0213
     Pseudo is Ultrasoft, Zval = 12.0
     Generated by new atomic code, or converted to UPF format
     Using radial grid of  851 points,  6 beta functions with:
                l(1) =   0
                l(2) =   0
                l(3) =   1
                l(4) =   1
                l(5) =   2
                l(6) =   2
     Q(r) pseudized with  8 coefficients,  rinner =    1.000   1.000   1.000
                                                       1.000   1.000

     PseudoPot. # 2 for O  read from file:
     /storage/coda1/p-amedford6/0/shared/rich_project_chbe-medford/medford-share/data/pseudos_module/espresso/nninc/pbe/van/O.UPF
     MD5 check sum: 78c19812648e8988a0fe644b0f25305e
     Pseudo is Ultrasoft, Zval =  6.0
     Generated by new atomic code, or converted to UPF format
     Using radial grid of  737 points,  4 beta functions with:
                l(1) =   0
                l(2) =   0
                l(3) =   1
                l(4) =   1
     Q(r) pseudized with  8 coefficients,  rinner =    0.800   0.800   0.800

     PseudoPot. # 3 for N  read from file:
     /storage/coda1/p-amedford6/0/shared/rich_project_chbe-medford/medford-share/data/pseudos_module/espresso/nninc/pbe/van/N.UPF
     MD5 check sum: 90d10febe142ad51ac9d5be1deb811c4
     Pseudo is Ultrasoft, Zval =  5.0
     Generated by new atomic code, or converted to UPF format
     Using radial grid of  729 points,  4 beta functions with:
                l(1) =   0
                l(2) =   0
                l(3) =   1
                l(4) =   1
     Q(r) pseudized with  8 coefficients,  rinner =    0.800   0.800   0.800

     PseudoPot. # 4 for C  read from file:
     /storage/coda1/p-amedford6/0/shared/rich_project_chbe-medford/medford-share/data/pseudos_module/espresso/nninc/pbe/van/C.UPF
     MD5 check sum: 1a69bf6b8db32088f5b2163dbdb77a27
     Pseudo is Ultrasoft, Zval =  4.0
     Generated by new atomic code, or converted to UPF format
     Using radial grid of  721 points,  4 beta functions with:
                l(1) =   0
                l(2) =   0
                l(3) =   1
                l(4) =   1
     Q(r) pseudized with  8 coefficients,  rinner =    0.800   0.800   0.800

     PseudoPot. # 5 for H  read from file:
     /storage/coda1/p-amedford6/0/shared/rich_project_chbe-medford/medford-share/data/pseudos_module/espresso/nninc/pbe/van/H.UPF
     MD5 check sum: b5ee9d7bfd3a09ee7748110bda690ff7
     Pseudo is Ultrasoft, Zval =  1.0
     Generated by new atomic code, or converted to UPF format
     Using radial grid of  615 points,  1 beta functions with:
                l(1) =   0
     Q(r) pseudized with  8 coefficients,  rinner =    0.800

     atomic species   valence    mass     pseudopotential
        Ti1           12.00    47.86700     Ti( 1.00)
        O1             6.00    15.99900     O ( 1.00)
        N1             5.00    14.00700     N ( 1.00)
        C1             4.00    12.01100     C ( 1.00)
        H1             1.00     1.00800     H ( 1.00)

     No symmetry found

   Cartesian axes

     site n.     atom                  positions (alat units)
         1           Ti1 tau(   1) = (   0.0004258   2.9801865   6.0000000  )
         2           Ti1 tau(   2) = (   3.2906075   1.4906267   6.0002472  )
         3           O1  tau(   3) = (   0.0006271   0.0005054   7.9858123  )
         4           O1  tau(   4) = (   3.2906025   0.0005020   7.3038282  )
         5           O1  tau(   5) = (   4.5942328   1.4918067   9.2879030  )
         6           O1  tau(   6) = (   1.9868534   1.4903216   9.2879459  )
         7           Ti1 tau(   7) = (   3.2907910   2.8959150   9.1758416  )
         8           Ti1 tau(   8) = (   0.0015273   1.4827037   9.2680791  )
         9           O1  tau(   9) = (   3.2868105   5.9447858  11.3346005  )
        10           O1  tau(  10) = (   0.0116148   5.9584955  10.6183126  )
        11           O1  tau(  11) = (   1.2897616   1.4699164  12.6258314  )
        12           O1  tau(  12) = (   5.2713851   1.4716199  12.6109895  )
        13           Ti1 tau(  13) = (   0.0629619   2.9460495  12.6207869  )
        14           Ti1 tau(  14) = (   3.3778125   1.4702366  12.4807322  )
        15           O1  tau(  15) = (   6.5741670   5.9392046  14.6271830  )
        16           O1  tau(  16) = (   3.2925211   5.9405975  13.9303826  )
        17           O1  tau(  17) = (   4.5331425   1.4971777  16.0590535  )
        18           O1  tau(  18) = (   2.0416154   1.4974824  16.0477615  )
        19           Ti1 tau(  19) = (   3.2901388   2.9722967  15.7036181  )
        20           Ti1 tau(  20) = (   6.5714728   1.5019933  15.8140906  )
        21           O1  tau(  21) = (   3.2904802   0.0005063   4.7018136  )
        22           O1  tau(  22) = (   6.5775371   0.0159386  17.1814867  )
        23           O1  tau(  23) = (   1.3043587   1.4918075   6.0039043  )
        24           O1  tau(  24) = (   5.2767064   1.4903225   6.0039473  )
        25           Ti1 tau(  25) = (   0.0000382   5.9609847   6.0000000  )
        26           Ti1 tau(  26) = (   3.2902200   4.4714249   6.0002472  )
        27           O1  tau(  27) = (   0.0002396   2.9813036   7.9858123  )
        28           O1  tau(  28) = (   3.2902150   2.9813002   7.3038282  )
        29           O1  tau(  29) = (   4.5938453   4.4726049   9.2879030  )
        30           O1  tau(  30) = (   1.9864658   4.4711199   9.2879459  )
        31           Ti1 tau(  31) = (   3.2891106   5.8743827   9.1763621  )
        32           Ti1 tau(  32) = (   0.0006254   4.4649316   9.2693709  )
        33           O1  tau(  33) = (   3.2909631   2.9655588  11.3316111  )
        34           O1  tau(  34) = (   0.0092240   2.9805883  10.6323155  )
        35           O1  tau(  35) = (   1.2884032   4.4536117  12.6269208  )
        36           O1  tau(  36) = (   5.2752684   4.4605011  12.6109535  )
        37           Ti1 tau(  37) = (   0.0626277   5.9200555  12.5524633  )
        38           Ti1 tau(  38) = (   3.3797810   4.4486816  12.4846537  )
        39           O1  tau(  39) = (   6.5720240   2.9440667  14.6479771  )
        40           O1  tau(  40) = (   3.2941106   2.9728877  13.9057494  )
        41           O1  tau(  41) = (   4.5311790   4.4530262  16.1020043  )
        42           O1  tau(  42) = (   2.0427069   4.4534008  16.0946336  )
        43           Ti1 tau(  43) = (   3.2818950   5.9508925  15.7274921  )
        44           Ti1 tau(  44) = (   6.5750914   4.6476268  16.0792144  )
        45           O1  tau(  45) = (   3.2900926   2.9813045   4.7018136  )
        46           O1  tau(  46) = (   1.3039711   4.4726057   6.0039043  )
        47           O1  tau(  47) = (   5.2763189   4.4711207   6.0039473  )
        48           N1  tau(  48) = (   0.0695740   2.6614725  18.6386781  )
        49           N1  tau(  49) = (   0.0132033   2.8794178  17.4383708  )
        50           C1  tau(  50) = (   0.1510961   3.8031638  19.5808395  )
        51           H1  tau(  51) = (   6.4701351   4.7592986  19.1328852  )
        52           H1  tau(  52) = (   6.0910372   3.5604803  20.4266230  )
        53           H1  tau(  53) = (   1.1812797   3.8285794  19.9476819  )

     number of k points=    10  Fermi-Dirac smearing, width (Ry)=  0.0073
                       cart. coord. in units 2pi/alat
        k(    1) = (   0.0000000   0.0000000   0.0000000), wk =   0.1250000
        k(    2) = (   0.0000000   0.0419351   0.0000000), wk =   0.2500000
        k(    3) = (   0.0000000  -0.0838702   0.0000000), wk =   0.1250000
        k(    4) = (   0.0379955   0.0000049   0.0000000), wk =   0.2500000
        k(    5) = (   0.0379955   0.0419400   0.0000000), wk =   0.2500000
        k(    6) = (   0.0379955  -0.0838652   0.0000000), wk =   0.2500000
        k(    7) = (   0.0379955  -0.0419301   0.0000000), wk =   0.2500000
        k(    8) = (  -0.0759910  -0.0000099   0.0000000), wk =   0.1250000
        k(    9) = (  -0.0759910   0.0419252   0.0000000), wk =   0.2500000
        k(   10) = (  -0.0759910  -0.0838800   0.0000000), wk =   0.1250000

     Initial potential from superposition of free atoms

     starting charge  378.99916, renormalised to  395.00000

     negative rho (up, down):  1.506E-02 0.000E+00

     %%%%%%%%%%%%%%%%%%%%%%%%%%%%%%%%%%%%%%%%%%%%%%%%%%%%%%%%%%%%%%%%%%%%%%%%
     %                                                                      %
     % You are using vdW-DF, which was implemented by the Thonhauser group. %
     % Please cite the following two papers that made this development      %
     % possible and the two reviews that describe the various versions:     %
     %                                                                      %
     %   T. Thonhauser et al., PRL 115, 136402 (2015).                      %
     %   T. Thonhauser et al., PRB 76, 125112 (2007).                       %
     %   K. Berland et al., Rep. Prog. Phys. 78, 066501 (2015).             %
     %   D.C. Langreth et al., J. Phys.: Condens. Matter 21, 084203 (2009). %
     %                                                                      %
     %                                                                      %
     % If you are calculating the stress with vdW-DF, please also cite:     %
     %                                                                      %
     %   R. Sabatini et al., J. Phys.: Condens. Matter 24, 424209 (2012).   %
     %                                                                      %
     %%%%%%%%%%%%%%%%%%%%%%%%%%%%%%%%%%%%%%%%%%%%%%%%%%%%%%%%%%%%%%%%%%%%%%%%

     Adding external electric field

     Computed dipole along edir(3) :
        Dipole               -8.8495 Ry au,        -22.4931 Debye
        Dipole field         -0.0167 Ry au,

        Potential amp.        1.5481 Ry
        Total length         46.3494 bohr

     Starting wfcs are  299 atomic wfcs
  @ DRIVER MODE: Message from server: STATUS
  @ DRIVER MODE: Message from server: POSDATA
  @ DRIVER MODE: Reading and sharing cell
  @ DRIVER MODE: Reading and sharing positions
  @ DRIVER MODE: Received positions

     Self-consistent Calculation

     iteration #  1     ecut=    29.40 Ry     beta= 0.05
     Davidson diagonalization with overlap
     c_bands:  1 eigenvalues not converged
     c_bands:  2 eigenvalues not converged
     c_bands:  1 eigenvalues not converged
     c_bands:  3 eigenvalues not converged
     c_bands:  3 eigenvalues not converged
     c_bands:  1 eigenvalues not converged
     ethr =  1.00E-05,  avg # of iterations = 19.0

[...]

     total energy              =   -2605.51802431 Ry
     estimated scf accuracy    <    3700.74111271 Ry

     iteration #  2     ecut=    29.40 Ry     beta= 0.05
     Davidson diagonalization with overlap
     ethr =  1.00E-02,  avg # of iterations = 22.4

[...]

     iteration # 77     ecut=    29.40 Ry     beta= 0.05
     Davidson diagonalization with overlap
     c_bands:  1 eigenvalues not converged
     ethr =  2.24E-11,  avg # of iterations = 11.6

[...]

     total energy              =   -2939.15476669 Ry
     estimated scf accuracy    <       0.00000008 Ry

     iteration # 78     ecut=    29.40 Ry     beta= 0.05
     Davidson diagonalization with overlap
     ethr =  2.05E-11,  avg # of iterations =  6.9

     negative rho (up, down):  1.566E-02 0.000E+00

     Adding external electric field

     Computed dipole along edir(3) :
        Dipole                0.7071 Ry au,          1.7974 Debye
        Dipole field          0.0013 Ry au,

        Potential amp.       -0.1237 Ry
        Total length         46.3494 bohr

     End of self-consistent calculation

          k = 0.0000 0.0000 0.0000 ( 18029 PWs)   bands (ev):

   -55.8956 -55.8802 -55.8615 -55.8442 -55.7958 -55.7302 -55.7043 -55.7037
   -55.6936 -55.6697 -55.6686 -55.6349 -55.2857 -55.0952 -54.8727 -54.8387
   -32.4343 -32.3779 -32.2303 -32.2278 -32.2025 -32.1991 -32.1886 -32.1591
   -32.1380 -32.1243 -32.1025 -32.0667 -32.0609 -32.0477 -32.0335 -32.0199
   -32.0178 -31.9998 -31.9849 -31.9527 -31.9443 -31.9398 -31.8987 -31.8938
   -31.8915 -31.8881 -31.8800 -31.8752 -31.8708 -31.8442 -31.8434 -31.8346
   -31.8333 -31.8215 -31.8102 -31.7808 -31.7777 -31.5660 -31.4593 -31.3573
   -31.3554 -31.3110 -31.2799 -31.1915 -31.1691 -31.0966 -31.0100 -30.8991
   -18.4581 -16.6329 -16.3682 -16.1395 -16.0456 -16.0133 -15.8953 -15.7329
   -15.6154 -15.5605 -15.4630 -15.4435 -15.4307 -15.3986 -15.3805 -15.3751
   -15.3411 -15.3368 -15.3185 -15.3033 -15.2549 -15.2311 -15.2095 -15.1101
   -15.0639 -15.0302 -15.0150 -14.9517 -14.9466 -14.4422 -13.3754 -13.2590
   -11.3587  -6.9301  -4.3492  -4.0027  -3.8952  -3.8606  -3.8475  -3.8009
    -3.7439  -3.6248  -3.4992  -3.4370  -3.1262  -3.0783  -3.0624  -3.0451
    -3.0074  -2.7999  -2.7486  -2.7087  -2.6841  -2.6767  -2.6656  -2.6580
    -2.6464  -2.6078  -2.5058  -2.4364  -2.4301  -2.3429  -2.2938  -2.2702
    -2.2074  -2.1874  -2.1655  -2.1426  -2.1309  -2.1102  -2.0901  -2.0790
    -1.9744  -1.8831  -1.7504  -1.6946  -1.6726  -1.6599  -1.6465  -1.5029
    -1.3704  -1.3382  -1.3289  -1.3201  -1.2868  -1.2751  -1.1918  -1.0634
    -1.0522  -1.0123  -0.9604  -0.9023  -0.8770  -0.7751  -0.7384  -0.6615
    -0.6564  -0.6395  -0.5868  -0.5359  -0.3765  -0.3345  -0.3088  -0.2866
    -0.2621  -0.1912  -0.1696  -0.0533  -0.0360  -0.0183   0.0419   0.0651
     0.0780   0.0878   0.1057   0.1239   0.1412   0.3085   0.3809   0.4330
     0.4567   0.5145   0.6396   0.7084   0.7634   0.8638   1.0749   1.1491
     1.2421   1.3412   1.7205   1.7661   2.6501   3.2440   3.3248   3.3739
     3.3887   3.4857   3.5192   3.6957   3.6969   3.7258   3.7957

[...]

          k = 0.0380-0.0419 0.0000 ( 17876 PWs)   bands (ev):

[...]

          k =-0.0760-0.0000 0.0000 ( 17886 PWs)   bands (ev):

[...]

          k =-0.0760-0.0839 0.0000 ( 17948 PWs)   bands (ev):

   -55.8791 -55.8779 -55.8624 -55.8618 -55.7924 -55.7182 -55.7075 -55.7057
   -55.6877 -55.6852 -55.6525 -55.6512 -55.2843 -55.0966 -54.8557 -54.8555
   -32.2389 -32.2371 -32.1936 -32.1927 -32.1745 -32.1734 -32.1696 -32.1341
   -32.0886 -32.0856 -32.0796 -32.0791 -32.0424 -32.0129 -32.0052 -32.0046
   -31.9985 -31.9982 -31.9975 -31.9973 -31.9933 -31.9913 -31.9889 -31.9379
   -31.9241 -31.9121 -31.9110 -31.8998 -31.8867 -31.8861 -31.8836 -31.8826
   -31.8669 -31.8662 -31.8573 -31.8546 -31.6944 -31.5677 -31.4677 -31.4143
   -31.3572 -31.3365 -31.1818 -31.1817 -31.0927 -31.0925 -31.0534 -31.0533
   -18.4539 -16.0687 -16.0427 -15.8428 -15.8097 -15.8056 -15.7911 -15.6824
   -15.5975 -15.5905 -15.5878 -15.5213 -15.4913 -15.4756 -15.4348 -15.4220
   -15.4149 -15.4031 -15.3931 -15.3557 -15.3484 -15.3312 -15.3237 -15.2396
   -15.2117 -15.2076 -15.1819 -15.0640 -14.9326 -14.6185 -13.3609 -13.3607
   -11.3564  -6.9418  -4.2591  -3.9023  -3.8360  -3.3581  -3.3293  -3.0891
    -3.0503  -3.0365  -2.9834  -2.8219  -2.7916  -2.7657  -2.7541  -2.7226
    -2.7173  -2.7052  -2.7001  -2.6802  -2.6389  -2.6178  -2.5996  -2.5821
    -2.5626  -2.5486  -2.5330  -2.5161  -2.5067  -2.4674  -2.4438  -2.4322
    -2.4134  -2.4019  -2.2453  -2.1223  -2.0878  -2.0332  -2.0230  -2.0017
    -1.9617  -1.9580  -1.9462  -1.8818  -1.8099  -1.6531  -1.6134  -1.5943
    -1.5772  -1.5583  -1.5005  -1.4604  -1.3731  -1.2988  -1.2751  -1.2706
    -1.2023  -1.1149  -1.1075  -1.0603  -1.0178  -1.0079  -0.9531  -0.8882
    -0.8578  -0.8535  -0.8013  -0.7321  -0.7139  -0.6636  -0.6568  -0.6123
    -0.5573  -0.5504  -0.5283  -0.4872  -0.4052  -0.3816  -0.2431  -0.1632
    -0.0409   0.0735   0.1678   0.1820   0.2620   0.3140   0.3977   0.4154
     0.4258   0.4350   0.4782   0.5612   0.6371   0.6518   0.6977   0.8186
     1.5128   1.5136   1.5857   1.5861   2.7072   3.4912   3.5359   3.5782
     3.6103   3.7167   3.7491   3.7724   3.7737   3.8020   3.9323

     the Fermi energy is     3.2393 ev

!    total energy              =   -2939.15477993 Ry
     estimated scf accuracy    <       0.00000003 Ry
     smearing contrib. (-TS)   =      -0.02245242 Ry
     internal energy E=F+TS    =   -2939.13232751 Ry

     The total energy is F=E-TS. E is the sum of the following terms:
     one-electron contribution =  -24176.17025949 Ry
     hartree contribution      =   12175.32623340 Ry
     xc contribution           =    -485.18484951 Ry
     ewald contribution        =    9546.89560446 Ry
     electric field correction =       0.00094363 Ry

     convergence has been achieved in  78 iterations

     Forces acting on atoms (cartesian axes, Ry/au):

     atom    1 type  1   force =     0.00012222   -0.00024424    0.09665238
     atom    2 type  1   force =    -0.00011874   -0.00049426   -0.17521757
     atom    3 type  2   force =     0.00000151   -0.00010071   -0.02500606
     atom    4 type  2   force =     0.00005055   -0.00150117    0.05298745
     atom    5 type  2   force =    -0.01215071   -0.00108613    0.00361122
     atom    6 type  2   force =     0.01369832   -0.00027699    0.00228372
     atom    7 type  1   force =    -0.00118024    0.00036951   -0.01147490
     atom    8 type  1   force =     0.00055830    0.00939816    0.02853875
     atom    9 type  2   force =     0.00019455    0.00052741   -0.00015855
     atom   10 type  2   force =    -0.00114232    0.00028387   -0.01823965
     atom   11 type  2   force =    -0.00011518    0.00000716   -0.00014493
     atom   12 type  2   force =     0.00013637    0.00020749    0.00018801
     atom   13 type  1   force =     0.00009131   -0.00030225    0.00016320
     atom   14 type  1   force =     0.00020102    0.00017665    0.00020534
     atom   15 type  2   force =     0.00022920   -0.00005434   -0.00010671
     atom   16 type  2   force =    -0.00033456    0.00033973    0.00037893
     atom   17 type  2   force =    -0.00023047    0.00041459   -0.00021163
     atom   18 type  2   force =     0.00000798    0.00019208    0.00033175
     atom   19 type  1   force =    -0.00007550    0.00015991    0.00006130
     atom   20 type  1   force =    -0.00053325   -0.00025011    0.00014405
     atom   21 type  2   force =     0.00008735    0.00001378    0.10323683
     atom   22 type  2   force =    -0.00022808    0.00026088    0.00082502
     atom   23 type  2   force =    -0.07147605   -0.00007587   -0.02770590
     atom   24 type  2   force =     0.07144178    0.00034483   -0.02771476
     atom   25 type  1   force =     0.00008002   -0.00022546    0.09637728
     atom   26 type  1   force =    -0.00022490   -0.00026268   -0.17562900
     atom   27 type  2   force =     0.00006698   -0.00025176   -0.02400746
     atom   28 type  2   force =     0.00009461   -0.00126062    0.05285379
     atom   29 type  2   force =    -0.01239722    0.00003922    0.00352119
     atom   30 type  2   force =     0.01386031    0.00033449    0.00216277
     atom   31 type  1   force =    -0.00113435    0.00333262   -0.01189624
     atom   32 type  1   force =     0.00065516   -0.01116477    0.02912517
     atom   33 type  2   force =     0.00010721   -0.00020032   -0.00041566
     atom   34 type  2   force =    -0.00090304   -0.00093637   -0.02483647
     atom   35 type  2   force =    -0.00039440    0.00027901    0.00002414
     atom   36 type  2   force =     0.00070857    0.00029190    0.00033197
     atom   37 type  1   force =    -0.00000263   -0.00022375    0.00004347
     atom   38 type  1   force =    -0.00001416    0.00010528   -0.00001872
     atom   39 type  2   force =     0.00026664    0.00034587   -0.00045654
     atom   40 type  2   force =    -0.00030687    0.00010142    0.00016823
     atom   41 type  2   force =    -0.00031182    0.00047486    0.00022998
     atom   42 type  2   force =     0.00014029    0.00048283    0.00036642
     atom   43 type  1   force =    -0.00003891    0.00037374    0.00040476
     atom   44 type  1   force =    -0.00024087    0.00023090    0.00064405
     atom   45 type  2   force =     0.00007947   -0.00002791    0.10324534
     atom   46 type  2   force =    -0.07150450   -0.00002843   -0.02771859
     atom   47 type  2   force =     0.07146655    0.00039423   -0.02774665
     atom   48 type  3   force =     0.00254406   -0.00103860    0.00087861
     atom   49 type  3   force =    -0.00021362    0.00044061   -0.00137894
     atom   50 type  4   force =    -0.00010974    0.00031311   -0.00017252
     atom   51 type  5   force =     0.00034983    0.00085573   -0.00028841
     atom   52 type  5   force =    -0.00112500   -0.00021838    0.00132177
     atom   53 type  5   force =    -0.00073303   -0.00086679   -0.00076102

     Total force =     0.368328     Total SCF correction =     0.000494
  @ DRIVER MODE: Message from server: STATUS
  @ DRIVER MODE: Message from server: GETFORCE
  @ DRIVER MODE: Returning v,forces,stress,ensemble

     Writing output data file ./calc.save/
  @ DRIVER MODE: Message from server: EXIT
  @ DRIVE MODE: Exiting

     General routines

     Parallel routines

   This run was terminated on:  12:10:18  18Aug2021

   JOB DONE.