     Program PWSCF v.6.7GPU starts on  3Aug2021 at  1:51:22

     R & G space division:  proc/nbgrp/npool/nimage =      16
     Reading input from /storage/home/hcoda1/3/ntian30/research/carbon/02Aug_vib_paired/ads_slab/CH3NH3_a/out_0045/pw.inp
Warning: card &CELL ignored
Warning: card   CELL_DYNAMICS='IPI', ignored
Warning: card / ignored

     Current dimensions of program PWSCF are:
     Max number of different atomic species (ntypx) = 10
     Max number of k-points (npk) =  40000
     Max angular momentum in pseudopotentials (lmaxx) =  3
     Presently no symmetry can be used with electric field

     Message from routine cell_base_init:
     DEPRECATED: use true lattice parameter, not A to a.u. conversion factor

     IMPORTANT: XC functional enforced from input :
     Exchange-correlation= BEEF-VDW
                           (   1   4  43  14   2   0   0)
     Any further DFT definition will be discarded
     Please, verify this is what you really want

  @ DRIVER MODE: Connecting to
 qe_1139763_2482539.sched-torque.pace.gatech.eduucr3poxu_scratch
  using UNIX socket
  @ DRIVER MODE: Message from server: STATUS
  @ DRIVER MODE: Message from server: INIT
  @ DRIVER MODE: Receiving replica           0          -1
  @ DRIVER MODE: Receiving encoded integer          25
  @ DRIVER MODE:  SCF:  T  FORCE:  T  STRESS:  F  VC:  F  ENSEMBLE:  F
  @ DRIVER MODE:  SCF:  T  FORCE:  T  STRESS:  F  VC:  F  ENSEMBLE:  F

     Using Slab Decomposition

     bravais-lattice index     =            0
     lattice parameter (alat)  =       1.8897  a.u.
     unit-cell volume          =    6658.9804 (a.u.)^3
     number of atoms/cell      =           55
     number of atomic types    =            5
     number of electrons       =       393.00
     number of Kohn-Sham states=          206
     kinetic-energy cutoff     =      29.3995  Ry
     charge density cutoff     =     293.9946  Ry
     scf convergence threshold =      7.3E-08
     mixing beta               =       0.0500
     number of iterations used =            8  plain     mixing
     Exchange-correlation= BEEF-VDW
                           (   1   4  43  14   2   0   0)

     celldm(1)=   1.889726  celldm(2)=   0.000000  celldm(3)=   0.000000
     celldm(4)=   0.000000  celldm(5)=   0.000000  celldm(6)=   0.000000

     crystal axes: (cart. coord. in units of alat)
               a(1) = (   6.579727   0.000000   0.000000 )
               a(2) = (  -0.000775   5.961596   0.000000 )
               a(3) = (   0.000000   0.000000  25.155947 )

     reciprocal axes: (cart. coord. in units 2 pi/alat)
               b(1) = (  0.151982  0.000020  0.000000 )
               b(2) = (  0.000000  0.167740  0.000000 )
               b(3) = (  0.000000  0.000000  0.039752 )

     PseudoPot. # 1 for Ti read from file:
     /storage/coda1/p-amedford6/0/shared/rich_project_chbe-medford/medford-share/data/pseudos_module/espresso/nninc/pbe/van/Ti.UPF
     MD5 check sum: 8e4df49b7f0d34bbd5052bf3f5ea0213
     Pseudo is Ultrasoft, Zval = 12.0
     Generated by new atomic code, or converted to UPF format
     Using radial grid of  851 points,  6 beta functions with:
                l(1) =   0
                l(2) =   0
                l(3) =   1
                l(4) =   1
                l(5) =   2
                l(6) =   2
     Q(r) pseudized with  8 coefficients,  rinner =    1.000   1.000   1.000
                                                       1.000   1.000

     PseudoPot. # 2 for O  read from file:
     /storage/coda1/p-amedford6/0/shared/rich_project_chbe-medford/medford-share/data/pseudos_module/espresso/nninc/pbe/van/O.UPF
     MD5 check sum: 78c19812648e8988a0fe644b0f25305e
     Pseudo is Ultrasoft, Zval =  6.0
     Generated by new atomic code, or converted to UPF format
     Using radial grid of  737 points,  4 beta functions with:
                l(1) =   0
                l(2) =   0
                l(3) =   1
                l(4) =   1
     Q(r) pseudized with  8 coefficients,  rinner =    0.800   0.800   0.800

     PseudoPot. # 3 for C  read from file:
     /storage/coda1/p-amedford6/0/shared/rich_project_chbe-medford/medford-share/data/pseudos_module/espresso/nninc/pbe/van/C.UPF
     MD5 check sum: 1a69bf6b8db32088f5b2163dbdb77a27
     Pseudo is Ultrasoft, Zval =  4.0
     Generated by new atomic code, or converted to UPF format
     Using radial grid of  721 points,  4 beta functions with:
                l(1) =   0
                l(2) =   0
                l(3) =   1
                l(4) =   1
     Q(r) pseudized with  8 coefficients,  rinner =    0.800   0.800   0.800

     PseudoPot. # 4 for H  read from file:
     /storage/coda1/p-amedford6/0/shared/rich_project_chbe-medford/medford-share/data/pseudos_module/espresso/nninc/pbe/van/H.UPF
     MD5 check sum: b5ee9d7bfd3a09ee7748110bda690ff7
     Pseudo is Ultrasoft, Zval =  1.0
     Generated by new atomic code, or converted to UPF format
     Using radial grid of  615 points,  1 beta functions with:
                l(1) =   0
     Q(r) pseudized with  8 coefficients,  rinner =    0.800

     PseudoPot. # 5 for N  read from file:
     /storage/coda1/p-amedford6/0/shared/rich_project_chbe-medford/medford-share/data/pseudos_module/espresso/nninc/pbe/van/N.UPF
     MD5 check sum: 90d10febe142ad51ac9d5be1deb811c4
     Pseudo is Ultrasoft, Zval =  5.0
     Generated by new atomic code, or converted to UPF format
     Using radial grid of  729 points,  4 beta functions with:
                l(1) =   0
                l(2) =   0
                l(3) =   1
                l(4) =   1
     Q(r) pseudized with  8 coefficients,  rinner =    0.800   0.800   0.800

     atomic species   valence    mass     pseudopotential
        Ti1           12.00    47.86700     Ti( 1.00)
        O1             6.00    15.99900     O ( 1.00)
        C1             4.00    12.01100     C ( 1.00)
        H1             1.00     1.00800     H ( 1.00)
        N1             5.00    14.00700     N ( 1.00)

     No symmetry found

   Cartesian axes

     site n.     atom                  positions (alat units)
         1           Ti1 tau(   1) = (   0.0004258   2.9801865   6.0000000  )
         2           Ti1 tau(   2) = (   3.2906075   1.4906267   6.0002472  )
         3           O1  tau(   3) = (   0.0006271   0.0005054   7.9858123  )
         4           O1  tau(   4) = (   3.2906025   0.0005020   7.3038282  )
         5           O1  tau(   5) = (   4.5942328   1.4918067   9.2879030  )
         6           O1  tau(   6) = (   1.9868534   1.4903216   9.2879459  )
         7           Ti1 tau(   7) = (   3.2907910   2.8959150   9.1758416  )
         8           Ti1 tau(   8) = (   0.0015273   1.4827037   9.2680791  )
         9           O1  tau(   9) = (   3.2981156   0.0012339  11.3300471  )
        10           O1  tau(  10) = (   0.0116148   5.9584955  10.6183126  )
        11           O1  tau(  11) = (   1.3033605   1.5036236  12.6199488  )
        12           O1  tau(  12) = (   5.2811161   1.5074500  12.6162500  )
        13           Ti1 tau(  13) = (   0.0407500   2.9455431  12.6352795  )
        14           Ti1 tau(  14) = (   3.3444429   1.4910927  12.4779025  )
        15           O1  tau(  15) = (   0.0052662   0.0451097  14.6026341  )
        16           O1  tau(  16) = (   3.2946143   0.0124870  13.9210852  )
        17           O1  tau(  17) = (   4.5465206   1.5046604  16.0624161  )
        18           O1  tau(  18) = (   2.0546879   1.5048301  16.0609706  )
        19           Ti1 tau(  19) = (   3.2991624   2.9918142  15.6995589  )
        20           Ti1 tau(  20) = (   6.5707204   1.4025535  15.8059435  )
        21           O1  tau(  21) = (   3.2904802   0.0005063   4.7018136  )
        22           O1  tau(  22) = (   0.0164654   0.0145536  17.1360041  )
        23           O1  tau(  23) = (   1.3043587   1.4918075   6.0039043  )
        24           O1  tau(  24) = (   5.2767064   1.4903225   6.0039473  )
        25           Ti1 tau(  25) = (   0.0000382   5.9609847   6.0000000  )
        26           Ti1 tau(  26) = (   3.2902200   4.4714249   6.0002472  )
        27           O1  tau(  27) = (   0.0002396   2.9813036   7.9858123  )
        28           O1  tau(  28) = (   3.2902150   2.9813002   7.3038282  )
        29           O1  tau(  29) = (   4.5938453   4.4726049   9.2879030  )
        30           O1  tau(  30) = (   1.9864658   4.4711199   9.2879459  )
        31           Ti1 tau(  31) = (   3.2891106   5.8743827   9.1763621  )
        32           Ti1 tau(  32) = (   0.0006254   4.4649316   9.2693709  )
        33           O1  tau(  33) = (   3.2977166   2.9913250  11.3287690  )
        34           O1  tau(  34) = (   0.0092240   2.9805883  10.6323155  )
        35           O1  tau(  35) = (   1.3008534   4.4801743  12.6308489  )
        36           O1  tau(  36) = (   5.2850400   4.4860598  12.6280017  )
        37           Ti1 tau(  37) = (   0.0409916   5.9178611  12.5441859  )
        38           Ti1 tau(  38) = (   3.3442415   4.4710906  12.4862270  )
        39           O1  tau(  39) = (   0.0109228   2.9791018  14.7123696  )
        40           O1  tau(  40) = (   3.2998940   2.9912248  13.9043662  )
        41           O1  tau(  41) = (   4.5474046   4.4713503  16.0779382  )
        42           O1  tau(  42) = (   2.0618872   4.4767818  16.0643778  )
        43           Ti1 tau(  43) = (   3.2722838   0.0128901  15.7174356  )
        44           Ti1 tau(  44) = (   6.5592075   4.4947239  16.1563676  )
        45           O1  tau(  45) = (   3.2900926   2.9813045   4.7018136  )
        46           O1  tau(  46) = (   1.3039711   4.4726057   6.0039043  )
        47           O1  tau(  47) = (   5.2763189   4.4711207   6.0039473  )
        48           C1  tau(  48) = (   0.0359503   3.0870652  17.8341721  )
        49           H1  tau(  49) = (   5.8142062   3.6010452  18.3763092  )
        50           H1  tau(  50) = (   6.4784518   2.0305676  18.0614951  )
        51           H1  tau(  51) = (   0.9863100   3.3782628  18.2908018  )
        52           N1  tau(  52) = (   4.7642638   1.7931862  21.6370373  )
        53           H1  tau(  53) = (   4.5527921   2.7808570  21.5386679  )
        54           H1  tau(  54) = (   4.1042548   1.2952780  21.0483319  )
        55           H1  tau(  55) = (   4.5435699   1.5332347  22.5953497  )

     number of k points=    10  Fermi-Dirac smearing, width (Ry)=  0.0073
                       cart. coord. in units 2pi/alat
        k(    1) = (   0.0000000   0.0000000   0.0000000), wk =   0.1250000
        k(    2) = (   0.0000000   0.0419351   0.0000000), wk =   0.2500000
        k(    3) = (   0.0000000  -0.0838702   0.0000000), wk =   0.1250000
        k(    4) = (   0.0379955   0.0000049   0.0000000), wk =   0.2500000
        k(    5) = (   0.0379955   0.0419400   0.0000000), wk =   0.2500000
        k(    6) = (   0.0379955  -0.0838652   0.0000000), wk =   0.2500000
        k(    7) = (   0.0379955  -0.0419301   0.0000000), wk =   0.2500000
        k(    8) = (  -0.0759910  -0.0000099   0.0000000), wk =   0.1250000
        k(    9) = (  -0.0759910   0.0419252   0.0000000), wk =   0.2500000
        k(   10) = (  -0.0759910  -0.0838800   0.0000000), wk =   0.1250000

     Initial potential from superposition of free atoms

     starting charge  376.99914, renormalised to  393.00000

     negative rho (up, down):  1.000E-02 0.000E+00

     %%%%%%%%%%%%%%%%%%%%%%%%%%%%%%%%%%%%%%%%%%%%%%%%%%%%%%%%%%%%%%%%%%%%%%%%
     %                                                                      %
     % You are using vdW-DF, which was implemented by the Thonhauser group. %
     % Please cite the following two papers that made this development      %
     % possible and the two reviews that describe the various versions:     %
     %                                                                      %
     %   T. Thonhauser et al., PRL 115, 136402 (2015).                      %
     %   T. Thonhauser et al., PRB 76, 125112 (2007).                       %
     %   K. Berland et al., Rep. Prog. Phys. 78, 066501 (2015).             %
     %   D.C. Langreth et al., J. Phys.: Condens. Matter 21, 084203 (2009). %
     %                                                                      %
     %                                                                      %
     % If you are calculating the stress with vdW-DF, please also cite:     %
     %                                                                      %
     %   R. Sabatini et al., J. Phys.: Condens. Matter 24, 424209 (2012).   %
     %                                                                      %
     %%%%%%%%%%%%%%%%%%%%%%%%%%%%%%%%%%%%%%%%%%%%%%%%%%%%%%%%%%%%%%%%%%%%%%%%

     Adding external electric field

     Computed dipole along edir(3) :
        Dipole               -9.0616 Ry au,        -23.0322 Debye
        Dipole field         -0.0171 Ry au,

        Potential amp.        1.5852 Ry
        Total length         46.3494 bohr

     Starting wfcs are  298 atomic wfcs
  @ DRIVER MODE: Message from server: STATUS
  @ DRIVER MODE: Message from server: POSDATA
  @ DRIVER MODE: Reading and sharing cell
  @ DRIVER MODE: Reading and sharing positions
  @ DRIVER MODE: Received positions

     Self-consistent Calculation

     iteration #  1     ecut=    29.40 Ry     beta= 0.05
     Davidson diagonalization with overlap
     c_bands:  1 eigenvalues not converged
     c_bands:  1 eigenvalues not converged
     c_bands:  1 eigenvalues not converged
     ethr =  1.00E-05,  avg # of iterations = 17.8

[...]

     total energy              =   -2692.43542298 Ry
     estimated scf accuracy    <    2566.21716778 Ry

[...]

     iteration #  3     ecut=    29.40 Ry     beta= 0.05
     Davidson diagonalization with overlap
     ethr =  1.00E-02,  avg # of iterations = 16.4

[...]

     iteration # 65     ecut=    29.40 Ry     beta= 0.05
     Davidson diagonalization with overlap
     c_bands:  1 eigenvalues not converged
     ethr =  7.22E-10,  avg # of iterations = 14.0

[...]

     total energy              =   -2922.78954458 Ry
     estimated scf accuracy    <       0.00000008 Ry

     iteration # 74     ecut=    29.40 Ry     beta= 0.05
     Davidson diagonalization with overlap
     ethr =  2.01E-11,  avg # of iterations =  6.4

     negative rho (up, down):  1.131E-02 0.000E+00

     Adding external electric field

     Computed dipole along edir(3) :
        Dipole                0.5505 Ry au,          1.3991 Debye
        Dipole field          0.0010 Ry au,

        Potential amp.       -0.0963 Ry
        Total length         46.3494 bohr

     End of self-consistent calculation

          k = 0.0000 0.0000 0.0000 ( 18029 PWs)   bands (ev):

   -56.0336 -56.0296 -55.9995 -55.9932 -55.9013 -55.8665 -55.8659 -55.8415
   -55.8229 -55.8075 -55.8022 -55.7685 -55.5685 -55.4015 -55.0090 -54.9750
   -32.5879 -32.5156 -32.3608 -32.3546 -32.3408 -32.3397 -32.3265 -32.2929
   -32.2761 -32.2392 -32.2332 -32.2326 -32.2092 -32.1857 -32.1728 -32.1666
   -32.1375 -32.1351 -32.1207 -32.0907 -32.0807 -32.0696 -32.0384 -32.0331
   -32.0289 -32.0273 -32.0129 -32.0115 -32.0046 -31.9797 -31.9789 -31.9766
   -31.9718 -31.9709 -31.9554 -31.9464 -31.9146 -31.8473 -31.7828 -31.6891
   -31.6299 -31.5191 -31.4161 -31.3279 -31.3055 -31.2328 -31.1463 -31.0353
   -16.7680 -16.5047 -16.2728 -16.1821 -16.1322 -16.0458 -15.8683 -15.7517
   -15.7033 -15.6024 -15.5699 -15.5499 -15.5334 -15.5032 -15.4949 -15.4697
   -15.4586 -15.4522 -15.4176 -15.3896 -15.3644 -15.3499 -15.2300 -15.1776
   -15.1616 -15.1305 -15.0823 -15.0661 -14.6116 -13.6461 -13.5117 -13.3953
    -9.0482  -4.1427  -3.9625  -3.9372  -3.8888  -3.8472  -3.7287  -3.6799
    -3.6445  -3.5841  -3.2665  -3.2093  -3.2012  -3.1603  -3.1457  -2.9883
    -2.9238  -2.8501  -2.8336  -2.8280  -2.8026  -2.7973  -2.7925  -2.7499
    -2.7076  -2.6523  -2.6284  -2.5589  -2.5168  -2.4435  -2.3705  -2.3432
    -2.3009  -2.2981  -2.2617  -2.2496  -2.2416  -2.2314  -2.1957  -2.1804
    -2.0010  -1.9505  -1.8820  -1.8163  -1.8017  -1.6379  -1.5312  -1.4833
    -1.4647  -1.4576  -1.4395  -1.4226  -1.3268  -1.2090  -1.1758  -1.1263
    -1.0786  -1.0301  -1.0000  -0.8997  -0.8832  -0.7921  -0.7787  -0.7602
    -0.6491  -0.6249  -0.4909  -0.4694  -0.4636  -0.4034  -0.3878  -0.3149
    -0.2907  -0.2342  -0.1692  -0.1569  -0.0888  -0.0627  -0.0595  -0.0028
     0.0018   0.0470   0.0617   0.1712   0.2271   0.2765   0.3305   0.4368
     0.5167   0.6312   0.6778   0.7372   0.9390   1.0126   1.1221   1.1827
     1.2058   1.4688   1.5839   1.6295   3.1051   3.1901   3.2118   3.2376
     3.3451   3.3700   3.5555   3.5724   3.6067   3.6266

[...]

          k = 0.0380-0.0419 0.0000 ( 17876 PWs)   bands (ev):

[...]

          k =-0.0760-0.0000 0.0000 ( 17886 PWs)   bands (ev):

[...]

          k =-0.0760-0.0839 0.0000 ( 17948 PWs)   bands (ev):

   -56.0170 -56.0159 -56.0142 -56.0084 -55.8864 -55.8813 -55.8576 -55.8315
   -55.8252 -55.8232 -55.7866 -55.7842 -55.5671 -55.4028 -54.9921 -54.9918
   -32.3938 -32.3874 -32.3311 -32.3305 -32.3124 -32.3115 -32.2929 -32.2882
   -32.2219 -32.2208 -32.2179 -32.2070 -32.1669 -32.1659 -32.1465 -32.1421
   -32.1379 -32.1365 -32.1353 -32.1272 -32.1259 -32.1231 -32.0878 -32.0773
   -32.0724 -32.0503 -32.0460 -32.0322 -32.0233 -32.0224 -32.0184 -32.0165
   -32.0012 -31.9998 -31.9960 -31.9898 -31.9252 -31.8302 -31.7849 -31.6918
   -31.6742 -31.5633 -31.3183 -31.3181 -31.2290 -31.2288 -31.1896 -31.1895
   -16.2100 -16.1869 -15.9806 -15.9463 -15.9428 -15.9358 -15.8050 -15.7247
   -15.7242 -15.6983 -15.6375 -15.6261 -15.6042 -15.5655 -15.5412 -15.5388
   -15.5201 -15.5151 -15.4887 -15.4787 -15.4659 -15.4586 -15.3660 -15.3464
   -15.3426 -15.2931 -15.1477 -15.0014 -14.8924 -13.6453 -13.4973 -13.4969
    -9.0625  -3.7395  -3.6822  -3.5062  -3.4748  -3.2324  -3.1941  -3.1809
    -3.1119  -2.9556  -2.9159  -2.8980  -2.8903  -2.8459  -2.8383  -2.8331
    -2.8215  -2.7932  -2.7761  -2.7390  -2.7330  -2.7176  -2.7104  -2.6989
    -2.6818  -2.6520  -2.6434  -2.6127  -2.6079  -2.5873  -2.5711  -2.5432
    -2.5383  -2.4108  -2.2516  -2.2278  -2.1670  -2.1596  -2.1133  -2.1004
    -2.0938  -2.0665  -2.0375  -2.0103  -1.8511  -1.7400  -1.7254  -1.7087
    -1.6400  -1.6123  -1.5272  -1.4369  -1.3959  -1.3778  -1.3097  -1.3060
    -1.2559  -1.2313  -1.2106  -1.1431  -1.0865  -1.0494  -0.9924  -0.9863
    -0.9782  -0.9081  -0.8657  -0.7907  -0.7820  -0.7450  -0.7100  -0.6547
    -0.6207  -0.6093  -0.5192  -0.4867  -0.3745  -0.3257  -0.0673  -0.0191
     0.0340   0.0620   0.1273   0.1853   0.1895   0.2868   0.2905   0.3270
     0.4063   0.4276   0.4987   0.5179   0.5679   0.7297   1.2785   1.3767
     1.3775   1.4490   1.4494   1.4592   3.4030   3.4146   3.4218   3.4664
     3.6116   3.6163   3.6349   3.6366   3.7752   3.7988

     the Fermi energy is     3.1017 ev

!    total energy              =   -2922.78955888 Ry
     estimated scf accuracy    <       0.00000005 Ry
     smearing contrib. (-TS)   =      -0.02169455 Ry
     internal energy E=F+TS    =   -2922.76786433 Ry

     The total energy is F=E-TS. E is the sum of the following terms:
     one-electron contribution =  -23651.32024378 Ry
     hartree contribution      =   11909.87093474 Ry
     xc contribution           =    -482.26132881 Ry
     ewald contribution        =    9300.94220172 Ry
     electric field correction =       0.00057180 Ry

     convergence has been achieved in  74 iterations

     Forces acting on atoms (cartesian axes, Ry/au):

     atom    1 type  1   force =     0.00004803   -0.00022141    0.09685310
     atom    2 type  1   force =    -0.00017448   -0.00055219   -0.17513823
     atom    3 type  2   force =     0.00002166   -0.00004733   -0.02502957
     atom    4 type  2   force =     0.00002711   -0.00139831    0.05264501
     atom    5 type  2   force =    -0.01205056   -0.00050947    0.00331228
     atom    6 type  2   force =     0.01377706    0.00008705    0.00271096
     atom    7 type  1   force =    -0.00058011    0.00056625   -0.01156190
     atom    8 type  1   force =     0.00020498    0.01201547    0.02900034
     atom    9 type  2   force =    -0.00029635    0.00057236    0.00057976
     atom   10 type  2   force =    -0.00153418    0.00252591   -0.01945424
     atom   11 type  2   force =    -0.00018593   -0.00037586   -0.00014118
     atom   12 type  2   force =    -0.00089523    0.00003434   -0.00029699
     atom   13 type  1   force =     0.00054320   -0.00097060    0.00108220
     atom   14 type  1   force =     0.00145387    0.00057351   -0.00068474
     atom   15 type  2   force =    -0.00014016   -0.00105292    0.00039714
     atom   16 type  2   force =    -0.00020953   -0.00020383   -0.00146324
     atom   17 type  2   force =    -0.00066057    0.00075026   -0.00001720
     atom   18 type  2   force =     0.00049313    0.00093024    0.00001731
     atom   19 type  1   force =    -0.00019259   -0.00112835    0.00058023
     atom   20 type  1   force =    -0.00011175    0.00046321   -0.00009109
     atom   21 type  2   force =     0.00004810   -0.00003933    0.10322844
     atom   22 type  2   force =     0.00027186   -0.00029697    0.00094037
     atom   23 type  2   force =    -0.07156288   -0.00014668   -0.02770180
     atom   24 type  2   force =     0.07145425    0.00026675   -0.02773136
     atom   25 type  1   force =     0.00005591   -0.00028505    0.09644378
     atom   26 type  1   force =    -0.00019704   -0.00029176   -0.17536433
     atom   27 type  2   force =     0.00008659   -0.00017231   -0.02381050
     atom   28 type  2   force =     0.00004394   -0.00113993    0.05272341
     atom   29 type  2   force =    -0.01209399    0.00085312    0.00277772
     atom   30 type  2   force =     0.01373682    0.00124073    0.00219448
     atom   31 type  1   force =    -0.00046886    0.00303415   -0.01241401
     atom   32 type  1   force =     0.00018695   -0.01423655    0.02941081
     atom   33 type  2   force =    -0.00022935   -0.00062733    0.00043499
     atom   34 type  2   force =    -0.00098333    0.00176064   -0.02266516
     atom   35 type  2   force =    -0.00067487   -0.00060030   -0.00012308
     atom   36 type  2   force =     0.00003392   -0.00014631   -0.00033702
     atom   37 type  1   force =     0.00064960    0.00026795    0.00055091
     atom   38 type  1   force =     0.00150739    0.00018982   -0.00068236
     atom   39 type  2   force =     0.00006488    0.00013526   -0.00125651
     atom   40 type  2   force =    -0.00034735   -0.00009861    0.00176905
     atom   41 type  2   force =    -0.00077234   -0.00106532   -0.00012747
     atom   42 type  2   force =     0.00028432   -0.00146829    0.00025891
     atom   43 type  1   force =     0.00022107    0.00067190    0.00105052
     atom   44 type  1   force =     0.00045019   -0.00023916    0.00069108
     atom   45 type  2   force =     0.00005647   -0.00009511    0.10320072
     atom   46 type  2   force =    -0.07154732   -0.00011213   -0.02770349
     atom   47 type  2   force =     0.07145227    0.00031980   -0.02773844
     atom   48 type  3   force =     0.00030216    0.00085852   -0.00065083
     atom   49 type  4   force =    -0.00080712    0.00000835   -0.00048797
     atom   50 type  4   force =    -0.00031880   -0.00055696    0.00099228
     atom   51 type  4   force =    -0.00079610   -0.00013871   -0.00022878
     atom   52 type  5   force =    -0.00101975   -0.00304094    0.00240279
     atom   53 type  4   force =     0.00030029   -0.00041650    0.00116088
     atom   54 type  4   force =     0.00025627    0.00039695   -0.00090723
     atom   55 type  4   force =     0.00081825    0.00315199   -0.00360077

     Total force =     0.368410     Total SCF correction =     0.000498
  @ DRIVER MODE: Message from server: STATUS
  @ DRIVER MODE: Message from server: GETFORCE
  @ DRIVER MODE: Returning v,forces,stress,ensemble

     Writing output data file ./calc.save/
  @ DRIVER MODE: Message from server: EXIT
  @ DRIVE MODE: Exiting

     General routines

     Parallel routines

   This run was terminated on:   2: 9: 7   3Aug2021

   JOB DONE.