     Program PWSCF v.6.7GPU starts on 15Sep2021 at 21:11:15

     R & G space division:  proc/nbgrp/npool/nimage =      10
     Reading input from /storage/home/hcoda1/3/ntian30/research/carbon/CxH_vib/H2O_calc/ads_slab/CHNH2O_a/out_0017/pw.inp
Warning: card &CELL ignored
Warning: card   CELL_DYNAMICS='IPI', ignored
Warning: card / ignored

     Current dimensions of program PWSCF are:
     Max number of different atomic species (ntypx) = 10
     Max number of k-points (npk) =  40000
     Max angular momentum in pseudopotentials (lmaxx) =  3
     Presently no symmetry can be used with electric field

     Message from routine cell_base_init:
     DEPRECATED: use true lattice parameter, not A to a.u. conversion factor

     IMPORTANT: XC functional enforced from input :
     Exchange-correlation= BEEF-VDW
                           (   1   4  43  14   2   0   0)
     Any further DFT definition will be discarded
     Please, verify this is what you really want

  @ DRIVER MODE: Connecting to
 qe_1139763_2852627.sched-torque.pace.gatech.edu_44cwvkx_scratch
  using UNIX socket
  @ DRIVER MODE: Message from server: STATUS
  @ DRIVER MODE: Message from server: INIT
  @ DRIVER MODE: Receiving replica           0          -1
  @ DRIVER MODE: Receiving encoded integer          25
  @ DRIVER MODE:  SCF:  T  FORCE:  T  STRESS:  F  VC:  F  ENSEMBLE:  F
  @ DRIVER MODE:  SCF:  T  FORCE:  T  STRESS:  F  VC:  F  ENSEMBLE:  F

     Using Slab Decomposition

     bravais-lattice index     =            0
     lattice parameter (alat)  =       1.8897  a.u.
     unit-cell volume          =    6658.9804 (a.u.)^3
     number of atoms/cell      =           53
     number of atomic types    =            5
     number of electrons       =       396.00
     number of Kohn-Sham states=          208
     kinetic-energy cutoff     =      29.3995  Ry
     charge density cutoff     =     293.9946  Ry
     scf convergence threshold =      7.3E-08
     mixing beta               =       0.0500
     number of iterations used =            8  plain     mixing
     Exchange-correlation= BEEF-VDW
                           (   1   4  43  14   2   0   0)

     celldm(1)=   1.889726  celldm(2)=   0.000000  celldm(3)=   0.000000
     celldm(4)=   0.000000  celldm(5)=   0.000000  celldm(6)=   0.000000

     crystal axes: (cart. coord. in units of alat)
               a(1) = (   6.579727   0.000000   0.000000 )
               a(2) = (  -0.000775   5.961596   0.000000 )
               a(3) = (   0.000000   0.000000  25.155947 )

     reciprocal axes: (cart. coord. in units 2 pi/alat)
               b(1) = (  0.151982  0.000020  0.000000 )
               b(2) = (  0.000000  0.167740  0.000000 )
               b(3) = (  0.000000  0.000000  0.039752 )

     PseudoPot. # 1 for Ti read from file:
     /storage/coda1/p-amedford6/0/shared/rich_project_chbe-medford/medford-share/data/pseudos_module/espresso/nninc/pbe/van/Ti.UPF
     MD5 check sum: 8e4df49b7f0d34bbd5052bf3f5ea0213
     Pseudo is Ultrasoft, Zval = 12.0
     Generated by new atomic code, or converted to UPF format
     Using radial grid of  851 points,  6 beta functions with:
                l(1) =   0
                l(2) =   0
                l(3) =   1
                l(4) =   1
                l(5) =   2
                l(6) =   2
     Q(r) pseudized with  8 coefficients,  rinner =    1.000   1.000   1.000
                                                       1.000   1.000

     PseudoPot. # 2 for O  read from file:
     /storage/coda1/p-amedford6/0/shared/rich_project_chbe-medford/medford-share/data/pseudos_module/espresso/nninc/pbe/van/O.UPF
     MD5 check sum: 78c19812648e8988a0fe644b0f25305e
     Pseudo is Ultrasoft, Zval =  6.0
     Generated by new atomic code, or converted to UPF format
     Using radial grid of  737 points,  4 beta functions with:
                l(1) =   0
                l(2) =   0
                l(3) =   1
                l(4) =   1
     Q(r) pseudized with  8 coefficients,  rinner =    0.800   0.800   0.800

     PseudoPot. # 3 for N  read from file:
     /storage/coda1/p-amedford6/0/shared/rich_project_chbe-medford/medford-share/data/pseudos_module/espresso/nninc/pbe/van/N.UPF
     MD5 check sum: 90d10febe142ad51ac9d5be1deb811c4
     Pseudo is Ultrasoft, Zval =  5.0
     Generated by new atomic code, or converted to UPF format
     Using radial grid of  729 points,  4 beta functions with:
                l(1) =   0
                l(2) =   0
                l(3) =   1
                l(4) =   1
     Q(r) pseudized with  8 coefficients,  rinner =    0.800   0.800   0.800

     PseudoPot. # 4 for C  read from file:
     /storage/coda1/p-amedford6/0/shared/rich_project_chbe-medford/medford-share/data/pseudos_module/espresso/nninc/pbe/van/C.UPF
     MD5 check sum: 1a69bf6b8db32088f5b2163dbdb77a27
     Pseudo is Ultrasoft, Zval =  4.0
     Generated by new atomic code, or converted to UPF format
     Using radial grid of  721 points,  4 beta functions with:
                l(1) =   0
                l(2) =   0
                l(3) =   1
                l(4) =   1
     Q(r) pseudized with  8 coefficients,  rinner =    0.800   0.800   0.800

     PseudoPot. # 5 for H  read from file:
     /storage/coda1/p-amedford6/0/shared/rich_project_chbe-medford/medford-share/data/pseudos_module/espresso/nninc/pbe/van/H.UPF
     MD5 check sum: b5ee9d7bfd3a09ee7748110bda690ff7
     Pseudo is Ultrasoft, Zval =  1.0
     Generated by new atomic code, or converted to UPF format
     Using radial grid of  615 points,  1 beta functions with:
                l(1) =   0
     Q(r) pseudized with  8 coefficients,  rinner =    0.800

     atomic species   valence    mass     pseudopotential
        Ti1           12.00    47.86700     Ti( 1.00)
        O1             6.00    15.99900     O ( 1.00)
        N1             5.00    14.00700     N ( 1.00)
        C1             4.00    12.01100     C ( 1.00)
        H1             1.00     1.00800     H ( 1.00)

     No symmetry found

   Cartesian axes

     site n.     atom                  positions (alat units)
         1           Ti1 tau(   1) = (   0.0004258   2.9801865   6.0000000  )
         2           Ti1 tau(   2) = (   3.2906075   1.4906267   6.0002472  )
         3           O1  tau(   3) = (   0.0006271   0.0005054   7.9858123  )
         4           O1  tau(   4) = (   3.2906025   0.0005020   7.3038282  )
         5           O1  tau(   5) = (   4.5942328   1.4918067   9.2879030  )
         6           O1  tau(   6) = (   1.9868534   1.4903216   9.2879459  )
         7           Ti1 tau(   7) = (   3.2907910   2.8959150   9.1758416  )
         8           Ti1 tau(   8) = (   0.0015273   1.4827037   9.2680791  )
         9           O1  tau(   9) = (   3.3001320   0.0223556  11.3750156  )
        10           O1  tau(  10) = (   0.0116148   5.9584955  10.6183126  )
        11           O1  tau(  11) = (   1.2984793   1.5070296  12.6822906  )
        12           O1  tau(  12) = (   5.3053048   1.5066133  12.6782214  )
        13           Ti1 tau(  13) = (   0.0240538   2.9928608  12.5236668  )
        14           Ti1 tau(  14) = (   3.3205759   1.5163330  12.5292614  )
        15           O1  tau(  15) = (   0.0116174   5.9170763  14.6754219  )
        16           O1  tau(  16) = (   3.3074613   5.9602333  14.0123823  )
        17           O1  tau(  17) = (   4.5729729   1.5428591  16.1031931  )
        18           O1  tau(  18) = (   2.0357456   1.5455963  16.0959954  )
        19           Ti1 tau(  19) = (   3.3038618   3.0179751  15.7376193  )
        20           Ti1 tau(  20) = (   0.0182819   1.3639466  15.8252938  )
        21           O1  tau(  21) = (   3.2904802   0.0005063   4.7018136  )
        22           O1  tau(  22) = (   0.0233993   0.1148627  17.2261141  )
        23           O1  tau(  23) = (   1.3043587   1.4918075   6.0039043  )
        24           O1  tau(  24) = (   5.2767064   1.4903225   6.0039473  )
        25           Ti1 tau(  25) = (   0.0000382   5.9609847   6.0000000  )
        26           Ti1 tau(  26) = (   3.2902200   4.4714249   6.0002472  )
        27           O1  tau(  27) = (   0.0002396   2.9813036   7.9858123  )
        28           O1  tau(  28) = (   3.2902150   2.9813002   7.3038282  )
        29           O1  tau(  29) = (   4.5938453   4.4726049   9.2879030  )
        30           O1  tau(  30) = (   1.9864658   4.4711199   9.2879459  )
        31           Ti1 tau(  31) = (   3.2891106   5.8743827   9.1763621  )
        32           Ti1 tau(  32) = (   0.0006254   4.4649316   9.2693709  )
        33           O1  tau(  33) = (   3.3008157   2.9919736  11.3713264  )
        34           O1  tau(  34) = (   0.0092240   2.9805883  10.6323155  )
        35           O1  tau(  35) = (   1.3007438   4.4795902  12.6508594  )
        36           O1  tau(  36) = (   5.3032704   4.4808111  12.6474791  )
        37           Ti1 tau(  37) = (   0.0257871   0.0021926  12.5000826  )
        38           Ti1 tau(  38) = (   3.3207303   4.5031034  12.5344522  )
        39           O1  tau(  39) = (   0.0087802   3.0322157  14.9253570  )
        40           O1  tau(  40) = (   3.3068524   3.0154938  13.9499554  )
        41           O1  tau(  41) = (   4.5633958   4.4699756  16.2119971  )
        42           O1  tau(  42) = (   2.0378630   4.4655417  16.1963084  )
        43           Ti1 tau(  43) = (   3.3121544   0.0541299  15.8353365  )
        44           Ti1 tau(  44) = (   0.0163097   4.5868159  16.0488687  )
        45           O1  tau(  45) = (   3.2900926   2.9813045   4.7018136  )
        46           O1  tau(  46) = (   1.3039711   4.4726057   6.0039043  )
        47           O1  tau(  47) = (   5.2763189   4.4711207   6.0039473  )
        48           N1  tau(  48) = (   0.0062226   3.2377968  17.9635855  )
        49           C1  tau(  49) = (   6.5597590   2.5083335  18.8557918  )
        50           H1  tau(  50) = (   6.5336154   1.7992569  19.6384373  )
        51           O1  tau(  51) = (   3.2480284   5.9531242  18.4006015  )
        52           H1  tau(  52) = (   3.9795166   5.3132839  18.3896481  )
        53           H1  tau(  53) = (   2.4340588   5.4237150  18.3412978  )

     number of k points=    10  Fermi-Dirac smearing, width (Ry)=  0.0073
                       cart. coord. in units 2pi/alat
        k(    1) = (   0.0000000   0.0000000   0.0000000), wk =   0.1250000
        k(    2) = (   0.0000000   0.0419351   0.0000000), wk =   0.2500000
        k(    3) = (   0.0000000  -0.0838702   0.0000000), wk =   0.1250000
        k(    4) = (   0.0379955   0.0000049   0.0000000), wk =   0.2500000
        k(    5) = (   0.0379955   0.0419400   0.0000000), wk =   0.2500000
        k(    6) = (   0.0379955  -0.0838652   0.0000000), wk =   0.2500000
        k(    7) = (   0.0379955  -0.0419301   0.0000000), wk =   0.2500000
        k(    8) = (  -0.0759910  -0.0000099   0.0000000), wk =   0.1250000
        k(    9) = (  -0.0759910   0.0419252   0.0000000), wk =   0.2500000
        k(   10) = (  -0.0759910  -0.0838800   0.0000000), wk =   0.1250000

     Initial potential from superposition of free atoms

     starting charge  379.99917, renormalised to  396.00000

     negative rho (up, down):  1.671E-02 0.000E+00

     %%%%%%%%%%%%%%%%%%%%%%%%%%%%%%%%%%%%%%%%%%%%%%%%%%%%%%%%%%%%%%%%%%%%%%%%
     %                                                                      %
     % You are using vdW-DF, which was implemented by the Thonhauser group. %
     % Please cite the following two papers that made this development      %
     % possible and the two reviews that describe the various versions:     %
     %                                                                      %
     %   T. Thonhauser et al., PRL 115, 136402 (2015).                      %
     %   T. Thonhauser et al., PRB 76, 125112 (2007).                       %
     %   K. Berland et al., Rep. Prog. Phys. 78, 066501 (2015).             %
     %   D.C. Langreth et al., J. Phys.: Condens. Matter 21, 084203 (2009). %
     %                                                                      %
     %                                                                      %
     % If you are calculating the stress with vdW-DF, please also cite:     %
     %                                                                      %
     %   R. Sabatini et al., J. Phys.: Condens. Matter 24, 424209 (2012).   %
     %                                                                      %
     %%%%%%%%%%%%%%%%%%%%%%%%%%%%%%%%%%%%%%%%%%%%%%%%%%%%%%%%%%%%%%%%%%%%%%%%

     Adding external electric field

     Computed dipole along edir(3) :
        Dipole               -9.4930 Ry au,        -24.1288 Debye
        Dipole field         -0.0179 Ry au,

        Potential amp.        1.6607 Ry
        Total length         46.3494 bohr

     Starting wfcs are  299 atomic wfcs
  @ DRIVER MODE: Message from server: STATUS
  @ DRIVER MODE: Message from server: POSDATA
  @ DRIVER MODE: Reading and sharing cell
  @ DRIVER MODE: Reading and sharing positions
  @ DRIVER MODE: Received positions

     Self-consistent Calculation

     iteration #  1     ecut=    29.40 Ry     beta= 0.05
     Davidson diagonalization with overlap
     c_bands:  1 eigenvalues not converged
     c_bands:  1 eigenvalues not converged
     c_bands:  2 eigenvalues not converged
     c_bands:  3 eigenvalues not converged
     c_bands:  3 eigenvalues not converged
     c_bands:  2 eigenvalues not converged
     c_bands:  3 eigenvalues not converged
     c_bands:  1 eigenvalues not converged
     c_bands:  2 eigenvalues not converged
     c_bands:  2 eigenvalues not converged
     ethr =  1.00E-05,  avg # of iterations = 20.0

[...]

     total energy              =   -2563.39030646 Ry
     estimated scf accuracy    <    4341.78256672 Ry

     iteration #  2     ecut=    29.40 Ry     beta= 0.05
     Davidson diagonalization with overlap
     ethr =  1.00E-02,  avg # of iterations = 24.2

[...]

     iteration # 73     ecut=    29.40 Ry     beta= 0.05
     Davidson diagonalization with overlap
     c_bands:  1 eigenvalues not converged
     ethr =  3.00E-11,  avg # of iterations = 10.0

[...]

     total energy              =   -2951.44736318 Ry
     estimated scf accuracy    <       0.00000009 Ry

     iteration # 74     ecut=    29.40 Ry     beta= 0.05
     Davidson diagonalization with overlap
     ethr =  2.19E-11,  avg # of iterations = 10.8

     negative rho (up, down):  1.631E-02 0.000E+00

     Adding external electric field

     Computed dipole along edir(3) :
        Dipole                1.4776 Ry au,          3.7556 Debye
        Dipole field          0.0028 Ry au,

        Potential amp.       -0.2585 Ry
        Total length         46.3494 bohr

     End of self-consistent calculation

          k = 0.0000 0.0000 0.0000 ( 18029 PWs)   bands (ev):

   -55.3190 -55.2831 -55.2820 -55.2479 -55.2298 -55.1972 -55.1599 -55.1415
   -55.1215 -55.1106 -55.1068 -55.0964 -55.0770 -55.0101 -54.3067 -54.2726
   -31.8787 -31.7736 -31.7138 -31.6860 -31.6380 -31.6302 -31.6155 -31.6147
   -31.5711 -31.5365 -31.5298 -31.5265 -31.5041 -31.4908 -31.4669 -31.4639
   -31.4597 -31.4574 -31.4402 -31.4341 -31.4058 -31.3951 -31.3890 -31.3771
   -31.3709 -31.3422 -31.3407 -31.3392 -31.3281 -31.3264 -31.3252 -31.3077
   -31.2999 -31.2937 -31.2897 -31.2663 -31.2551 -31.2439 -31.2387 -31.2207
   -31.2194 -31.1275 -30.7158 -30.6221 -30.6000 -30.5323 -30.4455 -30.3346
   -18.9179 -17.3417 -16.1246 -15.8699 -15.7168 -15.6162 -15.5174 -15.3758
   -15.3217 -15.2120 -15.1465 -15.0058 -14.9688 -14.9505 -14.9327 -14.9306
   -14.8856 -14.8585 -14.8524 -14.8190 -14.8165 -14.7904 -14.7543 -14.7455
   -14.7150 -14.6993 -14.6526 -14.5443 -14.4751 -14.4120 -14.1154 -12.8092
   -12.6919  -9.0336  -6.6468  -4.6290  -3.4693  -3.4336  -3.3300  -3.2245
    -3.2170  -3.1903  -3.1732  -3.0637  -3.0267  -2.7777  -2.7219  -2.6635
    -2.5742  -2.5018  -2.4904  -2.4509  -2.3228  -2.2802  -2.2398  -2.1712
    -2.1538  -2.1273  -2.1034  -2.0942  -2.0346  -2.0280  -2.0043  -1.8874
    -1.8464  -1.7791  -1.7293  -1.7125  -1.6595  -1.6384  -1.6075  -1.6066
    -1.6016  -1.5563  -1.5550  -1.4995  -1.4889  -1.3834  -1.3425  -1.1540
    -1.0598  -1.0014  -0.9574  -0.8905  -0.8761  -0.8025  -0.7625  -0.7072
    -0.7053  -0.6483  -0.5279  -0.4373  -0.4147  -0.3870  -0.3013  -0.2650
    -0.2029  -0.1865  -0.0990  -0.0861  -0.0796  -0.0719   0.0570   0.1060
     0.1869   0.1925   0.2420   0.2623   0.3405   0.3551   0.4255   0.4637
     0.5196   0.5636   0.6198   0.6281   0.6533   0.6734   0.6901   0.7800
     0.7933   0.8208   0.8950   1.0317   1.2224   1.2926   1.3148   1.6236
     1.6446   1.7160   1.9009   2.2918   2.3398   3.7749   3.8539   3.9162
     3.9256   3.9380   4.0108   4.2575   4.2747   4.2756   4.2909   4.3180

[...]

          k = 0.0380-0.0419 0.0000 ( 17876 PWs)   bands (ev):

[...]

          k =-0.0760-0.0000 0.0000 ( 17886 PWs)   bands (ev):

[...]

          k =-0.0760-0.0839 0.0000 ( 17948 PWs)   bands (ev):

   -55.3026 -55.2993 -55.2650 -55.2648 -55.2275 -55.1858 -55.1713 -55.1263
   -55.1215 -55.1185 -55.0985 -55.0942 -55.0935 -55.0130 -54.2898 -54.2895
   -31.6876 -31.6796 -31.6363 -31.5888 -31.5887 -31.5745 -31.5664 -31.5565
   -31.5564 -31.5299 -31.5193 -31.5168 -31.5071 -31.4751 -31.4587 -31.4543
   -31.4500 -31.4475 -31.4458 -31.4395 -31.4346 -31.4015 -31.3990 -31.3986
   -31.3846 -31.3845 -31.3821 -31.3777 -31.3656 -31.3588 -31.3523 -31.3461
   -31.3396 -31.3349 -31.3233 -31.3215 -31.3153 -31.2822 -31.2741 -31.2735
   -31.2271 -31.2188 -30.6128 -30.6126 -30.5284 -30.5282 -30.4890 -30.4888
   -18.9170 -17.3368 -15.6607 -15.5560 -15.4461 -15.3263 -15.3183 -15.2615
   -15.2139 -15.1335 -15.0921 -15.0798 -15.0591 -15.0449 -15.0141 -15.0101
   -14.9897 -14.9154 -14.9046 -14.8943 -14.8711 -14.8297 -14.8190 -14.8163
   -14.7991 -14.7737 -14.7696 -14.6747 -14.6718 -14.5767 -14.4513 -12.7934
   -12.7933  -9.0315  -6.6399  -4.6160  -3.3345  -3.2573  -2.9300  -2.8229
    -2.7785  -2.6877  -2.5376  -2.5080  -2.4371  -2.4310  -2.3640  -2.3119
    -2.2976  -2.2783  -2.1952  -2.1786  -2.1678  -2.1557  -2.1428  -2.1144
    -2.0914  -2.0440  -2.0408  -2.0392  -2.0302  -2.0092  -1.9736  -1.9540
    -1.9146  -1.9055  -1.8844  -1.8373  -1.7953  -1.7772  -1.7604  -1.6550
    -1.6285  -1.5222  -1.5174  -1.4176  -1.4129  -1.3848  -1.3605  -1.3509
    -1.2826  -1.2158  -1.0638  -1.0543  -1.0216  -0.9435  -0.9315  -0.8744
    -0.8679  -0.7829  -0.7657  -0.7375  -0.6426  -0.6124  -0.5089  -0.4951
    -0.4868  -0.3494  -0.3460  -0.2897  -0.2781  -0.2751  -0.2070  -0.2011
    -0.1949  -0.1138  -0.0794  -0.0524  -0.0413   0.0122   0.2006   0.2277
     0.2577   0.3805   0.4284   0.5685   0.6621   0.6670   0.7376   0.8001
     0.8187   0.8791   0.9762   0.9896   1.0465   1.0763   1.1247   1.1397
     1.1498   2.0731   2.0742   2.1598   2.1598   3.8910   3.9900   4.0577
     4.1082   4.1213   4.2111   4.2960   4.3247   4.3571   4.3591   4.4367

     the Fermi energy is     3.8326 ev

!    total energy              =   -2951.44737711 Ry
     estimated scf accuracy    <       0.00000005 Ry
     smearing contrib. (-TS)   =      -0.03730813 Ry
     internal energy E=F+TS    =   -2951.41006899 Ry

     The total energy is F=E-TS. E is the sum of the following terms:
     one-electron contribution =  -24061.42562645 Ry
     hartree contribution      =   12123.74921700 Ry
     xc contribution           =    -487.23384452 Ry
     ewald contribution        =    9473.49606495 Ry
     electric field correction =       0.00412003 Ry

     convergence has been achieved in  74 iterations

     Forces acting on atoms (cartesian axes, Ry/au):

     atom    1 type  1   force =    -0.00003596   -0.00025995    0.09358725
     atom    2 type  1   force =    -0.00016337   -0.00045087   -0.17784968
     atom    3 type  2   force =     0.00002539   -0.00026192   -0.02078275
     atom    4 type  2   force =    -0.00003061   -0.00180169    0.05842302
     atom    5 type  2   force =    -0.01030958   -0.00058303    0.00698180
     atom    6 type  2   force =     0.01197329    0.00005070    0.00669493
     atom    7 type  1   force =    -0.00013206    0.00221933   -0.01162043
     atom    8 type  1   force =    -0.00007021    0.00225271   -0.00161312
     atom    9 type  2   force =     0.00007404    0.00060733    0.00061279
     atom   10 type  2   force =    -0.00107314    0.00321499   -0.00394054
     atom   11 type  2   force =     0.00037325   -0.00031653   -0.00030527
     atom   12 type  2   force =    -0.00041057   -0.00032018   -0.00017949
     atom   13 type  1   force =     0.00000874    0.00014750    0.00024098
     atom   14 type  1   force =    -0.00000069   -0.00047170    0.00041428
     atom   15 type  2   force =    -0.00024902   -0.00068702    0.00063335
     atom   16 type  2   force =    -0.00002021    0.00043903    0.00021911
     atom   17 type  2   force =     0.00003345   -0.00025347   -0.00025614
     atom   18 type  2   force =     0.00018402   -0.00028511   -0.00048919
     atom   19 type  1   force =    -0.00041809   -0.00121637   -0.00017093
     atom   20 type  1   force =     0.00013699   -0.00001682   -0.00082541
     atom   21 type  2   force =    -0.00001237   -0.00011973    0.10390931
     atom   22 type  2   force =    -0.00002140    0.00055830   -0.00050145
     atom   23 type  2   force =    -0.07055147   -0.00022988   -0.02694206
     atom   24 type  2   force =     0.07034476    0.00020213   -0.02699678
     atom   25 type  1   force =    -0.00001130   -0.00027398    0.09312491
     atom   26 type  1   force =    -0.00019095   -0.00051872   -0.17812111
     atom   27 type  2   force =     0.00006931   -0.00021078   -0.01971121
     atom   28 type  2   force =     0.00001766   -0.00155593    0.05762624
     atom   29 type  2   force =    -0.01084472   -0.00007473    0.00741822
     atom   30 type  2   force =     0.01237038    0.00026241    0.00709771
     atom   31 type  1   force =    -0.00009426    0.00572543   -0.01416032
     atom   32 type  1   force =    -0.00008834   -0.00265547   -0.00139776
     atom   33 type  2   force =     0.00010914   -0.00051874    0.00033940
     atom   34 type  2   force =    -0.00048291   -0.00029172   -0.00099649
     atom   35 type  2   force =    -0.00032583   -0.00017232   -0.00032466
     atom   36 type  2   force =     0.00032784   -0.00029517   -0.00011850
     atom   37 type  1   force =     0.00011349   -0.00043327    0.00058209
     atom   38 type  1   force =    -0.00002623   -0.00059987   -0.00029452
     atom   39 type  2   force =     0.00001246    0.00015215    0.00018229
     atom   40 type  2   force =    -0.00007663   -0.00014218   -0.00004116
     atom   41 type  2   force =     0.00003757    0.00014241    0.00037480
     atom   42 type  2   force =     0.00019366    0.00022357    0.00039965
     atom   43 type  1   force =    -0.00043038    0.00063506   -0.00035589
     atom   44 type  1   force =     0.00031584    0.00041768   -0.00032546
     atom   45 type  2   force =    -0.00002074   -0.00014906    0.10388603
     atom   46 type  2   force =    -0.07053581   -0.00014343   -0.02693616
     atom   47 type  2   force =     0.07033586    0.00028778   -0.02699193
     atom   48 type  3   force =    -0.00003614   -0.00103132    0.00125782
     atom   49 type  4   force =     0.00017373    0.00768482   -0.00947439
     atom   50 type  5   force =    -0.00034434   -0.00859328    0.00852101
     atom   51 type  2   force =     0.00028599    0.00050234   -0.00063182
     atom   52 type  5   force =    -0.00001272   -0.00059267   -0.00020721
     atom   53 type  5   force =    -0.00049684   -0.00019879    0.00003484

     Total force =     0.366256     Total SCF correction =     0.000456
  @ DRIVER MODE: Message from server: STATUS
  @ DRIVER MODE: Message from server: GETFORCE
  @ DRIVER MODE: Returning v,forces,stress,ensemble

     Writing output data file ./calc.save/
  @ DRIVER MODE: Message from server: EXIT
  @ DRIVE MODE: Exiting

     General routines

     Parallel routines

   This run was terminated on:  21:30:18  15Sep2021

   JOB DONE.