     Program PWSCF v.6.7GPU starts on  9Sep2021 at 11: 6:24

     R & G space division:  proc/nbgrp/npool/nimage =      10
     Reading input from /storage/home/hcoda1/3/ntian30/research/carbon/CxH_vib/CH3_calc/ads_slab/CH3NHNH2_a/out_0041/pw.inp
Warning: card &CELL ignored
Warning: card   CELL_DYNAMICS='IPI', ignored
Warning: card / ignored

     Current dimensions of program PWSCF are:
     Max number of different atomic species (ntypx) = 10
     Max number of k-points (npk) =  40000
     Max angular momentum in pseudopotentials (lmaxx) =  3
     Presently no symmetry can be used with electric field

     Message from routine cell_base_init:
     DEPRECATED: use true lattice parameter, not A to a.u. conversion factor

     IMPORTANT: XC functional enforced from input :
     Exchange-correlation= BEEF-VDW
                           (   1   4  43  14   2   0   0)
     Any further DFT definition will be discarded
     Please, verify this is what you really want

  @ DRIVER MODE: Connecting to
 qe_1139763_2767398.sched-torque.pace.gatech.edujth8m6up_scratch
  using UNIX socket
  @ DRIVER MODE: Message from server: STATUS
  @ DRIVER MODE: Message from server: INIT
  @ DRIVER MODE: Receiving replica           0          -1
  @ DRIVER MODE: Receiving encoded integer          25
  @ DRIVER MODE:  SCF:  T  FORCE:  T  STRESS:  F  VC:  F  ENSEMBLE:  F
  @ DRIVER MODE:  SCF:  T  FORCE:  T  STRESS:  F  VC:  F  ENSEMBLE:  F

     Using Slab Decomposition

     bravais-lattice index     =            0
     lattice parameter (alat)  =       1.8897  a.u.
     unit-cell volume          =    6658.9804 (a.u.)^3
     number of atoms/cell      =           56
     number of atomic types    =            5
     number of electrons       =       398.00
     number of Kohn-Sham states=          209
     kinetic-energy cutoff     =      29.3995  Ry
     charge density cutoff     =     293.9946  Ry
     scf convergence threshold =      7.3E-08
     mixing beta               =       0.0500
     number of iterations used =            8  plain     mixing
     Exchange-correlation= BEEF-VDW
                           (   1   4  43  14   2   0   0)

     celldm(1)=   1.889726  celldm(2)=   0.000000  celldm(3)=   0.000000
     celldm(4)=   0.000000  celldm(5)=   0.000000  celldm(6)=   0.000000

     crystal axes: (cart. coord. in units of alat)
               a(1) = (   6.579727   0.000000   0.000000 )
               a(2) = (  -0.000775   5.961596   0.000000 )
               a(3) = (   0.000000   0.000000  25.155947 )

     reciprocal axes: (cart. coord. in units 2 pi/alat)
               b(1) = (  0.151982  0.000020  0.000000 )
               b(2) = (  0.000000  0.167740  0.000000 )
               b(3) = (  0.000000  0.000000  0.039752 )

     PseudoPot. # 1 for Ti read from file:
     /storage/coda1/p-amedford6/0/shared/rich_project_chbe-medford/medford-share/data/pseudos_module/espresso/nninc/pbe/van/Ti.UPF
     MD5 check sum: 8e4df49b7f0d34bbd5052bf3f5ea0213
     Pseudo is Ultrasoft, Zval = 12.0
     Generated by new atomic code, or converted to UPF format
     Using radial grid of  851 points,  6 beta functions with:
                l(1) =   0
                l(2) =   0
                l(3) =   1
                l(4) =   1
                l(5) =   2
                l(6) =   2
     Q(r) pseudized with  8 coefficients,  rinner =    1.000   1.000   1.000
                                                       1.000   1.000

     PseudoPot. # 2 for O  read from file:
     /storage/coda1/p-amedford6/0/shared/rich_project_chbe-medford/medford-share/data/pseudos_module/espresso/nninc/pbe/van/O.UPF
     MD5 check sum: 78c19812648e8988a0fe644b0f25305e
     Pseudo is Ultrasoft, Zval =  6.0
     Generated by new atomic code, or converted to UPF format
     Using radial grid of  737 points,  4 beta functions with:
                l(1) =   0
                l(2) =   0
                l(3) =   1
                l(4) =   1
     Q(r) pseudized with  8 coefficients,  rinner =    0.800   0.800   0.800

     PseudoPot. # 3 for N  read from file:
     /storage/coda1/p-amedford6/0/shared/rich_project_chbe-medford/medford-share/data/pseudos_module/espresso/nninc/pbe/van/N.UPF
     MD5 check sum: 90d10febe142ad51ac9d5be1deb811c4
     Pseudo is Ultrasoft, Zval =  5.0
     Generated by new atomic code, or converted to UPF format
     Using radial grid of  729 points,  4 beta functions with:
                l(1) =   0
                l(2) =   0
                l(3) =   1
                l(4) =   1
     Q(r) pseudized with  8 coefficients,  rinner =    0.800   0.800   0.800

     PseudoPot. # 4 for C  read from file:
     /storage/coda1/p-amedford6/0/shared/rich_project_chbe-medford/medford-share/data/pseudos_module/espresso/nninc/pbe/van/C.UPF
     MD5 check sum: 1a69bf6b8db32088f5b2163dbdb77a27
     Pseudo is Ultrasoft, Zval =  4.0
     Generated by new atomic code, or converted to UPF format
     Using radial grid of  721 points,  4 beta functions with:
                l(1) =   0
                l(2) =   0
                l(3) =   1
                l(4) =   1
     Q(r) pseudized with  8 coefficients,  rinner =    0.800   0.800   0.800

     PseudoPot. # 5 for H  read from file:
     /storage/coda1/p-amedford6/0/shared/rich_project_chbe-medford/medford-share/data/pseudos_module/espresso/nninc/pbe/van/H.UPF
     MD5 check sum: b5ee9d7bfd3a09ee7748110bda690ff7
     Pseudo is Ultrasoft, Zval =  1.0
     Generated by new atomic code, or converted to UPF format
     Using radial grid of  615 points,  1 beta functions with:
                l(1) =   0
     Q(r) pseudized with  8 coefficients,  rinner =    0.800

     atomic species   valence    mass     pseudopotential
        Ti1           12.00    47.86700     Ti( 1.00)
        O1             6.00    15.99900     O ( 1.00)
        N1             5.00    14.00700     N ( 1.00)
        C1             4.00    12.01100     C ( 1.00)
        H1             1.00     1.00800     H ( 1.00)

     No symmetry found

   Cartesian axes

     site n.     atom                  positions (alat units)
         1           Ti1 tau(   1) = (   0.0004258   2.9801865   6.0000000  )
         2           Ti1 tau(   2) = (   3.2906075   1.4906267   6.0002472  )
         3           O1  tau(   3) = (   0.0006271   0.0005054   7.9858123  )
         4           O1  tau(   4) = (   3.2906025   0.0005020   7.3038282  )
         5           O1  tau(   5) = (   4.5942328   1.4918067   9.2879030  )
         6           O1  tau(   6) = (   1.9868534   1.4903216   9.2879459  )
         7           Ti1 tau(   7) = (   3.2907910   2.8959150   9.1758416  )
         8           Ti1 tau(   8) = (   0.0015273   1.4827037   9.2680791  )
         9           O1  tau(   9) = (   3.2714441   0.0289406  11.3813764  )
        10           O1  tau(  10) = (   0.0116148   5.9584955  10.6183126  )
        11           O1  tau(  11) = (   1.2692032   1.5162281  12.7122965  )
        12           O1  tau(  12) = (   5.2779133   1.5159715  12.6811497  )
        13           Ti1 tau(  13) = (   6.5579218   3.0031650  12.5037829  )
        14           Ti1 tau(  14) = (   3.2791490   1.5128154  12.5375672  )
        15           O1  tau(  15) = (   6.5208524   5.8954130  14.6845636  )
        16           O1  tau(  16) = (   3.2849572   0.0099931  14.0031570  )
        17           O1  tau(  17) = (   4.4884262   1.5607690  16.1641467  )
        18           O1  tau(  18) = (   1.9729656   1.5430890  16.0903287  )
        19           Ti1 tau(  19) = (   3.2372663   3.0309179  15.7728032  )
        20           Ti1 tau(  20) = (   6.5553692   1.3539605  15.8053163  )
        21           O1  tau(  21) = (   3.2904802   0.0005063   4.7018136  )
        22           O1  tau(  22) = (   6.5123495   0.2165906  17.2215032  )
        23           O1  tau(  23) = (   1.3043587   1.4918075   6.0039043  )
        24           O1  tau(  24) = (   5.2767064   1.4903225   6.0039473  )
        25           Ti1 tau(  25) = (   0.0000382   5.9609847   6.0000000  )
        26           Ti1 tau(  26) = (   3.2902200   4.4714249   6.0002472  )
        27           O1  tau(  27) = (   0.0002396   2.9813036   7.9858123  )
        28           O1  tau(  28) = (   3.2902150   2.9813002   7.3038282  )
        29           O1  tau(  29) = (   4.5938453   4.4726049   9.2879030  )
        30           O1  tau(  30) = (   1.9864658   4.4711199   9.2879459  )
        31           Ti1 tau(  31) = (   3.2891106   5.8743827   9.1763621  )
        32           Ti1 tau(  32) = (   0.0006254   4.4649316   9.2693709  )
        33           O1  tau(  33) = (   3.2699379   2.9911670  11.3762017  )
        34           O1  tau(  34) = (   0.0092240   2.9805883  10.6323155  )
        35           O1  tau(  35) = (   1.2730946   4.4825978  12.6662957  )
        36           O1  tau(  36) = (   5.2742290   4.4829497  12.6320226  )
        37           Ti1 tau(  37) = (   6.5783117   0.0079037  12.5026730  )
        38           Ti1 tau(  38) = (   3.2784283   4.4905194  12.5286134  )
        39           O1  tau(  39) = (   6.5033290   3.0824797  14.9867588  )
        40           O1  tau(  40) = (   3.2824109   3.0350539  13.9807796  )
        41           O1  tau(  41) = (   4.4804250   4.5097483  16.2808085  )
        42           O1  tau(  42) = (   1.9642025   4.5165872  16.2225063  )
        43           Ti1 tau(  43) = (   3.2609991   0.0502580  15.7998297  )
        44           Ti1 tau(  44) = (   6.5501253   4.5826093  16.0954727  )
        45           O1  tau(  45) = (   3.2900926   2.9813045   4.7018136  )
        46           O1  tau(  46) = (   1.3039711   4.4726057   6.0039043  )
        47           O1  tau(  47) = (   5.2763189   4.4711207   6.0039473  )
        48           N1  tau(  48) = (   0.8845045   3.2634721  19.1145209  )
        49           N1  tau(  49) = (   6.3504243   3.3997271  18.1887592  )
        50           C1  tau(  50) = (   1.2927081   4.5631590  19.6429350  )
        51           H1  tau(  51) = (   0.4658632   5.1229972  20.1056819  )
        52           H1  tau(  52) = (   2.0600825   4.3818216  20.3958833  )
        53           H1  tau(  53) = (   1.7018904   5.1738364  18.8453250  )
        54           H1  tau(  54) = (   0.5628611   2.6866381  19.8788112  )
        55           H1  tau(  55) = (   5.6051421   3.9827062  18.5884547  )
        56           H1  tau(  56) = (   5.9567982   2.4624696  18.0937858  )

     number of k points=    10  Fermi-Dirac smearing, width (Ry)=  0.0073
                       cart. coord. in units 2pi/alat
        k(    1) = (   0.0000000   0.0000000   0.0000000), wk =   0.1250000
        k(    2) = (   0.0000000   0.0419351   0.0000000), wk =   0.2500000
        k(    3) = (   0.0000000  -0.0838702   0.0000000), wk =   0.1250000
        k(    4) = (   0.0379955   0.0000049   0.0000000), wk =   0.2500000
        k(    5) = (   0.0379955   0.0419400   0.0000000), wk =   0.2500000
        k(    6) = (   0.0379955  -0.0838652   0.0000000), wk =   0.2500000
        k(    7) = (   0.0379955  -0.0419301   0.0000000), wk =   0.2500000
        k(    8) = (  -0.0759910  -0.0000099   0.0000000), wk =   0.1250000
        k(    9) = (  -0.0759910   0.0419252   0.0000000), wk =   0.2500000
        k(   10) = (  -0.0759910  -0.0838800   0.0000000), wk =   0.1250000

     Initial potential from superposition of free atoms

     starting charge  381.99914, renormalised to  398.00000

     negative rho (up, down):  1.416E-02 0.000E+00

     %%%%%%%%%%%%%%%%%%%%%%%%%%%%%%%%%%%%%%%%%%%%%%%%%%%%%%%%%%%%%%%%%%%%%%%%
     %                                                                      %
     % You are using vdW-DF, which was implemented by the Thonhauser group. %
     % Please cite the following two papers that made this development      %
     % possible and the two reviews that describe the various versions:     %
     %                                                                      %
     %   T. Thonhauser et al., PRL 115, 136402 (2015).                      %
     %   T. Thonhauser et al., PRB 76, 125112 (2007).                       %
     %   K. Berland et al., Rep. Prog. Phys. 78, 066501 (2015).             %
     %   D.C. Langreth et al., J. Phys.: Condens. Matter 21, 084203 (2009). %
     %                                                                      %
     %                                                                      %
     % If you are calculating the stress with vdW-DF, please also cite:     %
     %                                                                      %
     %   R. Sabatini et al., J. Phys.: Condens. Matter 24, 424209 (2012).   %
     %                                                                      %
     %%%%%%%%%%%%%%%%%%%%%%%%%%%%%%%%%%%%%%%%%%%%%%%%%%%%%%%%%%%%%%%%%%%%%%%%

     Adding external electric field

     Computed dipole along edir(3) :
        Dipole              -11.7163 Ry au,        -29.7798 Debye
        Dipole field         -0.0221 Ry au,

        Potential amp.        2.0496 Ry
        Total length         46.3494 bohr

     Starting wfcs are  302 atomic wfcs
  @ DRIVER MODE: Message from server: STATUS
  @ DRIVER MODE: Message from server: POSDATA
  @ DRIVER MODE: Reading and sharing cell
  @ DRIVER MODE: Reading and sharing positions
  @ DRIVER MODE: Received positions

     Self-consistent Calculation

     iteration #  1     ecut=    29.40 Ry     beta= 0.05
     Davidson diagonalization with overlap
     c_bands:  3 eigenvalues not converged
     c_bands:  1 eigenvalues not converged
     c_bands:  1 eigenvalues not converged
     c_bands:  4 eigenvalues not converged
     c_bands:  1 eigenvalues not converged
     c_bands:  4 eigenvalues not converged
     c_bands:  5 eigenvalues not converged
     c_bands:  2 eigenvalues not converged
     ethr =  1.00E-05,  avg # of iterations = 21.9

[...]

     total energy              =   -2424.60215327 Ry
     estimated scf accuracy    <    5829.65759895 Ry

     iteration #  2     ecut=    29.40 Ry     beta= 0.05
     Davidson diagonalization with overlap
     ethr =  1.00E-02,  avg # of iterations = 22.5

[...]

     iteration # 75     ecut=    29.40 Ry     beta= 0.05
     Davidson diagonalization with overlap
     c_bands:  2 eigenvalues not converged
     c_bands:  1 eigenvalues not converged
     c_bands:  1 eigenvalues not converged
     c_bands:  1 eigenvalues not converged
     ethr =  2.10E-11,  avg # of iterations = 16.6

[...]

     total energy              =   -2942.84381941 Ry
     estimated scf accuracy    <       0.00000011 Ry

     iteration # 77     ecut=    29.40 Ry     beta= 0.05
     Davidson diagonalization with overlap
     ethr =  2.10E-11,  avg # of iterations =  4.3

     negative rho (up, down):  1.513E-02 0.000E+00

     Adding external electric field

     Computed dipole along edir(3) :
        Dipole                1.4964 Ry au,          3.8035 Debye
        Dipole field          0.0028 Ry au,

        Potential amp.       -0.2618 Ry
        Total length         46.3494 bohr

     End of self-consistent calculation

          k = 0.0000 0.0000 0.0000 ( 18029 PWs)   bands (ev):

   -55.2013 -55.1642 -55.1537 -55.1248 -55.1195 -55.0827 -55.0795 -55.0446
   -55.0255 -55.0127 -54.9911 -54.9862 -54.9525 -54.8561 -54.1859 -54.1518
   -31.7676 -31.6516 -31.6466 -31.5676 -31.5147 -31.5137 -31.5110 -31.4923
   -31.4426 -31.4389 -31.4110 -31.4090 -31.3986 -31.3817 -31.3686 -31.3631
   -31.3558 -31.3460 -31.3387 -31.3218 -31.3063 -31.3033 -31.2717 -31.2679
   -31.2571 -31.2562 -31.2379 -31.2281 -31.2109 -31.2099 -31.2057 -31.1851
   -31.1850 -31.1815 -31.1747 -31.1722 -31.1389 -31.1294 -31.1145 -31.0976
   -31.0693 -31.0500 -30.5954 -30.5008 -30.4787 -30.4117 -30.3249 -30.2141
   -17.9724 -16.0350 -15.7727 -15.6274 -15.5152 -15.4039 -15.2843 -15.2534
   -15.1337 -15.0576 -14.9238 -14.8974 -14.8751 -14.8514 -14.8395 -14.8270
   -14.7512 -14.7446 -14.7287 -14.7003 -14.6985 -14.6533 -14.6435 -14.6041
   -14.5792 -14.5581 -14.4533 -14.3650 -14.2912 -14.0748 -13.4463 -12.6888
   -12.5713  -9.7324  -6.6093  -6.0884  -4.5973  -3.3734  -3.2593  -3.2252
    -3.1387  -3.1061  -3.0959  -3.0063  -2.9513  -2.7918  -2.6497  -2.6242
    -2.4927  -2.4177  -2.4013  -2.3769  -2.2471  -2.2121  -2.1610  -2.1221
    -2.0627  -2.0325  -2.0084  -1.9927  -1.9616  -1.9525  -1.9274  -1.8387
    -1.7788  -1.6861  -1.6688  -1.6010  -1.5933  -1.5603  -1.5393  -1.4941
    -1.4838  -1.4344  -1.4269  -1.4144  -1.3943  -1.2664  -1.2228  -1.1130
    -1.0519  -0.9643  -0.8434  -0.8033  -0.7892  -0.6986  -0.6897  -0.6580
    -0.5814  -0.5784  -0.5474  -0.4392  -0.3743  -0.3107  -0.2517  -0.2256
    -0.1922  -0.1148  -0.0242   0.0122   0.0289   0.0519   0.1522   0.1873
     0.2428   0.3097   0.3213   0.3346   0.4139   0.4553   0.5306   0.5670
     0.5846   0.6735   0.6999   0.7277   0.7283   0.7660   0.7803   0.8199
     0.8687   0.8955   0.9820   1.0462   1.1031   1.3476   1.4001   1.4062
     1.7324   1.7402   1.8366   2.0201   2.4131   2.4615   3.8950   3.9639
     4.0395   4.0445   4.0670   4.1308   4.3688   4.3920   4.4008   4.4030
     4.4296

[...]

          k = 0.0380-0.0419 0.0000 ( 17876 PWs)   bands (ev):

[...]

          k =-0.0760-0.0000 0.0000 ( 17886 PWs)   bands (ev):

[...]

          k =-0.0760-0.0839 0.0000 ( 17948 PWs)   bands (ev):

   -55.1875 -55.1778 -55.1367 -55.1364 -55.1235 -55.0784 -55.0650 -55.0590
   -55.0170 -55.0096 -55.0065 -54.9697 -54.9692 -54.8572 -54.1690 -54.1686
   -31.5757 -31.5750 -31.5680 -31.4834 -31.4618 -31.4616 -31.4585 -31.4279
   -31.4278 -31.4122 -31.4013 -31.3998 -31.3912 -31.3655 -31.3562 -31.3431
   -31.3421 -31.3383 -31.3351 -31.3296 -31.3275 -31.3215 -31.2825 -31.2793
   -31.2791 -31.2778 -31.2601 -31.2584 -31.2565 -31.2561 -31.2511 -31.2426
   -31.2398 -31.2227 -31.2194 -31.2037 -31.2027 -31.1998 -31.1504 -31.1500
   -31.1259 -31.0738 -30.4916 -30.4912 -30.4080 -30.4078 -30.3684 -30.3682
   -17.9692 -15.5601 -15.4300 -15.4009 -15.2444 -15.2083 -15.1750 -15.1616
   -15.0408 -15.0036 -14.9788 -14.9694 -14.9519 -14.9115 -14.9058 -14.8989
   -14.8283 -14.8091 -14.8048 -14.7825 -14.7243 -14.7154 -14.7115 -14.7039
   -14.6534 -14.6497 -14.5692 -14.5590 -14.5558 -14.3763 -13.4498 -12.6727
   -12.6727  -9.7484  -6.5933  -6.0883  -4.5766  -3.2311  -2.9660  -2.6924
    -2.6880  -2.6595  -2.4584  -2.3957  -2.3650  -2.3598  -2.2623  -2.2256
    -2.2012  -2.1977  -2.1325  -2.1176  -2.0870  -2.0568  -2.0405  -2.0267
    -2.0114  -1.9972  -1.9714  -1.9339  -1.9258  -1.9177  -1.8863  -1.8641
    -1.8411  -1.8189  -1.8053  -1.7869  -1.7609  -1.7386  -1.6017  -1.5700
    -1.4997  -1.4574  -1.4132  -1.4089  -1.3372  -1.3008  -1.2507  -1.2385
    -1.2215  -1.0819  -1.0233  -0.9724  -0.9524  -0.9414  -0.8126  -0.7983
    -0.7255  -0.7076  -0.6913  -0.6169  -0.5657  -0.5274  -0.5138  -0.4205
    -0.4052  -0.3387  -0.2366  -0.2140  -0.2000  -0.1594  -0.1564  -0.1091
    -0.1020  -0.0179   0.0263   0.0614   0.0722   0.1080   0.3007   0.3167
     0.3268   0.4798   0.4954   0.6373   0.6809   0.7473   0.8062   0.8452
     0.9068   0.9441   1.0564   1.0872   1.1019   1.1099   1.1716   1.1835
     1.2463   1.2570   2.1927   2.1933   2.2813   2.2816   4.0411   4.1484
     4.1561   4.1978   4.3176   4.3477   4.4101   4.4373   4.4788   4.4820
     4.5420

     the Fermi energy is     3.9584 ev

!    total energy              =   -2942.84382812 Ry
     estimated scf accuracy    <       0.00000005 Ry
     smearing contrib. (-TS)   =      -0.03707562 Ry
     internal energy E=F+TS    =   -2942.80675250 Ry

     The total energy is F=E-TS. E is the sum of the following terms:
     one-electron contribution =  -23367.15193253 Ry
     hartree contribution      =   11777.75410623 Ry
     xc contribution           =    -487.74737658 Ry
     ewald contribution        =    9134.33422469 Ry
     electric field correction =       0.00422570 Ry

     convergence has been achieved in  77 iterations

     Forces acting on atoms (cartesian axes, Ry/au):

     atom    1 type  1   force =     0.00017210   -0.00032924    0.09329758
     atom    2 type  1   force =    -0.00006291   -0.00042411   -0.17822967
     atom    3 type  2   force =     0.00002629   -0.00031974   -0.02004014
     atom    4 type  2   force =     0.00002234   -0.00183264    0.05923343
     atom    5 type  2   force =    -0.01045944   -0.00026619    0.00863879
     atom    6 type  2   force =     0.01147341    0.00040535    0.00645129
     atom    7 type  1   force =    -0.00100008    0.00212986   -0.01398799
     atom    8 type  1   force =     0.00081791   -0.00094550   -0.00573413
     atom    9 type  2   force =    -0.00010027    0.00012536   -0.00002133
     atom   10 type  2   force =    -0.00185322    0.00411597    0.00026187
     atom   11 type  2   force =    -0.00005753   -0.00064512    0.00029087
     atom   12 type  2   force =    -0.00001938   -0.00041676    0.00054587
     atom   13 type  1   force =     0.00004028    0.00010030    0.00031554
     atom   14 type  1   force =    -0.00037295    0.00000162    0.00007413
     atom   15 type  2   force =     0.00051801    0.00024886   -0.00033359
     atom   16 type  2   force =     0.00032249   -0.00035089   -0.00005922
     atom   17 type  2   force =    -0.00057914   -0.00002093   -0.00000556
     atom   18 type  2   force =     0.00052948   -0.00019539    0.00003299
     atom   19 type  1   force =    -0.00001354   -0.00053296    0.00020202
     atom   20 type  1   force =     0.00069023    0.00014776    0.00089391
     atom   21 type  2   force =     0.00012310   -0.00012528    0.10400142
     atom   22 type  2   force =    -0.00038650    0.00022872   -0.00021716
     atom   23 type  2   force =    -0.07028626   -0.00022232   -0.02685928
     atom   24 type  2   force =     0.07027801    0.00021287   -0.02688300
     atom   25 type  1   force =     0.00008115   -0.00032307    0.09261577
     atom   26 type  1   force =    -0.00003303   -0.00059185   -0.17834615
     atom   27 type  2   force =     0.00012910   -0.00016985   -0.01908880
     atom   28 type  2   force =     0.00005173   -0.00163374    0.05859633
     atom   29 type  2   force =    -0.01106064   -0.00056221    0.00931985
     atom   30 type  2   force =     0.01197983   -0.00002472    0.00720946
     atom   31 type  1   force =    -0.00092942    0.00647048   -0.01504991
     atom   32 type  1   force =     0.00086053    0.00102052   -0.00588087
     atom   33 type  2   force =     0.00017478   -0.00057219   -0.00005764
     atom   34 type  2   force =    -0.00185822   -0.00052421   -0.00050140
     atom   35 type  2   force =    -0.00043827    0.00006441   -0.00042698
     atom   36 type  2   force =     0.00033882   -0.00011590    0.00018830
     atom   37 type  1   force =    -0.00051430   -0.00024880    0.00018616
     atom   38 type  1   force =    -0.00004665   -0.00014922   -0.00009274
     atom   39 type  2   force =     0.00030216   -0.00059843   -0.00000700
     atom   40 type  2   force =    -0.00060201   -0.00051145    0.00026132
     atom   41 type  2   force =    -0.00024062   -0.00072482   -0.00069124
     atom   42 type  2   force =     0.00045543   -0.00008545   -0.00009489
     atom   43 type  1   force =     0.00023128   -0.00021551   -0.00023161
     atom   44 type  1   force =     0.00051103   -0.00003070    0.00085400
     atom   45 type  2   force =     0.00013307   -0.00014405    0.10394915
     atom   46 type  2   force =    -0.07028354   -0.00015957   -0.02682953
     atom   47 type  2   force =     0.07025369    0.00026153   -0.02688640
     atom   48 type  3   force =     0.00390025    0.00801555   -0.00991241
     atom   49 type  3   force =    -0.00014891   -0.00063393   -0.00098868
     atom   50 type  4   force =     0.00028694   -0.00228812    0.00044232
     atom   51 type  5   force =    -0.00079439    0.00145178    0.00068698
     atom   52 type  5   force =     0.00038392   -0.00020796   -0.00016951
     atom   53 type  5   force =     0.00078193    0.00032043   -0.00121287
     atom   54 type  5   force =    -0.00273203   -0.00792695    0.01067135
     atom   55 type  5   force =     0.00007728   -0.00053058   -0.00010429
     atom   56 type  5   force =    -0.00107336    0.00027896   -0.00027673

     Total force =     0.366807     Total SCF correction =     0.000462
  @ DRIVER MODE: Message from server: STATUS
  @ DRIVER MODE: Message from server: GETFORCE
  @ DRIVER MODE: Returning v,forces,stress,ensemble

     Writing output data file ./calc.save/
  @ DRIVER MODE: Message from server: EXIT
  @ DRIVE MODE: Exiting

     General routines

     Parallel routines

   This run was terminated on:  11:26:18   9Sep2021

   JOB DONE.